&CONTROL
   calculation      = 'scf'
   verbosity        = 'high'
   wf_collect       = .true.
   nstep            = 100
   tstress          = .true.
   tprnfor          = .true.
   outdir           = './'
   !prefix           = 'scf'
   forc_conv_thr    = 0.00039
   !pseudo_dir       = './'
/
&SYSTEM
   ibrav            = 0
   nat              = 63
   ntyp             = 2
   nbnd             = 152
   tot_charge       = -1
   tot_magnetization = 2.0
   ecutwfc          = 85
   nspin            = 2
/
&ELECTRONS
   conv_thr         = 1e-08
   diago_full_acc   = .true.
/
ATOMIC_SPECIES
N  14.007 N_ONCV_PBE-1.2.upf
C  12.011 C_ONCV_PBE-1.2.upf
K_POINTS gamma
CELL_PARAMETERS angstrom
7.13400000000000 0.00000000000000 0.00000000000000
0.00000000000000 7.13400000000000 0.00000000000000
0.00000000000000 0.00000000000000 7.13400000000000
ATOMIC_POSITIONS angstrom        ! output from relax calculation
N   -0.075749640404   -0.073235057062   -0.077246403024
C   -0.092544686753   1.855702970197   1.883895671084
C   0.878706709289   2.662174666755   2.669570163350
C   1.857635795448   -0.075177782995   1.868538960374
C   2.666426411772   0.889446370404   2.669236740811
C   1.883484002001   1.866260962852   -0.104435046702
C   2.666512609576   2.661847179760   0.872890366958
C   0.000034843121   0.004166335067   3.560836906846
C   0.892720973768   0.892661584616   4.459449944757
C   0.014548204532   1.770994156469   5.361390431515
C   0.921719355143   2.663137398241   6.251740552690
C   1.774797375890   0.012822639179   5.360775229892
C   2.678345779636   0.922041084608   6.241211587944
C   1.777492316104   1.780124515533   3.563971551271
C   2.675277148092   2.674927077631   4.454518572981
C   0.011675590697   3.552574046305   0.009797773452
C   0.892369598369   4.453860864498   0.892325542567
C   0.010317242815   5.365265555391   1.771536431578
C   0.903703180633   6.255931614581   2.669476042004
C   1.775145778808   3.555297224943   1.774054378412
C   2.669287237671   4.453512752193   2.669622063378
C   1.769712133751   5.365350945081   0.011020152090
C   2.660920364851   6.261850456461   0.902883526648
C   0.000351804755   3.574676366210   3.575060911929
C   0.893215361369   4.467453243212   4.460699836619
C   -0.004302575271   5.341305964618   5.345172246016
C   0.868869227032   6.255340425936   6.252186174975
C   1.778327322244   3.579308764885   5.338175110954
C   2.668829289991   4.468053837743   6.242798630991
C   1.774435045833   5.341115462460   3.572433318773
C   2.667592471538   6.242664136487   4.465047715783
C   3.558113181957   0.008009856435   0.002017236627
C   4.457467692630   0.892465206906   0.892487830415
C   3.560733914947   1.779161309727   1.775450720058
C   4.453813228929   2.673030056939   2.673702441178
C   5.362242585954   0.011550965178   1.774907636574
C   6.242556823875   0.915755286204   2.680670085547
C   5.362966387502   1.769289309758   0.013989676712
C   6.259101970403   2.656877784561   0.914602331679
C   3.572821878936   -0.000073203753   3.572921911234
C   4.463153810189   0.891550979157   4.460597578002
C   3.582879828040   1.775001896189   5.334994587446
C   4.469296829125   2.667889562033   6.243708635187
C   5.341900204504   -0.007814804975   5.343145410883
C   6.252769466847   0.868206265896   6.251635814411
C   5.335971833335   1.774096888297   3.580416001471
C   6.243662775245   2.667577323193   4.468550769685
C   3.575561151882   3.575256804824   0.000810557878
C   4.463214886051   4.467381344695   0.893867657505
C   3.570701460488   5.342717384090   1.776433466989
C   4.464492605324   6.242361969579   2.668155986184
C   5.340729051976   3.575174323534   1.779435066197
C   6.242426257012   4.466789205676   2.669090113469
C   5.344993368659   5.342339989086   -0.002791393482
C   6.253813593669   6.255828235744   0.868936169311
C   3.560449983056   3.561937106008   3.560091997132
C   4.457172976109   4.454805865145   4.458358975045
C   3.561126630300   5.350386969939   5.351103040575
C   4.451577513864   6.243294158375   6.245196687418
C   5.354292510459   3.559381689356   5.354655937518
C   6.248281989680   4.448037773954   6.248876391738
C   5.349247318512   5.348929949281   3.562147792447
C   6.242860031980   6.241596800448   4.453447813801
