
     Program PWSCF v.7.5 starts on  4Dec2025 at 23:26:16 

     This program is part of the open-source Quantum ESPRESSO suite
     for quantum simulation of materials; please cite
         "P. Giannozzi et al., J. Phys.:Condens. Matter 21 395502 (2009);
         "P. Giannozzi et al., J. Phys.:Condens. Matter 29 465901 (2017);
         "P. Giannozzi et al., J. Chem. Phys. 152 154105 (2020);
          URL http://www.quantum-espresso.org", 
     in publications or presentations arising from this work. More details at
     http://www.quantum-espresso.org/quote

     Parallel version (MPI), running on    96 processors

     MPI processes distributed on     2 nodes
     132191 MiB available memory on the printing compute node when the environment starts
 
     Reading input from pw.in

     Current dimensions of program PWSCF are:
     Max number of different atomic species (ntypx) = 10
     Max number of k-points (npk) =  40000
     Max angular momentum in pseudopotentials (lmaxx) =  4

     gamma-point specific algorithms are used
 
     K-points division:     npool     =       2
     R & G space division:  proc/nbgrp/npool/nimage =      48
     Subspace diagonalization in iterative solution of the eigenvalue problem:
     one sub-group per band group will be used
     scalapack distributed-memory algorithm (size of sub-group:  6*  6 procs)

 
     Parallelization info
     --------------------
     sticks:   dense  smooth     PW     G-vecs:    dense   smooth      PW
     Min         384     384     96                39496    39496    4936
     Max         386     386     98                39521    39521    4949
     Sum       18505   18505   4637              1896521  1896521  237129
 
     Using Slab Decomposition
 


     bravais-lattice index     =            0
     lattice parameter (alat)  =      26.9702  a.u.
     unit-cell volume          =   19617.8366 (a.u.)^3
     number of atoms/cell      =          511
     number of atomic types    =            2
     number of electrons       =      2046.00 (up:1024.00, down:1022.00)
     number of Kohn-Sham states=         1032
     kinetic-energy cutoff     =      80.0000  Ry
     charge density cutoff     =     320.0000  Ry
     scf convergence threshold =      1.0E-10
     mixing beta               =       0.7000
     number of iterations used =            8  plain     mixing
     Exchange-correlation= PBE
                           (   1   4   3   4   0   0   0)

     celldm(1)=  26.970171  celldm(2)=   0.000000  celldm(3)=   0.000000
     celldm(4)=   0.000000  celldm(5)=   0.000000  celldm(6)=   0.000000

     crystal axes: (cart. coord. in units of alat)
               a(1) = (   1.000000   0.000000   0.000000 )  
               a(2) = (   0.000000   1.000000   0.000000 )  
               a(3) = (   0.000000   0.000000   1.000000 )  

     reciprocal axes: (cart. coord. in units 2 pi/alat)
               b(1) = (  1.000000  0.000000  0.000000 )  
               b(2) = (  0.000000  1.000000  0.000000 )  
               b(3) = (  0.000000  0.000000  1.000000 )  


     PseudoPot. # 1 for C  read from file:
     ./C_ONCV_PBE-1.2.upf
     MD5 check sum: d60b57d9bdca4133f5fde4b584ee909d
     Pseudo is Norm-conserving, Zval =  4.0
     Generated using ONCVPSP code by D. R. Hamann
     Using radial grid of  602 points,  4 beta functions with: 
                l(1) =   0
                l(2) =   0
                l(3) =   1
                l(4) =   1

     PseudoPot. # 2 for N  read from file:
     ./N_ONCV_PBE-1.2.upf
     MD5 check sum: 5312fdf34e96954e02a33bdc911c617a
     Pseudo is Norm-conserving, Zval =  5.0
     Generated using ONCVPSP code by D. R. Hamann
     Using radial grid of  602 points,  4 beta functions with: 
                l(1) =   0
                l(2) =   0
                l(3) =   1
                l(4) =   1

     atomic species   valence    mass     pseudopotential
     C                 4.00    12.01100     C ( 1.00)
     N                 5.00    14.00670     N ( 1.00)

     Starting magnetic structure 
     atomic species   magnetization
     C               0.000
     N               0.000

     No symmetry found


                                    s                        frac. trans.

      isym =  1     identity                                     

 cryst.   s( 1) = (     1          0          0      )
                  (     0          1          0      )
                  (     0          0          1      )

 cart.    s( 1) = (  1.0000000  0.0000000  0.0000000 )
                  (  0.0000000  1.0000000  0.0000000 )
                  (  0.0000000  0.0000000  1.0000000 )


   Cartesian axes

     site n.     atom                  positions (alat units)
         1        C      tau(   1) = (  -0.0000326  -0.0000239   0.0000003  )
         2        C      tau(   2) = (  -0.0000507   0.0000160   0.2500133  )
         3        C      tau(   3) = (  -0.0001339  -0.0000472   0.5000079  )
         4        C      tau(   4) = (  -0.0000218  -0.0000672   0.7499941  )
         5        C      tau(   5) = (  -0.0000518   0.2499893   0.0000417  )
         6        C      tau(   6) = (   0.0000121   0.2500323   0.2500574  )
         7        C      tau(   7) = (  -0.0000431   0.2500404   0.5000550  )
         8        C      tau(   8) = (  -0.0001230   0.2499574   0.7500361  )
         9        C      tau(   9) = (  -0.0001340   0.4999834  -0.0000184  )
        10        C      tau(  10) = (  -0.0000436   0.5000287   0.2500684  )
        11        C      tau(  11) = (   0.0000392   0.4999847   0.5000126  )
        12        C      tau(  12) = (   0.0000040   0.4999448   0.7499516  )
        13        C      tau(  13) = (  -0.0000213   0.7499698  -0.0000394  )
        14        C      tau(  14) = (  -0.0001222   0.7500089   0.2499855  )
        15        C      tau(  15) = (   0.0000039   0.7499238   0.4999713  )
        16        C      tau(  16) = (   0.0000706   0.7499116   0.7499385  )
        17        C      tau(  17) = (   0.2499485  -0.0000460  -0.0000153  )
        18        C      tau(  18) = (   0.2499112   0.0000987   0.2499671  )
        19        C      tau(  19) = (   0.2499635  -0.0000625   0.5000064  )
        20        C      tau(  20) = (   0.2499483  -0.0002181   0.7500117  )
        21        C      tau(  21) = (   0.2499089   0.2499360   0.0001308  )
        22        C      tau(  22) = (   0.2501317   0.2502136   0.2502446  )
        23        C      tau(  23) = (   0.2495740   0.2494838   0.5003288  )
        24        C      tau(  24) = (   0.2499196   0.2498186   0.7501503  )
        25        C      tau(  25) = (   0.2499640   0.4999774  -0.0000304  )
        26        C      tau(  26) = (   0.2495743   0.5002946   0.2495169  )
        27        C      tau(  27) = (   0.2508714   0.4999260   0.4999615  )
        28        C      tau(  28) = (   0.2496409   0.4995979   0.7504508  )
        29        C      tau(  29) = (   0.2499503   0.7499803  -0.0001796  )
        30        C      tau(  30) = (   0.2499235   0.7501134   0.2498573  )
        31        C      tau(  31) = (   0.2496406   0.7504163   0.4996322  )
        32        C      tau(  32) = (   0.2502822   0.7496341   0.7496697  )
        33        C      tau(  33) = (   0.4999523  -0.0000527  -0.0000223  )
        34        C      tau(  34) = (   0.4999627   0.0000474   0.2499966  )
        35        C      tau(  35) = (   0.4999722  -0.0000259   0.5000134  )
        36        C      tau(  36) = (   0.4999724  -0.0001300   0.7500210  )
        37        C      tau(  37) = (   0.4999619   0.2499688   0.0000754  )
        38        C      tau(  38) = (   0.4999443   0.2497857   0.2498155  )
        39        C      tau(  39) = (   0.4999079   0.2501970   0.5001765  )
        40        C      tau(  40) = (   0.4997304   0.2490523   0.7509577  )
        41        C      tau(  41) = (   0.4999730   0.4999863   0.0000025  )
        42        C      tau(  42) = (   0.4999095   0.5001419   0.2502310  )
        43        C      tau(  43) = (   0.5000029   0.4998138   0.7497961  )
        44        C      tau(  44) = (   0.4999739   0.7499915  -0.0000969  )
        45        C      tau(  45) = (   0.4997330   0.7509270   0.2490837  )
        46        C      tau(  46) = (   0.5000042   0.7497651   0.4998453  )
        47        C      tau(  47) = (   0.5000475   0.7499467   0.7499768  )
        48        C      tau(  48) = (   0.7499797  -0.0000089   0.0000150  )
        49        C      tau(  49) = (   0.7499752  -0.0000176   0.2500169  )
        50        C      tau(  50) = (   0.7499658  -0.0000119   0.5000191  )
        51        C      tau(  51) = (   0.7499896  -0.0000213   0.7500187  )
        52        C      tau(  52) = (   0.7499748   0.2499938   0.0000065  )
        53        C      tau(  53) = (   0.7499620   0.2500048   0.2500295  )
        54        C      tau(  54) = (   0.7501553   0.2497221   0.5000290  )
        55        C      tau(  55) = (   0.7497836   0.2501333   0.7499143  )
        56        C      tau(  56) = (   0.7499659   0.4999958   0.0000131  )
        57        C      tau(  57) = (   0.7501545   0.4999992   0.2497534  )
        58        C      tau(  58) = (   0.7495746   0.5000238   0.5000557  )
        59        C      tau(  59) = (   0.7500288   0.5000131   0.7501437  )
        60        C      tau(  60) = (   0.7499900   0.7499948   0.0000040  )
        61        C      tau(  61) = (   0.7497815   0.7498848   0.2501635  )
        62        C      tau(  62) = (   0.7500279   0.7501157   0.5000409  )
        63        C      tau(  63) = (   0.7500517   0.7500324   0.7500573  )
        64        C      tau(  64) = (  -0.0000246   0.1250116   0.1250355  )
        65        C      tau(  65) = (  -0.0000266   0.1250252   0.3750317  )
        66        C      tau(  66) = (  -0.0001261   0.1249727   0.6250424  )
        67        C      tau(  67) = (  -0.0000615   0.1249620   0.8750182  )
        68        C      tau(  68) = (  -0.0000275   0.3750075   0.1250517  )
        69        C      tau(  69) = (   0.0000067   0.3750508   0.3750780  )
        70        C      tau(  70) = (  -0.0000225   0.3749895   0.6250084  )
        71        C      tau(  71) = (  -0.0001141   0.3749604   0.8750180  )
        72        C      tau(  72) = (  -0.0001255   0.6250167   0.1250021  )
        73        C      tau(  73) = (  -0.0000228   0.6249810   0.3750174  )
        74        C      tau(  74) = (   0.0000711   0.6249131   0.6249410  )
        75        C      tau(  75) = (   0.0000151   0.6249563   0.8749316  )
        76        C      tau(  76) = (  -0.0000605   0.8749932   0.1249879  )
        77        C      tau(  77) = (  -0.0001129   0.8749903   0.3749861  )
        78        C      tau(  78) = (   0.0000147   0.8749032   0.6249812  )
        79        C      tau(  79) = (   0.0000170   0.8749376   0.8749629  )
        80        C      tau(  80) = (   0.2499568   0.1250602   0.1250896  )
        81        C      tau(  81) = (   0.2500060   0.1250364   0.3750928  )
        82        C      tau(  82) = (   0.2498345   0.1247375   0.6251315  )
        83        C      tau(  83) = (   0.2499210   0.1248614   0.8750816  )
        84        C      tau(  84) = (   0.2500066   0.3750633   0.1250663  )
        85        C      tau(  85) = (   0.2506674   0.3754513   0.3754849  )
        86        C      tau(  86) = (   0.2499863   0.3747732   0.6251959  )
        87        C      tau(  87) = (   0.2498271   0.3748388   0.8752220  )
        88        C      tau(  88) = (   0.2498378   0.6250970   0.1247761  )
        89        C      tau(  89) = (   0.2499882   0.6251584   0.3748111  )
        90        C      tau(  90) = (   0.2508280   0.6243829   0.6244173  )
        91        C      tau(  91) = (   0.2501822   0.6248646   0.8747627  )
        92        C      tau(  92) = (   0.2499243   0.8750488   0.1248971  )
        93        C      tau(  93) = (   0.2498301   0.8751864   0.3748734  )
        94        C      tau(  94) = (   0.2501824   0.8747261   0.6248965  )
        95        C      tau(  95) = (   0.2500023   0.8748307   0.8748642  )
        96        C      tau(  96) = (   0.4999732   0.1249281   0.1249551  )
        97        C      tau(  97) = (   0.4999682   0.1250413   0.3750802  )
        98        C      tau(  98) = (   0.4999199   0.1249020   0.6250880  )
        99        C      tau(  99) = (   0.4998976   0.1246162   0.8753560  )
       100        C      tau( 100) = (   0.4999686   0.3750521   0.1250696  )
       101        C      tau( 101) = (   0.4999195   0.3755088   0.3755433  )
       102        C      tau( 102) = (   0.4984578   0.3744827   0.6254545  )
       103        C      tau( 103) = (   0.4999469   0.3749434   0.8750441  )
       104        C      tau( 104) = (   0.4999234   0.6250553   0.1249361  )
       105        C      tau( 105) = (   0.4984596   0.6254234   0.3745144  )
       106        C      tau( 106) = (   0.5017467   0.6240518   0.6240826  )
       107        C      tau( 107) = (   0.5000223   0.6249014   0.8749292  )
       108        C      tau( 108) = (   0.4998994   0.8753244   0.1246492  )
       109        C      tau( 109) = (   0.4999485   0.8750149   0.3749734  )
       110        C      tau( 110) = (   0.5000219   0.8748991   0.6249297  )
       111        C      tau( 111) = (   0.4999980   0.8749314   0.8749612  )
       112        C      tau( 112) = (   0.7499807   0.1249980   0.1250210  )
       113        C      tau( 113) = (   0.7500073   0.1249459   0.3750237  )
       114        C      tau( 114) = (   0.7498951   0.1249997   0.6250277  )
       115        C      tau( 115) = (   0.7499434   0.1250202   0.8749863  )
       116        C      tau( 116) = (   0.7500066   0.3749997   0.1249713  )
       117        C      tau( 117) = (   0.7500205   0.3749517   0.3749809  )
       118        C      tau( 118) = (   0.7492181   0.3755079   0.6249338  )
       119        C      tau( 119) = (   0.7499013   0.3750022   0.8749729  )
       120        C      tau( 120) = (   0.7498951   0.6250015   0.1250274  )
       121        C      tau( 121) = (   0.7492191   0.6249029   0.3755392  )
       122        C      tau( 122) = (   0.7501458   0.6251209   0.6251502  )
       123        C      tau( 123) = (   0.7500327   0.6250089   0.8750664  )
       124        C      tau( 124) = (   0.7499433   0.8749611   0.1250457  )
       125        C      tau( 125) = (   0.7499008   0.8749472   0.3750274  )
       126        C      tau( 126) = (   0.7500319   0.8750409   0.6250325  )
       127        C      tau( 127) = (   0.7500109   0.8749905   0.8750143  )
       128        C      tau( 128) = (   0.1249488   0.0000214   0.1249986  )
       129        C      tau( 129) = (   0.1248985   0.0000422   0.3749943  )
       130        C      tau( 130) = (   0.1249487  -0.0001546   0.6250147  )
       131        C      tau( 131) = (   0.1249672  -0.0000989   0.8749849  )
       132        C      tau( 132) = (   0.1249975   0.2500393   0.1251148  )
       133        C      tau( 133) = (   0.1250814   0.2501297   0.3751184  )
       134        C      tau( 134) = (   0.1248663   0.2498518   0.6251050  )
       135        C      tau( 135) = (   0.1249060   0.2499234   0.8750696  )
       136        C      tau( 136) = (   0.1247645   0.5000689   0.1248214  )
       137        C      tau( 137) = (   0.1251857   0.5000609   0.3750716  )
       138        C      tau( 138) = (   0.1252283   0.4998624   0.6249052  )
       139        C      tau( 139) = (   0.1248009   0.4998791   0.8751495  )
       140        C      tau( 140) = (   0.1249200   0.7500185   0.1249216  )
       141        C      tau( 141) = (   0.1248828   0.7500868   0.3749094  )
       142        C      tau( 142) = (   0.1251761   0.7497512   0.6248567  )
       143        C      tau( 143) = (   0.1250741   0.7498739   0.8748370  )
       144        C      tau( 144) = (   0.3749306   0.0000755   0.1249420  )
       145        C      tau( 145) = (   0.3749623   0.0000280   0.3749995  )
       146        C      tau( 146) = (   0.3749728  -0.0001318   0.6250131  )
       147        C      tau( 147) = (   0.3749465  -0.0001886   0.8750205  )
       148        C      tau( 148) = (   0.3749680   0.2500714   0.1250979  )
       149        C      tau( 149) = (   0.3752012   0.2503002   0.3754337  )
       150        C      tau( 150) = (   0.3748831   0.2495356   0.6254131  )
       151        C      tau( 151) = (   0.3748839   0.2497097   0.8753154  )
       152        C      tau( 152) = (   0.3749741   0.5000819   0.1250049  )
       153        C      tau( 153) = (   0.3760497   0.5013009   0.3754666  )
       154        C      tau( 154) = (   0.3761623   0.4982675   0.6243642  )
       155        C      tau( 155) = (   0.3750505   0.4998666   0.8749368  )
       156        C      tau( 156) = (   0.3748977   0.7502172   0.1246949  )
       157        C      tau( 157) = (   0.3748684   0.7504522   0.3745814  )
       158        C      tau( 158) = (   0.3756370   0.7492213   0.6246042  )
       159        C      tau( 159) = (   0.3750407   0.7498120   0.8747950  )
       160        C      tau( 160) = (   0.6249893  -0.0000064   0.1250118  )
       161        C      tau( 161) = (   0.6249704   0.0000099   0.3750180  )
       162        C      tau( 162) = (   0.6249759  -0.0000409   0.6250147  )
       163        C      tau( 163) = (   0.6249931  -0.0000575   0.8750187  )
       164        C      tau( 164) = (   0.6249752   0.2499626   0.1249824  )
       165        C      tau( 165) = (   0.6249544   0.2498756   0.3750300  )
       166        C      tau( 166) = (   0.6245897   0.2501734   0.6249039  )
       167        C      tau( 167) = (   0.6249588   0.2500688   0.8749927  )
       168        C      tau( 168) = (   0.6249290   0.5000187   0.1250300  )
       169        C      tau( 169) = (   0.6241835   0.4996765   0.3753869  )
       170        C      tau( 170) = (   0.6240970   0.5017521   0.6244352  )
       171        C      tau( 171) = (   0.6249638   0.4999725   0.8750102  )
       172        C      tau( 172) = (   0.6249414   0.7499978   0.1249409  )
       173        C      tau( 173) = (   0.6247305   0.7495246   0.3754511  )
       174        C      tau( 174) = (   0.6250984   0.7502190   0.6250975  )
       175        C      tau( 175) = (   0.6250216   0.7500082   0.8750375  )
       176        C      tau( 176) = (   0.8749653  -0.0000121   0.1250165  )
       177        C      tau( 177) = (   0.8749504  -0.0000231   0.3750144  )
       178        C      tau( 178) = (   0.8749654  -0.0000250   0.6250171  )
       179        C      tau( 179) = (   0.8749790  -0.0000133   0.8750030  )
       180        C      tau( 180) = (   0.8749776   0.2500054   0.1250289  )
       181        C      tau( 181) = (   0.8750204   0.2499700   0.3750311  )
       182        C      tau( 182) = (   0.8747694   0.2501665   0.6250340  )
       183        C      tau( 183) = (   0.8749058   0.2499983   0.8749884  )
       184        C      tau( 184) = (   0.8750170   0.4999909   0.1249599  )
       185        C      tau( 185) = (   0.8748354   0.5000104   0.3751073  )
       186        C      tau( 186) = (   0.8749052   0.5000002   0.6249856  )
       187        C      tau( 187) = (   0.8749803   0.4999949   0.8750072  )
       188        C      tau( 188) = (   0.8749012   0.7499752   0.1250490  )
       189        C      tau( 189) = (   0.8748443   0.7499102   0.3750393  )
       190        C      tau( 190) = (   0.8750594   0.7500002   0.6250179  )
       191        C      tau( 191) = (   0.8750259   0.7499786   0.8749974  )
       192        C      tau( 192) = (   0.1249475   0.1249716   0.0000486  )
       193        C      tau( 193) = (   0.1249981   0.1250867   0.2500658  )
       194        C      tau( 194) = (   0.1247629   0.1247887   0.5000986  )
       195        C      tau( 195) = (   0.1249173   0.1248886   0.7500475  )
       196        C      tau( 196) = (   0.1248969   0.3749669   0.0000724  )
       197        C      tau( 197) = (   0.1250813   0.3750896   0.2501593  )
       198        C      tau( 198) = (   0.1251860   0.3750404   0.5000921  )
       199        C      tau( 199) = (   0.1248801   0.3748770   0.7501197  )
       200        C      tau( 200) = (   0.1249500   0.6249868  -0.0001204  )
       201        C      tau( 201) = (   0.1248690   0.6250734   0.2498856  )
       202        C      tau( 202) = (   0.1252281   0.6248725   0.4998947  )
       203        C      tau( 203) = (   0.1251761   0.6248251   0.7497849  )
       204        C      tau( 204) = (   0.1249683   0.8749578  -0.0000692  )
       205        C      tau( 205) = (   0.1249090   0.8750395   0.2499535  )
       206        C      tau( 206) = (   0.1248028   0.8751163   0.4999092  )
       207        C      tau( 207) = (   0.1250739   0.8748039   0.7499030  )
       208        C      tau( 208) = (   0.3749292   0.1249091   0.0001079  )
       209        C      tau( 209) = (   0.3749682   0.1250690   0.2500999  )
       210        C      tau( 210) = (   0.3749719   0.1249723   0.5001142  )
       211        C      tau( 211) = (   0.3748946   0.1246556   0.7502532  )
       212        C      tau( 212) = (   0.3749618   0.3749706   0.0000577  )
       213        C      tau( 213) = (   0.3752017   0.3753994   0.2503343  )
       214        C      tau( 214) = (   0.3760484   0.3754332   0.5013344  )
       215        C      tau( 215) = (   0.3748663   0.3745470   0.7504855  )
       216        C      tau( 216) = (   0.3749746   0.6249828  -0.0000968  )
       217        C      tau( 217) = (   0.3748858   0.6253780   0.2495710  )
       218        C      tau( 218) = (   0.3761632   0.6243320   0.4983003  )
       219        C      tau( 219) = (   0.3756371   0.6245712   0.7492547  )
       220        C      tau( 220) = (   0.3749479   0.8749876  -0.0001518  )
       221        C      tau( 221) = (   0.3748866   0.8752801   0.2497459  )
       222        C      tau( 222) = (   0.3750509   0.8749052   0.4998979  )
       223        C      tau( 223) = (   0.3750403   0.8747592   0.7498441  )
       224        C      tau( 224) = (   0.6249890   0.1249865   0.0000190  )
       225        C      tau( 225) = (   0.6249756   0.1249570   0.2499875  )
       226        C      tau( 226) = (   0.6249280   0.1250020   0.5000462  )
       227        C      tau( 227) = (   0.6249397   0.1249105   0.7500271  )
       228        C      tau( 228) = (   0.6249701   0.3749931   0.0000354  )
       229        C      tau( 229) = (   0.6249547   0.3750007   0.2499052  )
       230        C      tau( 230) = (   0.6241812   0.3753550   0.4997089  )
       231        C      tau( 231) = (   0.6247290   0.3754214   0.7495537  )
       232        C      tau( 232) = (   0.6249769   0.6249893  -0.0000138  )
       233        C      tau( 233) = (   0.6245909   0.6248703   0.2502073  )
       234        C      tau( 234) = (   0.6240982   0.6244057   0.5017817  )
       235        C      tau( 235) = (   0.6250989   0.6250684   0.7502493  )
       236        C      tau( 236) = (   0.6249934   0.8749921  -0.0000300  )
       237        C      tau( 237) = (   0.6249595   0.8749660   0.2500964  )
       238        C      tau( 238) = (   0.6249637   0.8749835   0.4999988  )
       239        C      tau( 239) = (   0.6250213   0.8750110   0.7500334  )
       240        C      tau( 240) = (   0.8749650   0.1249935   0.0000114  )
       241        C      tau( 241) = (   0.8749780   0.1250053   0.2500280  )
       242        C      tau( 242) = (   0.8750183   0.1249329   0.5000150  )
       243        C      tau( 243) = (   0.8749018   0.1250219   0.7500004  )
       244        C      tau( 244) = (   0.8749498   0.3749919   0.0000019  )
       245        C      tau( 245) = (   0.8750201   0.3750058   0.2499962  )
       246        C      tau( 246) = (   0.8748359   0.3750771   0.5000394  )
       247        C      tau( 247) = (   0.8748460   0.3750117   0.7499377  )
       248        C      tau( 248) = (   0.8749658   0.6249942   0.0000009  )
       249        C      tau( 249) = (   0.8747673   0.6250056   0.2501969  )
       250        C      tau( 250) = (   0.8749047   0.6249578   0.5000284  )
       251        C      tau( 251) = (   0.8750599   0.6249931   0.7500258  )
       252        C      tau( 252) = (   0.8749792   0.8749796   0.0000109  )
       253        C      tau( 253) = (   0.8749055   0.8749626   0.2500231  )
       254        C      tau( 254) = (   0.8749798   0.8749816   0.5000183  )
       255        C      tau( 255) = (   0.8750256   0.8749729   0.7500018  )
       256        C      tau( 256) = (   0.1874459   0.0625745   0.1875312  )
       257        C      tau( 257) = (   0.1874151   0.0624642   0.4375370  )
       258        C      tau( 258) = (   0.1874062   0.0622957   0.6875458  )
       259        C      tau( 259) = (   0.1874402   0.0624232   0.9375269  )
       260        C      tau( 260) = (   0.1875485   0.3125847   0.1876453  )
       261        C      tau( 261) = (   0.1877085   0.3125752   0.4376695  )
       262        C      tau( 262) = (   0.1873954   0.3123654   0.6876155  )
       263        C      tau( 263) = (   0.1873777   0.3124219   0.9376458  )
       264        C      tau( 264) = (   0.1871362   0.5625254   0.1871291  )
       265        C      tau( 265) = (   0.1878198   0.5624675   0.4374686  )
       266        C      tau( 266) = (   0.1878062   0.5622589   0.6873346  )
       267        C      tau( 267) = (   0.1874983   0.5624274   0.9374082  )
       268        C      tau( 268) = (   0.1874186   0.8125505   0.1874130  )
       269        C      tau( 269) = (   0.1871601   0.8128380   0.4374592  )
       270        C      tau( 270) = (   0.1876681   0.8122278   0.6873369  )
       271        C      tau( 271) = (   0.1874858   0.8124125   0.9373603  )
       272        C      tau( 272) = (   0.4374488   0.0625389   0.1875118  )
       273        C      tau( 273) = (   0.4374444   0.0624958   0.4375430  )
       274        C      tau( 274) = (   0.4374422   0.0623382   0.6875807  )
       275        C      tau( 275) = (   0.4374717   0.0622790   0.9376571  )
       276        C      tau( 276) = (   0.4374371   0.3126149   0.1876075  )
       277        C      tau( 277) = (   0.4376454   0.3129023   0.4381287  )
       278        C      tau( 278) = (   0.4377247   0.3109412   0.6891381  )
       279        C      tau( 279) = (   0.4374392   0.3124054   0.9376038  )
       280        C      tau( 280) = (   0.4374263   0.5626283   0.1874269  )
       281        C      tau( 281) = (   0.4383311   0.5614875   0.6865012  )
       282        C      tau( 282) = (   0.4374735   0.5624404   0.9374579  )
       283        C      tau( 283) = (   0.4374933   0.8131250   0.1868675  )
       284        C      tau( 284) = (   0.4374499   0.8125417   0.4373373  )
       285        C      tau( 285) = (   0.4375927   0.8122205   0.6872921  )
       286        C      tau( 286) = (   0.4374863   0.8124140   0.9373645  )
       287        C      tau( 287) = (   0.6874829   0.0624802   0.1875078  )
       288        C      tau( 288) = (   0.6874606   0.0624945   0.4375416  )
       289        C      tau( 289) = (   0.6874730   0.0624456   0.6875515  )
       290        C      tau( 290) = (   0.6874719   0.0624906   0.9375052  )
       291        C      tau( 291) = (   0.6874836   0.3124977   0.1874507  )
       292        C      tau( 292) = (   0.6880590   0.3118453   0.4376705  )
       293        C      tau( 293) = (   0.6870943   0.3126973   0.6873696  )
       294        C      tau( 294) = (   0.6874616   0.3124857   0.9375236  )
       295        C      tau( 295) = (   0.6873721   0.5625727   0.1875232  )
       296        C      tau( 296) = (   0.6863980   0.5619671   0.4383366  )
       297        C      tau( 297) = (   0.6877953   0.5626937   0.6879461  )
       298        C      tau( 298) = (   0.6874820   0.5624833   0.9375168  )
       299        C      tau( 299) = (   0.6873996   0.8124493   0.1875601  )
       300        C      tau( 300) = (   0.6873845   0.8124233   0.4375236  )
       301        C      tau( 301) = (   0.6875778   0.8126137   0.6875814  )
       302        C      tau( 302) = (   0.6875105   0.8125085   0.9375136  )
       303        C      tau( 303) = (   0.9374656   0.0625056   0.1875217  )
       304        C      tau( 304) = (   0.9374669   0.0624721   0.4375352  )
       305        C      tau( 305) = (   0.9374262   0.0624797   0.6875113  )
       306        C      tau( 306) = (   0.9374634   0.0624802   0.9375118  )
       307        C      tau( 307) = (   0.9375030   0.3125060   0.1875334  )
       308        C      tau( 308) = (   0.9374467   0.3125374   0.4375512  )
       309        C      tau( 309) = (   0.9373947   0.3125227   0.6874995  )
       310        C      tau( 310) = (   0.9374191   0.3124879   0.9375098  )
       311        C      tau( 311) = (   0.9373799   0.5624938   0.1875907  )
       312        C      tau( 312) = (   0.9374513   0.5624852   0.4375292  )
       313        C      tau( 313) = (   0.9375098   0.5624672   0.6874711  )
       314        C      tau( 314) = (   0.9374592   0.5624810   0.9374705  )
       315        C      tau( 315) = (   0.9374072   0.8124866   0.1875086  )
       316        C      tau( 316) = (   0.9374238   0.8124334   0.4375166  )
       317        C      tau( 317) = (   0.9375497   0.8124577   0.6874968  )
       318        C      tau( 318) = (   0.9375010   0.8124727   0.9374882  )
       319        C      tau( 319) = (   0.0624552   0.0624951   0.0625205  )
       320        C      tau( 320) = (   0.0624595   0.0625548   0.3125277  )
       321        C      tau( 321) = (   0.0623247   0.0623531   0.5625101  )
       322        C      tau( 322) = (   0.0624486   0.0624243   0.8125133  )
       323        C      tau( 323) = (   0.0624583   0.3125025   0.0625826  )
       324        C      tau( 324) = (   0.0625260   0.3125460   0.3125736  )
       325        C      tau( 325) = (   0.0625223   0.3124935   0.5625351  )
       326        C      tau( 326) = (   0.0623768   0.3124408   0.8125495  )
       327        C      tau( 327) = (   0.0623260   0.5624827   0.0623853  )
       328        C      tau( 328) = (   0.0625224   0.5625065   0.3125232  )
       329        C      tau( 329) = (   0.0626396   0.5624274   0.5624577  )
       330        C      tau( 330) = (   0.0625263   0.5624248   0.8124350  )
       331        C      tau( 331) = (   0.0624505   0.8124871   0.0624533  )
       332        C      tau( 332) = (   0.0623793   0.8125199   0.3124698  )
       333        C      tau( 333) = (   0.0625267   0.8124045   0.5624531  )
       334        C      tau( 334) = (   0.0625537   0.8123886   0.8124173  )
       335        C      tau( 335) = (   0.3124379   0.0625141   0.0625455  )
       336        C      tau( 336) = (   0.3124373   0.0625432   0.3125265  )
       337        C      tau( 337) = (   0.3124359   0.0623935   0.5625502  )
       338        C      tau( 338) = (   0.3124202   0.0622506   0.8125873  )
       339        C      tau( 339) = (   0.3124368   0.3124977   0.0625726  )
       340        C      tau( 340) = (   0.3127362   0.3128148   0.3128491  )
       341        C      tau( 341) = (   0.3118699   0.3115627   0.5625505  )
       342        C      tau( 342) = (   0.3123738   0.3122558   0.8128710  )
       343        C      tau( 343) = (   0.3124382   0.5625189   0.0624281  )
       344        C      tau( 344) = (   0.3118708   0.5625154   0.3115967  )
       345        C      tau( 345) = (   0.3138666   0.5617281   0.5617612  )
       346        C      tau( 346) = (   0.3127034   0.5622057   0.8122256  )
       347        C      tau( 347) = (   0.3124236   0.8125527   0.0622902  )
       348        C      tau( 348) = (   0.3123770   0.8128347   0.3122929  )
       349        C      tau( 349) = (   0.3127038   0.8121907   0.5622389  )
       350        C      tau( 350) = (   0.3125606   0.8122567   0.8122915  )
       351        C      tau( 351) = (   0.5624682   0.0624484   0.0624747  )
       352        C      tau( 352) = (   0.5624524   0.0625230   0.3125291  )
       353        C      tau( 353) = (   0.5624555   0.0624582   0.5625585  )
       354        C      tau( 354) = (   0.5624638   0.0623558   0.8125950  )
       355        C      tau( 355) = (   0.5624521   0.3125032   0.0625492  )
       356        C      tau( 356) = (   0.5623657   0.3119650   0.3119961  )
       357        C      tau( 357) = (   0.5618633   0.3127239   0.5626590  )
       358        C      tau( 358) = (   0.5623232   0.3124574   0.8125060  )
       359        C      tau( 359) = (   0.5624572   0.5625309   0.0624869  )
       360        C      tau( 360) = (   0.5618648   0.5626248   0.3127578  )
       361        C      tau( 361) = (   0.5624824   0.5623870   0.8125239  )
       362        C      tau( 362) = (   0.5624657   0.8125653   0.0623876  )
       363        C      tau( 363) = (   0.5623251   0.8124770   0.3124869  )
       364        C      tau( 364) = (   0.5624829   0.8124950   0.5624157  )
       365        C      tau( 365) = (   0.5625339   0.8124814   0.8125085  )
       366        C      tau( 366) = (   0.8124739   0.0624939   0.0625170  )
       367        C      tau( 367) = (   0.8124772   0.0624733   0.3125179  )
       368        C      tau( 368) = (   0.8124589   0.0624857   0.5625317  )
       369        C      tau( 369) = (   0.8124538   0.0625048   0.8125061  )
       370        C      tau( 370) = (   0.8124767   0.3124954   0.0624975  )
       371        C      tau( 371) = (   0.8125491   0.3124815   0.3125076  )
       372        C      tau( 372) = (   0.8121447   0.3127311   0.5624763  )
       373        C      tau( 373) = (   0.8123672   0.3125148   0.8124577  )
       374        C      tau( 374) = (   0.8124589   0.5625081   0.0625116  )
       375        C      tau( 375) = (   0.8121438   0.5624457   0.3127630  )
       376        C      tau( 376) = (   0.8123996   0.5624969   0.5625258  )
       377        C      tau( 377) = (   0.8125460   0.5625165   0.8125739  )
       378        C      tau( 378) = (   0.8124539   0.8124821   0.0625300  )
       379        C      tau( 379) = (   0.8123659   0.8124306   0.3125415  )
       380        C      tau( 380) = (   0.8125454   0.8125482   0.5625408  )
       381        C      tau( 381) = (   0.8125409   0.8125061   0.8125298  )
       382        C      tau( 382) = (   0.0624917   0.1875383   0.1875641  )
       383        C      tau( 383) = (   0.0624664   0.1875160   0.4375586  )
       384        C      tau( 384) = (   0.0623748   0.1874276   0.6875488  )
       385        C      tau( 385) = (   0.0624332   0.1874632   0.9375449  )
       386        C      tau( 386) = (   0.0624662   0.4375315   0.1875449  )
       387        C      tau( 387) = (   0.0626008   0.4375151   0.4375443  )
       388        C      tau( 388) = (   0.0625481   0.4374503   0.6874820  )
       389        C      tau( 389) = (   0.0623288   0.4374848   0.9375891  )
       390        C      tau( 390) = (   0.0623770   0.6875204   0.1874589  )
       391        C      tau( 391) = (   0.0625484   0.6874523   0.4374797  )
       392        C      tau( 392) = (   0.0626036   0.6873859   0.6874162  )
       393        C      tau( 393) = (   0.0625060   0.6874473   0.9373944  )
       394        C      tau( 394) = (   0.0624354   0.9375179   0.1874897  )
       395        C      tau( 395) = (   0.0623306   0.9375588   0.4375120  )
       396        C      tau( 396) = (   0.0625055   0.9373629   0.6874737  )
       397        C      tau( 397) = (   0.0624748   0.9374483   0.9374747  )
       398        C      tau( 398) = (   0.3124860   0.1876106   0.1876396  )
       399        C      tau( 399) = (   0.3124409   0.1874991   0.4376791  )
       400        C      tau( 400) = (   0.3123899   0.1871259   0.6877101  )
       401        C      tau( 401) = (   0.3124012   0.1873557   0.9376881  )
       402        C      tau( 402) = (   0.3124424   0.4376456   0.1875315  )
       403        C      tau( 403) = (   0.3137575   0.4380663   0.4380999  )
       404        C      tau( 404) = (   0.3118706   0.4374420   0.6885039  )
       405        C      tau( 405) = (   0.3124460   0.4374289   0.9375281  )
       406        C      tau( 406) = (   0.3123936   0.6876731   0.1871654  )
       407        C      tau( 407) = (   0.3118713   0.6884706   0.4374764  )
       408        C      tau( 408) = (   0.3129517   0.6869896   0.6870241  )
       409        C      tau( 409) = (   0.3125068   0.6874151   0.9373394  )
       410        C      tau( 410) = (   0.3124047   0.9376535   0.1873914  )
       411        C      tau( 411) = (   0.3124471   0.9374967   0.4374592  )
       412        C      tau( 412) = (   0.3125060   0.9373022   0.6874460  )
       413        C      tau( 413) = (   0.3124555   0.9373855   0.9374193  )
       414        C      tau( 414) = (   0.5624467   0.1873563   0.1873830  )
       415        C      tau( 415) = (   0.5623973   0.1875135   0.4376411  )
       416        C      tau( 416) = (   0.5623522   0.1873225   0.6877238  )
       417        C      tau( 417) = (   0.5624488   0.1874382   0.9375731  )
       418        C      tau( 418) = (   0.5623986   0.4376111   0.1875429  )
       419        C      tau( 419) = (   0.5616691   0.4378780   0.6868108  )
       420        C      tau( 420) = (   0.5624667   0.4374487   0.9375321  )
       421        C      tau( 421) = (   0.5623559   0.6876903   0.1873569  )
       422        C      tau( 422) = (   0.5616712   0.6867815   0.4379085  )
       423        C      tau( 423) = (   0.5627536   0.6877231   0.6877542  )
       424        C      tau( 424) = (   0.5624861   0.6874679   0.9374602  )
       425        C      tau( 425) = (   0.5624502   0.9375456   0.1874663  )
       426        C      tau( 426) = (   0.5624672   0.9375052   0.4374753  )
       427        C      tau( 427) = (   0.5624855   0.9374316   0.6874941  )
       428        C      tau( 428) = (   0.5624876   0.9374538   0.9374819  )
       429        C      tau( 429) = (   0.8124763   0.1875038   0.1875269  )
       430        C      tau( 430) = (   0.8126273   0.1873346   0.4375600  )
       431        C      tau( 431) = (   0.8123405   0.1875758   0.6874973  )
       432        C      tau( 432) = (   0.8124480   0.1874958   0.9374990  )
       433        C      tau( 433) = (   0.8126261   0.4375342   0.1873627  )
       434        C      tau( 434) = (   0.8123220   0.4375233   0.4375537  )
       435        C      tau( 435) = (   0.8122713   0.4375798   0.6874548  )
       436        C      tau( 436) = (   0.8124452   0.4374964   0.9374902  )
       437        C      tau( 437) = (   0.8123390   0.6874701   0.1876049  )
       438        C      tau( 438) = (   0.8122700   0.6874259   0.4376093  )
       439        C      tau( 439) = (   0.8126258   0.6875605   0.6875864  )
       440        C      tau( 440) = (   0.8125139   0.6875037   0.9375249  )
       441        C      tau( 441) = (   0.8124483   0.9374747   0.1875195  )
       442        C      tau( 442) = (   0.8124451   0.9374653   0.4375194  )
       443        C      tau( 443) = (   0.8125133   0.9375000   0.6875266  )
       444        C      tau( 444) = (   0.8124893   0.9374914   0.9375149  )
       445        C      tau( 445) = (   0.1874445   0.1875028   0.0626043  )
       446        C      tau( 446) = (   0.1875482   0.1876156   0.3126133  )
       447        C      tau( 447) = (   0.1871349   0.1870939   0.5625592  )
       448        C      tau( 448) = (   0.1874147   0.1873777   0.8125834  )
       449        C      tau( 449) = (   0.1874155   0.4375086   0.0624949  )
       450        C      tau( 450) = (   0.1877084   0.4376366   0.3126077  )
       451        C      tau( 451) = (   0.1878200   0.4374333   0.5625028  )
       452        C      tau( 452) = (   0.1871586   0.4374251   0.8128729  )
       453        C      tau( 453) = (   0.1874093   0.6875143   0.0623335  )
       454        C      tau( 454) = (   0.1873988   0.6875795   0.3124024  )
       455        C      tau( 455) = (   0.1878061   0.6872995   0.5622933  )
       456        C      tau( 456) = (   0.1876678   0.6873042   0.8122636  )
       457        C      tau( 457) = (   0.1874423   0.9374972   0.0624544  )
       458        C      tau( 458) = (   0.1873812   0.9376127   0.3124535  )
       459        C      tau( 459) = (   0.1874988   0.9373744   0.5624566  )
       460        C      tau( 460) = (   0.1874847   0.9373257   0.8124429  )
       461        C      tau( 461) = (   0.4374481   0.1874835   0.0625673  )
       462        C      tau( 462) = (   0.4374365   0.1875778   0.3126447  )
       463        C      tau( 463) = (   0.4374230   0.1873919   0.5626634  )
       464        C      tau( 464) = (   0.4374905   0.1868343   0.8131568  )
       465        C      tau( 465) = (   0.4374453   0.4375145   0.0625247  )
       466        C      tau( 466) = (   0.4376462   0.4380936   0.3129373  )
       467        C      tau( 467) = (   0.4374480   0.4373043   0.8125733  )
       468        C      tau( 468) = (   0.4374454   0.6875482   0.0623745  )
       469        C      tau( 469) = (   0.4377272   0.6891062   0.3109738  )
       470        C      tau( 470) = (   0.4383317   0.6864697   0.5615194  )
       471        C      tau( 471) = (   0.4375925   0.6872611   0.8122536  )
       472        C      tau( 472) = (   0.4374737   0.9376241   0.0623141  )
       473        C      tau( 473) = (   0.4374411   0.9375733   0.3124361  )
       474        C      tau( 474) = (   0.4374732   0.9374273   0.5624689  )
       475        C      tau( 475) = (   0.4374853   0.9373303   0.8124444  )
       476        C      tau( 476) = (   0.6874825   0.1874842   0.0625042  )
       477        C      tau( 477) = (   0.6874838   0.1874249   0.3125231  )
       478        C      tau( 478) = (   0.6873710   0.1874935   0.5626019  )
       479        C      tau( 479) = (   0.6873994   0.1875318   0.8124767  )
       480        C      tau( 480) = (   0.6874608   0.4375172   0.0625199  )
       481        C      tau( 481) = (   0.6880599   0.4376400   0.3118751  )
       482        C      tau( 482) = (   0.6863965   0.4383056   0.5619981  )
       483        C      tau( 483) = (   0.6873847   0.4374966   0.8124505  )
       484        C      tau( 484) = (   0.6874740   0.6875258   0.0624728  )
       485        C      tau( 485) = (   0.6870946   0.6873375   0.3127299  )
       486        C      tau( 486) = (   0.6877954   0.6879162   0.5627239  )
       487        C      tau( 487) = (   0.6875783   0.6875560   0.8126405  )
       488        C      tau( 488) = (   0.6874721   0.9374804   0.0625157  )
       489        C      tau( 489) = (   0.6874620   0.9374986   0.3125104  )
       490        C      tau( 490) = (   0.6874817   0.9374914   0.5625074  )
       491        C      tau( 491) = (   0.6875103   0.9374883   0.8125329  )
       492        C      tau( 492) = (   0.9374651   0.1874987   0.0625294  )
       493        C      tau( 493) = (   0.9375035   0.1875084   0.3125298  )
       494        C      tau( 494) = (   0.9373812   0.1875622   0.5625194  )
       495        C      tau( 495) = (   0.9374066   0.1874826   0.8125121  )
       496        C      tau( 496) = (   0.9374660   0.4375119   0.0624986  )
       497        C      tau( 497) = (   0.9374464   0.4375247   0.3125649  )
       498        C      tau( 498) = (   0.9374515   0.4375013   0.5625125  )
       499        C      tau( 499) = (   0.9374242   0.4374914   0.8124601  )
       500        C      tau( 500) = (   0.9374267   0.6874872   0.0625070  )
       501        C      tau( 501) = (   0.9373936   0.6874726   0.3125506  )
       502        C      tau( 502) = (   0.9375097   0.6874443   0.5624936  )
       503        C      tau( 503) = (   0.9375499   0.6874722   0.8124838  )
       504        C      tau( 504) = (   0.9374640   0.9374881   0.0625041  )
       505        C      tau( 505) = (   0.9374200   0.9374840   0.3125117  )
       506        C      tau( 506) = (   0.9374588   0.9374436   0.5625045  )
       507        C      tau( 507) = (   0.9375007   0.9374631   0.8124963  )
       508        C      tau( 508) = (   0.5685039   0.4314642   0.4314953  )
       509        C      tau( 509) = (   0.4328016   0.4304106   0.5696143  )
       510        C      tau( 510) = (   0.4328027   0.5695835   0.4304419  )
       511        N      tau( 511) = (   0.5661467   0.5659448   0.5659742  )

   Crystallographic axes

     site n.     atom                  positions (cryst. coord.)
         1        C      tau(   1) = ( -0.0000326 -0.0000239  0.0000003  )
         2        C      tau(   2) = ( -0.0000507  0.0000160  0.2500133  )
         3        C      tau(   3) = ( -0.0001339 -0.0000472  0.5000079  )
         4        C      tau(   4) = ( -0.0000218 -0.0000672  0.7499941  )
         5        C      tau(   5) = ( -0.0000518  0.2499893  0.0000417  )
         6        C      tau(   6) = (  0.0000121  0.2500323  0.2500574  )
         7        C      tau(   7) = ( -0.0000431  0.2500404  0.5000550  )
         8        C      tau(   8) = ( -0.0001230  0.2499574  0.7500361  )
         9        C      tau(   9) = ( -0.0001340  0.4999834 -0.0000184  )
        10        C      tau(  10) = ( -0.0000436  0.5000287  0.2500684  )
        11        C      tau(  11) = (  0.0000392  0.4999847  0.5000126  )
        12        C      tau(  12) = (  0.0000040  0.4999448  0.7499516  )
        13        C      tau(  13) = ( -0.0000213  0.7499698 -0.0000394  )
        14        C      tau(  14) = ( -0.0001222  0.7500089  0.2499855  )
        15        C      tau(  15) = (  0.0000039  0.7499238  0.4999713  )
        16        C      tau(  16) = (  0.0000706  0.7499116  0.7499385  )
        17        C      tau(  17) = (  0.2499485 -0.0000460 -0.0000153  )
        18        C      tau(  18) = (  0.2499112  0.0000987  0.2499671  )
        19        C      tau(  19) = (  0.2499635 -0.0000625  0.5000064  )
        20        C      tau(  20) = (  0.2499483 -0.0002181  0.7500117  )
        21        C      tau(  21) = (  0.2499089  0.2499360  0.0001308  )
        22        C      tau(  22) = (  0.2501317  0.2502136  0.2502446  )
        23        C      tau(  23) = (  0.2495740  0.2494838  0.5003288  )
        24        C      tau(  24) = (  0.2499196  0.2498186  0.7501503  )
        25        C      tau(  25) = (  0.2499640  0.4999774 -0.0000304  )
        26        C      tau(  26) = (  0.2495743  0.5002946  0.2495169  )
        27        C      tau(  27) = (  0.2508714  0.4999260  0.4999615  )
        28        C      tau(  28) = (  0.2496409  0.4995979  0.7504508  )
        29        C      tau(  29) = (  0.2499503  0.7499803 -0.0001796  )
        30        C      tau(  30) = (  0.2499235  0.7501134  0.2498573  )
        31        C      tau(  31) = (  0.2496406  0.7504163  0.4996322  )
        32        C      tau(  32) = (  0.2502822  0.7496341  0.7496697  )
        33        C      tau(  33) = (  0.4999523 -0.0000527 -0.0000223  )
        34        C      tau(  34) = (  0.4999627  0.0000474  0.2499966  )
        35        C      tau(  35) = (  0.4999722 -0.0000259  0.5000134  )
        36        C      tau(  36) = (  0.4999724 -0.0001300  0.7500210  )
        37        C      tau(  37) = (  0.4999619  0.2499688  0.0000754  )
        38        C      tau(  38) = (  0.4999443  0.2497857  0.2498155  )
        39        C      tau(  39) = (  0.4999079  0.2501970  0.5001765  )
        40        C      tau(  40) = (  0.4997304  0.2490523  0.7509577  )
        41        C      tau(  41) = (  0.4999730  0.4999863  0.0000025  )
        42        C      tau(  42) = (  0.4999095  0.5001419  0.2502310  )
        43        C      tau(  43) = (  0.5000029  0.4998138  0.7497961  )
        44        C      tau(  44) = (  0.4999739  0.7499915 -0.0000969  )
        45        C      tau(  45) = (  0.4997330  0.7509270  0.2490837  )
        46        C      tau(  46) = (  0.5000042  0.7497651  0.4998453  )
        47        C      tau(  47) = (  0.5000475  0.7499467  0.7499768  )
        48        C      tau(  48) = (  0.7499797 -0.0000089  0.0000150  )
        49        C      tau(  49) = (  0.7499752 -0.0000176  0.2500169  )
        50        C      tau(  50) = (  0.7499658 -0.0000119  0.5000191  )
        51        C      tau(  51) = (  0.7499896 -0.0000213  0.7500187  )
        52        C      tau(  52) = (  0.7499748  0.2499938  0.0000065  )
        53        C      tau(  53) = (  0.7499620  0.2500048  0.2500295  )
        54        C      tau(  54) = (  0.7501553  0.2497221  0.5000290  )
        55        C      tau(  55) = (  0.7497836  0.2501333  0.7499143  )
        56        C      tau(  56) = (  0.7499659  0.4999958  0.0000131  )
        57        C      tau(  57) = (  0.7501545  0.4999992  0.2497534  )
        58        C      tau(  58) = (  0.7495746  0.5000238  0.5000557  )
        59        C      tau(  59) = (  0.7500288  0.5000131  0.7501437  )
        60        C      tau(  60) = (  0.7499900  0.7499948  0.0000040  )
        61        C      tau(  61) = (  0.7497815  0.7498848  0.2501635  )
        62        C      tau(  62) = (  0.7500279  0.7501157  0.5000409  )
        63        C      tau(  63) = (  0.7500517  0.7500324  0.7500573  )
        64        C      tau(  64) = ( -0.0000246  0.1250116  0.1250355  )
        65        C      tau(  65) = ( -0.0000266  0.1250252  0.3750317  )
        66        C      tau(  66) = ( -0.0001261  0.1249727  0.6250424  )
        67        C      tau(  67) = ( -0.0000615  0.1249620  0.8750182  )
        68        C      tau(  68) = ( -0.0000275  0.3750075  0.1250517  )
        69        C      tau(  69) = (  0.0000067  0.3750508  0.3750780  )
        70        C      tau(  70) = ( -0.0000225  0.3749895  0.6250084  )
        71        C      tau(  71) = ( -0.0001141  0.3749604  0.8750180  )
        72        C      tau(  72) = ( -0.0001255  0.6250167  0.1250021  )
        73        C      tau(  73) = ( -0.0000228  0.6249810  0.3750174  )
        74        C      tau(  74) = (  0.0000711  0.6249131  0.6249410  )
        75        C      tau(  75) = (  0.0000151  0.6249563  0.8749316  )
        76        C      tau(  76) = ( -0.0000605  0.8749932  0.1249879  )
        77        C      tau(  77) = ( -0.0001129  0.8749903  0.3749861  )
        78        C      tau(  78) = (  0.0000147  0.8749032  0.6249812  )
        79        C      tau(  79) = (  0.0000170  0.8749376  0.8749629  )
        80        C      tau(  80) = (  0.2499568  0.1250602  0.1250896  )
        81        C      tau(  81) = (  0.2500060  0.1250364  0.3750928  )
        82        C      tau(  82) = (  0.2498345  0.1247375  0.6251315  )
        83        C      tau(  83) = (  0.2499210  0.1248614  0.8750816  )
        84        C      tau(  84) = (  0.2500066  0.3750633  0.1250663  )
        85        C      tau(  85) = (  0.2506674  0.3754513  0.3754849  )
        86        C      tau(  86) = (  0.2499863  0.3747732  0.6251959  )
        87        C      tau(  87) = (  0.2498271  0.3748388  0.8752220  )
        88        C      tau(  88) = (  0.2498378  0.6250970  0.1247761  )
        89        C      tau(  89) = (  0.2499882  0.6251584  0.3748111  )
        90        C      tau(  90) = (  0.2508280  0.6243829  0.6244173  )
        91        C      tau(  91) = (  0.2501822  0.6248646  0.8747627  )
        92        C      tau(  92) = (  0.2499243  0.8750488  0.1248971  )
        93        C      tau(  93) = (  0.2498301  0.8751864  0.3748734  )
        94        C      tau(  94) = (  0.2501824  0.8747261  0.6248965  )
        95        C      tau(  95) = (  0.2500023  0.8748307  0.8748642  )
        96        C      tau(  96) = (  0.4999732  0.1249281  0.1249551  )
        97        C      tau(  97) = (  0.4999682  0.1250413  0.3750802  )
        98        C      tau(  98) = (  0.4999199  0.1249020  0.6250880  )
        99        C      tau(  99) = (  0.4998976  0.1246162  0.8753560  )
       100        C      tau( 100) = (  0.4999686  0.3750521  0.1250696  )
       101        C      tau( 101) = (  0.4999195  0.3755088  0.3755433  )
       102        C      tau( 102) = (  0.4984578  0.3744827  0.6254545  )
       103        C      tau( 103) = (  0.4999469  0.3749434  0.8750441  )
       104        C      tau( 104) = (  0.4999234  0.6250553  0.1249361  )
       105        C      tau( 105) = (  0.4984596  0.6254234  0.3745144  )
       106        C      tau( 106) = (  0.5017467  0.6240518  0.6240826  )
       107        C      tau( 107) = (  0.5000223  0.6249014  0.8749292  )
       108        C      tau( 108) = (  0.4998994  0.8753244  0.1246492  )
       109        C      tau( 109) = (  0.4999485  0.8750149  0.3749734  )
       110        C      tau( 110) = (  0.5000219  0.8748991  0.6249297  )
       111        C      tau( 111) = (  0.4999980  0.8749314  0.8749612  )
       112        C      tau( 112) = (  0.7499807  0.1249980  0.1250210  )
       113        C      tau( 113) = (  0.7500073  0.1249459  0.3750237  )
       114        C      tau( 114) = (  0.7498951  0.1249997  0.6250277  )
       115        C      tau( 115) = (  0.7499434  0.1250202  0.8749863  )
       116        C      tau( 116) = (  0.7500066  0.3749997  0.1249713  )
       117        C      tau( 117) = (  0.7500205  0.3749517  0.3749809  )
       118        C      tau( 118) = (  0.7492181  0.3755079  0.6249338  )
       119        C      tau( 119) = (  0.7499013  0.3750022  0.8749729  )
       120        C      tau( 120) = (  0.7498951  0.6250015  0.1250274  )
       121        C      tau( 121) = (  0.7492191  0.6249029  0.3755392  )
       122        C      tau( 122) = (  0.7501458  0.6251209  0.6251502  )
       123        C      tau( 123) = (  0.7500327  0.6250089  0.8750664  )
       124        C      tau( 124) = (  0.7499433  0.8749611  0.1250457  )
       125        C      tau( 125) = (  0.7499008  0.8749472  0.3750274  )
       126        C      tau( 126) = (  0.7500319  0.8750409  0.6250325  )
       127        C      tau( 127) = (  0.7500109  0.8749905  0.8750143  )
       128        C      tau( 128) = (  0.1249488  0.0000214  0.1249986  )
       129        C      tau( 129) = (  0.1248985  0.0000422  0.3749943  )
       130        C      tau( 130) = (  0.1249487 -0.0001546  0.6250147  )
       131        C      tau( 131) = (  0.1249672 -0.0000989  0.8749849  )
       132        C      tau( 132) = (  0.1249975  0.2500393  0.1251148  )
       133        C      tau( 133) = (  0.1250814  0.2501297  0.3751184  )
       134        C      tau( 134) = (  0.1248663  0.2498518  0.6251050  )
       135        C      tau( 135) = (  0.1249060  0.2499234  0.8750696  )
       136        C      tau( 136) = (  0.1247645  0.5000689  0.1248214  )
       137        C      tau( 137) = (  0.1251857  0.5000609  0.3750716  )
       138        C      tau( 138) = (  0.1252283  0.4998624  0.6249052  )
       139        C      tau( 139) = (  0.1248009  0.4998791  0.8751495  )
       140        C      tau( 140) = (  0.1249200  0.7500185  0.1249216  )
       141        C      tau( 141) = (  0.1248828  0.7500868  0.3749094  )
       142        C      tau( 142) = (  0.1251761  0.7497512  0.6248567  )
       143        C      tau( 143) = (  0.1250741  0.7498739  0.8748370  )
       144        C      tau( 144) = (  0.3749306  0.0000755  0.1249420  )
       145        C      tau( 145) = (  0.3749623  0.0000280  0.3749995  )
       146        C      tau( 146) = (  0.3749728 -0.0001318  0.6250131  )
       147        C      tau( 147) = (  0.3749465 -0.0001886  0.8750205  )
       148        C      tau( 148) = (  0.3749680  0.2500714  0.1250979  )
       149        C      tau( 149) = (  0.3752012  0.2503002  0.3754337  )
       150        C      tau( 150) = (  0.3748831  0.2495356  0.6254131  )
       151        C      tau( 151) = (  0.3748839  0.2497097  0.8753154  )
       152        C      tau( 152) = (  0.3749741  0.5000819  0.1250049  )
       153        C      tau( 153) = (  0.3760497  0.5013009  0.3754666  )
       154        C      tau( 154) = (  0.3761623  0.4982675  0.6243642  )
       155        C      tau( 155) = (  0.3750505  0.4998666  0.8749368  )
       156        C      tau( 156) = (  0.3748977  0.7502172  0.1246949  )
       157        C      tau( 157) = (  0.3748684  0.7504522  0.3745814  )
       158        C      tau( 158) = (  0.3756370  0.7492213  0.6246042  )
       159        C      tau( 159) = (  0.3750407  0.7498120  0.8747950  )
       160        C      tau( 160) = (  0.6249893 -0.0000064  0.1250118  )
       161        C      tau( 161) = (  0.6249704  0.0000099  0.3750180  )
       162        C      tau( 162) = (  0.6249759 -0.0000409  0.6250147  )
       163        C      tau( 163) = (  0.6249931 -0.0000575  0.8750187  )
       164        C      tau( 164) = (  0.6249752  0.2499626  0.1249824  )
       165        C      tau( 165) = (  0.6249544  0.2498756  0.3750300  )
       166        C      tau( 166) = (  0.6245897  0.2501734  0.6249039  )
       167        C      tau( 167) = (  0.6249588  0.2500688  0.8749927  )
       168        C      tau( 168) = (  0.6249290  0.5000187  0.1250300  )
       169        C      tau( 169) = (  0.6241835  0.4996765  0.3753869  )
       170        C      tau( 170) = (  0.6240970  0.5017521  0.6244352  )
       171        C      tau( 171) = (  0.6249638  0.4999725  0.8750102  )
       172        C      tau( 172) = (  0.6249414  0.7499978  0.1249409  )
       173        C      tau( 173) = (  0.6247305  0.7495246  0.3754511  )
       174        C      tau( 174) = (  0.6250984  0.7502190  0.6250975  )
       175        C      tau( 175) = (  0.6250216  0.7500082  0.8750375  )
       176        C      tau( 176) = (  0.8749653 -0.0000121  0.1250165  )
       177        C      tau( 177) = (  0.8749504 -0.0000231  0.3750144  )
       178        C      tau( 178) = (  0.8749654 -0.0000250  0.6250171  )
       179        C      tau( 179) = (  0.8749790 -0.0000133  0.8750030  )
       180        C      tau( 180) = (  0.8749776  0.2500054  0.1250289  )
       181        C      tau( 181) = (  0.8750204  0.2499700  0.3750311  )
       182        C      tau( 182) = (  0.8747694  0.2501665  0.6250340  )
       183        C      tau( 183) = (  0.8749058  0.2499983  0.8749884  )
       184        C      tau( 184) = (  0.8750170  0.4999909  0.1249599  )
       185        C      tau( 185) = (  0.8748354  0.5000104  0.3751073  )
       186        C      tau( 186) = (  0.8749052  0.5000002  0.6249856  )
       187        C      tau( 187) = (  0.8749803  0.4999949  0.8750072  )
       188        C      tau( 188) = (  0.8749012  0.7499752  0.1250490  )
       189        C      tau( 189) = (  0.8748443  0.7499102  0.3750393  )
       190        C      tau( 190) = (  0.8750594  0.7500002  0.6250179  )
       191        C      tau( 191) = (  0.8750259  0.7499786  0.8749974  )
       192        C      tau( 192) = (  0.1249475  0.1249716  0.0000486  )
       193        C      tau( 193) = (  0.1249981  0.1250867  0.2500658  )
       194        C      tau( 194) = (  0.1247629  0.1247887  0.5000986  )
       195        C      tau( 195) = (  0.1249173  0.1248886  0.7500475  )
       196        C      tau( 196) = (  0.1248969  0.3749669  0.0000724  )
       197        C      tau( 197) = (  0.1250813  0.3750896  0.2501593  )
       198        C      tau( 198) = (  0.1251860  0.3750404  0.5000921  )
       199        C      tau( 199) = (  0.1248801  0.3748770  0.7501197  )
       200        C      tau( 200) = (  0.1249500  0.6249868 -0.0001204  )
       201        C      tau( 201) = (  0.1248690  0.6250734  0.2498856  )
       202        C      tau( 202) = (  0.1252281  0.6248725  0.4998947  )
       203        C      tau( 203) = (  0.1251761  0.6248251  0.7497849  )
       204        C      tau( 204) = (  0.1249683  0.8749578 -0.0000692  )
       205        C      tau( 205) = (  0.1249090  0.8750395  0.2499535  )
       206        C      tau( 206) = (  0.1248028  0.8751163  0.4999092  )
       207        C      tau( 207) = (  0.1250739  0.8748039  0.7499030  )
       208        C      tau( 208) = (  0.3749292  0.1249091  0.0001079  )
       209        C      tau( 209) = (  0.3749682  0.1250690  0.2500999  )
       210        C      tau( 210) = (  0.3749719  0.1249723  0.5001142  )
       211        C      tau( 211) = (  0.3748946  0.1246556  0.7502532  )
       212        C      tau( 212) = (  0.3749618  0.3749706  0.0000577  )
       213        C      tau( 213) = (  0.3752017  0.3753994  0.2503343  )
       214        C      tau( 214) = (  0.3760484  0.3754332  0.5013344  )
       215        C      tau( 215) = (  0.3748663  0.3745470  0.7504855  )
       216        C      tau( 216) = (  0.3749746  0.6249828 -0.0000968  )
       217        C      tau( 217) = (  0.3748858  0.6253780  0.2495710  )
       218        C      tau( 218) = (  0.3761632  0.6243320  0.4983003  )
       219        C      tau( 219) = (  0.3756371  0.6245712  0.7492547  )
       220        C      tau( 220) = (  0.3749479  0.8749876 -0.0001518  )
       221        C      tau( 221) = (  0.3748866  0.8752801  0.2497459  )
       222        C      tau( 222) = (  0.3750509  0.8749052  0.4998979  )
       223        C      tau( 223) = (  0.3750403  0.8747592  0.7498441  )
       224        C      tau( 224) = (  0.6249890  0.1249865  0.0000190  )
       225        C      tau( 225) = (  0.6249756  0.1249570  0.2499875  )
       226        C      tau( 226) = (  0.6249280  0.1250020  0.5000462  )
       227        C      tau( 227) = (  0.6249397  0.1249105  0.7500271  )
       228        C      tau( 228) = (  0.6249701  0.3749931  0.0000354  )
       229        C      tau( 229) = (  0.6249547  0.3750007  0.2499052  )
       230        C      tau( 230) = (  0.6241812  0.3753550  0.4997089  )
       231        C      tau( 231) = (  0.6247290  0.3754214  0.7495537  )
       232        C      tau( 232) = (  0.6249769  0.6249893 -0.0000138  )
       233        C      tau( 233) = (  0.6245909  0.6248703  0.2502073  )
       234        C      tau( 234) = (  0.6240982  0.6244057  0.5017817  )
       235        C      tau( 235) = (  0.6250989  0.6250684  0.7502493  )
       236        C      tau( 236) = (  0.6249934  0.8749921 -0.0000300  )
       237        C      tau( 237) = (  0.6249595  0.8749660  0.2500964  )
       238        C      tau( 238) = (  0.6249637  0.8749835  0.4999988  )
       239        C      tau( 239) = (  0.6250213  0.8750110  0.7500334  )
       240        C      tau( 240) = (  0.8749650  0.1249935  0.0000114  )
       241        C      tau( 241) = (  0.8749780  0.1250053  0.2500280  )
       242        C      tau( 242) = (  0.8750183  0.1249329  0.5000150  )
       243        C      tau( 243) = (  0.8749018  0.1250219  0.7500004  )
       244        C      tau( 244) = (  0.8749498  0.3749919  0.0000019  )
       245        C      tau( 245) = (  0.8750201  0.3750058  0.2499962  )
       246        C      tau( 246) = (  0.8748359  0.3750771  0.5000394  )
       247        C      tau( 247) = (  0.8748460  0.3750117  0.7499377  )
       248        C      tau( 248) = (  0.8749658  0.6249942  0.0000009  )
       249        C      tau( 249) = (  0.8747673  0.6250056  0.2501969  )
       250        C      tau( 250) = (  0.8749047  0.6249578  0.5000284  )
       251        C      tau( 251) = (  0.8750599  0.6249931  0.7500258  )
       252        C      tau( 252) = (  0.8749792  0.8749796  0.0000109  )
       253        C      tau( 253) = (  0.8749055  0.8749626  0.2500231  )
       254        C      tau( 254) = (  0.8749798  0.8749816  0.5000183  )
       255        C      tau( 255) = (  0.8750256  0.8749729  0.7500018  )
       256        C      tau( 256) = (  0.1874459  0.0625745  0.1875312  )
       257        C      tau( 257) = (  0.1874151  0.0624642  0.4375370  )
       258        C      tau( 258) = (  0.1874062  0.0622957  0.6875458  )
       259        C      tau( 259) = (  0.1874402  0.0624232  0.9375269  )
       260        C      tau( 260) = (  0.1875485  0.3125847  0.1876453  )
       261        C      tau( 261) = (  0.1877085  0.3125752  0.4376695  )
       262        C      tau( 262) = (  0.1873954  0.3123654  0.6876155  )
       263        C      tau( 263) = (  0.1873777  0.3124219  0.9376458  )
       264        C      tau( 264) = (  0.1871362  0.5625254  0.1871291  )
       265        C      tau( 265) = (  0.1878198  0.5624675  0.4374686  )
       266        C      tau( 266) = (  0.1878062  0.5622589  0.6873346  )
       267        C      tau( 267) = (  0.1874983  0.5624274  0.9374082  )
       268        C      tau( 268) = (  0.1874186  0.8125505  0.1874130  )
       269        C      tau( 269) = (  0.1871601  0.8128380  0.4374592  )
       270        C      tau( 270) = (  0.1876681  0.8122278  0.6873369  )
       271        C      tau( 271) = (  0.1874858  0.8124125  0.9373603  )
       272        C      tau( 272) = (  0.4374488  0.0625389  0.1875118  )
       273        C      tau( 273) = (  0.4374444  0.0624958  0.4375430  )
       274        C      tau( 274) = (  0.4374422  0.0623382  0.6875807  )
       275        C      tau( 275) = (  0.4374717  0.0622790  0.9376571  )
       276        C      tau( 276) = (  0.4374371  0.3126149  0.1876075  )
       277        C      tau( 277) = (  0.4376454  0.3129023  0.4381287  )
       278        C      tau( 278) = (  0.4377247  0.3109412  0.6891381  )
       279        C      tau( 279) = (  0.4374392  0.3124054  0.9376038  )
       280        C      tau( 280) = (  0.4374263  0.5626283  0.1874269  )
       281        C      tau( 281) = (  0.4383311  0.5614875  0.6865012  )
       282        C      tau( 282) = (  0.4374735  0.5624404  0.9374579  )
       283        C      tau( 283) = (  0.4374933  0.8131250  0.1868675  )
       284        C      tau( 284) = (  0.4374499  0.8125417  0.4373373  )
       285        C      tau( 285) = (  0.4375927  0.8122205  0.6872921  )
       286        C      tau( 286) = (  0.4374863  0.8124140  0.9373645  )
       287        C      tau( 287) = (  0.6874829  0.0624802  0.1875078  )
       288        C      tau( 288) = (  0.6874606  0.0624945  0.4375416  )
       289        C      tau( 289) = (  0.6874730  0.0624456  0.6875515  )
       290        C      tau( 290) = (  0.6874719  0.0624906  0.9375052  )
       291        C      tau( 291) = (  0.6874836  0.3124977  0.1874507  )
       292        C      tau( 292) = (  0.6880590  0.3118453  0.4376705  )
       293        C      tau( 293) = (  0.6870943  0.3126973  0.6873696  )
       294        C      tau( 294) = (  0.6874616  0.3124857  0.9375236  )
       295        C      tau( 295) = (  0.6873721  0.5625727  0.1875232  )
       296        C      tau( 296) = (  0.6863980  0.5619671  0.4383366  )
       297        C      tau( 297) = (  0.6877953  0.5626937  0.6879461  )
       298        C      tau( 298) = (  0.6874820  0.5624833  0.9375168  )
       299        C      tau( 299) = (  0.6873996  0.8124493  0.1875601  )
       300        C      tau( 300) = (  0.6873845  0.8124233  0.4375236  )
       301        C      tau( 301) = (  0.6875778  0.8126137  0.6875814  )
       302        C      tau( 302) = (  0.6875105  0.8125085  0.9375136  )
       303        C      tau( 303) = (  0.9374656  0.0625056  0.1875217  )
       304        C      tau( 304) = (  0.9374669  0.0624721  0.4375352  )
       305        C      tau( 305) = (  0.9374262  0.0624797  0.6875113  )
       306        C      tau( 306) = (  0.9374634  0.0624802  0.9375118  )
       307        C      tau( 307) = (  0.9375030  0.3125060  0.1875334  )
       308        C      tau( 308) = (  0.9374467  0.3125374  0.4375512  )
       309        C      tau( 309) = (  0.9373947  0.3125227  0.6874995  )
       310        C      tau( 310) = (  0.9374191  0.3124879  0.9375098  )
       311        C      tau( 311) = (  0.9373799  0.5624938  0.1875907  )
       312        C      tau( 312) = (  0.9374513  0.5624852  0.4375292  )
       313        C      tau( 313) = (  0.9375098  0.5624672  0.6874711  )
       314        C      tau( 314) = (  0.9374592  0.5624810  0.9374705  )
       315        C      tau( 315) = (  0.9374072  0.8124866  0.1875086  )
       316        C      tau( 316) = (  0.9374238  0.8124334  0.4375166  )
       317        C      tau( 317) = (  0.9375497  0.8124577  0.6874968  )
       318        C      tau( 318) = (  0.9375010  0.8124727  0.9374882  )
       319        C      tau( 319) = (  0.0624552  0.0624951  0.0625205  )
       320        C      tau( 320) = (  0.0624595  0.0625548  0.3125277  )
       321        C      tau( 321) = (  0.0623247  0.0623531  0.5625101  )
       322        C      tau( 322) = (  0.0624486  0.0624243  0.8125133  )
       323        C      tau( 323) = (  0.0624583  0.3125025  0.0625826  )
       324        C      tau( 324) = (  0.0625260  0.3125460  0.3125736  )
       325        C      tau( 325) = (  0.0625223  0.3124935  0.5625351  )
       326        C      tau( 326) = (  0.0623768  0.3124408  0.8125495  )
       327        C      tau( 327) = (  0.0623260  0.5624827  0.0623853  )
       328        C      tau( 328) = (  0.0625224  0.5625065  0.3125232  )
       329        C      tau( 329) = (  0.0626396  0.5624274  0.5624577  )
       330        C      tau( 330) = (  0.0625263  0.5624248  0.8124350  )
       331        C      tau( 331) = (  0.0624505  0.8124871  0.0624533  )
       332        C      tau( 332) = (  0.0623793  0.8125199  0.3124698  )
       333        C      tau( 333) = (  0.0625267  0.8124045  0.5624531  )
       334        C      tau( 334) = (  0.0625537  0.8123886  0.8124173  )
       335        C      tau( 335) = (  0.3124379  0.0625141  0.0625455  )
       336        C      tau( 336) = (  0.3124373  0.0625432  0.3125265  )
       337        C      tau( 337) = (  0.3124359  0.0623935  0.5625502  )
       338        C      tau( 338) = (  0.3124202  0.0622506  0.8125873  )
       339        C      tau( 339) = (  0.3124368  0.3124977  0.0625726  )
       340        C      tau( 340) = (  0.3127362  0.3128148  0.3128491  )
       341        C      tau( 341) = (  0.3118699  0.3115627  0.5625505  )
       342        C      tau( 342) = (  0.3123738  0.3122558  0.8128710  )
       343        C      tau( 343) = (  0.3124382  0.5625189  0.0624281  )
       344        C      tau( 344) = (  0.3118708  0.5625154  0.3115967  )
       345        C      tau( 345) = (  0.3138666  0.5617281  0.5617612  )
       346        C      tau( 346) = (  0.3127034  0.5622057  0.8122256  )
       347        C      tau( 347) = (  0.3124236  0.8125527  0.0622902  )
       348        C      tau( 348) = (  0.3123770  0.8128347  0.3122929  )
       349        C      tau( 349) = (  0.3127038  0.8121907  0.5622389  )
       350        C      tau( 350) = (  0.3125606  0.8122567  0.8122915  )
       351        C      tau( 351) = (  0.5624682  0.0624484  0.0624747  )
       352        C      tau( 352) = (  0.5624524  0.0625230  0.3125291  )
       353        C      tau( 353) = (  0.5624555  0.0624582  0.5625585  )
       354        C      tau( 354) = (  0.5624638  0.0623558  0.8125950  )
       355        C      tau( 355) = (  0.5624521  0.3125032  0.0625492  )
       356        C      tau( 356) = (  0.5623657  0.3119650  0.3119961  )
       357        C      tau( 357) = (  0.5618633  0.3127239  0.5626590  )
       358        C      tau( 358) = (  0.5623232  0.3124574  0.8125060  )
       359        C      tau( 359) = (  0.5624572  0.5625309  0.0624869  )
       360        C      tau( 360) = (  0.5618648  0.5626248  0.3127578  )
       361        C      tau( 361) = (  0.5624824  0.5623870  0.8125239  )
       362        C      tau( 362) = (  0.5624657  0.8125653  0.0623876  )
       363        C      tau( 363) = (  0.5623251  0.8124770  0.3124869  )
       364        C      tau( 364) = (  0.5624829  0.8124950  0.5624157  )
       365        C      tau( 365) = (  0.5625339  0.8124814  0.8125085  )
       366        C      tau( 366) = (  0.8124739  0.0624939  0.0625170  )
       367        C      tau( 367) = (  0.8124772  0.0624733  0.3125179  )
       368        C      tau( 368) = (  0.8124589  0.0624857  0.5625317  )
       369        C      tau( 369) = (  0.8124538  0.0625048  0.8125061  )
       370        C      tau( 370) = (  0.8124767  0.3124954  0.0624975  )
       371        C      tau( 371) = (  0.8125491  0.3124815  0.3125076  )
       372        C      tau( 372) = (  0.8121447  0.3127311  0.5624763  )
       373        C      tau( 373) = (  0.8123672  0.3125148  0.8124577  )
       374        C      tau( 374) = (  0.8124589  0.5625081  0.0625116  )
       375        C      tau( 375) = (  0.8121438  0.5624457  0.3127630  )
       376        C      tau( 376) = (  0.8123996  0.5624969  0.5625258  )
       377        C      tau( 377) = (  0.8125460  0.5625165  0.8125739  )
       378        C      tau( 378) = (  0.8124539  0.8124821  0.0625300  )
       379        C      tau( 379) = (  0.8123659  0.8124306  0.3125415  )
       380        C      tau( 380) = (  0.8125454  0.8125482  0.5625408  )
       381        C      tau( 381) = (  0.8125409  0.8125061  0.8125298  )
       382        C      tau( 382) = (  0.0624917  0.1875383  0.1875641  )
       383        C      tau( 383) = (  0.0624664  0.1875160  0.4375586  )
       384        C      tau( 384) = (  0.0623748  0.1874276  0.6875488  )
       385        C      tau( 385) = (  0.0624332  0.1874632  0.9375449  )
       386        C      tau( 386) = (  0.0624662  0.4375315  0.1875449  )
       387        C      tau( 387) = (  0.0626008  0.4375151  0.4375443  )
       388        C      tau( 388) = (  0.0625481  0.4374503  0.6874820  )
       389        C      tau( 389) = (  0.0623288  0.4374848  0.9375891  )
       390        C      tau( 390) = (  0.0623770  0.6875204  0.1874589  )
       391        C      tau( 391) = (  0.0625484  0.6874523  0.4374797  )
       392        C      tau( 392) = (  0.0626036  0.6873859  0.6874162  )
       393        C      tau( 393) = (  0.0625060  0.6874473  0.9373944  )
       394        C      tau( 394) = (  0.0624354  0.9375179  0.1874897  )
       395        C      tau( 395) = (  0.0623306  0.9375588  0.4375120  )
       396        C      tau( 396) = (  0.0625055  0.9373629  0.6874737  )
       397        C      tau( 397) = (  0.0624748  0.9374483  0.9374747  )
       398        C      tau( 398) = (  0.3124860  0.1876106  0.1876396  )
       399        C      tau( 399) = (  0.3124409  0.1874991  0.4376791  )
       400        C      tau( 400) = (  0.3123899  0.1871259  0.6877101  )
       401        C      tau( 401) = (  0.3124012  0.1873557  0.9376881  )
       402        C      tau( 402) = (  0.3124424  0.4376456  0.1875315  )
       403        C      tau( 403) = (  0.3137575  0.4380663  0.4380999  )
       404        C      tau( 404) = (  0.3118706  0.4374420  0.6885039  )
       405        C      tau( 405) = (  0.3124460  0.4374289  0.9375281  )
       406        C      tau( 406) = (  0.3123936  0.6876731  0.1871654  )
       407        C      tau( 407) = (  0.3118713  0.6884706  0.4374764  )
       408        C      tau( 408) = (  0.3129517  0.6869896  0.6870241  )
       409        C      tau( 409) = (  0.3125068  0.6874151  0.9373394  )
       410        C      tau( 410) = (  0.3124047  0.9376535  0.1873914  )
       411        C      tau( 411) = (  0.3124471  0.9374967  0.4374592  )
       412        C      tau( 412) = (  0.3125060  0.9373022  0.6874460  )
       413        C      tau( 413) = (  0.3124555  0.9373855  0.9374193  )
       414        C      tau( 414) = (  0.5624467  0.1873563  0.1873830  )
       415        C      tau( 415) = (  0.5623973  0.1875135  0.4376411  )
       416        C      tau( 416) = (  0.5623522  0.1873225  0.6877238  )
       417        C      tau( 417) = (  0.5624488  0.1874382  0.9375731  )
       418        C      tau( 418) = (  0.5623986  0.4376111  0.1875429  )
       419        C      tau( 419) = (  0.5616691  0.4378780  0.6868108  )
       420        C      tau( 420) = (  0.5624667  0.4374487  0.9375321  )
       421        C      tau( 421) = (  0.5623559  0.6876903  0.1873569  )
       422        C      tau( 422) = (  0.5616712  0.6867815  0.4379085  )
       423        C      tau( 423) = (  0.5627536  0.6877231  0.6877542  )
       424        C      tau( 424) = (  0.5624861  0.6874679  0.9374602  )
       425        C      tau( 425) = (  0.5624502  0.9375456  0.1874663  )
       426        C      tau( 426) = (  0.5624672  0.9375052  0.4374753  )
       427        C      tau( 427) = (  0.5624855  0.9374316  0.6874941  )
       428        C      tau( 428) = (  0.5624876  0.9374538  0.9374819  )
       429        C      tau( 429) = (  0.8124763  0.1875038  0.1875269  )
       430        C      tau( 430) = (  0.8126273  0.1873346  0.4375600  )
       431        C      tau( 431) = (  0.8123405  0.1875758  0.6874973  )
       432        C      tau( 432) = (  0.8124480  0.1874958  0.9374990  )
       433        C      tau( 433) = (  0.8126261  0.4375342  0.1873627  )
       434        C      tau( 434) = (  0.8123220  0.4375233  0.4375537  )
       435        C      tau( 435) = (  0.8122713  0.4375798  0.6874548  )
       436        C      tau( 436) = (  0.8124452  0.4374964  0.9374902  )
       437        C      tau( 437) = (  0.8123390  0.6874701  0.1876049  )
       438        C      tau( 438) = (  0.8122700  0.6874259  0.4376093  )
       439        C      tau( 439) = (  0.8126258  0.6875605  0.6875864  )
       440        C      tau( 440) = (  0.8125139  0.6875037  0.9375249  )
       441        C      tau( 441) = (  0.8124483  0.9374747  0.1875195  )
       442        C      tau( 442) = (  0.8124451  0.9374653  0.4375194  )
       443        C      tau( 443) = (  0.8125133  0.9375000  0.6875266  )
       444        C      tau( 444) = (  0.8124893  0.9374914  0.9375149  )
       445        C      tau( 445) = (  0.1874445  0.1875028  0.0626043  )
       446        C      tau( 446) = (  0.1875482  0.1876156  0.3126133  )
       447        C      tau( 447) = (  0.1871349  0.1870939  0.5625592  )
       448        C      tau( 448) = (  0.1874147  0.1873777  0.8125834  )
       449        C      tau( 449) = (  0.1874155  0.4375086  0.0624949  )
       450        C      tau( 450) = (  0.1877084  0.4376366  0.3126077  )
       451        C      tau( 451) = (  0.1878200  0.4374333  0.5625028  )
       452        C      tau( 452) = (  0.1871586  0.4374251  0.8128729  )
       453        C      tau( 453) = (  0.1874093  0.6875143  0.0623335  )
       454        C      tau( 454) = (  0.1873988  0.6875795  0.3124024  )
       455        C      tau( 455) = (  0.1878061  0.6872995  0.5622933  )
       456        C      tau( 456) = (  0.1876678  0.6873042  0.8122636  )
       457        C      tau( 457) = (  0.1874423  0.9374972  0.0624544  )
       458        C      tau( 458) = (  0.1873812  0.9376127  0.3124535  )
       459        C      tau( 459) = (  0.1874988  0.9373744  0.5624566  )
       460        C      tau( 460) = (  0.1874847  0.9373257  0.8124429  )
       461        C      tau( 461) = (  0.4374481  0.1874835  0.0625673  )
       462        C      tau( 462) = (  0.4374365  0.1875778  0.3126447  )
       463        C      tau( 463) = (  0.4374230  0.1873919  0.5626634  )
       464        C      tau( 464) = (  0.4374905  0.1868343  0.8131568  )
       465        C      tau( 465) = (  0.4374453  0.4375145  0.0625247  )
       466        C      tau( 466) = (  0.4376462  0.4380936  0.3129373  )
       467        C      tau( 467) = (  0.4374480  0.4373043  0.8125733  )
       468        C      tau( 468) = (  0.4374454  0.6875482  0.0623745  )
       469        C      tau( 469) = (  0.4377272  0.6891062  0.3109738  )
       470        C      tau( 470) = (  0.4383317  0.6864697  0.5615194  )
       471        C      tau( 471) = (  0.4375925  0.6872611  0.8122536  )
       472        C      tau( 472) = (  0.4374737  0.9376241  0.0623141  )
       473        C      tau( 473) = (  0.4374411  0.9375733  0.3124361  )
       474        C      tau( 474) = (  0.4374732  0.9374273  0.5624689  )
       475        C      tau( 475) = (  0.4374853  0.9373303  0.8124444  )
       476        C      tau( 476) = (  0.6874825  0.1874842  0.0625042  )
       477        C      tau( 477) = (  0.6874838  0.1874249  0.3125231  )
       478        C      tau( 478) = (  0.6873710  0.1874935  0.5626019  )
       479        C      tau( 479) = (  0.6873994  0.1875318  0.8124767  )
       480        C      tau( 480) = (  0.6874608  0.4375172  0.0625199  )
       481        C      tau( 481) = (  0.6880599  0.4376400  0.3118751  )
       482        C      tau( 482) = (  0.6863965  0.4383056  0.5619981  )
       483        C      tau( 483) = (  0.6873847  0.4374966  0.8124505  )
       484        C      tau( 484) = (  0.6874740  0.6875258  0.0624728  )
       485        C      tau( 485) = (  0.6870946  0.6873375  0.3127299  )
       486        C      tau( 486) = (  0.6877954  0.6879162  0.5627239  )
       487        C      tau( 487) = (  0.6875783  0.6875560  0.8126405  )
       488        C      tau( 488) = (  0.6874721  0.9374804  0.0625157  )
       489        C      tau( 489) = (  0.6874620  0.9374986  0.3125104  )
       490        C      tau( 490) = (  0.6874817  0.9374914  0.5625074  )
       491        C      tau( 491) = (  0.6875103  0.9374883  0.8125329  )
       492        C      tau( 492) = (  0.9374651  0.1874987  0.0625294  )
       493        C      tau( 493) = (  0.9375035  0.1875084  0.3125298  )
       494        C      tau( 494) = (  0.9373812  0.1875622  0.5625194  )
       495        C      tau( 495) = (  0.9374066  0.1874826  0.8125121  )
       496        C      tau( 496) = (  0.9374660  0.4375119  0.0624986  )
       497        C      tau( 497) = (  0.9374464  0.4375247  0.3125649  )
       498        C      tau( 498) = (  0.9374515  0.4375013  0.5625125  )
       499        C      tau( 499) = (  0.9374242  0.4374914  0.8124601  )
       500        C      tau( 500) = (  0.9374267  0.6874872  0.0625070  )
       501        C      tau( 501) = (  0.9373936  0.6874726  0.3125506  )
       502        C      tau( 502) = (  0.9375097  0.6874443  0.5624936  )
       503        C      tau( 503) = (  0.9375499  0.6874722  0.8124838  )
       504        C      tau( 504) = (  0.9374640  0.9374881  0.0625041  )
       505        C      tau( 505) = (  0.9374200  0.9374840  0.3125117  )
       506        C      tau( 506) = (  0.9374588  0.9374436  0.5625045  )
       507        C      tau( 507) = (  0.9375007  0.9374631  0.8124963  )
       508        C      tau( 508) = (  0.5685039  0.4314642  0.4314953  )
       509        C      tau( 509) = (  0.4328016  0.4304106  0.5696143  )
       510        C      tau( 510) = (  0.4328027  0.5695835  0.4304419  )
       511        N      tau( 511) = (  0.5661467  0.5659448  0.5659742  )

     number of k points=     1
                       cart. coord. in units 2pi/alat
        k(    1) = (   0.0000000   0.0000000   0.0000000), wk =   1.0000000

                       cryst. coord.
        k(    1) = (   0.0000000   0.0000000   0.0000000), wk =   1.0000000

     Dense  grid:   948261 G-vectors     FFT dimensions: ( 160, 160, 160)

     Dynamical RAM for                 wfc:      38.88 MB

     Dynamical RAM for     wfc (w. buffer):      38.88 MB

     Dynamical RAM for           str. fact:       0.60 MB

     Dynamical RAM for           local pot:       0.00 MB

     Dynamical RAM for          nlocal pot:     154.01 MB

     Dynamical RAM for                qrad:       0.82 MB

     Dynamical RAM for          rho,v,vnew:       6.50 MB

     Dynamical RAM for               rhoin:       2.17 MB

     Dynamical RAM for            rho*nmix:       9.65 MB

     Dynamical RAM for           G-vectors:       1.28 MB

     Dynamical RAM for          h,s,v(r/c):       2.71 MB

     Dynamical RAM for          <psi|beta>:      32.19 MB

     Dynamical RAM for                 psi:      77.76 MB

     Dynamical RAM for                hpsi:      77.76 MB

     Dynamical RAM for      wfcinit/wfcrot:     102.14 MB

     Estimated static dynamical RAM per process >     209.85 MB

     Estimated max dynamical RAM per process >     409.91 MB

     Estimated total dynamical RAM >      37.98 GB
     Generating pointlists ...
     new r_m :   0.0424 (alat units)  1.1431 (a.u.) for type    1
     new r_m :   0.0431 (alat units)  1.1613 (a.u.) for type    2

     Initial potential from superposition of free atoms

     starting charge    2041.4445, renormalised to    2046.0000
     Starting wfcs are random

     total cpu time spent up to now is       16.1 secs

     Self-consistent Calculation

     iteration #  1     ecut=    80.00 Ry     beta= 0.70
     Davidson diagonalization with overlap

---- Real-time Memory Report at c_bands before calling an iterative solver
           513 MiB given to the printing process from OS
             0 MiB allocation reported by mallinfo(arena+hblkhd)
        119403 MiB available memory on the node where the printing process lives
------------------
     ethr =  1.00E-02,  avg # of iterations = 13.0

     total cpu time spent up to now is      118.0 secs

     total energy              =   -5823.98736744 Ry
     estimated scf accuracy    <      29.03662788 Ry

     total magnetization       =     2.00 Bohr mag/cell
     absolute magnetization    =     2.00 Bohr mag/cell

     iteration #  2     ecut=    80.00 Ry     beta= 0.70
     Davidson diagonalization with overlap

---- Real-time Memory Report at c_bands before calling an iterative solver
           631 MiB given to the printing process from OS
             0 MiB allocation reported by mallinfo(arena+hblkhd)
        117867 MiB available memory on the node where the printing process lives
------------------
     ethr =  1.42E-03,  avg # of iterations = 11.5

     total cpu time spent up to now is      145.3 secs

     total energy              =   -5828.14230437 Ry
     estimated scf accuracy    <       1.23409892 Ry

     total magnetization       =     2.00 Bohr mag/cell
     absolute magnetization    =     2.07 Bohr mag/cell

     iteration #  3     ecut=    80.00 Ry     beta= 0.70
     Davidson diagonalization with overlap

---- Real-time Memory Report at c_bands before calling an iterative solver
           652 MiB given to the printing process from OS
             0 MiB allocation reported by mallinfo(arena+hblkhd)
        117732 MiB available memory on the node where the printing process lives
------------------
     c_bands:  1 eigenvalues not converged
     ethr =  6.03E-05,  avg # of iterations = 20.0

     total cpu time spent up to now is      185.8 secs

     total energy              =   -5827.96088274 Ry
     estimated scf accuracy    <       5.23931116 Ry

     total magnetization       =     2.00 Bohr mag/cell
     absolute magnetization    =     2.24 Bohr mag/cell

     iteration #  4     ecut=    80.00 Ry     beta= 0.70
     Davidson diagonalization with overlap

---- Real-time Memory Report at c_bands before calling an iterative solver
           658 MiB given to the printing process from OS
             0 MiB allocation reported by mallinfo(arena+hblkhd)
        117730 MiB available memory on the node where the printing process lives
------------------
     c_bands:  1 eigenvalues not converged
     ethr =  6.03E-05,  avg # of iterations = 20.0

     total cpu time spent up to now is      220.6 secs

     total energy              =   -5829.05695262 Ry
     estimated scf accuracy    <       0.17443012 Ry

     total magnetization       =     2.00 Bohr mag/cell
     absolute magnetization    =     2.16 Bohr mag/cell

     iteration #  5     ecut=    80.00 Ry     beta= 0.70
     Davidson diagonalization with overlap

---- Real-time Memory Report at c_bands before calling an iterative solver
           658 MiB given to the printing process from OS
             0 MiB allocation reported by mallinfo(arena+hblkhd)
        117729 MiB available memory on the node where the printing process lives
------------------
     c_bands:  1 eigenvalues not converged
     ethr =  8.53E-06,  avg # of iterations = 20.0

     total cpu time spent up to now is      253.0 secs

     total energy              =   -5829.07601698 Ry
     estimated scf accuracy    <       0.05556927 Ry

     total magnetization       =     2.00 Bohr mag/cell
     absolute magnetization    =     2.19 Bohr mag/cell

     iteration #  6     ecut=    80.00 Ry     beta= 0.70
     Davidson diagonalization with overlap

---- Real-time Memory Report at c_bands before calling an iterative solver
           659 MiB given to the printing process from OS
             0 MiB allocation reported by mallinfo(arena+hblkhd)
        117723 MiB available memory on the node where the printing process lives
------------------
     c_bands:  1 eigenvalues not converged
     ethr =  2.72E-06,  avg # of iterations = 20.0

     total cpu time spent up to now is      280.9 secs

     total energy              =   -5829.08635689 Ry
     estimated scf accuracy    <       0.00418436 Ry

     total magnetization       =     2.00 Bohr mag/cell
     absolute magnetization    =     2.22 Bohr mag/cell

     iteration #  7     ecut=    80.00 Ry     beta= 0.70
     Davidson diagonalization with overlap

---- Real-time Memory Report at c_bands before calling an iterative solver
           659 MiB given to the printing process from OS
             0 MiB allocation reported by mallinfo(arena+hblkhd)
        117724 MiB available memory on the node where the printing process lives
------------------
     c_bands:  1 eigenvalues not converged
     ethr =  2.05E-07,  avg # of iterations = 19.0

     total cpu time spent up to now is      308.0 secs

     total energy              =   -5829.08796684 Ry
     estimated scf accuracy    <       0.00048819 Ry

     total magnetization       =     2.00 Bohr mag/cell
     absolute magnetization    =     2.24 Bohr mag/cell

     iteration #  8     ecut=    80.00 Ry     beta= 0.70
     Davidson diagonalization with overlap

---- Real-time Memory Report at c_bands before calling an iterative solver
           659 MiB given to the printing process from OS
             0 MiB allocation reported by mallinfo(arena+hblkhd)
        117528 MiB available memory on the node where the printing process lives
------------------
     c_bands:  2 eigenvalues not converged
     ethr =  2.39E-08,  avg # of iterations = 20.0

     total cpu time spent up to now is      335.0 secs

     total energy              =   -5829.08825212 Ry
     estimated scf accuracy    <       0.00029513 Ry

     total magnetization       =     2.00 Bohr mag/cell
     absolute magnetization    =     2.26 Bohr mag/cell

     iteration #  9     ecut=    80.00 Ry     beta= 0.70
     Davidson diagonalization with overlap

---- Real-time Memory Report at c_bands before calling an iterative solver
           663 MiB given to the printing process from OS
             0 MiB allocation reported by mallinfo(arena+hblkhd)
        117320 MiB available memory on the node where the printing process lives
------------------
     c_bands:  1 eigenvalues not converged
     ethr =  1.44E-08,  avg # of iterations = 20.0

     total cpu time spent up to now is      362.2 secs

     total energy              =   -5829.08835170 Ry
     estimated scf accuracy    <       0.00008190 Ry

     total magnetization       =     2.00 Bohr mag/cell
     absolute magnetization    =     2.27 Bohr mag/cell

     iteration # 10     ecut=    80.00 Ry     beta= 0.70
     Davidson diagonalization with overlap

---- Real-time Memory Report at c_bands before calling an iterative solver
           667 MiB given to the printing process from OS
             0 MiB allocation reported by mallinfo(arena+hblkhd)
        117321 MiB available memory on the node where the printing process lives
------------------
     ethr =  4.00E-09,  avg # of iterations = 18.5

     total cpu time spent up to now is      388.7 secs

     total energy              =   -5829.08837714 Ry
     estimated scf accuracy    <       0.00002690 Ry

     total magnetization       =     2.00 Bohr mag/cell
     absolute magnetization    =     2.28 Bohr mag/cell

     iteration # 11     ecut=    80.00 Ry     beta= 0.70
     Davidson diagonalization with overlap

---- Real-time Memory Report at c_bands before calling an iterative solver
           667 MiB given to the printing process from OS
             0 MiB allocation reported by mallinfo(arena+hblkhd)
        117233 MiB available memory on the node where the printing process lives
------------------
     c_bands:  2 eigenvalues not converged
     ethr =  1.31E-09,  avg # of iterations = 20.0

     total cpu time spent up to now is      425.0 secs

     total energy              =   -5829.08838422 Ry
     estimated scf accuracy    <       0.00000852 Ry

     total magnetization       =     2.00 Bohr mag/cell
     absolute magnetization    =     2.29 Bohr mag/cell

     iteration # 12     ecut=    80.00 Ry     beta= 0.70
     Davidson diagonalization with overlap

---- Real-time Memory Report at c_bands before calling an iterative solver
           669 MiB given to the printing process from OS
             0 MiB allocation reported by mallinfo(arena+hblkhd)
        117234 MiB available memory on the node where the printing process lives
------------------
     c_bands:  1 eigenvalues not converged
     ethr =  4.16E-10,  avg # of iterations = 20.0

     total cpu time spent up to now is      451.1 secs

     total energy              =   -5829.08838702 Ry
     estimated scf accuracy    <       0.00000124 Ry

     total magnetization       =     2.00 Bohr mag/cell
     absolute magnetization    =     2.29 Bohr mag/cell

     iteration # 13     ecut=    80.00 Ry     beta= 0.70
     Davidson diagonalization with overlap

---- Real-time Memory Report at c_bands before calling an iterative solver
           669 MiB given to the printing process from OS
             0 MiB allocation reported by mallinfo(arena+hblkhd)
        117232 MiB available memory on the node where the printing process lives
------------------
     c_bands:  1 eigenvalues not converged
     ethr =  6.04E-11,  avg # of iterations = 20.0

     total cpu time spent up to now is      477.2 secs

     total energy              =   -5829.08838760 Ry
     estimated scf accuracy    <       0.00000027 Ry

     total magnetization       =     2.00 Bohr mag/cell
     absolute magnetization    =     2.29 Bohr mag/cell

     iteration # 14     ecut=    80.00 Ry     beta= 0.70
     Davidson diagonalization with overlap

---- Real-time Memory Report at c_bands before calling an iterative solver
           669 MiB given to the printing process from OS
             0 MiB allocation reported by mallinfo(arena+hblkhd)
        117223 MiB available memory on the node where the printing process lives
------------------
     ethr =  1.31E-11,  avg # of iterations = 15.5

     total cpu time spent up to now is      505.1 secs

     total energy              =   -5829.08838772 Ry
     estimated scf accuracy    <       0.00000013 Ry

     total magnetization       =     2.00 Bohr mag/cell
     absolute magnetization    =     2.30 Bohr mag/cell

     iteration # 15     ecut=    80.00 Ry     beta= 0.70
     Davidson diagonalization with overlap

---- Real-time Memory Report at c_bands before calling an iterative solver
           669 MiB given to the printing process from OS
             0 MiB allocation reported by mallinfo(arena+hblkhd)
        117211 MiB available memory on the node where the printing process lives
------------------
     ethr =  6.24E-12,  avg # of iterations = 20.0

     total cpu time spent up to now is      531.3 secs

     total energy              =   -5829.08838776 Ry
     estimated scf accuracy    <       0.00000007 Ry

     total magnetization       =     2.00 Bohr mag/cell
     absolute magnetization    =     2.30 Bohr mag/cell

     iteration # 16     ecut=    80.00 Ry     beta= 0.70
     Davidson diagonalization with overlap

---- Real-time Memory Report at c_bands before calling an iterative solver
           669 MiB given to the printing process from OS
             0 MiB allocation reported by mallinfo(arena+hblkhd)
        117210 MiB available memory on the node where the printing process lives
------------------
     c_bands:  1 eigenvalues not converged
     ethr =  3.22E-12,  avg # of iterations = 20.0

     total cpu time spent up to now is      568.6 secs

     total energy              =   -5829.08838778 Ry
     estimated scf accuracy    <          5.6E-09 Ry

     total magnetization       =     2.00 Bohr mag/cell
     absolute magnetization    =     2.30 Bohr mag/cell

     iteration # 17     ecut=    80.00 Ry     beta= 0.70
     Davidson diagonalization with overlap

---- Real-time Memory Report at c_bands before calling an iterative solver
           669 MiB given to the printing process from OS
             0 MiB allocation reported by mallinfo(arena+hblkhd)
        117208 MiB available memory on the node where the printing process lives
------------------
     ethr =  2.72E-13,  avg # of iterations = 15.5

     total cpu time spent up to now is      604.6 secs

     total energy              =   -5829.08838779 Ry
     estimated scf accuracy    <          3.4E-09 Ry

     total magnetization       =     2.00 Bohr mag/cell
     absolute magnetization    =     2.30 Bohr mag/cell

     iteration # 18     ecut=    80.00 Ry     beta= 0.70
     Davidson diagonalization with overlap

---- Real-time Memory Report at c_bands before calling an iterative solver
           670 MiB given to the printing process from OS
             0 MiB allocation reported by mallinfo(arena+hblkhd)
        116946 MiB available memory on the node where the printing process lives
------------------
     ethr =  1.65E-13,  avg # of iterations = 17.0

     total cpu time spent up to now is      631.3 secs

     total energy              =   -5829.08838779 Ry
     estimated scf accuracy    <          1.2E-09 Ry

     total magnetization       =     2.00 Bohr mag/cell
     absolute magnetization    =     2.30 Bohr mag/cell

     iteration # 19     ecut=    80.00 Ry     beta= 0.70
     Davidson diagonalization with overlap

---- Real-time Memory Report at c_bands before calling an iterative solver
           675 MiB given to the printing process from OS
             0 MiB allocation reported by mallinfo(arena+hblkhd)
        116945 MiB available memory on the node where the printing process lives
------------------
     c_bands:  1 eigenvalues not converged
     ethr =  1.00E-13,  avg # of iterations = 20.0

     total cpu time spent up to now is      658.2 secs

     total energy              =   -5829.08838779 Ry
     estimated scf accuracy    <          6.2E-10 Ry

     total magnetization       =     2.00 Bohr mag/cell
     absolute magnetization    =     2.30 Bohr mag/cell

     iteration # 20     ecut=    80.00 Ry     beta= 0.70
     Davidson diagonalization with overlap

---- Real-time Memory Report at c_bands before calling an iterative solver
           675 MiB given to the printing process from OS
             0 MiB allocation reported by mallinfo(arena+hblkhd)
        116947 MiB available memory on the node where the printing process lives
------------------
     ethr =  1.00E-13,  avg # of iterations = 12.0

     total cpu time spent up to now is      676.0 secs

     total energy              =   -5829.08838779 Ry
     estimated scf accuracy    <          1.5E-10 Ry

     total magnetization       =     2.00 Bohr mag/cell
     absolute magnetization    =     2.30 Bohr mag/cell

     iteration # 21     ecut=    80.00 Ry     beta= 0.70
     Davidson diagonalization with overlap

---- Real-time Memory Report at c_bands before calling an iterative solver
           675 MiB given to the printing process from OS
             0 MiB allocation reported by mallinfo(arena+hblkhd)
        116946 MiB available memory on the node where the printing process lives
------------------
     ethr =  1.00E-13,  avg # of iterations =  7.0
 
     Magnetic moment per site  (integrated on atomic sphere of radius R)
     atom   1 (R=0.042)  charge=  1.7872  magn= -0.0000
     atom   2 (R=0.042)  charge=  1.7872  magn= -0.0000
     atom   3 (R=0.042)  charge=  1.7888  magn=  0.0002
     atom   4 (R=0.042)  charge=  1.7870  magn=  0.0000
     atom   5 (R=0.042)  charge=  1.7871  magn= -0.0000
     atom   6 (R=0.042)  charge=  1.7873  magn= -0.0000
     atom   7 (R=0.042)  charge=  1.7871  magn= -0.0000
     atom   8 (R=0.042)  charge=  1.7873  magn= -0.0000
     atom   9 (R=0.042)  charge=  1.7888  magn=  0.0002
     atom  10 (R=0.042)  charge=  1.7871  magn= -0.0000
     atom  11 (R=0.042)  charge=  1.7869  magn= -0.0000
     atom  12 (R=0.042)  charge=  1.7872  magn=  0.0000
     atom  13 (R=0.042)  charge=  1.7870  magn=  0.0000
     atom  14 (R=0.042)  charge=  1.7873  magn= -0.0000
     atom  15 (R=0.042)  charge=  1.7872  magn=  0.0000
     atom  16 (R=0.042)  charge=  1.7872  magn= -0.0000
     atom  17 (R=0.042)  charge=  1.7871  magn= -0.0000
     atom  18 (R=0.042)  charge=  1.7876  magn= -0.0000
     atom  19 (R=0.042)  charge=  1.7874  magn= -0.0000
     atom  20 (R=0.042)  charge=  1.7874  magn= -0.0000
     atom  21 (R=0.042)  charge=  1.7876  magn= -0.0000
     atom  22 (R=0.042)  charge=  1.7861  magn= -0.0001
     atom  23 (R=0.042)  charge=  1.7912  magn=  0.0019
     atom  24 (R=0.042)  charge=  1.7868  magn= -0.0001
     atom  25 (R=0.042)  charge=  1.7875  magn= -0.0000
     atom  26 (R=0.042)  charge=  1.7912  magn=  0.0019
     atom  27 (R=0.042)  charge=  1.7887  magn= -0.0009
     atom  28 (R=0.042)  charge=  1.7918  magn=  0.0030
     atom  29 (R=0.042)  charge=  1.7874  magn= -0.0000
     atom  30 (R=0.042)  charge=  1.7867  magn= -0.0001
     atom  31 (R=0.042)  charge=  1.7918  magn=  0.0030
     atom  32 (R=0.042)  charge=  1.7859  magn=  0.0000
     atom  33 (R=0.042)  charge=  1.7895  magn=  0.0002
     atom  34 (R=0.042)  charge=  1.7875  magn= -0.0000
     atom  35 (R=0.042)  charge=  1.7873  magn= -0.0001
     atom  36 (R=0.042)  charge=  1.7876  magn=  0.0000
     atom  37 (R=0.042)  charge=  1.7875  magn= -0.0000
     atom  38 (R=0.042)  charge=  1.7899  magn=  0.0020
     atom  39 (R=0.042)  charge=  1.7881  magn= -0.0010
     atom  40 (R=0.042)  charge=  1.7956  magn=  0.0029
     atom  41 (R=0.042)  charge=  1.7873  magn= -0.0001
     atom  42 (R=0.042)  charge=  1.7881  magn= -0.0010
     atom  43 (R=0.042)  charge=  1.7901  magn= -0.0006
     atom  44 (R=0.042)  charge=  1.7876  magn=  0.0000
     atom  45 (R=0.042)  charge=  1.7955  magn=  0.0029
     atom  46 (R=0.042)  charge=  1.7901  magn= -0.0006
     atom  47 (R=0.042)  charge=  1.7886  magn=  0.0001
     atom  48 (R=0.042)  charge=  1.7873  magn=  0.0000
     atom  49 (R=0.042)  charge=  1.7876  magn= -0.0000
     atom  50 (R=0.042)  charge=  1.7875  magn=  0.0000
     atom  51 (R=0.042)  charge=  1.7877  magn= -0.0000
     atom  52 (R=0.042)  charge=  1.7876  magn= -0.0000
     atom  53 (R=0.042)  charge=  1.7868  magn= -0.0001
     atom  54 (R=0.042)  charge=  1.7905  magn=  0.0031
     atom  55 (R=0.042)  charge=  1.7862  magn=  0.0000
     atom  56 (R=0.042)  charge=  1.7875  magn=  0.0000
     atom  57 (R=0.042)  charge=  1.7905  magn=  0.0031
     atom  58 (R=0.042)  charge=  1.7889  magn= -0.0006
     atom  59 (R=0.042)  charge=  1.7889  magn=  0.0001
     atom  60 (R=0.042)  charge=  1.7878  magn= -0.0000
     atom  61 (R=0.042)  charge=  1.7862  magn=  0.0000
     atom  62 (R=0.042)  charge=  1.7889  magn=  0.0001
     atom  63 (R=0.042)  charge=  1.7873  magn= -0.0000
     atom  64 (R=0.042)  charge=  1.7872  magn= -0.0000
     atom  65 (R=0.042)  charge=  1.7875  magn= -0.0000
     atom  66 (R=0.042)  charge=  1.7871  magn= -0.0000
     atom  67 (R=0.042)  charge=  1.7872  magn= -0.0000
     atom  68 (R=0.042)  charge=  1.7874  magn= -0.0000
     atom  69 (R=0.042)  charge=  1.7869  magn=  0.0000
     atom  70 (R=0.042)  charge=  1.7871  magn=  0.0000
     atom  71 (R=0.042)  charge=  1.7874  magn= -0.0000
     atom  72 (R=0.042)  charge=  1.7871  magn= -0.0000
     atom  73 (R=0.042)  charge=  1.7871  magn=  0.0000
     atom  74 (R=0.042)  charge=  1.7870  magn= -0.0000
     atom  75 (R=0.042)  charge=  1.7874  magn= -0.0000
     atom  76 (R=0.042)  charge=  1.7872  magn= -0.0000
     atom  77 (R=0.042)  charge=  1.7874  magn= -0.0000
     atom  78 (R=0.042)  charge=  1.7874  magn= -0.0000
     atom  79 (R=0.042)  charge=  1.7870  magn=  0.0000
     atom  80 (R=0.042)  charge=  1.7872  magn= -0.0000
     atom  81 (R=0.042)  charge=  1.7871  magn=  0.0000
     atom  82 (R=0.042)  charge=  1.7876  magn= -0.0001
     atom  83 (R=0.042)  charge=  1.7872  magn= -0.0000
     atom  84 (R=0.042)  charge=  1.7871  magn=  0.0000
     atom  85 (R=0.042)  charge=  1.7827  magn= -0.0004
     atom  86 (R=0.042)  charge=  1.7857  magn= -0.0011
     atom  87 (R=0.042)  charge=  1.7878  magn= -0.0001
     atom  88 (R=0.042)  charge=  1.7875  magn= -0.0001
     atom  89 (R=0.042)  charge=  1.7857  magn= -0.0011
     atom  90 (R=0.042)  charge=  1.7828  magn= -0.0007
     atom  91 (R=0.042)  charge=  1.7862  magn= -0.0000
     atom  92 (R=0.042)  charge=  1.7872  magn= -0.0000
     atom  93 (R=0.042)  charge=  1.7877  magn= -0.0001
     atom  94 (R=0.042)  charge=  1.7862  magn= -0.0000
     atom  95 (R=0.042)  charge=  1.7870  magn=  0.0000
     atom  96 (R=0.042)  charge=  1.7883  magn=  0.0004
     atom  97 (R=0.042)  charge=  1.7871  magn= -0.0001
     atom  98 (R=0.042)  charge=  1.7874  magn= -0.0001
     atom  99 (R=0.042)  charge=  1.7903  magn=  0.0005
     atom 100 (R=0.042)  charge=  1.7871  magn= -0.0001
     atom 101 (R=0.042)  charge=  1.7890  magn= -0.0085
     atom 102 (R=0.042)  charge=  1.8034  magn= -0.0051
     atom 103 (R=0.042)  charge=  1.7877  magn= -0.0001
     atom 104 (R=0.042)  charge=  1.7874  magn= -0.0001
     atom 105 (R=0.042)  charge=  1.8034  magn= -0.0051
     atom 106 (R=0.042)  charge=  1.7581  magn=  0.0009
     atom 107 (R=0.042)  charge=  1.7874  magn= -0.0000
     atom 108 (R=0.042)  charge=  1.7903  magn=  0.0005
     atom 109 (R=0.042)  charge=  1.7877  magn= -0.0001
     atom 110 (R=0.042)  charge=  1.7874  magn= -0.0000
     atom 111 (R=0.042)  charge=  1.7879  magn=  0.0000
     atom 112 (R=0.042)  charge=  1.7874  magn= -0.0000
     atom 113 (R=0.042)  charge=  1.7874  magn= -0.0001
     atom 114 (R=0.042)  charge=  1.7873  magn= -0.0000
     atom 115 (R=0.042)  charge=  1.7872  magn=  0.0000
     atom 116 (R=0.042)  charge=  1.7874  magn= -0.0001
     atom 117 (R=0.042)  charge=  1.7859  magn= -0.0010
     atom 118 (R=0.042)  charge=  1.7825  magn= -0.0002
     atom 119 (R=0.042)  charge=  1.7871  magn=  0.0000
     atom 120 (R=0.042)  charge=  1.7873  magn= -0.0000
     atom 121 (R=0.042)  charge=  1.7825  magn= -0.0002
     atom 122 (R=0.042)  charge=  1.7873  magn= -0.0000
     atom 123 (R=0.042)  charge=  1.7877  magn= -0.0000
     atom 124 (R=0.042)  charge=  1.7871  magn=  0.0000
     atom 125 (R=0.042)  charge=  1.7871  magn=  0.0000
     atom 126 (R=0.042)  charge=  1.7878  magn= -0.0000
     atom 127 (R=0.042)  charge=  1.7876  magn=  0.0000
     atom 128 (R=0.042)  charge=  1.7872  magn= -0.0000
     atom 129 (R=0.042)  charge=  1.7876  magn= -0.0000
     atom 130 (R=0.042)  charge=  1.7872  magn= -0.0000
     atom 131 (R=0.042)  charge=  1.7870  magn= -0.0000
     atom 132 (R=0.042)  charge=  1.7871  magn= -0.0000
     atom 133 (R=0.042)  charge=  1.7864  magn=  0.0000
     atom 134 (R=0.042)  charge=  1.7872  magn= -0.0001
     atom 135 (R=0.042)  charge=  1.7872  magn= -0.0000
     atom 136 (R=0.042)  charge=  1.7888  magn=  0.0004
     atom 137 (R=0.042)  charge=  1.7868  magn= -0.0001
     atom 138 (R=0.042)  charge=  1.7869  magn= -0.0001
     atom 139 (R=0.042)  charge=  1.7890  magn=  0.0005
     atom 140 (R=0.042)  charge=  1.7871  magn= -0.0000
     atom 141 (R=0.042)  charge=  1.7873  magn= -0.0001
     atom 142 (R=0.042)  charge=  1.7865  magn= -0.0000
     atom 143 (R=0.042)  charge=  1.7867  magn=  0.0000
     atom 144 (R=0.042)  charge=  1.7877  magn= -0.0000
     atom 145 (R=0.042)  charge=  1.7874  magn=  0.0000
     atom 146 (R=0.042)  charge=  1.7874  magn=  0.0000
     atom 147 (R=0.042)  charge=  1.7876  magn= -0.0000
     atom 148 (R=0.042)  charge=  1.7871  magn=  0.0000
     atom 149 (R=0.042)  charge=  1.7848  magn= -0.0005
     atom 150 (R=0.042)  charge=  1.7862  magn= -0.0011
     atom 151 (R=0.042)  charge=  1.7879  magn= -0.0001
     atom 152 (R=0.042)  charge=  1.7873  magn= -0.0001
     atom 153 (R=0.042)  charge=  1.7912  magn= -0.0081
     atom 154 (R=0.042)  charge=  1.7933  magn= -0.0052
     atom 155 (R=0.042)  charge=  1.7876  magn= -0.0000
     atom 156 (R=0.042)  charge=  1.7877  magn= -0.0001
     atom 157 (R=0.042)  charge=  1.7870  magn= -0.0011
     atom 158 (R=0.042)  charge=  1.7824  magn= -0.0002
     atom 159 (R=0.042)  charge=  1.7868  magn=  0.0000
     atom 160 (R=0.042)  charge=  1.7877  magn= -0.0000
     atom 161 (R=0.042)  charge=  1.7874  magn=  0.0000
     atom 162 (R=0.042)  charge=  1.7875  magn= -0.0000
     atom 163 (R=0.042)  charge=  1.7880  magn= -0.0000
     atom 164 (R=0.042)  charge=  1.7874  magn= -0.0001
     atom 165 (R=0.042)  charge=  1.7858  magn= -0.0011
     atom 166 (R=0.042)  charge=  1.7854  magn= -0.0007
     atom 167 (R=0.042)  charge=  1.7868  magn= -0.0000
     atom 168 (R=0.042)  charge=  1.7872  magn= -0.0001
     atom 169 (R=0.042)  charge=  1.7896  magn= -0.0053
     atom 170 (R=0.042)  charge=  1.7580  magn=  0.0010
     atom 171 (R=0.042)  charge=  1.7875  magn= -0.0000
     atom 172 (R=0.042)  charge=  1.7877  magn= -0.0000
     atom 173 (R=0.042)  charge=  1.7828  magn= -0.0002
     atom 174 (R=0.042)  charge=  1.7879  magn= -0.0000
     atom 175 (R=0.042)  charge=  1.7879  magn= -0.0000
     atom 176 (R=0.042)  charge=  1.7872  magn= -0.0000
     atom 177 (R=0.042)  charge=  1.7875  magn= -0.0000
     atom 178 (R=0.042)  charge=  1.7876  magn=  0.0000
     atom 179 (R=0.042)  charge=  1.7872  magn=  0.0000
     atom 180 (R=0.042)  charge=  1.7873  magn= -0.0000
     atom 181 (R=0.042)  charge=  1.7873  magn= -0.0001
     atom 182 (R=0.042)  charge=  1.7861  magn= -0.0000
     atom 183 (R=0.042)  charge=  1.7872  magn=  0.0000
     atom 184 (R=0.042)  charge=  1.7884  magn=  0.0005
     atom 185 (R=0.042)  charge=  1.7870  magn= -0.0000
     atom 186 (R=0.042)  charge=  1.7870  magn= -0.0000
     atom 187 (R=0.042)  charge=  1.7880  magn=  0.0000
     atom 188 (R=0.042)  charge=  1.7870  magn=  0.0000
     atom 189 (R=0.042)  charge=  1.7868  magn=  0.0000
     atom 190 (R=0.042)  charge=  1.7876  magn= -0.0000
     atom 191 (R=0.042)  charge=  1.7875  magn=  0.0000
     atom 192 (R=0.042)  charge=  1.7871  magn= -0.0000
     atom 193 (R=0.042)  charge=  1.7870  magn= -0.0000
     atom 194 (R=0.042)  charge=  1.7888  magn=  0.0004
     atom 195 (R=0.042)  charge=  1.7871  magn= -0.0000
     atom 196 (R=0.042)  charge=  1.7876  magn= -0.0000
     atom 197 (R=0.042)  charge=  1.7864  magn=  0.0000
     atom 198 (R=0.042)  charge=  1.7868  magn= -0.0001
     atom 199 (R=0.042)  charge=  1.7873  magn= -0.0001
     atom 200 (R=0.042)  charge=  1.7872  magn= -0.0000
     atom 201 (R=0.042)  charge=  1.7872  magn= -0.0001
     atom 202 (R=0.042)  charge=  1.7869  magn= -0.0001
     atom 203 (R=0.042)  charge=  1.7865  magn= -0.0000
     atom 204 (R=0.042)  charge=  1.7870  magn= -0.0000
     atom 205 (R=0.042)  charge=  1.7872  magn= -0.0000
     atom 206 (R=0.042)  charge=  1.7890  magn=  0.0005
     atom 207 (R=0.042)  charge=  1.7867  magn=  0.0000
     atom 208 (R=0.042)  charge=  1.7877  magn= -0.0000
     atom 209 (R=0.042)  charge=  1.7871  magn=  0.0000
     atom 210 (R=0.042)  charge=  1.7873  magn= -0.0001
     atom 211 (R=0.042)  charge=  1.7878  magn= -0.0001
     atom 212 (R=0.042)  charge=  1.7873  magn=  0.0000
     atom 213 (R=0.042)  charge=  1.7848  magn= -0.0005
     atom 214 (R=0.042)  charge=  1.7912  magn= -0.0081
     atom 215 (R=0.042)  charge=  1.7870  magn= -0.0011
     atom 216 (R=0.042)  charge=  1.7874  magn=  0.0000
     atom 217 (R=0.042)  charge=  1.7862  magn= -0.0011
     atom 218 (R=0.042)  charge=  1.7933  magn= -0.0052
     atom 219 (R=0.042)  charge=  1.7824  magn= -0.0002
     atom 220 (R=0.042)  charge=  1.7876  magn= -0.0000
     atom 221 (R=0.042)  charge=  1.7879  magn= -0.0001
     atom 222 (R=0.042)  charge=  1.7876  magn= -0.0000
     atom 223 (R=0.042)  charge=  1.7868  magn=  0.0000
     atom 224 (R=0.042)  charge=  1.7877  magn= -0.0000
     atom 225 (R=0.042)  charge=  1.7874  magn= -0.0001
     atom 226 (R=0.042)  charge=  1.7872  magn= -0.0001
     atom 227 (R=0.042)  charge=  1.7876  magn= -0.0000
     atom 228 (R=0.042)  charge=  1.7874  magn=  0.0000
     atom 229 (R=0.042)  charge=  1.7858  magn= -0.0011
     atom 230 (R=0.042)  charge=  1.7896  magn= -0.0053
     atom 231 (R=0.042)  charge=  1.7828  magn= -0.0002
     atom 232 (R=0.042)  charge=  1.7875  magn= -0.0000
     atom 233 (R=0.042)  charge=  1.7854  magn= -0.0007
     atom 234 (R=0.042)  charge=  1.7581  magn=  0.0010
     atom 235 (R=0.042)  charge=  1.7879  magn= -0.0000
     atom 236 (R=0.042)  charge=  1.7881  magn= -0.0000
     atom 237 (R=0.042)  charge=  1.7868  magn= -0.0000
     atom 238 (R=0.042)  charge=  1.7876  magn= -0.0000
     atom 239 (R=0.042)  charge=  1.7879  magn= -0.0000
     atom 240 (R=0.042)  charge=  1.7873  magn= -0.0000
     atom 241 (R=0.042)  charge=  1.7873  magn= -0.0000
     atom 242 (R=0.042)  charge=  1.7884  magn=  0.0005
     atom 243 (R=0.042)  charge=  1.7870  magn=  0.0000
     atom 244 (R=0.042)  charge=  1.7875  magn= -0.0000
     atom 245 (R=0.042)  charge=  1.7874  magn= -0.0001
     atom 246 (R=0.042)  charge=  1.7870  magn= -0.0000
     atom 247 (R=0.042)  charge=  1.7868  magn=  0.0000
     atom 248 (R=0.042)  charge=  1.7876  magn=  0.0000
     atom 249 (R=0.042)  charge=  1.7861  magn= -0.0000
     atom 250 (R=0.042)  charge=  1.7870  magn= -0.0000
     atom 251 (R=0.042)  charge=  1.7876  magn= -0.0000
     atom 252 (R=0.042)  charge=  1.7872  magn= -0.0000
     atom 253 (R=0.042)  charge=  1.7871  magn=  0.0000
     atom 254 (R=0.042)  charge=  1.7880  magn=  0.0000
     atom 255 (R=0.042)  charge=  1.7875  magn=  0.0000
     atom 256 (R=0.042)  charge=  1.7877  magn=  0.0000
     atom 257 (R=0.042)  charge=  1.7869  magn= -0.0000
     atom 258 (R=0.042)  charge=  1.7879  magn=  0.0001
     atom 259 (R=0.042)  charge=  1.7876  magn=  0.0001
     atom 260 (R=0.042)  charge=  1.7867  magn=  0.0000
     atom 261 (R=0.042)  charge=  1.7852  magn=  0.0001
     atom 262 (R=0.042)  charge=  1.7871  magn=  0.0011
     atom 263 (R=0.042)  charge=  1.7880  magn=  0.0001
     atom 264 (R=0.042)  charge=  1.7893  magn=  0.0012
     atom 265 (R=0.042)  charge=  1.7860  magn=  0.0014
     atom 266 (R=0.042)  charge=  1.7851  magn=  0.0000
     atom 267 (R=0.042)  charge=  1.7864  magn=  0.0000
     atom 268 (R=0.042)  charge=  1.7875  magn=  0.0003
     atom 269 (R=0.042)  charge=  1.7894  magn=  0.0014
     atom 270 (R=0.042)  charge=  1.7868  magn=  0.0000
     atom 271 (R=0.042)  charge=  1.7876  magn=  0.0000
     atom 272 (R=0.042)  charge=  1.7871  magn=  0.0000
     atom 273 (R=0.042)  charge=  1.7872  magn=  0.0003
     atom 274 (R=0.042)  charge=  1.7874  magn=  0.0001
     atom 275 (R=0.042)  charge=  1.7891  magn=  0.0002
     atom 276 (R=0.042)  charge=  1.7862  magn=  0.0001
     atom 277 (R=0.042)  charge=  1.7865  magn=  0.0069
     atom 278 (R=0.042)  charge=  1.7929  magn=  0.0186
     atom 279 (R=0.042)  charge=  1.7872  magn=  0.0001
     atom 280 (R=0.042)  charge=  1.7872  magn=  0.0014
     atom 281 (R=0.042)  charge=  1.7851  magn=  0.0041
     atom 282 (R=0.042)  charge=  1.7873  magn=  0.0002
     atom 283 (R=0.042)  charge=  1.7913  magn=  0.0015
     atom 284 (R=0.042)  charge=  1.7876  magn=  0.0007
     atom 285 (R=0.042)  charge=  1.7868  magn=  0.0001
     atom 286 (R=0.042)  charge=  1.7871  magn=  0.0000
     atom 287 (R=0.042)  charge=  1.7876  magn=  0.0001
     atom 288 (R=0.042)  charge=  1.7872  magn=  0.0001
     atom 289 (R=0.042)  charge=  1.7875  magn=  0.0000
     atom 290 (R=0.042)  charge=  1.7873  magn=  0.0000
     atom 291 (R=0.042)  charge=  1.7872  magn=  0.0010
     atom 292 (R=0.042)  charge=  1.7851  magn=  0.0178
     atom 293 (R=0.042)  charge=  1.7874  magn=  0.0003
     atom 294 (R=0.042)  charge=  1.7875  magn=  0.0000
     atom 295 (R=0.042)  charge=  1.7863  magn=  0.0001
     atom 296 (R=0.042)  charge=  1.7849  magn=  0.0041
     atom 297 (R=0.042)  charge=  1.7913  magn=  0.0001
     atom 298 (R=0.042)  charge=  1.7874  magn=  0.0001
     atom 299 (R=0.042)  charge=  1.7869  magn=  0.0000
     atom 300 (R=0.042)  charge=  1.7870  magn=  0.0001
     atom 301 (R=0.042)  charge=  1.7883  magn=  0.0000
     atom 302 (R=0.042)  charge=  1.7878  magn=  0.0000
     atom 303 (R=0.042)  charge=  1.7875  magn=  0.0001
     atom 304 (R=0.042)  charge=  1.7878  magn=  0.0002
     atom 305 (R=0.042)  charge=  1.7874  magn=  0.0000
     atom 306 (R=0.042)  charge=  1.7876  magn=  0.0000
     atom 307 (R=0.042)  charge=  1.7876  magn=  0.0001
     atom 308 (R=0.042)  charge=  1.7867  magn=  0.0001
     atom 309 (R=0.042)  charge=  1.7872  magn=  0.0000
     atom 310 (R=0.042)  charge=  1.7874  magn=  0.0000
     atom 311 (R=0.042)  charge=  1.7863  magn=  0.0000
     atom 312 (R=0.042)  charge=  1.7870  magn=  0.0002
     atom 313 (R=0.042)  charge=  1.7871  magn=  0.0001
     atom 314 (R=0.042)  charge=  1.7876  magn=  0.0000
     atom 315 (R=0.042)  charge=  1.7875  magn=  0.0000
     atom 316 (R=0.042)  charge=  1.7869  magn=  0.0000
     atom 317 (R=0.042)  charge=  1.7877  magn=  0.0000
     atom 318 (R=0.042)  charge=  1.7875  magn=  0.0000
     atom 319 (R=0.042)  charge=  1.7876  magn=  0.0000
     atom 320 (R=0.042)  charge=  1.7875  magn=  0.0000
     atom 321 (R=0.042)  charge=  1.7877  magn=  0.0001
     atom 322 (R=0.042)  charge=  1.7875  magn=  0.0000
     atom 323 (R=0.042)  charge=  1.7874  magn=  0.0000
     atom 324 (R=0.042)  charge=  1.7870  magn= -0.0000
     atom 325 (R=0.042)  charge=  1.7868  magn=  0.0001
     atom 326 (R=0.042)  charge=  1.7876  magn=  0.0001
     atom 327 (R=0.042)  charge=  1.7877  magn=  0.0001
     atom 328 (R=0.042)  charge=  1.7868  magn=  0.0001
     atom 329 (R=0.042)  charge=  1.7867  magn=  0.0003
     atom 330 (R=0.042)  charge=  1.7866  magn= -0.0000
     atom 331 (R=0.042)  charge=  1.7875  magn=  0.0000
     atom 332 (R=0.042)  charge=  1.7876  magn=  0.0001
     atom 333 (R=0.042)  charge=  1.7866  magn= -0.0000
     atom 334 (R=0.042)  charge=  1.7874  magn=  0.0000
     atom 335 (R=0.042)  charge=  1.7879  magn=  0.0000
     atom 336 (R=0.042)  charge=  1.7873  magn= -0.0000
     atom 337 (R=0.042)  charge=  1.7872  magn=  0.0001
     atom 338 (R=0.042)  charge=  1.7882  magn=  0.0001
     atom 339 (R=0.042)  charge=  1.7873  magn= -0.0000
     atom 340 (R=0.042)  charge=  1.7863  magn=  0.0003
     atom 341 (R=0.042)  charge=  1.7853  magn=  0.0165
     atom 342 (R=0.042)  charge=  1.7882  magn=  0.0010
     atom 343 (R=0.042)  charge=  1.7872  magn=  0.0001
     atom 344 (R=0.042)  charge=  1.7853  magn=  0.0165
     atom 345 (R=0.042)  charge=  1.7822  magn=  0.0058
     atom 346 (R=0.042)  charge=  1.7849  magn=  0.0001
     atom 347 (R=0.042)  charge=  1.7882  magn=  0.0001
     atom 348 (R=0.042)  charge=  1.7882  magn=  0.0010
     atom 349 (R=0.042)  charge=  1.7849  magn=  0.0001
     atom 350 (R=0.042)  charge=  1.7871  magn=  0.0000
     atom 351 (R=0.042)  charge=  1.7875  magn=  0.0001
     atom 352 (R=0.042)  charge=  1.7872  magn=  0.0001
     atom 353 (R=0.042)  charge=  1.7873  magn=  0.0003
     atom 354 (R=0.042)  charge=  1.7872  magn= -0.0000
     atom 355 (R=0.042)  charge=  1.7872  magn=  0.0001
     atom 356 (R=0.042)  charge=  1.7843  magn=  0.0167
     atom 357 (R=0.042)  charge=  1.7850  magn=  0.0063
     atom 358 (R=0.042)  charge=  1.7850  magn=  0.0001
     atom 359 (R=0.042)  charge=  1.7873  magn=  0.0003
     atom 360 (R=0.042)  charge=  1.7850  magn=  0.0063
     atom 361 (R=0.042)  charge=  1.7873  magn=  0.0006
     atom 362 (R=0.042)  charge=  1.7872  magn= -0.0000
     atom 363 (R=0.042)  charge=  1.7850  magn=  0.0001
     atom 364 (R=0.042)  charge=  1.7873  magn=  0.0006
     atom 365 (R=0.042)  charge=  1.7877  magn= -0.0000
     atom 366 (R=0.042)  charge=  1.7875  magn=  0.0000
     atom 367 (R=0.042)  charge=  1.7876  magn=  0.0001
     atom 368 (R=0.042)  charge=  1.7871  magn=  0.0000
     atom 369 (R=0.042)  charge=  1.7874  magn=  0.0000
     atom 370 (R=0.042)  charge=  1.7877  magn=  0.0001
     atom 371 (R=0.042)  charge=  1.7873  magn=  0.0009
     atom 372 (R=0.042)  charge=  1.7848  magn=  0.0001
     atom 373 (R=0.042)  charge=  1.7871  magn=  0.0000
     atom 374 (R=0.042)  charge=  1.7871  magn=  0.0000
     atom 375 (R=0.042)  charge=  1.7848  magn=  0.0001
     atom 376 (R=0.042)  charge=  1.7870  magn=  0.0005
     atom 377 (R=0.042)  charge=  1.7879  magn= -0.0000
     atom 378 (R=0.042)  charge=  1.7874  magn=  0.0000
     atom 379 (R=0.042)  charge=  1.7871  magn=  0.0000
     atom 380 (R=0.042)  charge=  1.7879  magn= -0.0000
     atom 381 (R=0.042)  charge=  1.7878  magn= -0.0000
     atom 382 (R=0.042)  charge=  1.7875  magn=  0.0000
     atom 383 (R=0.042)  charge=  1.7866  magn= -0.0000
     atom 384 (R=0.042)  charge=  1.7876  magn=  0.0001
     atom 385 (R=0.042)  charge=  1.7875  magn=  0.0001
     atom 386 (R=0.042)  charge=  1.7866  magn= -0.0000
     atom 387 (R=0.042)  charge=  1.7866  magn=  0.0003
     atom 388 (R=0.042)  charge=  1.7867  magn=  0.0001
     atom 389 (R=0.042)  charge=  1.7881  magn=  0.0002
     atom 390 (R=0.042)  charge=  1.7876  magn=  0.0001
     atom 391 (R=0.042)  charge=  1.7867  magn=  0.0001
     atom 392 (R=0.042)  charge=  1.7871  magn=  0.0000
     atom 393 (R=0.042)  charge=  1.7873  magn=  0.0000
     atom 394 (R=0.042)  charge=  1.7875  magn=  0.0001
     atom 395 (R=0.042)  charge=  1.7881  magn=  0.0002
     atom 396 (R=0.042)  charge=  1.7873  magn=  0.0000
     atom 397 (R=0.042)  charge=  1.7876  magn=  0.0000
     atom 398 (R=0.042)  charge=  1.7868  magn=  0.0000
     atom 399 (R=0.042)  charge=  1.7864  magn=  0.0001
     atom 400 (R=0.042)  charge=  1.7880  magn=  0.0010
     atom 401 (R=0.042)  charge=  1.7883  magn=  0.0001
     atom 402 (R=0.042)  charge=  1.7864  magn=  0.0001
     atom 403 (R=0.042)  charge=  1.7826  magn=  0.0066
     atom 404 (R=0.042)  charge=  1.7859  magn=  0.0180
     atom 405 (R=0.042)  charge=  1.7870  magn=  0.0001
     atom 406 (R=0.042)  charge=  1.7880  magn=  0.0010
     atom 407 (R=0.042)  charge=  1.7859  magn=  0.0180
     atom 408 (R=0.042)  charge=  1.7874  magn=  0.0003
     atom 409 (R=0.042)  charge=  1.7873  magn=  0.0000
     atom 410 (R=0.042)  charge=  1.7883  magn=  0.0001
     atom 411 (R=0.042)  charge=  1.7871  magn=  0.0001
     atom 412 (R=0.042)  charge=  1.7873  magn=  0.0000
     atom 413 (R=0.042)  charge=  1.7878  magn=  0.0000
     atom 414 (R=0.042)  charge=  1.7881  magn=  0.0013
     atom 415 (R=0.042)  charge=  1.7867  magn=  0.0014
     atom 416 (R=0.042)  charge=  1.7866  magn=  0.0001
     atom 417 (R=0.042)  charge=  1.7866  magn=  0.0000
     atom 418 (R=0.042)  charge=  1.7867  magn=  0.0014
     atom 419 (R=0.042)  charge=  1.7835  magn=  0.0044
     atom 420 (R=0.042)  charge=  1.7874  magn=  0.0002
     atom 421 (R=0.042)  charge=  1.7866  magn=  0.0001
     atom 422 (R=0.042)  charge=  1.7835  magn=  0.0044
     atom 423 (R=0.042)  charge=  1.7905  magn=  0.0000
     atom 424 (R=0.042)  charge=  1.7873  magn=  0.0001
     atom 425 (R=0.042)  charge=  1.7867  magn=  0.0000
     atom 426 (R=0.042)  charge=  1.7874  magn=  0.0002
     atom 427 (R=0.042)  charge=  1.7873  magn=  0.0001
     atom 428 (R=0.042)  charge=  1.7876  magn=  0.0000
     atom 429 (R=0.042)  charge=  1.7874  magn=  0.0003
     atom 430 (R=0.042)  charge=  1.7883  magn=  0.0014
     atom 431 (R=0.042)  charge=  1.7869  magn=  0.0000
     atom 432 (R=0.042)  charge=  1.7875  magn=  0.0000
     atom 433 (R=0.042)  charge=  1.7883  magn=  0.0014
     atom 434 (R=0.042)  charge=  1.7869  magn=  0.0007
     atom 435 (R=0.042)  charge=  1.7868  magn=  0.0001
     atom 436 (R=0.042)  charge=  1.7871  magn=  0.0000
     atom 437 (R=0.042)  charge=  1.7869  magn=  0.0000
     atom 438 (R=0.042)  charge=  1.7868  magn=  0.0001
     atom 439 (R=0.042)  charge=  1.7882  magn=  0.0000
     atom 440 (R=0.042)  charge=  1.7878  magn=  0.0000
     atom 441 (R=0.042)  charge=  1.7875  magn=  0.0000
     atom 442 (R=0.042)  charge=  1.7871  magn=  0.0000
     atom 443 (R=0.042)  charge=  1.7878  magn=  0.0000
     atom 444 (R=0.042)  charge=  1.7875  magn=  0.0000
     atom 445 (R=0.042)  charge=  1.7877  magn=  0.0000
     atom 446 (R=0.042)  charge=  1.7867  magn=  0.0000
     atom 447 (R=0.042)  charge=  1.7893  magn=  0.0012
     atom 448 (R=0.042)  charge=  1.7875  magn=  0.0003
     atom 449 (R=0.042)  charge=  1.7869  magn= -0.0000
     atom 450 (R=0.042)  charge=  1.7852  magn=  0.0001
     atom 451 (R=0.042)  charge=  1.7860  magn=  0.0014
     atom 452 (R=0.042)  charge=  1.7894  magn=  0.0014
     atom 453 (R=0.042)  charge=  1.7879  magn=  0.0001
     atom 454 (R=0.042)  charge=  1.7871  magn=  0.0011
     atom 455 (R=0.042)  charge=  1.7851  magn=  0.0000
     atom 456 (R=0.042)  charge=  1.7868  magn=  0.0000
     atom 457 (R=0.042)  charge=  1.7877  magn=  0.0001
     atom 458 (R=0.042)  charge=  1.7880  magn=  0.0001
     atom 459 (R=0.042)  charge=  1.7864  magn=  0.0000
     atom 460 (R=0.042)  charge=  1.7876  magn=  0.0000
     atom 461 (R=0.042)  charge=  1.7871  magn=  0.0000
     atom 462 (R=0.042)  charge=  1.7862  magn=  0.0001
     atom 463 (R=0.042)  charge=  1.7873  magn=  0.0014
     atom 464 (R=0.042)  charge=  1.7914  magn=  0.0015
     atom 465 (R=0.042)  charge=  1.7872  magn=  0.0003
     atom 466 (R=0.042)  charge=  1.7865  magn=  0.0069
     atom 467 (R=0.042)  charge=  1.7877  magn=  0.0007
     atom 468 (R=0.042)  charge=  1.7873  magn=  0.0001
     atom 469 (R=0.042)  charge=  1.7929  magn=  0.0186
     atom 470 (R=0.042)  charge=  1.7851  magn=  0.0041
     atom 471 (R=0.042)  charge=  1.7868  magn=  0.0001
     atom 472 (R=0.042)  charge=  1.7890  magn=  0.0002
     atom 473 (R=0.042)  charge=  1.7872  magn=  0.0001
     atom 474 (R=0.042)  charge=  1.7873  magn=  0.0002
     atom 475 (R=0.042)  charge=  1.7871  magn=  0.0000
     atom 476 (R=0.042)  charge=  1.7876  magn=  0.0001
     atom 477 (R=0.042)  charge=  1.7872  magn=  0.0010
     atom 478 (R=0.042)  charge=  1.7863  magn=  0.0001
     atom 479 (R=0.042)  charge=  1.7869  magn=  0.0000
     atom 480 (R=0.042)  charge=  1.7872  magn=  0.0001
     atom 481 (R=0.042)  charge=  1.7851  magn=  0.0178
     atom 482 (R=0.042)  charge=  1.7848  magn=  0.0041
     atom 483 (R=0.042)  charge=  1.7870  magn=  0.0001
     atom 484 (R=0.042)  charge=  1.7876  magn=  0.0000
     atom 485 (R=0.042)  charge=  1.7874  magn=  0.0003
     atom 486 (R=0.042)  charge=  1.7913  magn=  0.0000
     atom 487 (R=0.042)  charge=  1.7883  magn=  0.0000
     atom 488 (R=0.042)  charge=  1.7873  magn=  0.0000
     atom 489 (R=0.042)  charge=  1.7875  magn=  0.0000
     atom 490 (R=0.042)  charge=  1.7874  magn=  0.0001
     atom 491 (R=0.042)  charge=  1.7878  magn=  0.0000
     atom 492 (R=0.042)  charge=  1.7875  magn=  0.0001
     atom 493 (R=0.042)  charge=  1.7876  magn=  0.0001
     atom 494 (R=0.042)  charge=  1.7863  magn=  0.0000
     atom 495 (R=0.042)  charge=  1.7875  magn=  0.0000
     atom 496 (R=0.042)  charge=  1.7879  magn=  0.0002
     atom 497 (R=0.042)  charge=  1.7867  magn=  0.0001
     atom 498 (R=0.042)  charge=  1.7870  magn=  0.0002
     atom 499 (R=0.042)  charge=  1.7869  magn=  0.0000
     atom 500 (R=0.042)  charge=  1.7873  magn=  0.0000
     atom 501 (R=0.042)  charge=  1.7872  magn=  0.0000
     atom 502 (R=0.042)  charge=  1.7870  magn=  0.0001
     atom 503 (R=0.042)  charge=  1.7877  magn=  0.0000
     atom 504 (R=0.042)  charge=  1.7876  magn=  0.0000
     atom 505 (R=0.042)  charge=  1.7874  magn=  0.0000
     atom 506 (R=0.042)  charge=  1.7876  magn=  0.0000
     atom 507 (R=0.042)  charge=  1.7875  magn=  0.0000
     atom 508 (R=0.042)  charge=  1.7956  magn=  0.2483
     atom 509 (R=0.042)  charge=  1.8125  magn=  0.2421
     atom 510 (R=0.042)  charge=  1.8124  magn=  0.2421
     atom 511 (R=0.043)  charge=  2.9368  magn= -0.0011

     total cpu time spent up to now is      690.1 secs

     End of self-consistent calculation

 ------ SPIN UP ------------


          k = 0.0000 0.0000 0.0000 (118565 PWs)   bands (ev):

    -8.1980  -7.6514  -7.6388  -7.6388  -7.6188  -7.6142  -7.5558  -7.1410
    -7.0691  -7.0661  -7.0656  -7.0625  -7.0614  -7.0447  -7.0427  -7.0341
    -7.0082  -6.9994  -6.9115  -6.5737  -6.4765  -6.4708  -6.4680  -6.4594
    -6.4535  -6.4477  -6.3731  -5.9821  -5.9141  -5.9124  -5.9054  -5.9033
    -5.8816  -5.6141  -5.3870  -5.3835  -5.3814  -5.3808  -5.3748  -5.3738
    -5.3709  -5.3686  -5.3645  -5.3604  -5.3588  -5.3567  -5.3553  -5.3503
    -5.3461  -5.3338  -5.3317  -5.3207  -5.3180  -5.3165  -5.2863  -5.2767
    -5.1907  -4.9950  -4.8230  -4.8222  -4.8211  -4.8188  -4.8175  -4.8173
    -4.8154  -4.8143  -4.8130  -4.8110  -4.8102  -4.8064  -4.8054  -4.8022
    -4.7981  -4.7961  -4.7734  -4.7574  -4.7557  -4.7257  -4.7197  -4.7053
    -4.4682  -3.8863  -3.7332  -3.7323  -3.7318  -3.7287  -3.7242  -3.7220
    -3.7214  -3.7137  -3.7104  -3.7088  -3.6673  -3.4798  -3.2666  -3.2660
    -3.2631  -3.2625  -3.2618  -3.2599  -3.2598  -3.2583  -3.2541  -3.2518
    -3.2481  -3.2473  -3.2459  -3.2434  -3.2409  -3.2352  -3.2204  -3.1980
    -3.1945  -3.1834  -3.1722  -3.1669  -3.1585  -3.1480  -3.1462  -3.1410
    -3.1371  -3.1335  -3.0120  -2.7836  -2.6599  -2.6594  -2.6587  -2.6581
    -2.6578  -2.6577  -2.6467  -2.6442  -2.6412  -2.6401  -2.6378  -2.6366
    -2.6348  -2.6330  -2.6322  -2.6317  -2.6305  -2.6111  -2.5953  -2.5931
    -2.5677  -2.5615  -2.4982  -2.4426  -2.4000  -2.3995  -2.3793  -2.2958
    -2.1895  -2.1875  -2.1817  -2.1781  -2.1774  -2.1753  -2.1752  -2.1722
    -2.1679  -2.1679  -2.1658  -2.1625  -2.1610  -2.1603  -2.1581  -2.1539
    -2.1533  -2.1380  -2.1380  -2.1243  -2.0891  -2.0781  -1.8425  -1.5769
    -1.4485  -1.4457  -1.4443  -1.4387  -1.4364  -1.4360  -1.4307  -1.4301
    -1.4284  -1.4282  -1.4269  -1.4266  -1.4124  -1.4088  -1.4088  -1.4026
    -1.3968  -1.3893  -1.3860  -1.3807  -1.3682  -1.3679  -1.3535  -1.3036
    -1.2536  -1.2523  -1.2498  -1.2486  -1.2479  -1.2427  -1.2418  -1.2401
    -1.2388  -1.2264  -1.2222  -1.2215  -1.2027  -1.1993  -1.1930  -1.1889
    -1.1821  -1.1660  -1.1519  -1.1429  -1.0868  -1.0749  -0.4611  -0.0890
    -0.0882  -0.0874  -0.0652   0.2153   0.2908   0.2916   0.2996   0.3021
     0.3034   0.3045   0.3071   0.3083   0.3205   0.3211   0.3808   0.4905
     0.4992   0.5000   0.5021   0.5032   0.5297   0.7543   0.8161   0.8170
     0.8202   0.8213   0.8220   0.8222   0.8257   0.8289   0.8393   0.8458
     0.8461   0.8477   0.8477   0.8488   0.8537   0.8557   0.8581   0.8659
     0.8732   0.8751   0.8816   0.8837   0.8839   0.8863   0.8911   0.8921
     0.8928   0.8956   0.8957   0.8967   0.8969   0.8976   0.9076   0.9127
     0.9155   0.9196   0.9232   0.9251   0.9275   0.9283   0.9309   0.9321
     0.9334   1.0073   1.0439   1.0498   1.1370   1.2452   1.2934   1.2936
     1.3090   1.3123   1.3123   1.3204   1.3239   1.3254   1.3380   1.3405
     1.4246   1.5127   1.5315   1.5343   1.5446   1.5463   1.5464   1.5517
     1.5662   1.5676   1.5894   1.5915   1.6732   1.6908   1.6984   1.6996
     1.7001   1.7030   1.7031   1.7080   1.7093   1.7115   1.7117   1.7147
     1.7197   1.7225   1.7242   1.7257   1.7262   1.7356   1.7420   1.7507
     1.7522   1.8644   1.9015   1.9093   2.2141   2.4307   2.4559   2.4577
     2.4738   2.4813   2.4814   2.4853   2.4854   2.4863   2.4870   2.4890
     2.4900   2.4906   2.4915   2.4923   2.4932   2.4958   2.4976   2.5035
     2.5037   2.5592   2.5701   2.5754   2.6699   2.8292   2.8306   2.8323
     2.8413   2.8415   2.8449   2.8489   2.8497   2.8503   2.8599   2.8599
     2.8687   2.8693   2.8801   2.8836   2.8836   2.8854   2.8876   2.8885
     2.9048   2.9070   3.0210   3.0286   3.6870   3.9264   3.9267   3.9442
     3.9449   3.9453   3.9454   3.9456   3.9516   3.9523   3.9658   3.9668
     3.9672   4.0868   4.1114   4.1138   4.1356   4.1358   4.1365   4.1366
     4.1378   4.1386   4.1391   4.1409   4.1416   4.1423   4.1423   4.1428
     4.1435   4.1477   4.1646   4.1654   4.1847   4.1966   4.2017   4.2050
     4.2139   4.2306   4.2308   4.2319   4.2328   4.2379   4.2382   4.2389
     4.2430   4.2445   4.2572   4.2593   4.2607   4.2636   4.2643   4.2656
     4.2701   4.2727   4.2753   4.2759   4.2839   4.2865   4.3306   4.3313
     4.3682   4.3685   4.3690   4.3759   4.3767   4.3773   4.3776   4.3790
     4.3791   4.3865   4.3880   4.3887   4.3899   4.4043   4.4055   4.4107
     4.4159   4.4160   4.4288   4.4316   4.4327   4.4832   4.5024   4.5040
     4.5090   4.5487   4.5503   4.5692   4.5774   4.5777   4.5823   4.5831
     4.5832   4.6154   4.6415   4.6426   4.6540   4.6907   4.7067   4.7101
     4.7843   4.7932   4.9254   4.9254   4.9418   4.9486   4.9490   4.9502
     4.9515   4.9628   4.9634   5.0422   5.0669   5.0771   5.5791   5.6332
     5.6341   5.6526   5.6600   5.6620   5.6629   5.6631   5.6653   5.6995
     5.7004   5.7053   5.8940   5.9037   5.9051   5.9164   5.9183   5.9189
     5.9203   5.9209   5.9211   5.9293   5.9350   5.9358   5.9444   5.9450
     5.9451   5.9505   5.9509   5.9555   5.9712   5.9717   5.9734   6.0031
     6.0046   6.0075   6.0733   6.2045   6.2068   6.2596   6.2604   6.2620
     6.2625   6.2648   6.2656   6.2661   6.2669   6.2693   6.2712   6.2729
     6.2748   6.2774   6.2848   6.2861   6.2913   6.2983   6.2995   6.3172
     6.3278   6.3297   6.3367   6.4804   6.4826   6.4853   6.5091   6.5134
     6.5142   6.5147   6.5173   6.5177   6.5182   6.5196   6.5199   6.5206
     6.5217   6.5235   6.5266   6.5281   6.5296   6.5341   6.5368   6.5758
     6.5770   6.5788   6.5865   6.6538   6.6549   6.6552   6.6649   6.6686
     6.6697   6.6702   6.6805   6.7127   6.7148   6.7250   6.7295   6.7307
     6.7313   6.7359   6.7380   6.7389   6.7405   6.7414   6.7421   6.7447
     6.7455   6.7694   6.7696   6.7729   6.7753   6.7761   6.7784   6.8121
     6.8505   6.8542   6.8964   6.8967   6.9023   6.9289   6.9308   6.9323
     6.9339   6.9389   6.9401   6.9416   6.9426   6.9432   6.9453   6.9486
     6.9510   6.9519   6.9552   6.9559   6.9601   6.9636   6.9676   6.9698
     6.9699   6.9729   6.9804   6.9961   6.9975   7.0832   7.1069   7.1137
     7.2634   7.2663   7.2989   7.3003   7.3013   7.3014   7.3023   7.3056
     7.3064   7.3067   7.3072   7.3074   7.3110   7.3115   7.3131   7.3192
     7.3235   7.3237   7.3271   7.3532   7.3539   7.3774   7.3775   7.3817
     7.4926   7.4937   7.5196   7.5220   7.5235   7.5289   7.5392   7.5407
     7.5571   7.5839   7.5851   7.5867   7.6605   7.6910   7.6924   7.7336
     7.7389   7.7396   7.7402   7.7404   7.7416   7.7418   7.7477   7.7487
     7.7488   7.7499   7.7528   7.7551   7.7584   7.7603   7.7617   7.7623
     7.7632   7.7645   7.7645   7.7650   7.7670   7.7685   7.7697   7.7703
     7.7726   7.7737   7.7756   7.7762   7.7762   7.7772   7.7802   7.7807
     7.7815   7.7821   7.7840   7.7844   7.7969   7.8018   7.8114   7.8193
     7.8205   7.8496   7.8525   7.8674   7.8827   7.8839   7.8905   7.9148
     7.9177   7.9227   7.9348   7.9417   7.9446   8.0984   8.0993   8.1037
     8.3120   8.3132   8.3548   8.3558   8.3564   8.3601   8.3625   8.3634
     8.3663   8.3681   8.3682   8.3703   8.3717   8.3724   8.3737   8.3789
     8.3790   8.3846   8.4001   8.4051   8.4085   8.4145   8.4184   8.4196
     8.4391   8.5172   8.5184   8.5493   8.5496   8.5506   8.5513   8.5522
     8.5538   8.5540   8.5587   8.5607   8.5612   8.5631   8.5671   8.5786
     8.5800   8.5809   8.5922   8.6008   8.6038   8.6086   8.6255   8.6266
     8.6270   8.6508   8.6568   8.6570   8.6592   8.6592   8.6621   8.6767
     8.6777   8.6788   8.6828   8.6865   8.6874   8.6929   8.6935   8.6996
     8.7124   8.7188   8.7212   8.7239   8.7262   8.7361   8.7378   8.7420
     8.7453   8.7659   8.7676   9.0090   9.0271   9.0296   9.1101   9.1115
     9.1289   9.1318   9.1334   9.1346   9.1377   9.1402   9.1416   9.1732
     9.1927   9.1963   9.1986   9.2503   9.2515   9.2590   9.2600   9.2650
     9.2720   9.2739   9.2863   9.4255   9.4485   9.4533   9.6671   9.6685
     9.7061   9.7081   9.7096   9.7108   9.7138   9.7159   9.7164   9.7169
     9.7275   9.7278   9.7330   9.7356   9.7365   9.7420   9.7430   9.7454
     9.7545   9.7602   9.7621   9.8099   9.8387   9.8395   9.8513   9.9742
     9.9765   9.9910   9.9936   9.9937   9.9979  10.0003  10.0004  10.0061
    10.0164  10.0183  10.0197  10.0247  10.0260  10.0269  10.0352  10.0364
    10.0381  10.0386  10.0389  10.0416  10.0421  10.0422  10.0424  10.0447
    10.0449  10.0452  10.0482  10.0496  10.0607  10.0626  10.0637  10.1420
    10.1438  10.1533  10.1969  10.1980  10.2004  10.2009  10.2013  10.2013
    10.2020  10.2032  10.2037  10.2041  10.2053  10.2063  10.2794  10.2833
    10.2847  10.3084  10.3091  10.3107  10.3113  10.3153  10.3170  10.3188
    10.3204  10.3213  10.3230  10.3245  10.3271  10.3273  10.3298  10.3306
    10.3309  10.3326  10.3329  10.3345  10.3364  10.3381  10.3383  10.3405
    10.3414  10.3465  10.3469  10.3480  10.3587  10.3589  10.3609  10.3693
    10.3722  10.3849  10.3889  10.3920  10.4029  10.4200  10.4245  10.4259
    10.4323  10.4465  10.4506  10.4576  10.4737  10.4793  10.4925  10.4940
    10.5680  10.6290  10.6386  11.2478  11.3083  11.3117  11.4642  11.4646
    11.4839  11.4854  11.4868  11.4888  11.4901  11.4902  11.4922  11.4924
    11.4936  11.4953  11.4998  11.5003  11.5029  11.5032  11.5148  11.5166
    11.5194  11.5328  11.5356  11.5359  11.5463  11.5483  11.5525  11.6271
    11.8726  11.8734  11.8836  11.9160  11.9185  12.2305  12.3296  12.3311
    12.3732  12.4568  12.4680  12.4682  12.4725  12.4855  12.4898  12.4907
    12.5243  12.5334  13.1633  13.1800  13.1801  14.1880  15.0484  15.1682
    17.4042  17.4045  17.4064  17.4207  17.4212  17.4312  17.7115  17.7146

     occupation numbers 
     1.0000   1.0000   1.0000   1.0000   1.0000   1.0000   1.0000   1.0000
     1.0000   1.0000   1.0000   1.0000   1.0000   1.0000   1.0000   1.0000
     1.0000   1.0000   1.0000   1.0000   1.0000   1.0000   1.0000   1.0000
     1.0000   1.0000   1.0000   1.0000   1.0000   1.0000   1.0000   1.0000
     1.0000   1.0000   1.0000   1.0000   1.0000   1.0000   1.0000   1.0000
     1.0000   1.0000   1.0000   1.0000   1.0000   1.0000   1.0000   1.0000
     1.0000   1.0000   1.0000   1.0000   1.0000   1.0000   1.0000   1.0000
     1.0000   1.0000   1.0000   1.0000   1.0000   1.0000   1.0000   1.0000
     1.0000   1.0000   1.0000   1.0000   1.0000   1.0000   1.0000   1.0000
     1.0000   1.0000   1.0000   1.0000   1.0000   1.0000   1.0000   1.0000
     1.0000   1.0000   1.0000   1.0000   1.0000   1.0000   1.0000   1.0000
     1.0000   1.0000   1.0000   1.0000   1.0000   1.0000   1.0000   1.0000
     1.0000   1.0000   1.0000   1.0000   1.0000   1.0000   1.0000   1.0000
     1.0000   1.0000   1.0000   1.0000   1.0000   1.0000   1.0000   1.0000
     1.0000   1.0000   1.0000   1.0000   1.0000   1.0000   1.0000   1.0000
     1.0000   1.0000   1.0000   1.0000   1.0000   1.0000   1.0000   1.0000
     1.0000   1.0000   1.0000   1.0000   1.0000   1.0000   1.0000   1.0000
     1.0000   1.0000   1.0000   1.0000   1.0000   1.0000   1.0000   1.0000
     1.0000   1.0000   1.0000   1.0000   1.0000   1.0000   1.0000   1.0000
     1.0000   1.0000   1.0000   1.0000   1.0000   1.0000   1.0000   1.0000
     1.0000   1.0000   1.0000   1.0000   1.0000   1.0000   1.0000   1.0000
     1.0000   1.0000   1.0000   1.0000   1.0000   1.0000   1.0000   1.0000
     1.0000   1.0000   1.0000   1.0000   1.0000   1.0000   1.0000   1.0000
     1.0000   1.0000   1.0000   1.0000   1.0000   1.0000   1.0000   1.0000
     1.0000   1.0000   1.0000   1.0000   1.0000   1.0000   1.0000   1.0000
     1.0000   1.0000   1.0000   1.0000   1.0000   1.0000   1.0000   1.0000
     1.0000   1.0000   1.0000   1.0000   1.0000   1.0000   1.0000   1.0000
     1.0000   1.0000   1.0000   1.0000   1.0000   1.0000   1.0000   1.0000
     1.0000   1.0000   1.0000   1.0000   1.0000   1.0000   1.0000   1.0000
     1.0000   1.0000   1.0000   1.0000   1.0000   1.0000   1.0000   1.0000
     1.0000   1.0000   1.0000   1.0000   1.0000   1.0000   1.0000   1.0000
     1.0000   1.0000   1.0000   1.0000   1.0000   1.0000   1.0000   1.0000
     1.0000   1.0000   1.0000   1.0000   1.0000   1.0000   1.0000   1.0000
     1.0000   1.0000   1.0000   1.0000   1.0000   1.0000   1.0000   1.0000
     1.0000   1.0000   1.0000   1.0000   1.0000   1.0000   1.0000   1.0000
     1.0000   1.0000   1.0000   1.0000   1.0000   1.0000   1.0000   1.0000
     1.0000   1.0000   1.0000   1.0000   1.0000   1.0000   1.0000   1.0000
     1.0000   1.0000   1.0000   1.0000   1.0000   1.0000   1.0000   1.0000
     1.0000   1.0000   1.0000   1.0000   1.0000   1.0000   1.0000   1.0000
     1.0000   1.0000   1.0000   1.0000   1.0000   1.0000   1.0000   1.0000
     1.0000   1.0000   1.0000   1.0000   1.0000   1.0000   1.0000   1.0000
     1.0000   1.0000   1.0000   1.0000   1.0000   1.0000   1.0000   1.0000
     1.0000   1.0000   1.0000   1.0000   1.0000   1.0000   1.0000   1.0000
     1.0000   1.0000   1.0000   1.0000   1.0000   1.0000   1.0000   1.0000
     1.0000   1.0000   1.0000   1.0000   1.0000   1.0000   1.0000   1.0000
     1.0000   1.0000   1.0000   1.0000   1.0000   1.0000   1.0000   1.0000
     1.0000   1.0000   1.0000   1.0000   1.0000   1.0000   1.0000   1.0000
     1.0000   1.0000   1.0000   1.0000   1.0000   1.0000   1.0000   1.0000
     1.0000   1.0000   1.0000   1.0000   1.0000   1.0000   1.0000   1.0000
     1.0000   1.0000   1.0000   1.0000   1.0000   1.0000   1.0000   1.0000
     1.0000   1.0000   1.0000   1.0000   1.0000   1.0000   1.0000   1.0000
     1.0000   1.0000   1.0000   1.0000   1.0000   1.0000   1.0000   1.0000
     1.0000   1.0000   1.0000   1.0000   1.0000   1.0000   1.0000   1.0000
     1.0000   1.0000   1.0000   1.0000   1.0000   1.0000   1.0000   1.0000
     1.0000   1.0000   1.0000   1.0000   1.0000   1.0000   1.0000   1.0000
     1.0000   1.0000   1.0000   1.0000   1.0000   1.0000   1.0000   1.0000
     1.0000   1.0000   1.0000   1.0000   1.0000   1.0000   1.0000   1.0000
     1.0000   1.0000   1.0000   1.0000   1.0000   1.0000   1.0000   1.0000
     1.0000   1.0000   1.0000   1.0000   1.0000   1.0000   1.0000   1.0000
     1.0000   1.0000   1.0000   1.0000   1.0000   1.0000   1.0000   1.0000
     1.0000   1.0000   1.0000   1.0000   1.0000   1.0000   1.0000   1.0000
     1.0000   1.0000   1.0000   1.0000   1.0000   1.0000   1.0000   1.0000
     1.0000   1.0000   1.0000   1.0000   1.0000   1.0000   1.0000   1.0000
     1.0000   1.0000   1.0000   1.0000   1.0000   1.0000   1.0000   1.0000
     1.0000   1.0000   1.0000   1.0000   1.0000   1.0000   1.0000   1.0000
     1.0000   1.0000   1.0000   1.0000   1.0000   1.0000   1.0000   1.0000
     1.0000   1.0000   1.0000   1.0000   1.0000   1.0000   1.0000   1.0000
     1.0000   1.0000   1.0000   1.0000   1.0000   1.0000   1.0000   1.0000
     1.0000   1.0000   1.0000   1.0000   1.0000   1.0000   1.0000   1.0000
     1.0000   1.0000   1.0000   1.0000   1.0000   1.0000   1.0000   1.0000
     1.0000   1.0000   1.0000   1.0000   1.0000   1.0000   1.0000   1.0000
     1.0000   1.0000   1.0000   1.0000   1.0000   1.0000   1.0000   1.0000
     1.0000   1.0000   1.0000   1.0000   1.0000   1.0000   1.0000   1.0000
     1.0000   1.0000   1.0000   1.0000   1.0000   1.0000   1.0000   1.0000
     1.0000   1.0000   1.0000   1.0000   1.0000   1.0000   1.0000   1.0000
     1.0000   1.0000   1.0000   1.0000   1.0000   1.0000   1.0000   1.0000
     1.0000   1.0000   1.0000   1.0000   1.0000   1.0000   1.0000   1.0000
     1.0000   1.0000   1.0000   1.0000   1.0000   1.0000   1.0000   1.0000
     1.0000   1.0000   1.0000   1.0000   1.0000   1.0000   1.0000   1.0000
     1.0000   1.0000   1.0000   1.0000   1.0000   1.0000   1.0000   1.0000
     1.0000   1.0000   1.0000   1.0000   1.0000   1.0000   1.0000   1.0000
     1.0000   1.0000   1.0000   1.0000   1.0000   1.0000   1.0000   1.0000
     1.0000   1.0000   1.0000   1.0000   1.0000   1.0000   1.0000   1.0000
     1.0000   1.0000   1.0000   1.0000   1.0000   1.0000   1.0000   1.0000
     1.0000   1.0000   1.0000   1.0000   1.0000   1.0000   1.0000   1.0000
     1.0000   1.0000   1.0000   1.0000   1.0000   1.0000   1.0000   1.0000
     1.0000   1.0000   1.0000   1.0000   1.0000   1.0000   1.0000   1.0000
     1.0000   1.0000   1.0000   1.0000   1.0000   1.0000   1.0000   1.0000
     1.0000   1.0000   1.0000   1.0000   1.0000   1.0000   1.0000   1.0000
     1.0000   1.0000   1.0000   1.0000   1.0000   1.0000   1.0000   1.0000
     1.0000   1.0000   1.0000   1.0000   1.0000   1.0000   1.0000   1.0000
     1.0000   1.0000   1.0000   1.0000   1.0000   1.0000   1.0000   1.0000
     1.0000   1.0000   1.0000   1.0000   1.0000   1.0000   1.0000   1.0000
     1.0000   1.0000   1.0000   1.0000   1.0000   1.0000   1.0000   1.0000
     1.0000   1.0000   1.0000   1.0000   1.0000   1.0000   1.0000   1.0000
     1.0000   1.0000   1.0000   1.0000   1.0000   1.0000   1.0000   1.0000
     1.0000   1.0000   1.0000   1.0000   1.0000   1.0000   1.0000   1.0000
     1.0000   1.0000   1.0000   1.0000   1.0000   1.0000   1.0000   1.0000
     1.0000   1.0000   1.0000   1.0000   1.0000   1.0000   1.0000   1.0000
     1.0000   1.0000   1.0000   1.0000   1.0000   1.0000   1.0000   1.0000
     1.0000   1.0000   1.0000   1.0000   1.0000   1.0000   1.0000   1.0000
     1.0000   1.0000   1.0000   1.0000   1.0000   1.0000   1.0000   1.0000
     1.0000   1.0000   1.0000   1.0000   1.0000   1.0000   1.0000   1.0000
     1.0000   1.0000   1.0000   1.0000   1.0000   1.0000   1.0000   1.0000
     1.0000   1.0000   1.0000   1.0000   1.0000   1.0000   1.0000   1.0000
     1.0000   1.0000   1.0000   1.0000   1.0000   1.0000   1.0000   1.0000
     1.0000   1.0000   1.0000   1.0000   1.0000   1.0000   1.0000   1.0000
     1.0000   1.0000   1.0000   1.0000   1.0000   1.0000   1.0000   1.0000
     1.0000   1.0000   1.0000   1.0000   1.0000   1.0000   1.0000   1.0000
     1.0000   1.0000   1.0000   1.0000   1.0000   1.0000   1.0000   1.0000
     1.0000   1.0000   1.0000   1.0000   1.0000   1.0000   1.0000   1.0000
     1.0000   1.0000   1.0000   1.0000   1.0000   1.0000   1.0000   1.0000
     1.0000   1.0000   1.0000   1.0000   1.0000   1.0000   1.0000   1.0000
     1.0000   1.0000   1.0000   1.0000   1.0000   1.0000   1.0000   1.0000
     1.0000   1.0000   1.0000   1.0000   1.0000   1.0000   1.0000   1.0000
     1.0000   1.0000   1.0000   1.0000   1.0000   1.0000   1.0000   1.0000
     1.0000   1.0000   1.0000   1.0000   1.0000   1.0000   1.0000   1.0000
     1.0000   1.0000   1.0000   1.0000   1.0000   1.0000   1.0000   1.0000
     1.0000   1.0000   1.0000   1.0000   1.0000   1.0000   1.0000   1.0000
     1.0000   1.0000   1.0000   1.0000   1.0000   1.0000   1.0000   1.0000
     1.0000   1.0000   1.0000   1.0000   1.0000   1.0000   1.0000   1.0000
     1.0000   1.0000   1.0000   1.0000   1.0000   1.0000   1.0000   1.0000
     1.0000   1.0000   1.0000   1.0000   1.0000   1.0000   1.0000   1.0000
     1.0000   1.0000   1.0000   1.0000   1.0000   1.0000   1.0000   1.0000
     1.0000   1.0000   1.0000   1.0000   1.0000   1.0000   1.0000   1.0000
     1.0000   1.0000   1.0000   1.0000   1.0000   1.0000   1.0000   1.0000
     1.0000   1.0000   1.0000   1.0000   1.0000   1.0000   1.0000   1.0000
     1.0000   1.0000   1.0000   1.0000   1.0000   1.0000   1.0000   1.0000
     0.0000   0.0000   0.0000   0.0000   0.0000   0.0000   0.0000   0.0000

 ------ SPIN DOWN ----------


          k = 0.0000 0.0000 0.0000 (118565 PWs)   bands (ev):

    -8.1965  -7.6503  -7.6383  -7.6382  -7.6169  -7.6124  -7.5507  -7.1392
    -7.0685  -7.0657  -7.0647  -7.0619  -7.0608  -7.0433  -7.0413  -7.0329
    -7.0026  -6.9941  -6.9013  -6.5723  -6.4754  -6.4682  -6.4654  -6.4570
    -6.4481  -6.4426  -6.3622  -5.9797  -5.9122  -5.9106  -5.9022  -5.9003
    -5.8781  -5.6086  -5.3864  -5.3831  -5.3809  -5.3804  -5.3740  -5.3729
    -5.3704  -5.3681  -5.3642  -5.3599  -5.3583  -5.3561  -5.3534  -5.3488
    -5.3428  -5.3300  -5.3276  -5.3167  -5.3153  -5.3146  -5.2745  -5.2653
    -5.1821  -4.9925  -4.8223  -4.8218  -4.8199  -4.8173  -4.8161  -4.8161
    -4.8146  -4.8137  -4.8124  -4.8101  -4.8085  -4.8039  -4.8032  -4.8012
    -4.7947  -4.7924  -4.7693  -4.7486  -4.7453  -4.7212  -4.7020  -4.6866
    -4.4416  -3.8798  -3.7312  -3.7302  -3.7285  -3.7260  -3.7216  -3.7180
    -3.7169  -3.7126  -3.7075  -3.7055  -3.6616  -3.4741  -3.2662  -3.2657
    -3.2621  -3.2609  -3.2608  -3.2586  -3.2583  -3.2566  -3.2522  -3.2503
    -3.2454  -3.2448  -3.2441  -3.2411  -3.2381  -3.2323  -3.2146  -3.1933
    -3.1899  -3.1793  -3.1609  -3.1585  -3.1554  -3.1458  -3.1435  -3.1396
    -3.1294  -3.1241  -2.9998  -2.7757  -2.6592  -2.6589  -2.6580  -2.6574
    -2.6572  -2.6571  -2.6449  -2.6426  -2.6395  -2.6394  -2.6367  -2.6354
    -2.6329  -2.6309  -2.6298  -2.6285  -2.6272  -2.6095  -2.5901  -2.5880
    -2.5564  -2.5508  -2.4942  -2.4411  -2.3952  -2.3944  -2.3723  -2.2918
    -2.1872  -2.1859  -2.1789  -2.1744  -2.1739  -2.1725  -2.1714  -2.1697
    -2.1660  -2.1652  -2.1643  -2.1601  -2.1583  -2.1582  -2.1550  -2.1494
    -2.1492  -2.1324  -2.1319  -2.1221  -2.0663  -2.0549  -1.8269  -1.5717
    -1.4477  -1.4450  -1.4438  -1.4384  -1.4355  -1.4352  -1.4300  -1.4294
    -1.4276  -1.4276  -1.4260  -1.4255  -1.4106  -1.4075  -1.4040  -1.3974
    -1.3945  -1.3879  -1.3845  -1.3776  -1.3621  -1.3620  -1.3486  -1.3003
    -1.2533  -1.2505  -1.2485  -1.2469  -1.2468  -1.2416  -1.2396  -1.2385
    -1.2378  -1.2236  -1.2194  -1.2172  -1.1976  -1.1944  -1.1873  -1.1828
    -1.1795  -1.1578  -1.1446  -1.1363  -1.0333  -1.0182  -0.3891  -0.0869
    -0.0860  -0.0853  -0.0606   0.2217   0.2926   0.2937   0.3024   0.3044
     0.3053   0.3081   0.3097   0.3102   0.3295   0.3308   0.3940   0.4926
     0.5005   0.5012   0.5047   0.5060   0.5345   0.7664   0.8172   0.8178
     0.8210   0.8221   0.8222   0.8230   0.8269   0.8302   0.8415   0.8469
     0.8483   0.8495   0.8496   0.8505   0.8557   0.8579   0.8592   0.8677
     0.8768   0.8788   0.8821   0.8842   0.8847   0.8871   0.8918   0.8929
     0.8936   0.8970   0.8976   0.8977   0.8977   0.8985   0.9137   0.9193
     0.9218   0.9232   0.9287   0.9301   0.9339   0.9342   0.9357   0.9371
     0.9391   1.0104   1.0560   1.0611   1.1444   1.2506   1.2950   1.2952
     1.3132   1.3153   1.3159   1.3229   1.3257   1.3275   1.3511   1.3542
     1.4319   1.5168   1.5337   1.5365   1.5472   1.5489   1.5511   1.5540
     1.5696   1.5708   1.6050   1.6078   1.6792   1.6934   1.6992   1.7003
     1.7019   1.7044   1.7049   1.7087   1.7102   1.7125   1.7128   1.7181
     1.7217   1.7244   1.7261   1.7281   1.7291   1.7441   1.7524   1.7575
     1.7607   1.8728   1.9238   1.9322   2.2344   2.4347   2.4578   2.4596
     2.4810   2.4846   2.4861   2.4863   2.4886   2.4888   2.4890   2.4909
     2.4913   2.4943   2.4943   2.4953   2.4965   2.4988   2.5006   2.5081
     2.5083   2.5637   2.5817   2.5868   2.6796   2.8306   2.8319   2.8388
     2.8425   2.8425   2.8463   2.8494   2.8512   2.8518   2.8617   2.8620
     2.8718   2.8756   2.8842   2.8861   2.8870   2.8898   2.8913   2.8930
     2.9086   2.9108   3.0667   3.0768   3.7343   3.9279   3.9281   3.9460
     3.9464   3.9469   3.9471   3.9473   3.9535   3.9542   3.9672   3.9695
     3.9702   4.0961   4.1143   4.1164   4.1364   4.1367   4.1375   4.1383
     4.1399   4.1399   4.1404   4.1420   4.1426   4.1431   4.1435   4.1438
     4.1448   4.1531   4.1682   4.1691   4.1913   4.1994   4.2036   4.2069
     4.2167   4.2325   4.2328   4.2339   4.2388   4.2389   4.2395   4.2446
     4.2450   4.2468   4.2614   4.2628   4.2639   4.2665   4.2689   4.2697
     4.2725   4.2752   4.2790   4.2793   4.2872   4.2900   4.3454   4.3464
     4.3693   4.3694   4.3723   4.3770   4.3774   4.3781   4.3785   4.3799
     4.3807   4.3894   4.3898   4.3906   4.3921   4.4088   4.4104   4.4127
     4.4174   4.4175   4.4306   4.4374   4.4388   4.4889   4.5106   4.5115
     4.5146   4.5522   4.5538   4.5731   4.5823   4.5825   4.5856   4.5857
     4.5873   4.6231   4.6471   4.6479   4.6577   4.6992   4.7101   4.7133
     4.8203   4.8292   4.9274   4.9274   4.9449   4.9518   4.9520   4.9528
     4.9529   4.9674   4.9678   5.0471   5.0931   5.1052   5.6007   5.6361
     5.6371   5.6550   5.6619   5.6633   5.6667   5.6670   5.6680   5.7041
     5.7050   5.7085   5.9059   5.9073   5.9081   5.9188   5.9193   5.9194
     5.9213   5.9216   5.9225   5.9308   5.9364   5.9372   5.9457   5.9462
     5.9463   5.9531   5.9534   5.9579   5.9757   5.9759   5.9773   6.0058
     6.0107   6.0127   6.1097   6.2065   6.2087   6.2617   6.2621   6.2642
     6.2651   6.2665   6.2678   6.2683   6.2688   6.2708   6.2747   6.2747
     6.2770   6.2795   6.2888   6.2899   6.2974   6.3029   6.3043   6.3315
     6.3349   6.3365   6.3444   6.4829   6.4852   6.4887   6.5125   6.5156
     6.5160   6.5173   6.5191   6.5194   6.5200   6.5214   6.5218   6.5240
     6.5244   6.5257   6.5294   6.5313   6.5328   6.5391   6.5413   6.5790
     6.5843   6.5852   6.5967   6.6579   6.6594   6.6596   6.6661   6.6697
     6.6707   6.6717   6.6832   6.7166   6.7186   6.7254   6.7299   6.7311
     6.7318   6.7396   6.7396   6.7408   6.7414   6.7432   6.7436   6.7468
     6.7477   6.7725   6.7727   6.7771   6.7815   6.7825   6.7864   6.8240
     6.8595   6.8631   6.8997   6.9000   6.9083   6.9304   6.9319   6.9332
     6.9346   6.9416   6.9426   6.9442   6.9444   6.9461   6.9473   6.9538
     6.9540   6.9553   6.9594   6.9599   6.9646   6.9652   6.9694   6.9715
     6.9745   6.9775   6.9848   7.0125   7.0144   7.0910   7.1265   7.1339
     7.2655   7.2683   7.3010   7.3020   7.3025   7.3031   7.3041   7.3074
     7.3078   7.3081   7.3083   7.3087   7.3138   7.3143   7.3150   7.3218
     7.3262   7.3264   7.3291   7.3578   7.3586   7.3840   7.3841   7.3845
     7.4958   7.4970   7.5223   7.5252   7.5257   7.5313   7.5444   7.5458
     7.5634   7.5878   7.5926   7.5945   7.6814   7.6938   7.6952   7.7345
     7.7404   7.7407   7.7409   7.7415   7.7431   7.7432   7.7491   7.7508
     7.7517   7.7527   7.7550   7.7591   7.7602   7.7622   7.7645   7.7654
     7.7655   7.7664   7.7667   7.7668   7.7689   7.7707   7.7716   7.7726
     7.7743   7.7755   7.7777   7.7781   7.7786   7.7802   7.7820   7.7826
     7.7831   7.7843   7.7859   7.7864   7.8010   7.8055   7.8192   7.8294
     7.8296   7.8526   7.8554   7.8737   7.8886   7.8903   7.8966   7.9221
     7.9240   7.9263   7.9400   7.9512   7.9528   8.1072   8.1180   8.1212
     8.3144   8.3154   8.3570   8.3580   8.3588   8.3626   8.3640   8.3645
     8.3682   8.3695   8.3700   8.3710   8.3742   8.3746   8.3752   8.3818
     8.3819   8.3868   8.4035   8.4082   8.4137   8.4215   8.4245   8.4255
     8.4766   8.5201   8.5215   8.5512   8.5519   8.5533   8.5538   8.5542
     8.5555   8.5559   8.5607   8.5628   8.5634   8.5657   8.5690   8.5825
     8.5831   8.5853   8.5961   8.6060   8.6090   8.6104   8.6303   8.6311
     8.6316   8.6529   8.6602   8.6604   8.6620   8.6634   8.6643   8.6806
     8.6819   8.6832   8.6885   8.6901   8.6945   8.6957   8.6959   8.7055
     8.7210   8.7269   8.7284   8.7305   8.7316   8.7424   8.7459   8.7491
     8.7590   8.7787   8.7791   9.0152   9.0459   9.0478   9.1155   9.1166
     9.1325   9.1351   9.1360   9.1389   9.1415   9.1435   9.1442   9.1870
     9.2060   9.2069   9.2098   9.2540   9.2557   9.2599   9.2609   9.2674
     9.2799   9.2810   9.2951   9.4369   9.4729   9.4779   9.6711   9.6727
     9.7082   9.7092   9.7108   9.7118   9.7149   9.7167   9.7197   9.7201
     9.7318   9.7323   9.7371   9.7390   9.7415   9.7441   9.7452   9.7478
     9.7634   9.7689   9.7711   9.8339   9.8496   9.8511   9.8807   9.9785
     9.9810   9.9929   9.9962   9.9964   9.9998  10.0030  10.0031  10.0119
    10.0175  10.0191  10.0210  10.0273  10.0289  10.0298  10.0379  10.0394
    10.0399  10.0400  10.0420  10.0433  10.0441  10.0449  10.0456  10.0463
    10.0467  10.0472  10.0497  10.0509  10.0686  10.0707  10.0730  10.1494
    10.1508  10.1597  10.1978  10.1988  10.2011  10.2014  10.2018  10.2018
    10.2026  10.2039  10.2044  10.2051  10.2062  10.2074  10.2870  10.2883
    10.2952  10.3088  10.3096  10.3112  10.3118  10.3165  10.3181  10.3198
    10.3209  10.3224  10.3243  10.3254  10.3280  10.3281  10.3306  10.3315
    10.3320  10.3342  10.3343  10.3360  10.3375  10.3395  10.3400  10.3425
    10.3432  10.3482  10.3489  10.3502  10.3617  10.3634  10.3644  10.3748
    10.3782  10.3925  10.3981  10.4011  10.4061  10.4238  10.4283  10.4296
    10.4471  10.4506  10.4547  10.4616  10.4865  10.4912  10.5076  10.5095
    10.5907  10.6596  10.6699  11.2527  11.3424  11.3454  11.4678  11.4682
    11.4848  11.4863  11.4877  11.4907  11.4916  11.4923  11.4932  11.4944
    11.4954  11.4983  11.5026  11.5038  11.5063  11.5083  11.5184  11.5216
    11.5235  11.5372  11.5400  11.5404  11.5614  11.5652  11.5669  11.7486
    11.8803  11.8811  11.8908  11.9177  11.9203  12.2680  12.3576  12.3590
    12.4572  12.4695  12.4698  12.4738  12.4887  12.4930  12.4958  12.5301
    12.5403  12.5898  13.1963  13.1970  13.2088  14.9296  16.4186  16.5679
    17.4055  17.4070  17.4079  17.4235  17.4247  17.4362  17.7134  17.7166

     occupation numbers 
     1.0000   1.0000   1.0000   1.0000   1.0000   1.0000   1.0000   1.0000
     1.0000   1.0000   1.0000   1.0000   1.0000   1.0000   1.0000   1.0000
     1.0000   1.0000   1.0000   1.0000   1.0000   1.0000   1.0000   1.0000
     1.0000   1.0000   1.0000   1.0000   1.0000   1.0000   1.0000   1.0000
     1.0000   1.0000   1.0000   1.0000   1.0000   1.0000   1.0000   1.0000
     1.0000   1.0000   1.0000   1.0000   1.0000   1.0000   1.0000   1.0000
     1.0000   1.0000   1.0000   1.0000   1.0000   1.0000   1.0000   1.0000
     1.0000   1.0000   1.0000   1.0000   1.0000   1.0000   1.0000   1.0000
     1.0000   1.0000   1.0000   1.0000   1.0000   1.0000   1.0000   1.0000
     1.0000   1.0000   1.0000   1.0000   1.0000   1.0000   1.0000   1.0000
     1.0000   1.0000   1.0000   1.0000   1.0000   1.0000   1.0000   1.0000
     1.0000   1.0000   1.0000   1.0000   1.0000   1.0000   1.0000   1.0000
     1.0000   1.0000   1.0000   1.0000   1.0000   1.0000   1.0000   1.0000
     1.0000   1.0000   1.0000   1.0000   1.0000   1.0000   1.0000   1.0000
     1.0000   1.0000   1.0000   1.0000   1.0000   1.0000   1.0000   1.0000
     1.0000   1.0000   1.0000   1.0000   1.0000   1.0000   1.0000   1.0000
     1.0000   1.0000   1.0000   1.0000   1.0000   1.0000   1.0000   1.0000
     1.0000   1.0000   1.0000   1.0000   1.0000   1.0000   1.0000   1.0000
     1.0000   1.0000   1.0000   1.0000   1.0000   1.0000   1.0000   1.0000
     1.0000   1.0000   1.0000   1.0000   1.0000   1.0000   1.0000   1.0000
     1.0000   1.0000   1.0000   1.0000   1.0000   1.0000   1.0000   1.0000
     1.0000   1.0000   1.0000   1.0000   1.0000   1.0000   1.0000   1.0000
     1.0000   1.0000   1.0000   1.0000   1.0000   1.0000   1.0000   1.0000
     1.0000   1.0000   1.0000   1.0000   1.0000   1.0000   1.0000   1.0000
     1.0000   1.0000   1.0000   1.0000   1.0000   1.0000   1.0000   1.0000
     1.0000   1.0000   1.0000   1.0000   1.0000   1.0000   1.0000   1.0000
     1.0000   1.0000   1.0000   1.0000   1.0000   1.0000   1.0000   1.0000
     1.0000   1.0000   1.0000   1.0000   1.0000   1.0000   1.0000   1.0000
     1.0000   1.0000   1.0000   1.0000   1.0000   1.0000   1.0000   1.0000
     1.0000   1.0000   1.0000   1.0000   1.0000   1.0000   1.0000   1.0000
     1.0000   1.0000   1.0000   1.0000   1.0000   1.0000   1.0000   1.0000
     1.0000   1.0000   1.0000   1.0000   1.0000   1.0000   1.0000   1.0000
     1.0000   1.0000   1.0000   1.0000   1.0000   1.0000   1.0000   1.0000
     1.0000   1.0000   1.0000   1.0000   1.0000   1.0000   1.0000   1.0000
     1.0000   1.0000   1.0000   1.0000   1.0000   1.0000   1.0000   1.0000
     1.0000   1.0000   1.0000   1.0000   1.0000   1.0000   1.0000   1.0000
     1.0000   1.0000   1.0000   1.0000   1.0000   1.0000   1.0000   1.0000
     1.0000   1.0000   1.0000   1.0000   1.0000   1.0000   1.0000   1.0000
     1.0000   1.0000   1.0000   1.0000   1.0000   1.0000   1.0000   1.0000
     1.0000   1.0000   1.0000   1.0000   1.0000   1.0000   1.0000   1.0000
     1.0000   1.0000   1.0000   1.0000   1.0000   1.0000   1.0000   1.0000
     1.0000   1.0000   1.0000   1.0000   1.0000   1.0000   1.0000   1.0000
     1.0000   1.0000   1.0000   1.0000   1.0000   1.0000   1.0000   1.0000
     1.0000   1.0000   1.0000   1.0000   1.0000   1.0000   1.0000   1.0000
     1.0000   1.0000   1.0000   1.0000   1.0000   1.0000   1.0000   1.0000
     1.0000   1.0000   1.0000   1.0000   1.0000   1.0000   1.0000   1.0000
     1.0000   1.0000   1.0000   1.0000   1.0000   1.0000   1.0000   1.0000
     1.0000   1.0000   1.0000   1.0000   1.0000   1.0000   1.0000   1.0000
     1.0000   1.0000   1.0000   1.0000   1.0000   1.0000   1.0000   1.0000
     1.0000   1.0000   1.0000   1.0000   1.0000   1.0000   1.0000   1.0000
     1.0000   1.0000   1.0000   1.0000   1.0000   1.0000   1.0000   1.0000
     1.0000   1.0000   1.0000   1.0000   1.0000   1.0000   1.0000   1.0000
     1.0000   1.0000   1.0000   1.0000   1.0000   1.0000   1.0000   1.0000
     1.0000   1.0000   1.0000   1.0000   1.0000   1.0000   1.0000   1.0000
     1.0000   1.0000   1.0000   1.0000   1.0000   1.0000   1.0000   1.0000
     1.0000   1.0000   1.0000   1.0000   1.0000   1.0000   1.0000   1.0000
     1.0000   1.0000   1.0000   1.0000   1.0000   1.0000   1.0000   1.0000
     1.0000   1.0000   1.0000   1.0000   1.0000   1.0000   1.0000   1.0000
     1.0000   1.0000   1.0000   1.0000   1.0000   1.0000   1.0000   1.0000
     1.0000   1.0000   1.0000   1.0000   1.0000   1.0000   1.0000   1.0000
     1.0000   1.0000   1.0000   1.0000   1.0000   1.0000   1.0000   1.0000
     1.0000   1.0000   1.0000   1.0000   1.0000   1.0000   1.0000   1.0000
     1.0000   1.0000   1.0000   1.0000   1.0000   1.0000   1.0000   1.0000
     1.0000   1.0000   1.0000   1.0000   1.0000   1.0000   1.0000   1.0000
     1.0000   1.0000   1.0000   1.0000   1.0000   1.0000   1.0000   1.0000
     1.0000   1.0000   1.0000   1.0000   1.0000   1.0000   1.0000   1.0000
     1.0000   1.0000   1.0000   1.0000   1.0000   1.0000   1.0000   1.0000
     1.0000   1.0000   1.0000   1.0000   1.0000   1.0000   1.0000   1.0000
     1.0000   1.0000   1.0000   1.0000   1.0000   1.0000   1.0000   1.0000
     1.0000   1.0000   1.0000   1.0000   1.0000   1.0000   1.0000   1.0000
     1.0000   1.0000   1.0000   1.0000   1.0000   1.0000   1.0000   1.0000
     1.0000   1.0000   1.0000   1.0000   1.0000   1.0000   1.0000   1.0000
     1.0000   1.0000   1.0000   1.0000   1.0000   1.0000   1.0000   1.0000
     1.0000   1.0000   1.0000   1.0000   1.0000   1.0000   1.0000   1.0000
     1.0000   1.0000   1.0000   1.0000   1.0000   1.0000   1.0000   1.0000
     1.0000   1.0000   1.0000   1.0000   1.0000   1.0000   1.0000   1.0000
     1.0000   1.0000   1.0000   1.0000   1.0000   1.0000   1.0000   1.0000
     1.0000   1.0000   1.0000   1.0000   1.0000   1.0000   1.0000   1.0000
     1.0000   1.0000   1.0000   1.0000   1.0000   1.0000   1.0000   1.0000
     1.0000   1.0000   1.0000   1.0000   1.0000   1.0000   1.0000   1.0000
     1.0000   1.0000   1.0000   1.0000   1.0000   1.0000   1.0000   1.0000
     1.0000   1.0000   1.0000   1.0000   1.0000   1.0000   1.0000   1.0000
     1.0000   1.0000   1.0000   1.0000   1.0000   1.0000   1.0000   1.0000
     1.0000   1.0000   1.0000   1.0000   1.0000   1.0000   1.0000   1.0000
     1.0000   1.0000   1.0000   1.0000   1.0000   1.0000   1.0000   1.0000
     1.0000   1.0000   1.0000   1.0000   1.0000   1.0000   1.0000   1.0000
     1.0000   1.0000   1.0000   1.0000   1.0000   1.0000   1.0000   1.0000
     1.0000   1.0000   1.0000   1.0000   1.0000   1.0000   1.0000   1.0000
     1.0000   1.0000   1.0000   1.0000   1.0000   1.0000   1.0000   1.0000
     1.0000   1.0000   1.0000   1.0000   1.0000   1.0000   1.0000   1.0000
     1.0000   1.0000   1.0000   1.0000   1.0000   1.0000   1.0000   1.0000
     1.0000   1.0000   1.0000   1.0000   1.0000   1.0000   1.0000   1.0000
     1.0000   1.0000   1.0000   1.0000   1.0000   1.0000   1.0000   1.0000
     1.0000   1.0000   1.0000   1.0000   1.0000   1.0000   1.0000   1.0000
     1.0000   1.0000   1.0000   1.0000   1.0000   1.0000   1.0000   1.0000
     1.0000   1.0000   1.0000   1.0000   1.0000   1.0000   1.0000   1.0000
     1.0000   1.0000   1.0000   1.0000   1.0000   1.0000   1.0000   1.0000
     1.0000   1.0000   1.0000   1.0000   1.0000   1.0000   1.0000   1.0000
     1.0000   1.0000   1.0000   1.0000   1.0000   1.0000   1.0000   1.0000
     1.0000   1.0000   1.0000   1.0000   1.0000   1.0000   1.0000   1.0000
     1.0000   1.0000   1.0000   1.0000   1.0000   1.0000   1.0000   1.0000
     1.0000   1.0000   1.0000   1.0000   1.0000   1.0000   1.0000   1.0000
     1.0000   1.0000   1.0000   1.0000   1.0000   1.0000   1.0000   1.0000
     1.0000   1.0000   1.0000   1.0000   1.0000   1.0000   1.0000   1.0000
     1.0000   1.0000   1.0000   1.0000   1.0000   1.0000   1.0000   1.0000
     1.0000   1.0000   1.0000   1.0000   1.0000   1.0000   1.0000   1.0000
     1.0000   1.0000   1.0000   1.0000   1.0000   1.0000   1.0000   1.0000
     1.0000   1.0000   1.0000   1.0000   1.0000   1.0000   1.0000   1.0000
     1.0000   1.0000   1.0000   1.0000   1.0000   1.0000   1.0000   1.0000
     1.0000   1.0000   1.0000   1.0000   1.0000   1.0000   1.0000   1.0000
     1.0000   1.0000   1.0000   1.0000   1.0000   1.0000   1.0000   1.0000
     1.0000   1.0000   1.0000   1.0000   1.0000   1.0000   1.0000   1.0000
     1.0000   1.0000   1.0000   1.0000   1.0000   1.0000   1.0000   1.0000
     1.0000   1.0000   1.0000   1.0000   1.0000   1.0000   1.0000   1.0000
     1.0000   1.0000   1.0000   1.0000   1.0000   1.0000   1.0000   1.0000
     1.0000   1.0000   1.0000   1.0000   1.0000   1.0000   1.0000   1.0000
     1.0000   1.0000   1.0000   1.0000   1.0000   1.0000   1.0000   1.0000
     1.0000   1.0000   1.0000   1.0000   1.0000   1.0000   1.0000   1.0000
     1.0000   1.0000   1.0000   1.0000   1.0000   1.0000   1.0000   1.0000
     1.0000   1.0000   1.0000   1.0000   1.0000   1.0000   1.0000   1.0000
     1.0000   1.0000   1.0000   1.0000   1.0000   1.0000   1.0000   1.0000
     1.0000   1.0000   1.0000   1.0000   1.0000   1.0000   1.0000   1.0000
     1.0000   1.0000   1.0000   1.0000   1.0000   1.0000   1.0000   1.0000
     1.0000   1.0000   1.0000   1.0000   1.0000   1.0000   1.0000   1.0000
     1.0000   1.0000   1.0000   1.0000   1.0000   1.0000   1.0000   1.0000
     1.0000   1.0000   1.0000   1.0000   1.0000   1.0000   1.0000   1.0000
     1.0000   1.0000   1.0000   1.0000   1.0000   1.0000   1.0000   1.0000
     1.0000   1.0000   1.0000   1.0000   1.0000   1.0000   0.0000   0.0000
     0.0000   0.0000   0.0000   0.0000   0.0000   0.0000   0.0000   0.0000

     highest occupied, lowest unoccupied level (ev):    15.1682   16.4186

!    total energy              =   -5829.08838779 Ry
     estimated scf accuracy    <          5.4E-11 Ry

     The total energy is the sum of the following terms:
     one-electron contribution =    2011.28837462 Ry
     hartree contribution      =     505.47814571 Ry
     xc contribution           =   -1820.32828267 Ry
     ewald contribution        =   -6525.52662545 Ry

     total magnetization       =     2.00 Bohr mag/cell
     absolute magnetization    =     2.30 Bohr mag/cell

     convergence has been achieved in  21 iterations

 %%%%%%%%%%%%%%%%%%%%%%%%%%%%%%%%%%%%%%%%%%%%%%%%%%%%%%%%%%%%%%%%%%%%%%%%%%%%%%
     Error in routine write_rhog (3):
     error writing file ./pwscf.save/charge-density
 %%%%%%%%%%%%%%%%%%%%%%%%%%%%%%%%%%%%%%%%%%%%%%%%%%%%%%%%%%%%%%%%%%%%%%%%%%%%%%

     stopping ...

 %%%%%%%%%%%%%%%%%%%%%%%%%%%%%%%%%%%%%%%%%%%%%%%%%%%%%%%%%%%%%%%%%%%%%%%%%%%%%%
     Error in routine write_rhog (3):
     error writing file ./pwscf.save/charge-density
 %%%%%%%%%%%%%%%%%%%%%%%%%%%%%%%%%%%%%%%%%%%%%%%%%%%%%%%%%%%%%%%%%%%%%%%%%%%%%%

     stopping ...

 %%%%%%%%%%%%%%%%%%%%%%%%%%%%%%%%%%%%%%%%%%%%%%%%%%%%%%%%%%%%%%%%%%%%%%%%%%%%%%
     Error in routine write_rhog (3):
     error writing file ./pwscf.save/charge-density
 %%%%%%%%%%%%%%%%%%%%%%%%%%%%%%%%%%%%%%%%%%%%%%%%%%%%%%%%%%%%%%%%%%%%%%%%%%%%%%

     stopping ...

 %%%%%%%%%%%%%%%%%%%%%%%%%%%%%%%%%%%%%%%%%%%%%%%%%%%%%%%%%%%%%%%%%%%%%%%%%%%%%%
     Error in routine write_rhog (3):
     error writing file ./pwscf.save/charge-density
 %%%%%%%%%%%%%%%%%%%%%%%%%%%%%%%%%%%%%%%%%%%%%%%%%%%%%%%%%%%%%%%%%%%%%%%%%%%%%%

     stopping ...

 %%%%%%%%%%%%%%%%%%%%%%%%%%%%%%%%%%%%%%%%%%%%%%%%%%%%%%%%%%%%%%%%%%%%%%%%%%%%%%
     Error in routine write_rhog (3):
     error writing file ./pwscf.save/charge-density
 %%%%%%%%%%%%%%%%%%%%%%%%%%%%%%%%%%%%%%%%%%%%%%%%%%%%%%%%%%%%%%%%%%%%%%%%%%%%%%

     stopping ...

 %%%%%%%%%%%%%%%%%%%%%%%%%%%%%%%%%%%%%%%%%%%%%%%%%%%%%%%%%%%%%%%%%%%%%%%%%%%%%%
     Error in routine write_rhog (3):
     error writing file ./pwscf.save/charge-density
 %%%%%%%%%%%%%%%%%%%%%%%%%%%%%%%%%%%%%%%%%%%%%%%%%%%%%%%%%%%%%%%%%%%%%%%%%%%%%%

     stopping ...

 %%%%%%%%%%%%%%%%%%%%%%%%%%%%%%%%%%%%%%%%%%%%%%%%%%%%%%%%%%%%%%%%%%%%%%%%%%%%%%
     Error in routine write_rhog (3):
     error writing file ./pwscf.save/charge-density
 %%%%%%%%%%%%%%%%%%%%%%%%%%%%%%%%%%%%%%%%%%%%%%%%%%%%%%%%%%%%%%%%%%%%%%%%%%%%%%

     stopping ...

 %%%%%%%%%%%%%%%%%%%%%%%%%%%%%%%%%%%%%%%%%%%%%%%%%%%%%%%%%%%%%%%%%%%%%%%%%%%%%%
     Error in routine write_rhog (3):
     error writing file ./pwscf.save/charge-density
 %%%%%%%%%%%%%%%%%%%%%%%%%%%%%%%%%%%%%%%%%%%%%%%%%%%%%%%%%%%%%%%%%%%%%%%%%%%%%%

     stopping ...

 %%%%%%%%%%%%%%%%%%%%%%%%%%%%%%%%%%%%%%%%%%%%%%%%%%%%%%%%%%%%%%%%%%%%%%%%%%%%%%
     Error in routine write_rhog (3):
     error writing file ./pwscf.save/charge-density
 %%%%%%%%%%%%%%%%%%%%%%%%%%%%%%%%%%%%%%%%%%%%%%%%%%%%%%%%%%%%%%%%%%%%%%%%%%%%%%

     stopping ...

 %%%%%%%%%%%%%%%%%%%%%%%%%%%%%%%%%%%%%%%%%%%%%%%%%%%%%%%%%%%%%%%%%%%%%%%%%%%%%%
     Error in routine write_rhog (3):
     error writing file ./pwscf.save/charge-density
 %%%%%%%%%%%%%%%%%%%%%%%%%%%%%%%%%%%%%%%%%%%%%%%%%%%%%%%%%%%%%%%%%%%%%%%%%%%%%%

     stopping ...

 %%%%%%%%%%%%%%%%%%%%%%%%%%%%%%%%%%%%%%%%%%%%%%%%%%%%%%%%%%%%%%%%%%%%%%%%%%%%%%
     Error in routine write_rhog (3):
     error writing file ./pwscf.save/charge-density
 %%%%%%%%%%%%%%%%%%%%%%%%%%%%%%%%%%%%%%%%%%%%%%%%%%%%%%%%%%%%%%%%%%%%%%%%%%%%%%

     stopping ...

 %%%%%%%%%%%%%%%%%%%%%%%%%%%%%%%%%%%%%%%%%%%%%%%%%%%%%%%%%%%%%%%%%%%%%%%%%%%%%%
     Error in routine write_rhog (3):
     error writing file ./pwscf.save/charge-density
 %%%%%%%%%%%%%%%%%%%%%%%%%%%%%%%%%%%%%%%%%%%%%%%%%%%%%%%%%%%%%%%%%%%%%%%%%%%%%%

     stopping ...

 %%%%%%%%%%%%%%%%%%%%%%%%%%%%%%%%%%%%%%%%%%%%%%%%%%%%%%%%%%%%%%%%%%%%%%%%%%%%%%
     Error in routine write_rhog (3):
     error writing file ./pwscf.save/charge-density
 %%%%%%%%%%%%%%%%%%%%%%%%%%%%%%%%%%%%%%%%%%%%%%%%%%%%%%%%%%%%%%%%%%%%%%%%%%%%%%

     stopping ...

 %%%%%%%%%%%%%%%%%%%%%%%%%%%%%%%%%%%%%%%%%%%%%%%%%%%%%%%%%%%%%%%%%%%%%%%%%%%%%%
     Error in routine write_rhog (3):
     error writing file ./pwscf.save/charge-density
 %%%%%%%%%%%%%%%%%%%%%%%%%%%%%%%%%%%%%%%%%%%%%%%%%%%%%%%%%%%%%%%%%%%%%%%%%%%%%%

     stopping ...

 %%%%%%%%%%%%%%%%%%%%%%%%%%%%%%%%%%%%%%%%%%%%%%%%%%%%%%%%%%%%%%%%%%%%%%%%%%%%%%
     Error in routine write_rhog (3):
     error writing file ./pwscf.save/charge-density
 %%%%%%%%%%%%%%%%%%%%%%%%%%%%%%%%%%%%%%%%%%%%%%%%%%%%%%%%%%%%%%%%%%%%%%%%%%%%%%

     stopping ...

 %%%%%%%%%%%%%%%%%%%%%%%%%%%%%%%%%%%%%%%%%%%%%%%%%%%%%%%%%%%%%%%%%%%%%%%%%%%%%%
     Error in routine write_rhog (3):
     error writing file ./pwscf.save/charge-density
 %%%%%%%%%%%%%%%%%%%%%%%%%%%%%%%%%%%%%%%%%%%%%%%%%%%%%%%%%%%%%%%%%%%%%%%%%%%%%%

     stopping ...

 %%%%%%%%%%%%%%%%%%%%%%%%%%%%%%%%%%%%%%%%%%%%%%%%%%%%%%%%%%%%%%%%%%%%%%%%%%%%%%
     Error in routine write_rhog (3):
     error writing file ./pwscf.save/charge-density
 %%%%%%%%%%%%%%%%%%%%%%%%%%%%%%%%%%%%%%%%%%%%%%%%%%%%%%%%%%%%%%%%%%%%%%%%%%%%%%

     stopping ...

 %%%%%%%%%%%%%%%%%%%%%%%%%%%%%%%%%%%%%%%%%%%%%%%%%%%%%%%%%%%%%%%%%%%%%%%%%%%%%%
     Error in routine write_rhog (3):
     error writing file ./pwscf.save/charge-density
 %%%%%%%%%%%%%%%%%%%%%%%%%%%%%%%%%%%%%%%%%%%%%%%%%%%%%%%%%%%%%%%%%%%%%%%%%%%%%%

     stopping ...

 %%%%%%%%%%%%%%%%%%%%%%%%%%%%%%%%%%%%%%%%%%%%%%%%%%%%%%%%%%%%%%%%%%%%%%%%%%%%%%
     Error in routine write_rhog (3):
     error writing file ./pwscf.save/charge-density
 %%%%%%%%%%%%%%%%%%%%%%%%%%%%%%%%%%%%%%%%%%%%%%%%%%%%%%%%%%%%%%%%%%%%%%%%%%%%%%

     stopping ...

 %%%%%%%%%%%%%%%%%%%%%%%%%%%%%%%%%%%%%%%%%%%%%%%%%%%%%%%%%%%%%%%%%%%%%%%%%%%%%%
     Error in routine write_rhog (3):
     error writing file ./pwscf.save/charge-density
 %%%%%%%%%%%%%%%%%%%%%%%%%%%%%%%%%%%%%%%%%%%%%%%%%%%%%%%%%%%%%%%%%%%%%%%%%%%%%%

     stopping ...

 %%%%%%%%%%%%%%%%%%%%%%%%%%%%%%%%%%%%%%%%%%%%%%%%%%%%%%%%%%%%%%%%%%%%%%%%%%%%%%
     Error in routine write_rhog (3):
     error writing file ./pwscf.save/charge-density
 %%%%%%%%%%%%%%%%%%%%%%%%%%%%%%%%%%%%%%%%%%%%%%%%%%%%%%%%%%%%%%%%%%%%%%%%%%%%%%

     stopping ...

 %%%%%%%%%%%%%%%%%%%%%%%%%%%%%%%%%%%%%%%%%%%%%%%%%%%%%%%%%%%%%%%%%%%%%%%%%%%%%%
     Error in routine write_rhog (3):
     error writing file ./pwscf.save/charge-density
 %%%%%%%%%%%%%%%%%%%%%%%%%%%%%%%%%%%%%%%%%%%%%%%%%%%%%%%%%%%%%%%%%%%%%%%%%%%%%%

     stopping ...

 %%%%%%%%%%%%%%%%%%%%%%%%%%%%%%%%%%%%%%%%%%%%%%%%%%%%%%%%%%%%%%%%%%%%%%%%%%%%%%
     Error in routine write_rhog (3):
     error writing file ./pwscf.save/charge-density
 %%%%%%%%%%%%%%%%%%%%%%%%%%%%%%%%%%%%%%%%%%%%%%%%%%%%%%%%%%%%%%%%%%%%%%%%%%%%%%

     stopping ...

 %%%%%%%%%%%%%%%%%%%%%%%%%%%%%%%%%%%%%%%%%%%%%%%%%%%%%%%%%%%%%%%%%%%%%%%%%%%%%%
     Error in routine write_rhog (3):
     error writing file ./pwscf.save/charge-density
 %%%%%%%%%%%%%%%%%%%%%%%%%%%%%%%%%%%%%%%%%%%%%%%%%%%%%%%%%%%%%%%%%%%%%%%%%%%%%%

     stopping ...

 %%%%%%%%%%%%%%%%%%%%%%%%%%%%%%%%%%%%%%%%%%%%%%%%%%%%%%%%%%%%%%%%%%%%%%%%%%%%%%
     Error in routine write_rhog (3):
     error writing file ./pwscf.save/charge-density
 %%%%%%%%%%%%%%%%%%%%%%%%%%%%%%%%%%%%%%%%%%%%%%%%%%%%%%%%%%%%%%%%%%%%%%%%%%%%%%

     stopping ...

 %%%%%%%%%%%%%%%%%%%%%%%%%%%%%%%%%%%%%%%%%%%%%%%%%%%%%%%%%%%%%%%%%%%%%%%%%%%%%%
     Error in routine write_rhog (3):
     error writing file ./pwscf.save/charge-density
 %%%%%%%%%%%%%%%%%%%%%%%%%%%%%%%%%%%%%%%%%%%%%%%%%%%%%%%%%%%%%%%%%%%%%%%%%%%%%%

     stopping ...

 %%%%%%%%%%%%%%%%%%%%%%%%%%%%%%%%%%%%%%%%%%%%%%%%%%%%%%%%%%%%%%%%%%%%%%%%%%%%%%
     Error in routine write_rhog (3):
     error writing file ./pwscf.save/charge-density
 %%%%%%%%%%%%%%%%%%%%%%%%%%%%%%%%%%%%%%%%%%%%%%%%%%%%%%%%%%%%%%%%%%%%%%%%%%%%%%

     stopping ...

 %%%%%%%%%%%%%%%%%%%%%%%%%%%%%%%%%%%%%%%%%%%%%%%%%%%%%%%%%%%%%%%%%%%%%%%%%%%%%%
     Error in routine write_rhog (3):
     error writing file ./pwscf.save/charge-density
 %%%%%%%%%%%%%%%%%%%%%%%%%%%%%%%%%%%%%%%%%%%%%%%%%%%%%%%%%%%%%%%%%%%%%%%%%%%%%%

     stopping ...

 %%%%%%%%%%%%%%%%%%%%%%%%%%%%%%%%%%%%%%%%%%%%%%%%%%%%%%%%%%%%%%%%%%%%%%%%%%%%%%
     Error in routine write_rhog (3):
     error writing file ./pwscf.save/charge-density
 %%%%%%%%%%%%%%%%%%%%%%%%%%%%%%%%%%%%%%%%%%%%%%%%%%%%%%%%%%%%%%%%%%%%%%%%%%%%%%

     stopping ...

 %%%%%%%%%%%%%%%%%%%%%%%%%%%%%%%%%%%%%%%%%%%%%%%%%%%%%%%%%%%%%%%%%%%%%%%%%%%%%%
     Error in routine write_rhog (3):
     error writing file ./pwscf.save/charge-density
 %%%%%%%%%%%%%%%%%%%%%%%%%%%%%%%%%%%%%%%%%%%%%%%%%%%%%%%%%%%%%%%%%%%%%%%%%%%%%%

     stopping ...

 %%%%%%%%%%%%%%%%%%%%%%%%%%%%%%%%%%%%%%%%%%%%%%%%%%%%%%%%%%%%%%%%%%%%%%%%%%%%%%
     Error in routine write_rhog (3):
     error writing file ./pwscf.save/charge-density
 %%%%%%%%%%%%%%%%%%%%%%%%%%%%%%%%%%%%%%%%%%%%%%%%%%%%%%%%%%%%%%%%%%%%%%%%%%%%%%

     stopping ...

 %%%%%%%%%%%%%%%%%%%%%%%%%%%%%%%%%%%%%%%%%%%%%%%%%%%%%%%%%%%%%%%%%%%%%%%%%%%%%%
     Error in routine write_rhog (3):
     error writing file ./pwscf.save/charge-density
 %%%%%%%%%%%%%%%%%%%%%%%%%%%%%%%%%%%%%%%%%%%%%%%%%%%%%%%%%%%%%%%%%%%%%%%%%%%%%%

     stopping ...

 %%%%%%%%%%%%%%%%%%%%%%%%%%%%%%%%%%%%%%%%%%%%%%%%%%%%%%%%%%%%%%%%%%%%%%%%%%%%%%
     Error in routine write_rhog (3):
     error writing file ./pwscf.save/charge-density
 %%%%%%%%%%%%%%%%%%%%%%%%%%%%%%%%%%%%%%%%%%%%%%%%%%%%%%%%%%%%%%%%%%%%%%%%%%%%%%

     stopping ...

 %%%%%%%%%%%%%%%%%%%%%%%%%%%%%%%%%%%%%%%%%%%%%%%%%%%%%%%%%%%%%%%%%%%%%%%%%%%%%%
     Error in routine write_rhog (3):
     error writing file ./pwscf.save/charge-density
 %%%%%%%%%%%%%%%%%%%%%%%%%%%%%%%%%%%%%%%%%%%%%%%%%%%%%%%%%%%%%%%%%%%%%%%%%%%%%%

     stopping ...

 %%%%%%%%%%%%%%%%%%%%%%%%%%%%%%%%%%%%%%%%%%%%%%%%%%%%%%%%%%%%%%%%%%%%%%%%%%%%%%
     Error in routine write_rhog (3):
     error writing file ./pwscf.save/charge-density
 %%%%%%%%%%%%%%%%%%%%%%%%%%%%%%%%%%%%%%%%%%%%%%%%%%%%%%%%%%%%%%%%%%%%%%%%%%%%%%

     stopping ...

 %%%%%%%%%%%%%%%%%%%%%%%%%%%%%%%%%%%%%%%%%%%%%%%%%%%%%%%%%%%%%%%%%%%%%%%%%%%%%%
     Error in routine write_rhog (3):
     error writing file ./pwscf.save/charge-density
 %%%%%%%%%%%%%%%%%%%%%%%%%%%%%%%%%%%%%%%%%%%%%%%%%%%%%%%%%%%%%%%%%%%%%%%%%%%%%%

     stopping ...

 %%%%%%%%%%%%%%%%%%%%%%%%%%%%%%%%%%%%%%%%%%%%%%%%%%%%%%%%%%%%%%%%%%%%%%%%%%%%%%
     Error in routine write_rhog (3):
     error writing file ./pwscf.save/charge-density
 %%%%%%%%%%%%%%%%%%%%%%%%%%%%%%%%%%%%%%%%%%%%%%%%%%%%%%%%%%%%%%%%%%%%%%%%%%%%%%

     stopping ...

 %%%%%%%%%%%%%%%%%%%%%%%%%%%%%%%%%%%%%%%%%%%%%%%%%%%%%%%%%%%%%%%%%%%%%%%%%%%%%%
     Error in routine write_rhog (3):
     error writing file ./pwscf.save/charge-density
 %%%%%%%%%%%%%%%%%%%%%%%%%%%%%%%%%%%%%%%%%%%%%%%%%%%%%%%%%%%%%%%%%%%%%%%%%%%%%%

     stopping ...

 %%%%%%%%%%%%%%%%%%%%%%%%%%%%%%%%%%%%%%%%%%%%%%%%%%%%%%%%%%%%%%%%%%%%%%%%%%%%%%
     Error in routine write_rhog (3):
     error writing file ./pwscf.save/charge-density
 %%%%%%%%%%%%%%%%%%%%%%%%%%%%%%%%%%%%%%%%%%%%%%%%%%%%%%%%%%%%%%%%%%%%%%%%%%%%%%

     stopping ...

 %%%%%%%%%%%%%%%%%%%%%%%%%%%%%%%%%%%%%%%%%%%%%%%%%%%%%%%%%%%%%%%%%%%%%%%%%%%%%%
     Error in routine write_rhog (3):
     error writing file ./pwscf.save/charge-density
 %%%%%%%%%%%%%%%%%%%%%%%%%%%%%%%%%%%%%%%%%%%%%%%%%%%%%%%%%%%%%%%%%%%%%%%%%%%%%%

     stopping ...

 %%%%%%%%%%%%%%%%%%%%%%%%%%%%%%%%%%%%%%%%%%%%%%%%%%%%%%%%%%%%%%%%%%%%%%%%%%%%%%
     Error in routine write_rhog (3):
     error writing file ./pwscf.save/charge-density
 %%%%%%%%%%%%%%%%%%%%%%%%%%%%%%%%%%%%%%%%%%%%%%%%%%%%%%%%%%%%%%%%%%%%%%%%%%%%%%

     stopping ...

 %%%%%%%%%%%%%%%%%%%%%%%%%%%%%%%%%%%%%%%%%%%%%%%%%%%%%%%%%%%%%%%%%%%%%%%%%%%%%%
     Error in routine write_rhog (3):
     error writing file ./pwscf.save/charge-density
 %%%%%%%%%%%%%%%%%%%%%%%%%%%%%%%%%%%%%%%%%%%%%%%%%%%%%%%%%%%%%%%%%%%%%%%%%%%%%%

     stopping ...

 %%%%%%%%%%%%%%%%%%%%%%%%%%%%%%%%%%%%%%%%%%%%%%%%%%%%%%%%%%%%%%%%%%%%%%%%%%%%%%
     Error in routine write_rhog (3):
     error writing file ./pwscf.save/charge-density
 %%%%%%%%%%%%%%%%%%%%%%%%%%%%%%%%%%%%%%%%%%%%%%%%%%%%%%%%%%%%%%%%%%%%%%%%%%%%%%

     stopping ...

 %%%%%%%%%%%%%%%%%%%%%%%%%%%%%%%%%%%%%%%%%%%%%%%%%%%%%%%%%%%%%%%%%%%%%%%%%%%%%%
     Error in routine write_rhog (3):
     error writing file ./pwscf.save/charge-density
 %%%%%%%%%%%%%%%%%%%%%%%%%%%%%%%%%%%%%%%%%%%%%%%%%%%%%%%%%%%%%%%%%%%%%%%%%%%%%%

     stopping ...

 %%%%%%%%%%%%%%%%%%%%%%%%%%%%%%%%%%%%%%%%%%%%%%%%%%%%%%%%%%%%%%%%%%%%%%%%%%%%%%
     Error in routine write_rhog (3):
     error writing file ./pwscf.save/charge-density
 %%%%%%%%%%%%%%%%%%%%%%%%%%%%%%%%%%%%%%%%%%%%%%%%%%%%%%%%%%%%%%%%%%%%%%%%%%%%%%

     stopping ...

 %%%%%%%%%%%%%%%%%%%%%%%%%%%%%%%%%%%%%%%%%%%%%%%%%%%%%%%%%%%%%%%%%%%%%%%%%%%%%%
     Error in routine write_rhog (3):
     error writing file ./pwscf.save/charge-density
 %%%%%%%%%%%%%%%%%%%%%%%%%%%%%%%%%%%%%%%%%%%%%%%%%%%%%%%%%%%%%%%%%%%%%%%%%%%%%%

     stopping ...

 %%%%%%%%%%%%%%%%%%%%%%%%%%%%%%%%%%%%%%%%%%%%%%%%%%%%%%%%%%%%%%%%%%%%%%%%%%%%%%
     Error in routine write_rhog (3):
     error writing file ./pwscf.save/charge-density
 %%%%%%%%%%%%%%%%%%%%%%%%%%%%%%%%%%%%%%%%%%%%%%%%%%%%%%%%%%%%%%%%%%%%%%%%%%%%%%

     stopping ...

 %%%%%%%%%%%%%%%%%%%%%%%%%%%%%%%%%%%%%%%%%%%%%%%%%%%%%%%%%%%%%%%%%%%%%%%%%%%%%%
     Error in routine write_rhog (3):
     error writing file ./pwscf.save/charge-density
 %%%%%%%%%%%%%%%%%%%%%%%%%%%%%%%%%%%%%%%%%%%%%%%%%%%%%%%%%%%%%%%%%%%%%%%%%%%%%%

     stopping ...
