
     Program PWSCF v.7.5 starts on 19Nov2025 at 13:59:19 

     This program is part of the open-source Quantum ESPRESSO suite
     for quantum simulation of materials; please cite
         "P. Giannozzi et al., J. Phys.:Condens. Matter 21 395502 (2009);
         "P. Giannozzi et al., J. Phys.:Condens. Matter 29 465901 (2017);
         "P. Giannozzi et al., J. Chem. Phys. 152 154105 (2020);
          URL http://www.quantum-espresso.org", 
     in publications or presentations arising from this work. More details at
     http://www.quantum-espresso.org/quote

     Parallel version (MPI), running on    96 processors

     MPI processes distributed on     2 nodes
     144255 MiB available memory on the printing compute node when the environment starts
 
     Reading input from supercell-063.in

     Current dimensions of program PWSCF are:
     Max number of different atomic species (ntypx) = 10
     Max number of k-points (npk) =  40000
     Max angular momentum in pseudopotentials (lmaxx) =  4

     gamma-point specific algorithms are used
 
     K-points division:     npool     =       2
     R & G space division:  proc/nbgrp/npool/nimage =      48
     Subspace diagonalization in iterative solution of the eigenvalue problem:
     one sub-group per band group will be used
     scalapack distributed-memory algorithm (size of sub-group:  2*  2 procs)

 
     Parallelization info
     --------------------
     sticks:   dense  smooth     PW     G-vecs:    dense   smooth      PW
     Min          59      59     14                 2432     2432     302
     Max          62      62     16                 2442     2442     316
     Sum        2885    2885    725               116921   116921   14771
 
     Using Slab Decomposition
 


     bravais-lattice index     =            0
     lattice parameter (alat)  =      13.4813  a.u.
     unit-cell volume          =    2450.1683 (a.u.)^3
     number of atoms/cell      =           63
     number of atomic types    =            2
     number of electrons       =       254.00 (up: 128.00, down: 126.00)
     number of Kohn-Sham states=          152
     kinetic-energy cutoff     =      50.0000  Ry
     charge density cutoff     =     200.0000  Ry
     scf convergence threshold =      1.0E-08
     mixing beta               =       0.7000
     number of iterations used =            8  plain     mixing
     Exchange-correlation= PBE
                           (   1   4   3   4   0   0   0)

     celldm(1)=  13.481306  celldm(2)=   0.000000  celldm(3)=   0.000000
     celldm(4)=   0.000000  celldm(5)=   0.000000  celldm(6)=   0.000000

     crystal axes: (cart. coord. in units of alat)
               a(1) = (   1.000000   0.000000   0.000000 )  
               a(2) = (   0.000000   1.000000   0.000000 )  
               a(3) = (   0.000000   0.000000   1.000000 )  

     reciprocal axes: (cart. coord. in units 2 pi/alat)
               b(1) = (  1.000000  0.000000  0.000000 )  
               b(2) = (  0.000000  1.000000  0.000000 )  
               b(3) = (  0.000000  0.000000  1.000000 )  


     PseudoPot. # 1 for N  read from file:
     ./N_ONCV_PBE-1.2.upf
     MD5 check sum: 5312fdf34e96954e02a33bdc911c617a
     Pseudo is Norm-conserving, Zval =  5.0
     Generated using ONCVPSP code by D. R. Hamann
     Using radial grid of  602 points,  4 beta functions with: 
                l(1) =   0
                l(2) =   0
                l(3) =   1
                l(4) =   1

     PseudoPot. # 2 for C  read from file:
     ./C_ONCV_PBE-1.2.upf
     MD5 check sum: d60b57d9bdca4133f5fde4b584ee909d
     Pseudo is Norm-conserving, Zval =  4.0
     Generated using ONCVPSP code by D. R. Hamann
     Using radial grid of  602 points,  4 beta functions with: 
                l(1) =   0
                l(2) =   0
                l(3) =   1
                l(4) =   1

     atomic species   valence    mass     pseudopotential
     N                 5.00    14.00670     N ( 1.00)
     C                 4.00    12.01070     C ( 1.00)

     Starting magnetic structure 
     atomic species   magnetization
     N               0.000
     C               0.000

     No symmetry found


                                    s                        frac. trans.

      isym =  1     identity                                     

 cryst.   s( 1) = (     1          0          0      )
                  (     0          1          0      )
                  (     0          0          1      )

 cart.    s( 1) = (  1.0000000  0.0000000  0.0000000 )
                  (  0.0000000  1.0000000  0.0000000 )
                  (  0.0000000  0.0000000  1.0000000 )


   Cartesian axes

     site n.     atom                  positions (alat units)
         1        N      tau(   1) = (   0.9869283   0.9869283   0.9869283  )
         2        C      tau(   2) = (   0.9921390   0.2607625   0.2607625  )
         3        C      tau(   3) = (   0.1236981   0.3746848   0.3746848  )
         4        C      tau(   4) = (   0.2607625   0.9921390   0.2607625  )
         5        C      tau(   5) = (   0.3746848   0.1236981   0.3746848  )
         6        C      tau(   6) = (   0.2607625   0.2607625   0.9921390  )
         7        C      tau(   7) = (   0.3746848   0.3746848   0.1236981  )
         8        C      tau(   8) = (   0.0007517   0.0007517   0.4988587  )
         9        C      tau(   9) = (   0.1251291   0.1251291   0.6250516  )
        10        C      tau(  10) = (   0.0014372   0.2476607   0.7521916  )
        11        C      tau(  11) = (   0.1266329   0.3730745   0.8775065  )
        12        C      tau(  12) = (   0.2476607   0.0014372   0.7521916  )
        13        C      tau(  13) = (   0.3730745   0.1266329   0.8775065  )
        14        C      tau(  14) = (   0.2498467   0.2498467   0.4996267  )
        15        C      tau(  15) = (   0.3749463   0.3749463   0.6249280  )
        16        C      tau(  16) = (   0.0007517   0.4988587   0.0007517  )
        17        C      tau(  17) = (   0.1251291   0.6250516   0.1251291  )
        18        C      tau(  18) = (   0.0014372   0.7521916   0.2476607  )
        19        C      tau(  19) = (   0.1266329   0.8775065   0.3730745  )
        20        C      tau(  20) = (   0.2498467   0.4996267   0.2498467  )
        21        C      tau(  21) = (   0.3749463   0.6249280   0.3749463  )
        22        C      tau(  22) = (   0.2476607   0.7521916   0.0014372  )
        23        C      tau(  23) = (   0.3730745   0.8775065   0.1266329  )
        24        C      tau(  24) = (   0.0010116   0.5014264   0.5014264  )
        25        C      tau(  25) = (   0.1250381   0.6250852   0.6250852  )
        26        C      tau(  26) = (   0.9996941   0.7483805   0.7483805  )
        27        C      tau(  27) = (   0.1189720   0.8751585   0.8751585  )
        28        C      tau(  28) = (   0.2496290   0.5009902   0.7494822  )
        29        C      tau(  29) = (   0.3740517   0.6276169   0.8754230  )
        30        C      tau(  30) = (   0.2496290   0.7494822   0.5009902  )
        31        C      tau(  31) = (   0.3740517   0.8754230   0.6261334  )
        32        C      tau(  32) = (   0.4988587   0.0007517   0.0007517  )
        33        C      tau(  33) = (   0.6250516   0.1251291   0.1251291  )
        34        C      tau(  34) = (   0.4996267   0.2498467   0.2498467  )
        35        C      tau(  35) = (   0.6249280   0.3749463   0.3749463  )
        36        C      tau(  36) = (   0.7521916   0.0014372   0.2476607  )
        37        C      tau(  37) = (   0.8775065   0.1266329   0.3730745  )
        38        C      tau(  38) = (   0.7521916   0.2476607   0.0014372  )
        39        C      tau(  39) = (   0.8775065   0.3730745   0.1266329  )
        40        C      tau(  40) = (   0.5014264   0.0010116   0.5014264  )
        41        C      tau(  41) = (   0.6250852   0.1250381   0.6250852  )
        42        C      tau(  42) = (   0.5009902   0.2496290   0.7494822  )
        43        C      tau(  43) = (   0.6261334   0.3740517   0.8754230  )
        44        C      tau(  44) = (   0.7483805   0.9996941   0.7483805  )
        45        C      tau(  45) = (   0.8751585   0.1189720   0.8751585  )
        46        C      tau(  46) = (   0.7494822   0.2496290   0.5009902  )
        47        C      tau(  47) = (   0.8754230   0.3740517   0.6261334  )
        48        C      tau(  48) = (   0.5014264   0.5014264   0.0010116  )
        49        C      tau(  49) = (   0.6250852   0.6250852   0.1250381  )
        50        C      tau(  50) = (   0.5009902   0.7494822   0.2496290  )
        51        C      tau(  51) = (   0.6261334   0.8754230   0.3740517  )
        52        C      tau(  52) = (   0.7494822   0.5009902   0.2496290  )
        53        C      tau(  53) = (   0.8754230   0.6261334   0.3740517  )
        54        C      tau(  54) = (   0.7483805   0.7483805   0.9996941  )
        55        C      tau(  55) = (   0.8751585   0.8751585   0.1189720  )
        56        C      tau(  56) = (   0.4999757   0.4999757   0.4999757  )
        57        C      tau(  57) = (   0.6249536   0.6249536   0.6249536  )
        58        C      tau(  58) = (   0.4990957   0.7503802   0.7503802  )
        59        C      tau(  59) = (   0.6235333   0.8749829   0.8749829  )
        60        C      tau(  60) = (   0.7503802   0.4990957   0.7503802  )
        61        C      tau(  61) = (   0.8749829   0.6235333   0.8749829  )
        62        C      tau(  62) = (   0.7503802   0.7503802   0.4990957  )
        63        C      tau(  63) = (   0.8749829   0.8749829   0.6235333  )

   Crystallographic axes

     site n.     atom                  positions (cryst. coord.)
         1        N      tau(   1) = (  0.9869283  0.9869283  0.9869283  )
         2        C      tau(   2) = (  0.9921390  0.2607625  0.2607625  )
         3        C      tau(   3) = (  0.1236981  0.3746848  0.3746848  )
         4        C      tau(   4) = (  0.2607625  0.9921390  0.2607625  )
         5        C      tau(   5) = (  0.3746848  0.1236981  0.3746848  )
         6        C      tau(   6) = (  0.2607625  0.2607625  0.9921390  )
         7        C      tau(   7) = (  0.3746848  0.3746848  0.1236981  )
         8        C      tau(   8) = (  0.0007517  0.0007517  0.4988587  )
         9        C      tau(   9) = (  0.1251291  0.1251291  0.6250516  )
        10        C      tau(  10) = (  0.0014372  0.2476607  0.7521916  )
        11        C      tau(  11) = (  0.1266329  0.3730745  0.8775065  )
        12        C      tau(  12) = (  0.2476607  0.0014372  0.7521916  )
        13        C      tau(  13) = (  0.3730745  0.1266329  0.8775065  )
        14        C      tau(  14) = (  0.2498467  0.2498467  0.4996267  )
        15        C      tau(  15) = (  0.3749463  0.3749463  0.6249280  )
        16        C      tau(  16) = (  0.0007517  0.4988587  0.0007517  )
        17        C      tau(  17) = (  0.1251291  0.6250516  0.1251291  )
        18        C      tau(  18) = (  0.0014372  0.7521916  0.2476607  )
        19        C      tau(  19) = (  0.1266329  0.8775065  0.3730745  )
        20        C      tau(  20) = (  0.2498467  0.4996267  0.2498467  )
        21        C      tau(  21) = (  0.3749463  0.6249280  0.3749463  )
        22        C      tau(  22) = (  0.2476607  0.7521916  0.0014372  )
        23        C      tau(  23) = (  0.3730745  0.8775065  0.1266329  )
        24        C      tau(  24) = (  0.0010116  0.5014264  0.5014264  )
        25        C      tau(  25) = (  0.1250381  0.6250852  0.6250852  )
        26        C      tau(  26) = (  0.9996941  0.7483805  0.7483805  )
        27        C      tau(  27) = (  0.1189720  0.8751585  0.8751585  )
        28        C      tau(  28) = (  0.2496290  0.5009902  0.7494822  )
        29        C      tau(  29) = (  0.3740517  0.6276169  0.8754230  )
        30        C      tau(  30) = (  0.2496290  0.7494822  0.5009902  )
        31        C      tau(  31) = (  0.3740517  0.8754230  0.6261334  )
        32        C      tau(  32) = (  0.4988587  0.0007517  0.0007517  )
        33        C      tau(  33) = (  0.6250516  0.1251291  0.1251291  )
        34        C      tau(  34) = (  0.4996267  0.2498467  0.2498467  )
        35        C      tau(  35) = (  0.6249280  0.3749463  0.3749463  )
        36        C      tau(  36) = (  0.7521916  0.0014372  0.2476607  )
        37        C      tau(  37) = (  0.8775065  0.1266329  0.3730745  )
        38        C      tau(  38) = (  0.7521916  0.2476607  0.0014372  )
        39        C      tau(  39) = (  0.8775065  0.3730745  0.1266329  )
        40        C      tau(  40) = (  0.5014264  0.0010116  0.5014264  )
        41        C      tau(  41) = (  0.6250852  0.1250381  0.6250852  )
        42        C      tau(  42) = (  0.5009902  0.2496290  0.7494822  )
        43        C      tau(  43) = (  0.6261334  0.3740517  0.8754230  )
        44        C      tau(  44) = (  0.7483805  0.9996941  0.7483805  )
        45        C      tau(  45) = (  0.8751585  0.1189720  0.8751585  )
        46        C      tau(  46) = (  0.7494822  0.2496290  0.5009902  )
        47        C      tau(  47) = (  0.8754230  0.3740517  0.6261334  )
        48        C      tau(  48) = (  0.5014264  0.5014264  0.0010116  )
        49        C      tau(  49) = (  0.6250852  0.6250852  0.1250381  )
        50        C      tau(  50) = (  0.5009902  0.7494822  0.2496290  )
        51        C      tau(  51) = (  0.6261334  0.8754230  0.3740517  )
        52        C      tau(  52) = (  0.7494822  0.5009902  0.2496290  )
        53        C      tau(  53) = (  0.8754230  0.6261334  0.3740517  )
        54        C      tau(  54) = (  0.7483805  0.7483805  0.9996941  )
        55        C      tau(  55) = (  0.8751585  0.8751585  0.1189720  )
        56        C      tau(  56) = (  0.4999757  0.4999757  0.4999757  )
        57        C      tau(  57) = (  0.6249536  0.6249536  0.6249536  )
        58        C      tau(  58) = (  0.4990957  0.7503802  0.7503802  )
        59        C      tau(  59) = (  0.6235333  0.8749829  0.8749829  )
        60        C      tau(  60) = (  0.7503802  0.4990957  0.7503802  )
        61        C      tau(  61) = (  0.8749829  0.6235333  0.8749829  )
        62        C      tau(  62) = (  0.7503802  0.7503802  0.4990957  )
        63        C      tau(  63) = (  0.8749829  0.8749829  0.6235333  )

     number of k points=     1
                       cart. coord. in units 2pi/alat
        k(    1) = (   0.0000000   0.0000000   0.0000000), wk =   1.0000000

                       cryst. coord.
        k(    1) = (   0.0000000   0.0000000   0.0000000), wk =   1.0000000

     Dense  grid:    58461 G-vectors     FFT dimensions: (  64,  64,  64)

     Dynamical RAM for                 wfc:       0.35 MB

     Dynamical RAM for     wfc (w. buffer):       0.35 MB

     Dynamical RAM for           str. fact:       0.04 MB

     Dynamical RAM for           local pot:       0.00 MB

     Dynamical RAM for          nlocal pot:       1.17 MB

     Dynamical RAM for                qrad:       0.65 MB

     Dynamical RAM for          rho,v,vnew:       0.49 MB

     Dynamical RAM for               rhoin:       0.16 MB

     Dynamical RAM for            rho*nmix:       0.60 MB

     Dynamical RAM for           G-vectors:       0.08 MB

     Dynamical RAM for          h,s,v(r/c):       0.53 MB

     Dynamical RAM for          <psi|beta>:       0.58 MB

     Dynamical RAM for                 psi:       0.71 MB

     Dynamical RAM for                hpsi:       0.71 MB

     Dynamical RAM for      wfcinit/wfcrot:       1.24 MB

     Estimated static dynamical RAM per process >       3.37 MB

     Estimated max dynamical RAM per process >       6.49 MB

     Estimated total dynamical RAM >     594.05 MB
     Generating pointlists ...
     new r_m :   0.0850 (alat units)  1.1454 (a.u.) for type    1
     new r_m :   0.0850 (alat units)  1.1454 (a.u.) for type    2

     Initial potential from superposition of free atoms

     starting charge     252.5655, renormalised to     254.0000
     Starting wfcs are random

     total cpu time spent up to now is        1.4 secs

     Self-consistent Calculation

     iteration #  1     ecut=    50.00 Ry     beta= 0.70
     Davidson diagonalization with overlap

---- Real-time Memory Report at c_bands before calling an iterative solver
           158 MiB given to the printing process from OS
             0 MiB allocation reported by mallinfo(arena+hblkhd)
        143271 MiB available memory on the node where the printing process lives
------------------
     ethr =  1.00E-02,  avg # of iterations = 14.0

     total cpu time spent up to now is        3.6 secs

     total energy              =    -723.29884502 Ry
     estimated scf accuracy    <       3.68906151 Ry

     total magnetization       =     2.00 Bohr mag/cell
     absolute magnetization    =     2.00 Bohr mag/cell

     iteration #  2     ecut=    50.00 Ry     beta= 0.70
     Davidson diagonalization with overlap

---- Real-time Memory Report at c_bands before calling an iterative solver
           164 MiB given to the printing process from OS
             0 MiB allocation reported by mallinfo(arena+hblkhd)
        143205 MiB available memory on the node where the printing process lives
------------------
     ethr =  1.45E-03,  avg # of iterations = 11.5

     total cpu time spent up to now is        4.3 secs

     total energy              =    -723.67849215 Ry
     estimated scf accuracy    <       0.43941054 Ry

     total magnetization       =     2.00 Bohr mag/cell
     absolute magnetization    =     2.07 Bohr mag/cell

     iteration #  3     ecut=    50.00 Ry     beta= 0.70
     Davidson diagonalization with overlap

---- Real-time Memory Report at c_bands before calling an iterative solver
           164 MiB given to the printing process from OS
             0 MiB allocation reported by mallinfo(arena+hblkhd)
        143214 MiB available memory on the node where the printing process lives
------------------
     c_bands:  2 eigenvalues not converged
     ethr =  1.73E-04,  avg # of iterations = 18.5

     total cpu time spent up to now is        4.9 secs

     total energy              =    -723.73889779 Ry
     estimated scf accuracy    <       0.86152552 Ry

     total magnetization       =     2.00 Bohr mag/cell
     absolute magnetization    =     2.12 Bohr mag/cell

     iteration #  4     ecut=    50.00 Ry     beta= 0.70
     Davidson diagonalization with overlap

---- Real-time Memory Report at c_bands before calling an iterative solver
           164 MiB given to the printing process from OS
             0 MiB allocation reported by mallinfo(arena+hblkhd)
        143209 MiB available memory on the node where the printing process lives
------------------
     c_bands:  1 eigenvalues not converged
     ethr =  1.73E-04,  avg # of iterations = 20.0

     total cpu time spent up to now is        7.6 secs

     total energy              =    -723.91149046 Ry
     estimated scf accuracy    <       0.00797186 Ry

     total magnetization       =     2.00 Bohr mag/cell
     absolute magnetization    =     2.18 Bohr mag/cell

     iteration #  5     ecut=    50.00 Ry     beta= 0.70
     Davidson diagonalization with overlap

---- Real-time Memory Report at c_bands before calling an iterative solver
           165 MiB given to the printing process from OS
             0 MiB allocation reported by mallinfo(arena+hblkhd)
        143214 MiB available memory on the node where the printing process lives
------------------
     c_bands:  5 eigenvalues not converged
     ethr =  3.14E-06,  avg # of iterations = 20.0

     total cpu time spent up to now is       13.6 secs

     total energy              =    -723.91593138 Ry
     estimated scf accuracy    <       0.00399938 Ry

     total magnetization       =     2.00 Bohr mag/cell
     absolute magnetization    =     2.22 Bohr mag/cell

     iteration #  6     ecut=    50.00 Ry     beta= 0.70
     Davidson diagonalization with overlap

---- Real-time Memory Report at c_bands before calling an iterative solver
           166 MiB given to the printing process from OS
             0 MiB allocation reported by mallinfo(arena+hblkhd)
        143215 MiB available memory on the node where the printing process lives
------------------
     c_bands:  1 eigenvalues not converged
     ethr =  1.57E-06,  avg # of iterations = 20.0

     total cpu time spent up to now is       14.5 secs

     total energy              =    -723.91661864 Ry
     estimated scf accuracy    <       0.00069101 Ry

     total magnetization       =     2.00 Bohr mag/cell
     absolute magnetization    =     2.25 Bohr mag/cell

     iteration #  7     ecut=    50.00 Ry     beta= 0.70
     Davidson diagonalization with overlap

---- Real-time Memory Report at c_bands before calling an iterative solver
           166 MiB given to the printing process from OS
             0 MiB allocation reported by mallinfo(arena+hblkhd)
        143211 MiB available memory on the node where the printing process lives
------------------
     c_bands:  3 eigenvalues not converged
     ethr =  2.72E-07,  avg # of iterations = 20.0

     total cpu time spent up to now is       15.5 secs

     total energy              =    -723.91681308 Ry
     estimated scf accuracy    <       0.00007474 Ry

     total magnetization       =     2.00 Bohr mag/cell
     absolute magnetization    =     2.26 Bohr mag/cell

     iteration #  8     ecut=    50.00 Ry     beta= 0.70
     Davidson diagonalization with overlap

---- Real-time Memory Report at c_bands before calling an iterative solver
           166 MiB given to the printing process from OS
             0 MiB allocation reported by mallinfo(arena+hblkhd)
        143211 MiB available memory on the node where the printing process lives
------------------
     c_bands:  2 eigenvalues not converged
     ethr =  2.94E-08,  avg # of iterations = 20.0

     total cpu time spent up to now is       16.2 secs

     total energy              =    -723.91684176 Ry
     estimated scf accuracy    <       0.00002178 Ry

     total magnetization       =     2.00 Bohr mag/cell
     absolute magnetization    =     2.27 Bohr mag/cell

     iteration #  9     ecut=    50.00 Ry     beta= 0.70
     Davidson diagonalization with overlap

---- Real-time Memory Report at c_bands before calling an iterative solver
           166 MiB given to the printing process from OS
             0 MiB allocation reported by mallinfo(arena+hblkhd)
        143207 MiB available memory on the node where the printing process lives
------------------
     c_bands:  3 eigenvalues not converged
     ethr =  8.58E-09,  avg # of iterations = 20.0

     total cpu time spent up to now is       16.7 secs

     total energy              =    -723.91684920 Ry
     estimated scf accuracy    <       0.00000699 Ry

     total magnetization       =     2.00 Bohr mag/cell
     absolute magnetization    =     2.28 Bohr mag/cell

     iteration # 10     ecut=    50.00 Ry     beta= 0.70
     Davidson diagonalization with overlap

---- Real-time Memory Report at c_bands before calling an iterative solver
           166 MiB given to the printing process from OS
             0 MiB allocation reported by mallinfo(arena+hblkhd)
        143207 MiB available memory on the node where the printing process lives
------------------
     c_bands:  1 eigenvalues not converged
     ethr =  2.75E-09,  avg # of iterations = 20.0

     total cpu time spent up to now is       18.6 secs

     total energy              =    -723.91685214 Ry
     estimated scf accuracy    <       0.00000078 Ry

     total magnetization       =     2.00 Bohr mag/cell
     absolute magnetization    =     2.28 Bohr mag/cell

     iteration # 11     ecut=    50.00 Ry     beta= 0.70
     Davidson diagonalization with overlap

---- Real-time Memory Report at c_bands before calling an iterative solver
           166 MiB given to the printing process from OS
             0 MiB allocation reported by mallinfo(arena+hblkhd)
        143210 MiB available memory on the node where the printing process lives
------------------
     ethr =  3.08E-10,  avg # of iterations = 19.0

     total cpu time spent up to now is       19.2 secs

     total energy              =    -723.91685271 Ry
     estimated scf accuracy    <       0.00000018 Ry

     total magnetization       =     2.00 Bohr mag/cell
     absolute magnetization    =     2.29 Bohr mag/cell

     iteration # 12     ecut=    50.00 Ry     beta= 0.70
     Davidson diagonalization with overlap

---- Real-time Memory Report at c_bands before calling an iterative solver
           166 MiB given to the printing process from OS
             0 MiB allocation reported by mallinfo(arena+hblkhd)
        143209 MiB available memory on the node where the printing process lives
------------------
     c_bands:  1 eigenvalues not converged
     ethr =  6.90E-11,  avg # of iterations = 19.0

     total cpu time spent up to now is       20.9 secs

     total energy              =    -723.91685281 Ry
     estimated scf accuracy    <       0.00000005 Ry

     total magnetization       =     2.00 Bohr mag/cell
     absolute magnetization    =     2.29 Bohr mag/cell

     iteration # 13     ecut=    50.00 Ry     beta= 0.70
     Davidson diagonalization with overlap

---- Real-time Memory Report at c_bands before calling an iterative solver
           166 MiB given to the printing process from OS
             0 MiB allocation reported by mallinfo(arena+hblkhd)
        143208 MiB available memory on the node where the printing process lives
------------------
     c_bands:  1 eigenvalues not converged
     ethr =  1.87E-11,  avg # of iterations = 20.0

     total cpu time spent up to now is       21.4 secs

     total energy              =    -723.91685284 Ry
     estimated scf accuracy    <       0.00000001 Ry

     total magnetization       =     2.00 Bohr mag/cell
     absolute magnetization    =     2.29 Bohr mag/cell

     iteration # 14     ecut=    50.00 Ry     beta= 0.70
     Davidson diagonalization with overlap

---- Real-time Memory Report at c_bands before calling an iterative solver
           166 MiB given to the printing process from OS
             0 MiB allocation reported by mallinfo(arena+hblkhd)
        143211 MiB available memory on the node where the printing process lives
------------------
     c_bands:  5 eigenvalues not converged
     ethr =  4.23E-12,  avg # of iterations = 19.0
 
     Magnetic moment per site  (integrated on atomic sphere of radius R)
     atom   1 (R=0.085)  charge=  2.8976  magn=  0.0040
     atom   2 (R=0.085)  charge=  1.8130  magn=  0.2494
     atom   3 (R=0.085)  charge=  1.8113  magn= -0.0087
     atom   4 (R=0.085)  charge=  1.8130  magn=  0.2493
     atom   5 (R=0.085)  charge=  1.8113  magn= -0.0087
     atom   6 (R=0.085)  charge=  1.8130  magn=  0.2495
     atom   7 (R=0.085)  charge=  1.8112  magn= -0.0087
     atom   8 (R=0.085)  charge=  1.8016  magn=  0.0085
     atom   9 (R=0.085)  charge=  1.8085  magn= -0.0018
     atom  10 (R=0.085)  charge=  1.7946  magn=  0.0054
     atom  11 (R=0.085)  charge=  1.8029  magn= -0.0034
     atom  12 (R=0.085)  charge=  1.7946  magn=  0.0054
     atom  13 (R=0.085)  charge=  1.8030  magn= -0.0034
     atom  14 (R=0.085)  charge=  1.8001  magn=  0.0086
     atom  15 (R=0.085)  charge=  1.8012  magn= -0.0019
     atom  16 (R=0.085)  charge=  1.8016  magn=  0.0085
     atom  17 (R=0.085)  charge=  1.8084  magn= -0.0018
     atom  18 (R=0.085)  charge=  1.7945  magn=  0.0054
     atom  19 (R=0.085)  charge=  1.8030  magn= -0.0034
     atom  20 (R=0.085)  charge=  1.8001  magn=  0.0086
     atom  21 (R=0.085)  charge=  1.8013  magn= -0.0019
     atom  22 (R=0.085)  charge=  1.7964  magn=  0.0054
     atom  23 (R=0.085)  charge=  1.8031  magn= -0.0034
     atom  24 (R=0.085)  charge=  1.8004  magn=  0.0181
     atom  25 (R=0.085)  charge=  1.8200  magn=  0.0089
     atom  26 (R=0.085)  charge=  1.8120  magn=  0.0032
     atom  27 (R=0.085)  charge=  1.7814  magn= -0.0000
     atom  28 (R=0.085)  charge=  1.7989  magn=  0.0212
     atom  29 (R=0.085)  charge=  1.7943  magn= -0.0013
     atom  30 (R=0.085)  charge=  1.8008  magn=  0.0212
     atom  31 (R=0.085)  charge=  1.7954  magn= -0.0013
     atom  32 (R=0.085)  charge=  1.8016  magn=  0.0085
     atom  33 (R=0.085)  charge=  1.8085  magn= -0.0018
     atom  34 (R=0.085)  charge=  1.8001  magn=  0.0086
     atom  35 (R=0.085)  charge=  1.8013  magn= -0.0019
     atom  36 (R=0.085)  charge=  1.7946  magn=  0.0054
     atom  37 (R=0.085)  charge=  1.8030  magn= -0.0034
     atom  38 (R=0.085)  charge=  1.7946  magn=  0.0054
     atom  39 (R=0.085)  charge=  1.8030  magn= -0.0034
     atom  40 (R=0.085)  charge=  1.8004  magn=  0.0181
     atom  41 (R=0.085)  charge=  1.8200  magn=  0.0089
     atom  42 (R=0.085)  charge=  1.8008  magn=  0.0212
     atom  43 (R=0.085)  charge=  1.7952  magn= -0.0013
     atom  44 (R=0.085)  charge=  1.8120  magn=  0.0032
     atom  45 (R=0.085)  charge=  1.7813  magn= -0.0000
     atom  46 (R=0.085)  charge=  1.8008  magn=  0.0212
     atom  47 (R=0.085)  charge=  1.7953  magn= -0.0013
     atom  48 (R=0.085)  charge=  1.7986  magn=  0.0181
     atom  49 (R=0.085)  charge=  1.8201  magn=  0.0089
     atom  50 (R=0.085)  charge=  1.8008  magn=  0.0212
     atom  51 (R=0.085)  charge=  1.7953  magn= -0.0013
     atom  52 (R=0.085)  charge=  1.8008  magn=  0.0212
     atom  53 (R=0.085)  charge=  1.7953  magn= -0.0013
     atom  54 (R=0.085)  charge=  1.8120  magn=  0.0032
     atom  55 (R=0.085)  charge=  1.7813  magn= -0.0000
     atom  56 (R=0.085)  charge=  1.8051  magn=  0.0010
     atom  57 (R=0.085)  charge=  1.7981  magn=  0.0010
     atom  58 (R=0.085)  charge=  1.8080  magn=  0.0018
     atom  59 (R=0.085)  charge=  1.8022  magn= -0.0009
     atom  60 (R=0.085)  charge=  1.8061  magn=  0.0018
     atom  61 (R=0.085)  charge=  1.8021  magn= -0.0009
     atom  62 (R=0.085)  charge=  1.8060  magn=  0.0018
     atom  63 (R=0.085)  charge=  1.8021  magn= -0.0009

     total cpu time spent up to now is       23.0 secs

     End of self-consistent calculation

 ------ SPIN UP ------------


          k = 0.0000 0.0000 0.0000 (  7386 PWs)   bands (ev):

    -8.5689  -7.0156  -6.2651  -6.2636  -6.1622  -6.1549  -5.8795  -4.9418
    -4.1233  -4.1208  -4.0914  -4.0880  -4.0353  -4.0263  -3.9794  -3.9097
    -3.8619  -3.8601  -3.3552  -2.9490  -2.6672  -2.6658  -2.1131  -0.3582
    -0.3570  -0.3175  -0.2892  -0.0892   0.1891   0.1895   0.2921   0.2953
     0.3712   0.6107   0.8241   0.8247   0.9858   0.9885   1.0229   1.0523
     1.0553   1.0779   1.3012   1.3041   3.0560   3.8883   3.8900   4.0401
     4.2352   4.2375   4.2469   4.2545   4.2873   4.2938   4.4324   4.4379
     4.5000   4.5021   4.6013   4.6822   4.6874   4.6904   4.6932   4.7768
     4.7778   4.9101   4.9625   4.9671   5.0598   5.2265   5.2283   5.3004
     5.3714   5.3762   5.4117   5.4217   5.4249   6.0480   6.0494   6.0809
     6.6433   6.6464   6.7615   7.0064   7.0279   7.0290   7.5133   8.3337
     8.3343   8.4212   8.4947   8.5011   8.6722   8.6796   8.8276   8.8354
     8.8526   8.8557   8.8934   8.8955   8.9422   9.3037   9.3058   9.3077
     9.7206   9.7211   9.9349   9.9386   9.9448   9.9563   9.9784  10.0027
    10.0067  10.0127  10.0349  10.0384  10.1342  10.1353  10.2861  10.2874
    10.3546  10.9865  12.2261  12.4660  12.4722  13.8200  14.7972  14.7980
    17.3752  17.3830  17.3908  17.5541  17.5601  17.5650  17.8937  17.9287
    17.9292  18.0144  18.0231  18.3743  18.9883  18.9913  19.0211  20.7151
    20.8141  20.8224  20.8664  20.9528  20.9590  21.0302  21.0375  21.0781

     occupation numbers 
     1.0000   1.0000   1.0000   1.0000   1.0000   1.0000   1.0000   1.0000
     1.0000   1.0000   1.0000   1.0000   1.0000   1.0000   1.0000   1.0000
     1.0000   1.0000   1.0000   1.0000   1.0000   1.0000   1.0000   1.0000
     1.0000   1.0000   1.0000   1.0000   1.0000   1.0000   1.0000   1.0000
     1.0000   1.0000   1.0000   1.0000   1.0000   1.0000   1.0000   1.0000
     1.0000   1.0000   1.0000   1.0000   1.0000   1.0000   1.0000   1.0000
     1.0000   1.0000   1.0000   1.0000   1.0000   1.0000   1.0000   1.0000
     1.0000   1.0000   1.0000   1.0000   1.0000   1.0000   1.0000   1.0000
     1.0000   1.0000   1.0000   1.0000   1.0000   1.0000   1.0000   1.0000
     1.0000   1.0000   1.0000   1.0000   1.0000   1.0000   1.0000   1.0000
     1.0000   1.0000   1.0000   1.0000   1.0000   1.0000   1.0000   1.0000
     1.0000   1.0000   1.0000   1.0000   1.0000   1.0000   1.0000   1.0000
     1.0000   1.0000   1.0000   1.0000   1.0000   1.0000   1.0000   1.0000
     1.0000   1.0000   1.0000   1.0000   1.0000   1.0000   1.0000   1.0000
     1.0000   1.0000   1.0000   1.0000   1.0000   1.0000   1.0000   1.0000
     1.0000   1.0000   1.0000   1.0000   1.0000   1.0000   1.0000   1.0000
     0.0000   0.0000   0.0000   0.0000   0.0000   0.0000   0.0000   0.0000
     0.0000   0.0000   0.0000   0.0000   0.0000   0.0000   0.0000   0.0000
     0.0000   0.0000   0.0000   0.0000   0.0000   0.0000   0.0000   0.0000

 ------ SPIN DOWN ----------


          k = 0.0000 0.0000 0.0000 (  7386 PWs)   bands (ev):

    -8.5456  -7.0011  -6.2456  -6.2442  -6.1206  -6.1132  -5.8428  -4.9259
    -4.1032  -4.1007  -4.0749  -4.0725  -3.9791  -3.9689  -3.9535  -3.8978
    -3.8172  -3.8156  -3.3117  -2.9312  -2.6132  -2.6117  -1.9725  -0.3414
    -0.3401  -0.2989  -0.2683  -0.0226   0.2047   0.2052   0.3271   0.3305
     0.3969   0.6428   0.8366   0.8373   1.0107   1.0130   1.0566   1.0676
     1.0710   1.0948   1.4724   1.4755   3.1706   3.9088   3.9106   4.0627
     4.2703   4.2718   4.2736   4.2871   4.3078   4.3134   4.4820   4.4865
     4.5200   4.5232   4.6286   4.7049   4.7055   4.7067   4.7093   4.8136
     4.8146   4.9221   4.9948   4.9992   5.1441   5.2603   5.2622   5.3240
     5.3825   5.3873   5.4243   5.4813   5.4847   6.1078   6.1093   6.1217
     6.6697   6.6727   6.7959   7.0494   7.1205   7.1216   7.6924   8.3720
     8.3730   8.4575   8.5270   8.5333   8.7027   8.7100   8.8667   8.8701
     8.8720   8.8808   8.9459   8.9474   8.9658   9.3334   9.3402   9.3436
     9.7497   9.7502   9.9513   9.9531   9.9597   9.9809  10.0059  10.0219
    10.0233  10.0322  10.0678  10.0698  10.1666  10.1679  10.3416  10.3422
    10.4160  11.3847  12.5333  12.6126  12.6192  14.2861  16.1591  16.1600
    17.3986  17.4061  17.4100  17.5792  17.6122  17.6184  17.9179  17.9490
    17.9496  18.0524  18.0615  18.4870  19.0647  19.0765  19.0795  20.7645
    20.8273  20.8356  20.8805  20.9700  20.9752  21.0555  21.0621  21.0906

     occupation numbers 
     1.0000   1.0000   1.0000   1.0000   1.0000   1.0000   1.0000   1.0000
     1.0000   1.0000   1.0000   1.0000   1.0000   1.0000   1.0000   1.0000
     1.0000   1.0000   1.0000   1.0000   1.0000   1.0000   1.0000   1.0000
     1.0000   1.0000   1.0000   1.0000   1.0000   1.0000   1.0000   1.0000
     1.0000   1.0000   1.0000   1.0000   1.0000   1.0000   1.0000   1.0000
     1.0000   1.0000   1.0000   1.0000   1.0000   1.0000   1.0000   1.0000
     1.0000   1.0000   1.0000   1.0000   1.0000   1.0000   1.0000   1.0000
     1.0000   1.0000   1.0000   1.0000   1.0000   1.0000   1.0000   1.0000
     1.0000   1.0000   1.0000   1.0000   1.0000   1.0000   1.0000   1.0000
     1.0000   1.0000   1.0000   1.0000   1.0000   1.0000   1.0000   1.0000
     1.0000   1.0000   1.0000   1.0000   1.0000   1.0000   1.0000   1.0000
     1.0000   1.0000   1.0000   1.0000   1.0000   1.0000   1.0000   1.0000
     1.0000   1.0000   1.0000   1.0000   1.0000   1.0000   1.0000   1.0000
     1.0000   1.0000   1.0000   1.0000   1.0000   1.0000   1.0000   1.0000
     1.0000   1.0000   1.0000   1.0000   1.0000   1.0000   1.0000   1.0000
     1.0000   1.0000   1.0000   1.0000   1.0000   1.0000   0.0000   0.0000
     0.0000   0.0000   0.0000   0.0000   0.0000   0.0000   0.0000   0.0000
     0.0000   0.0000   0.0000   0.0000   0.0000   0.0000   0.0000   0.0000
     0.0000   0.0000   0.0000   0.0000   0.0000   0.0000   0.0000   0.0000

     highest occupied, lowest unoccupied level (ev):    14.7980   16.1591

!    total energy              =    -723.91685284 Ry
     estimated scf accuracy    <          3.3E-09 Ry

     The total energy is the sum of the following terms:
     one-electron contribution =     232.80187370 Ry
     hartree contribution      =      70.09396374 Ry
     xc contribution           =    -226.74482416 Ry
     ewald contribution        =    -800.06786611 Ry

     total magnetization       =     2.00 Bohr mag/cell
     absolute magnetization    =     2.29 Bohr mag/cell

     convergence has been achieved in  14 iterations

     Forces acting on atoms (cartesian axes, Ry/au):

     atom    1 type  1   force =     0.00224215    0.00241230    0.00223086
     atom    2 type  2   force =    -0.00026310    0.00019181    0.00018519
     atom    3 type  2   force =     0.00078250    0.00091286    0.00089721
     atom    4 type  2   force =     0.00027491   -0.00017773    0.00027001
     atom    5 type  2   force =     0.00087326    0.00084295    0.00088850
     atom    6 type  2   force =     0.00017169    0.00015938   -0.00025282
     atom    7 type  2   force =     0.00064042    0.00152662    0.00022922
     atom    8 type  2   force =     0.00028831    0.00031185   -0.00058449
     atom    9 type  2   force =     0.00000733   -0.00000736   -0.00020135
     atom   10 type  2   force =     0.00017549   -0.00022082    0.00031452
     atom   11 type  2   force =    -0.00021625    0.00113983   -0.00031743
     atom   12 type  2   force =    -0.00024546    0.00010306    0.00042795
     atom   13 type  2   force =     0.00049103   -0.00074503   -0.00054350
     atom   14 type  2   force =    -0.00017517   -0.00001926   -0.00018773
     atom   15 type  2   force =     0.00009838    0.00035449    0.00062873
     atom   16 type  2   force =     0.00026078   -0.00063640    0.00031743
     atom   17 type  2   force =     0.00037074   -0.00077654   -0.00030620
     atom   18 type  2   force =     0.00019138    0.00052996   -0.00037749
     atom   19 type  2   force =    -0.00075519   -0.00050023    0.00050020
     atom   20 type  2   force =    -0.00008171   -0.00033544   -0.00002849
     atom   21 type  2   force =    -0.00023150    0.00005467   -0.00022508
     atom   22 type  2   force =    -0.00102831    0.00415341    0.00082014
     atom   23 type  2   force =     0.00013070    0.00003523   -0.00016084
     atom   24 type  2   force =     0.00009925    0.00015779   -0.00006457
     atom   25 type  2   force =    -0.00033360   -0.00059557   -0.00035871
     atom   26 type  2   force =    -0.00001318   -0.00030782   -0.00023905
     atom   27 type  2   force =     0.00038156   -0.00102589   -0.00118769
     atom   28 type  2   force =     0.00048542    0.00390847    0.00090943
     atom   29 type  2   force =    -0.00063603   -0.01821646    0.00030735
     atom   30 type  2   force =    -0.00030749   -0.00006189    0.00008830
     atom   31 type  2   force =    -0.00023318    0.00095855   -0.00033054
     atom   32 type  2   force =    -0.00061395    0.00030561    0.00027738
     atom   33 type  2   force =    -0.00018196   -0.00000774    0.00004950
     atom   34 type  2   force =    -0.00019173   -0.00000855   -0.00014766
     atom   35 type  2   force =     0.00003626   -0.00020018   -0.00023751
     atom   36 type  2   force =     0.00040509    0.00010613   -0.00026371
     atom   37 type  2   force =    -0.00055683   -0.00075724    0.00050204
     atom   38 type  2   force =     0.00030911   -0.00022585    0.00020713
     atom   39 type  2   force =    -0.00056655    0.00052992   -0.00076070
     atom   40 type  2   force =    -0.00009517    0.00025409   -0.00007615
     atom   41 type  2   force =    -0.00003787   -0.00000696    0.00000154
     atom   42 type  2   force =     0.00006607   -0.00031796   -0.00002945
     atom   43 type  2   force =    -0.00026254   -0.00000912    0.00002057
     atom   44 type  2   force =    -0.00016098    0.00001506   -0.00013404
     atom   45 type  2   force =    -0.00154866    0.00095946   -0.00155439
     atom   46 type  2   force =    -0.00002528   -0.00030448    0.00005540
     atom   47 type  2   force =     0.00035315   -0.00054604    0.00031083
     atom   48 type  2   force =    -0.00071954    0.00374338   -0.00041469
     atom   49 type  2   force =     0.00030350   -0.00061233    0.00035953
     atom   50 type  2   force =     0.00002158   -0.00006142   -0.00033891
     atom   51 type  2   force =     0.00029995    0.00038117   -0.00058433
     atom   52 type  2   force =     0.00009308    0.00016266   -0.00020039
     atom   53 type  2   force =     0.00034210    0.00016859   -0.00057499
     atom   54 type  2   force =    -0.00028919   -0.00029713   -0.00003902
     atom   55 type  2   force =    -0.00157318   -0.00152143    0.00091969
     atom   56 type  2   force =    -0.00010183   -0.00015658   -0.00012903
     atom   57 type  2   force =    -0.00034495   -0.00057661    0.00036012
     atom   58 type  2   force =     0.00073680    0.00418890   -0.00093201
     atom   59 type  2   force =     0.00031046    0.00083636   -0.00012065
     atom   60 type  2   force =     0.00011032   -0.00035243    0.00008458
     atom   61 type  2   force =     0.00022533   -0.00029346    0.00023368
     atom   62 type  2   force =    -0.00002198    0.00021605   -0.00018989
     atom   63 type  2   force =     0.00023425    0.00026134   -0.00030353
     The non-local contrib.  to forces
     atom    1 type  1   force =    -0.73746483   -0.73706361   -0.73726070
     atom    2 type  2   force =    -0.22488577    0.21094640    0.21096696
     atom    3 type  2   force =     0.07001855    0.06932979    0.06930282
     atom    4 type  2   force =     0.21099346   -0.22480131    0.21131453
     atom    5 type  2   force =     0.06939481    0.07027093    0.06938136
     atom    6 type  2   force =     0.21100950    0.21082347   -0.22493501
     atom    7 type  2   force =     0.06932557    0.07000367    0.06940017
     atom    8 type  2   force =    -0.00826985   -0.00826562    0.05214030
     atom    9 type  2   force =    -0.00485818   -0.00502542    0.01559472
     atom   10 type  2   force =    -0.04388047   -0.01287645   -0.01935897
     atom   11 type  2   force =    -0.07093415    0.06076021   -0.08280562
     atom   12 type  2   force =    -0.01294910   -0.04426497   -0.01932263
     atom   13 type  2   force =     0.06010067   -0.07162614   -0.08281986
     atom   14 type  2   force =    -0.00172543   -0.00161101    0.05167570
     atom   15 type  2   force =     0.01373945    0.01429964    0.00088509
     atom   16 type  2   force =    -0.00818375    0.05227332   -0.00811437
     atom   17 type  2   force =    -0.00389574    0.01589949   -0.00588742
     atom   18 type  2   force =    -0.04363087   -0.01966053   -0.01348943
     atom   19 type  2   force =    -0.07156844   -0.08286445    0.06005098
     atom   20 type  2   force =    -0.00191573    0.05154107   -0.00185066
     atom   21 type  2   force =     0.01368806    0.00038845    0.01366903
     atom   22 type  2   force =    -0.01328703   -0.01585680   -0.04356075
     atom   23 type  2   force =     0.06004018   -0.08220259   -0.07099267
     atom   24 type  2   force =    -0.07428149    0.02787773    0.02768673
     atom   25 type  2   force =    -0.01253997    0.01726181    0.01579609
     atom   26 type  2   force =    -0.06049615   -0.02474785   -0.02472768
     atom   27 type  2   force =    -0.11840365    0.13606701    0.13525539
     atom   28 type  2   force =     0.06305872    0.03180582   -0.01833737
     atom   29 type  2   force =     0.00187308   -0.00405193    0.00538327
     atom   30 type  2   force =     0.06254627   -0.01913275    0.02806262
     atom   31 type  2   force =     0.00165083    0.00620339    0.01813426
     atom   32 type  2   force =     0.05210806   -0.00842090   -0.00833518
     atom   33 type  2   force =     0.01552307   -0.00502645   -0.00491824
     atom   34 type  2   force =     0.05141599   -0.00160691   -0.00200313
     atom   35 type  2   force =     0.00034369    0.01363394    0.01372798
     atom   36 type  2   force =    -0.01937430   -0.04411221   -0.01301340
     atom   37 type  2   force =    -0.08284475   -0.07151792    0.06011326
     atom   38 type  2   force =    -0.01962403   -0.01286794   -0.04414195
     atom   39 type  2   force =    -0.08279014    0.06007598   -0.07155759
     atom   40 type  2   force =     0.02818284   -0.07363525    0.02784493
     atom   41 type  2   force =     0.01687310   -0.01157697    0.01680286
     atom   42 type  2   force =     0.02820698    0.06214127   -0.01928409
     atom   43 type  2   force =     0.01821665    0.00227629    0.00546209
     atom   44 type  2   force =    -0.02464948   -0.06023323   -0.02497962
     atom   45 type  2   force =     0.13541111   -0.11761186    0.13541946
     atom   46 type  2   force =    -0.01926749    0.06235651    0.02817181
     atom   47 type  2   force =     0.00543746    0.00159755    0.01875959
     atom   48 type  2   force =     0.02740342    0.03169607   -0.07445833
     atom   49 type  2   force =     0.01788471    0.01729088   -0.01041043
     atom   50 type  2   force =     0.02797806   -0.01909883    0.06243803
     atom   51 type  2   force =     0.01877983    0.00545975    0.00169662
     atom   52 type  2   force =    -0.01881268    0.02791206    0.06283527
     atom   53 type  2   force =     0.00550936    0.01911629    0.00161164
     atom   54 type  2   force =    -0.02480736   -0.02477085   -0.06059944
     atom   55 type  2   force =     0.13544015    0.13536148   -0.11782565
     atom   56 type  2   force =     0.01629749    0.01628858    0.01623435
     atom   57 type  2   force =     0.00651935    0.00801887    0.00863721
     atom   58 type  2   force =     0.01433866   -0.00911957   -0.01361995
     atom   59 type  2   force =     0.01115511   -0.00985230   -0.01053891
     atom   60 type  2   force =    -0.01293631    0.01371068   -0.01298654
     atom   61 type  2   force =    -0.01054265    0.01060567   -0.01054256
     atom   62 type  2   force =    -0.01332223   -0.01307722    0.01405852
     atom   63 type  2   force =    -0.01060460   -0.01058285    0.01054634
     The ionic contribution  to forces
     atom    1 type  1   force =     3.03826026    3.04231156    3.04043223
     atom    2 type  2   force =     2.25779569   -2.15904790   -2.16040936
     atom    3 type  2   force =     0.43235450   -0.74849187   -0.74866036
     atom    4 type  2   force =    -2.16054436    2.25949008   -2.15884797
     atom    5 type  2   force =    -0.74865292    0.43390355   -0.74865277
     atom    6 type  2   force =    -2.15739446   -2.15166796    2.25469710
     atom    7 type  2   force =    -0.74867432   -0.74419492    0.42347214
     atom    8 type  2   force =     0.24301528    0.24448942   -0.70102153
     atom    9 type  2   force =     0.11225973    0.11529152   -0.22535948
     atom   10 type  2   force =     0.21148841    0.06794514    0.52793222
     atom   11 type  2   force =    -0.28309708   -0.71996176    0.72906864
     atom   12 type  2   force =     0.06321392    0.21795126    0.52499948
     atom   13 type  2   force =    -0.72450047   -0.28230586    0.72913885
     atom   14 type  2   force =    -0.19877508   -0.19709074   -0.67081697
     atom   15 type  2   force =    -0.15860785   -0.15424937   -0.04017686
     atom   16 type  2   force =     0.24591214   -0.70274366    0.24239719
     atom   17 type  2   force =     0.11233925   -0.23073438    0.11221521
     atom   18 type  2   force =     0.20977812    0.52631537    0.06624378
     atom   19 type  2   force =    -0.29193768    0.72928540   -0.72447648
     atom   20 type  2   force =    -0.19830363   -0.67408571   -0.20177260
     atom   21 type  2   force =    -0.15857838   -0.05111057   -0.15857849
     atom   22 type  2   force =     0.04067823    0.52827598    0.23526888
     atom   23 type  2   force =    -0.72453273    0.73340043   -0.28312573
     atom   24 type  2   force =     0.03384755   -0.19335699   -0.19172035
     atom   25 type  2   force =     0.09624965   -0.07793042   -0.07250169
     atom   26 type  2   force =     0.11291279   -0.17912328   -0.17785406
     atom   27 type  2   force =     1.33412909    0.24672699    0.24271767
     atom   28 type  2   force =    -0.06077714   -0.22578479    0.18223006
     atom   29 type  2   force =    -0.16041392   -0.06838111    0.23048562
     atom   30 type  2   force =    -0.08697418    0.15446550   -0.22950838
     atom   31 type  2   force =    -0.15885964    0.23418566   -0.01077845
     atom   32 type  2   force =    -0.69817313    0.25102620    0.24587699
     atom   33 type  2   force =    -0.22532422    0.11527730    0.11229483
     atom   34 type  2   force =    -0.67248963   -0.19708295   -0.20044848
     atom   35 type  2   force =    -0.04895283   -0.15842049   -0.15858307
     atom   36 type  2   force =     0.52779881    0.21141600    0.06608027
     atom   37 type  2   force =     0.72913873   -0.29016284   -0.72450041
     atom   38 type  2   force =     0.52631885    0.06787895    0.20982356
     atom   39 type  2   force =     0.72917308   -0.72432259   -0.29193217
     atom   40 type  2   force =    -0.19171891    0.03548943   -0.19344608
     atom   41 type  2   force =    -0.07254391    0.09918260   -0.07258074
     atom   42 type  2   force =    -0.22945640   -0.07851871    0.15906025
     atom   43 type  2   force =    -0.01038926   -0.15459793    0.22986355
     atom   44 type  2   force =    -0.17568294    0.11748598   -0.17742462
     atom   45 type  2   force =     0.24272546    1.34439651    0.24272614
     atom   46 type  2   force =     0.15631804   -0.08490031   -0.22669472
     atom   47 type  2   force =     0.22987734   -0.15869076   -0.00174670
     atom   48 type  2   force =    -0.21726545   -0.19144182    0.00865183
     atom   49 type  2   force =    -0.07262235   -0.07788680    0.09612961
     atom   50 type  2   force =    -0.22609098    0.15447390   -0.08358806
     atom   51 type  2   force =    -0.00174549    0.22998380   -0.15884593
     atom   52 type  2   force =     0.15616259   -0.22815706   -0.08653825
     atom   53 type  2   force =     0.22986358   -0.00359383   -0.15885966
     atom   54 type  2   force =    -0.17444906   -0.17913548    0.11627865
     atom   55 type  2   force =     0.24271464    0.24285006    1.34285707
     atom   56 type  2   force =    -0.10977202   -0.11090206   -0.10635663
     atom   57 type  2   force =    -0.02219413   -0.02743055   -0.02206643
     atom   58 type  2   force =    -0.10795349    0.01106337   -0.01537720
     atom   59 type  2   force =    -0.30337454    0.12811036    0.12379401
     atom   60 type  2   force =     0.00797364   -0.13581718    0.01137232
     atom   61 type  2   force =     0.12380969   -0.31457683    0.12380913
     atom   62 type  2   force =     0.01091380    0.00930250   -0.13424475
     atom   63 type  2   force =     0.12379975    0.12392468   -0.31242180
     The local contribution  to forces
     atom    1 type  1   force =    -2.29854237   -2.30280036   -2.30090843
     atom    2 type  2   force =    -2.03315849    1.94830362    1.94962676
     atom    3 type  2   force =    -0.50157043    0.68006707    0.68024272
     atom    4 type  2   force =     1.94986085   -2.03483222    1.94780316
     atom    5 type  2   force =     0.68016565   -0.50330872    0.68015177
     atom    6 type  2   force =     1.94658880    1.94100850   -2.02998915
     atom    7 type  2   force =     0.68001282    0.67570227   -0.49263365
     atom    8 type  2   force =    -0.23444527   -0.23588268    0.64829312
     atom    9 type  2   force =    -0.10737111   -0.11025304    0.20956617
     atom   10 type  2   force =    -0.16741415   -0.05528791   -0.50824335
     atom   11 type  2   force =     0.35384501    0.66033082   -0.64654780
     atom   12 type  2   force =    -0.05048160   -0.17355055   -0.50523132
     atom   13 type  2   force =     0.66491977    0.35321423   -0.64683370
     atom   14 type  2   force =     0.20035566    0.19868643    0.61894762
     atom   15 type  2   force =     0.14499824    0.14029109    0.03992745
     atom   16 type  2   force =    -0.23744816    0.64982002   -0.23393279
     atom   17 type  2   force =    -0.10805569    0.21404180   -0.10661973
     atom   18 type  2   force =    -0.16594695   -0.50612307   -0.05313441
     atom   19 type  2   force =     0.36276830   -0.64689891    0.66492057
     atom   20 type  2   force =     0.20015975    0.62218963    0.20359093
     atom   21 type  2   force =     0.14468971    0.05076694    0.14467701
     atom   22 type  2   force =    -0.02839450   -0.50826218   -0.19086462
     atom   23 type  2   force =     0.66465936   -0.65113542    0.35397072
     atom   24 type  2   force =     0.04054561    0.16562115    0.16395730
     atom   25 type  2   force =    -0.08402195    0.06006366    0.05635031
     atom   26 type  2   force =    -0.05241648    0.20357193    0.20235982
     atom   27 type  2   force =    -1.21532929   -0.38379249   -0.37913192
     atom   28 type  2   force =    -0.00176457    0.19786935   -0.16296393
     atom   29 type  2   force =     0.15793224    0.05420212   -0.23553654
     atom   30 type  2   force =     0.02415002   -0.13538893    0.20153028
     atom   31 type  2   force =     0.15700750   -0.23940533   -0.00768472
     atom   32 type  2   force =     0.64547804   -0.24226704   -0.23723793
     atom   33 type  2   force =     0.20963300   -0.11024173   -0.10731129
     atom   34 type  2   force =     0.62090516    0.19868170    0.20230377
     atom   35 type  2   force =     0.04866686    0.14457544    0.14461167
     atom   36 type  2   force =    -0.50801114   -0.16717262   -0.05333054
     atom   37 type  2   force =    -0.64684315    0.36094461    0.66488384
     atom   38 type  2   force =    -0.50637553   -0.05523480   -0.16544673
     atom   39 type  2   force =    -0.64693414    0.66477172    0.36274870
     atom   40 type  2   force =     0.16346832    0.03842973    0.16551661
     atom   41 type  2   force =     0.05564928   -0.08759159    0.05578003
     atom   42 type  2   force =     0.20133642    0.01606472   -0.13978823
     atom   43 type  2   force =    -0.00808042    0.15229957   -0.23528110
     atom   44 type  2   force =     0.20018318   -0.05721149    0.20228562
     atom   45 type  2   force =    -0.37966985   -1.22581325   -0.37966973
     atom   46 type  2   force =    -0.13706506    0.02224475    0.19857056
     atom   47 type  2   force =    -0.23495305    0.15653651   -0.01670652
     atom   48 type  2   force =     0.18916305    0.16346938    0.06541461
     atom   49 type  2   force =     0.05506421    0.05997744   -0.08534203
     atom   50 type  2   force =     0.19816682   -0.13542622    0.02081364
     atom   51 type  2   force =    -0.01671621   -0.23503788    0.15655479
     atom   52 type  2   force =    -0.13723938    0.20039432    0.02350586
     atom   53 type  2   force =    -0.23502123   -0.01536597    0.15666099
     atom   54 type  2   force =     0.19898213    0.20361959   -0.05568972
     atom   55 type  2   force =    -0.37971652   -0.37970892   -1.22410130
     atom   56 type  2   force =     0.09340047    0.09443872    0.08998768
     atom   57 type  2   force =     0.01534794    0.01882516    0.01378907
     atom   58 type  2   force =     0.09437715    0.00225326    0.02808055
     atom   59 type  2   force =     0.29255060   -0.11739610   -0.11334797
     atom   60 type  2   force =     0.00508307    0.12173866    0.00171141
     atom   61 type  2   force =    -0.11302833    0.30367327   -0.11300353
     atom   62 type  2   force =     0.00239866    0.00399857    0.11998606
     atom   63 type  2   force =    -0.11295065   -0.11305635    0.30157484
     The core correction contribution to forces
     atom    1 type  1   force =     0.00000000    0.00000000    0.00000000
     atom    2 type  2   force =     0.00000000    0.00000000    0.00000000
     atom    3 type  2   force =     0.00000000    0.00000000    0.00000000
     atom    4 type  2   force =     0.00000000    0.00000000    0.00000000
     atom    5 type  2   force =     0.00000000    0.00000000    0.00000000
     atom    6 type  2   force =     0.00000000    0.00000000    0.00000000
     atom    7 type  2   force =     0.00000000    0.00000000    0.00000000
     atom    8 type  2   force =     0.00000000    0.00000000    0.00000000
     atom    9 type  2   force =     0.00000000    0.00000000    0.00000000
     atom   10 type  2   force =     0.00000000    0.00000000    0.00000000
     atom   11 type  2   force =     0.00000000    0.00000000    0.00000000
     atom   12 type  2   force =     0.00000000    0.00000000    0.00000000
     atom   13 type  2   force =     0.00000000    0.00000000    0.00000000
     atom   14 type  2   force =     0.00000000    0.00000000    0.00000000
     atom   15 type  2   force =     0.00000000    0.00000000    0.00000000
     atom   16 type  2   force =     0.00000000    0.00000000    0.00000000
     atom   17 type  2   force =     0.00000000    0.00000000    0.00000000
     atom   18 type  2   force =     0.00000000    0.00000000    0.00000000
     atom   19 type  2   force =     0.00000000    0.00000000    0.00000000
     atom   20 type  2   force =     0.00000000    0.00000000    0.00000000
     atom   21 type  2   force =     0.00000000    0.00000000    0.00000000
     atom   22 type  2   force =     0.00000000    0.00000000    0.00000000
     atom   23 type  2   force =     0.00000000    0.00000000    0.00000000
     atom   24 type  2   force =     0.00000000    0.00000000    0.00000000
     atom   25 type  2   force =     0.00000000    0.00000000    0.00000000
     atom   26 type  2   force =     0.00000000    0.00000000    0.00000000
     atom   27 type  2   force =     0.00000000    0.00000000    0.00000000
     atom   28 type  2   force =     0.00000000    0.00000000    0.00000000
     atom   29 type  2   force =     0.00000000    0.00000000    0.00000000
     atom   30 type  2   force =     0.00000000    0.00000000    0.00000000
     atom   31 type  2   force =     0.00000000    0.00000000    0.00000000
     atom   32 type  2   force =     0.00000000    0.00000000    0.00000000
     atom   33 type  2   force =     0.00000000    0.00000000    0.00000000
     atom   34 type  2   force =     0.00000000    0.00000000    0.00000000
     atom   35 type  2   force =     0.00000000    0.00000000    0.00000000
     atom   36 type  2   force =     0.00000000    0.00000000    0.00000000
     atom   37 type  2   force =     0.00000000    0.00000000    0.00000000
     atom   38 type  2   force =     0.00000000    0.00000000    0.00000000
     atom   39 type  2   force =     0.00000000    0.00000000    0.00000000
     atom   40 type  2   force =     0.00000000    0.00000000    0.00000000
     atom   41 type  2   force =     0.00000000    0.00000000    0.00000000
     atom   42 type  2   force =     0.00000000    0.00000000    0.00000000
     atom   43 type  2   force =     0.00000000    0.00000000    0.00000000
     atom   44 type  2   force =     0.00000000    0.00000000    0.00000000
     atom   45 type  2   force =     0.00000000    0.00000000    0.00000000
     atom   46 type  2   force =     0.00000000    0.00000000    0.00000000
     atom   47 type  2   force =     0.00000000    0.00000000    0.00000000
     atom   48 type  2   force =     0.00000000    0.00000000    0.00000000
     atom   49 type  2   force =     0.00000000    0.00000000    0.00000000
     atom   50 type  2   force =     0.00000000    0.00000000    0.00000000
     atom   51 type  2   force =     0.00000000    0.00000000    0.00000000
     atom   52 type  2   force =     0.00000000    0.00000000    0.00000000
     atom   53 type  2   force =     0.00000000    0.00000000    0.00000000
     atom   54 type  2   force =     0.00000000    0.00000000    0.00000000
     atom   55 type  2   force =     0.00000000    0.00000000    0.00000000
     atom   56 type  2   force =     0.00000000    0.00000000    0.00000000
     atom   57 type  2   force =     0.00000000    0.00000000    0.00000000
     atom   58 type  2   force =     0.00000000    0.00000000    0.00000000
     atom   59 type  2   force =     0.00000000    0.00000000    0.00000000
     atom   60 type  2   force =     0.00000000    0.00000000    0.00000000
     atom   61 type  2   force =     0.00000000    0.00000000    0.00000000
     atom   62 type  2   force =     0.00000000    0.00000000    0.00000000
     atom   63 type  2   force =     0.00000000    0.00000000    0.00000000
     The Hubbard contrib.    to forces
     atom    1 type  1   force =     0.00000000    0.00000000    0.00000000
     atom    2 type  2   force =     0.00000000    0.00000000    0.00000000
     atom    3 type  2   force =     0.00000000    0.00000000    0.00000000
     atom    4 type  2   force =     0.00000000    0.00000000    0.00000000
     atom    5 type  2   force =     0.00000000    0.00000000    0.00000000
     atom    6 type  2   force =     0.00000000    0.00000000    0.00000000
     atom    7 type  2   force =     0.00000000    0.00000000    0.00000000
     atom    8 type  2   force =     0.00000000    0.00000000    0.00000000
     atom    9 type  2   force =     0.00000000    0.00000000    0.00000000
     atom   10 type  2   force =     0.00000000    0.00000000    0.00000000
     atom   11 type  2   force =     0.00000000    0.00000000    0.00000000
     atom   12 type  2   force =     0.00000000    0.00000000    0.00000000
     atom   13 type  2   force =     0.00000000    0.00000000    0.00000000
     atom   14 type  2   force =     0.00000000    0.00000000    0.00000000
     atom   15 type  2   force =     0.00000000    0.00000000    0.00000000
     atom   16 type  2   force =     0.00000000    0.00000000    0.00000000
     atom   17 type  2   force =     0.00000000    0.00000000    0.00000000
     atom   18 type  2   force =     0.00000000    0.00000000    0.00000000
     atom   19 type  2   force =     0.00000000    0.00000000    0.00000000
     atom   20 type  2   force =     0.00000000    0.00000000    0.00000000
     atom   21 type  2   force =     0.00000000    0.00000000    0.00000000
     atom   22 type  2   force =     0.00000000    0.00000000    0.00000000
     atom   23 type  2   force =     0.00000000    0.00000000    0.00000000
     atom   24 type  2   force =     0.00000000    0.00000000    0.00000000
     atom   25 type  2   force =     0.00000000    0.00000000    0.00000000
     atom   26 type  2   force =     0.00000000    0.00000000    0.00000000
     atom   27 type  2   force =     0.00000000    0.00000000    0.00000000
     atom   28 type  2   force =     0.00000000    0.00000000    0.00000000
     atom   29 type  2   force =     0.00000000    0.00000000    0.00000000
     atom   30 type  2   force =     0.00000000    0.00000000    0.00000000
     atom   31 type  2   force =     0.00000000    0.00000000    0.00000000
     atom   32 type  2   force =     0.00000000    0.00000000    0.00000000
     atom   33 type  2   force =     0.00000000    0.00000000    0.00000000
     atom   34 type  2   force =     0.00000000    0.00000000    0.00000000
     atom   35 type  2   force =     0.00000000    0.00000000    0.00000000
     atom   36 type  2   force =     0.00000000    0.00000000    0.00000000
     atom   37 type  2   force =     0.00000000    0.00000000    0.00000000
     atom   38 type  2   force =     0.00000000    0.00000000    0.00000000
     atom   39 type  2   force =     0.00000000    0.00000000    0.00000000
     atom   40 type  2   force =     0.00000000    0.00000000    0.00000000
     atom   41 type  2   force =     0.00000000    0.00000000    0.00000000
     atom   42 type  2   force =     0.00000000    0.00000000    0.00000000
     atom   43 type  2   force =     0.00000000    0.00000000    0.00000000
     atom   44 type  2   force =     0.00000000    0.00000000    0.00000000
     atom   45 type  2   force =     0.00000000    0.00000000    0.00000000
     atom   46 type  2   force =     0.00000000    0.00000000    0.00000000
     atom   47 type  2   force =     0.00000000    0.00000000    0.00000000
     atom   48 type  2   force =     0.00000000    0.00000000    0.00000000
     atom   49 type  2   force =     0.00000000    0.00000000    0.00000000
     atom   50 type  2   force =     0.00000000    0.00000000    0.00000000
     atom   51 type  2   force =     0.00000000    0.00000000    0.00000000
     atom   52 type  2   force =     0.00000000    0.00000000    0.00000000
     atom   53 type  2   force =     0.00000000    0.00000000    0.00000000
     atom   54 type  2   force =     0.00000000    0.00000000    0.00000000
     atom   55 type  2   force =     0.00000000    0.00000000    0.00000000
     atom   56 type  2   force =     0.00000000    0.00000000    0.00000000
     atom   57 type  2   force =     0.00000000    0.00000000    0.00000000
     atom   58 type  2   force =     0.00000000    0.00000000    0.00000000
     atom   59 type  2   force =     0.00000000    0.00000000    0.00000000
     atom   60 type  2   force =     0.00000000    0.00000000    0.00000000
     atom   61 type  2   force =     0.00000000    0.00000000    0.00000000
     atom   62 type  2   force =     0.00000000    0.00000000    0.00000000
     atom   63 type  2   force =     0.00000000    0.00000000    0.00000000
     The SCF correction term to forces
     atom    1 type  1   force =     0.00000923   -0.00002923   -0.00002352
     atom    2 type  2   force =     0.00000561   -0.00000425    0.00000955
     atom    3 type  2   force =     0.00000002    0.00001394    0.00002075
     atom    4 type  2   force =    -0.00001490   -0.00002822    0.00000903
     atom    5 type  2   force =    -0.00001414   -0.00001674    0.00001686
     atom    6 type  2   force =    -0.00001202    0.00000143   -0.00001703
     atom    7 type  2   force =    -0.00000351    0.00002166   -0.00000072
     atom    8 type  2   force =     0.00000828   -0.00002321    0.00001235
     atom    9 type  2   force =    -0.00000297   -0.00001436    0.00000595
     atom   10 type  2   force =     0.00000184    0.00000445   -0.00000666
     atom   11 type  2   force =    -0.00000990    0.00001663   -0.00002392
     atom   12 type  2   force =    -0.00000855   -0.00002661   -0.00000886
     atom   13 type  2   force =    -0.00000880   -0.00002120   -0.00002006
     atom   14 type  2   force =    -0.00001018    0.00000212    0.00001463
     atom   15 type  2   force =    -0.00001132    0.00001919    0.00000177
     atom   16 type  2   force =     0.00000069    0.00002000   -0.00002388
     atom   17 type  2   force =     0.00000304    0.00002261   -0.00000554
     atom   18 type  2   force =     0.00001122    0.00000425    0.00001129
     atom   19 type  2   force =     0.00000277   -0.00001622    0.00001386
     atom   20 type  2   force =    -0.00000198    0.00002563    0.00001256
     atom   21 type  2   force =    -0.00001076    0.00001592    0.00001609
     atom   22 type  2   force =    -0.00000488    0.00000247   -0.00001465
     atom   23 type  2   force =    -0.00001597   -0.00002112   -0.00000443
     atom   24 type  2   force =     0.00000772    0.00002197    0.00002047
     atom   25 type  2   force =    -0.00000119    0.00001545    0.00000531
     atom   26 type  2   force =     0.00000679   -0.00000256   -0.00000840
     atom   27 type  2   force =     0.00000554   -0.00002133   -0.00002010
     atom   28 type  2   force =    -0.00001146    0.00002415   -0.00001061
     atom   29 type  2   force =    -0.00000730    0.00002052   -0.00001627
     atom   30 type  2   force =    -0.00000945    0.00000036    0.00001250
     atom   31 type  2   force =    -0.00001173   -0.00001911    0.00000708
     atom   32 type  2   force =    -0.00000678   -0.00002659   -0.00001778
     atom   33 type  2   force =     0.00000633   -0.00001080   -0.00000708
     atom   34 type  2   force =    -0.00000311    0.00000567    0.00000891
     atom   35 type  2   force =    -0.00000132    0.00001699    0.00001463
     atom   36 type  2   force =     0.00001186   -0.00001897    0.00000869
     atom   37 type  2   force =     0.00001248   -0.00001502    0.00001407
     atom   38 type  2   force =     0.00000996    0.00000399   -0.00001904
     atom   39 type  2   force =     0.00000479    0.00001088   -0.00001090
     atom   40 type  2   force =    -0.00000729   -0.00002376    0.00001712
     atom   41 type  2   force =     0.00000380   -0.00001493    0.00000812
     atom   42 type  2   force =    -0.00000080    0.00000082   -0.00000865
     atom   43 type  2   force =     0.00001063    0.00001902   -0.00001525
     atom   44 type  2   force =     0.00000839   -0.00002013   -0.00000670
     atom   45 type  2   force =     0.00000475   -0.00000588   -0.00002153
     atom   46 type  2   force =     0.00000936    0.00000063    0.00001648
     atom   47 type  2   force =     0.00001154    0.00001672    0.00001319
     atom   48 type  2   force =    -0.00000042    0.00002581   -0.00001408
     atom   49 type  2   force =    -0.00000294    0.00001222   -0.00000889
     atom   50 type  2   force =    -0.00001218   -0.00000420    0.00000621
     atom   51 type  2   force =     0.00000196   -0.00001843    0.00001891
     atom   52 type  2   force =     0.00000269    0.00001940    0.00000546
     atom   53 type  2   force =     0.00001053    0.00001816    0.00002076
     atom   54 type  2   force =     0.00000524   -0.00000433   -0.00001978
     atom   55 type  2   force =     0.00000870   -0.00001799   -0.00000170
     atom   56 type  2   force =    -0.00000763    0.00002424    0.00001429
     atom   57 type  2   force =     0.00000203    0.00001598    0.00000899
     atom   58 type  2   force =    -0.00000539   -0.00000209   -0.00000670
     atom   59 type  2   force =    -0.00000057   -0.00001953   -0.00001905
     atom   60 type  2   force =     0.00001006    0.00002148   -0.00000388
     atom   61 type  2   force =     0.00000675    0.00001049   -0.00002064
     atom   62 type  2   force =     0.00000793   -0.00000172    0.00001901
     atom   63 type  2   force =     0.00000989   -0.00001808    0.00000582

     Total force =     0.021370     Total SCF correction =     0.000187

     Writing all to output data dir ./pwscf.save/ :
     XML data file, charge density, pseudopotentials, collected wavefunctions
 
     init_run     :      0.47s CPU      0.77s WALL (       1 calls)
     electrons    :     20.46s CPU     21.75s WALL (       1 calls)
     forces       :      1.52s CPU      1.53s WALL (       1 calls)

     Called by init_run:
     wfcinit      :      0.16s CPU      0.17s WALL (       1 calls)
     wfcinit:wfcr :      0.16s CPU      0.16s WALL (       1 calls)
     potinit      :      0.14s CPU      0.14s WALL (       1 calls)
     hinit0       :      0.09s CPU      0.37s WALL (       1 calls)

     Called by electrons:
     c_bands      :     16.22s CPU     17.48s WALL (      14 calls)
     sum_band     :      2.09s CPU      2.10s WALL (      14 calls)
     v_of_rho     :      0.67s CPU      0.68s WALL (      15 calls)
     v_h          :      0.08s CPU      0.09s WALL (      15 calls)
     v_xc         :      0.59s CPU      0.60s WALL (      15 calls)
     mix_rho      :      0.18s CPU      0.18s WALL (      14 calls)

     Called by c_bands:
     init_us_2    :      0.02s CPU      0.03s WALL (      30 calls)
     regterg      :     14.75s CPU     15.99s WALL (      14 calls)

     Called by sum_band:
     sum_band:wei :      0.04s CPU      0.04s WALL (      14 calls)
     sum_band:loo :      0.17s CPU      0.17s WALL (      14 calls)
     sum_band:buf :      0.00s CPU      0.00s WALL (      14 calls)
     sum_band:ini :      0.01s CPU      0.01s WALL (      14 calls)

     Called by *egterg:
     rdiaghg      :      5.50s CPU      6.22s WALL (     280 calls)
     regterg:over :      0.83s CPU      0.89s WALL (     266 calls)
     regterg:upda :      0.58s CPU      0.58s WALL (     266 calls)
     regterg:last :      0.44s CPU      0.45s WALL (      54 calls)
     rdiaghg:chol :      0.14s CPU      0.14s WALL (     280 calls)
     rdiaghg:inve :      0.03s CPU      0.03s WALL (     280 calls)
     rdiaghg:para :      0.36s CPU      0.38s WALL (     560 calls)
     h_psi        :      7.07s CPU      7.52s WALL (     281 calls)
     g_psi        :      0.00s CPU      0.00s WALL (     266 calls)

     Called by h_psi:
     h_psi:calbec :      1.18s CPU      1.27s WALL (     281 calls)
     vloc_psi     :      5.77s CPU      6.14s WALL (     281 calls)
                                        0.00s GPU  (     281 calls)
     add_vuspsi   :      0.11s CPU      0.11s WALL (     281 calls)

     General routines
     calbec       :      1.23s CPU      1.32s WALL (     285 calls)
     fft          :      0.36s CPU      0.63s WALL (     196 calls)
     ffts         :      0.02s CPU      0.02s WALL (      14 calls)
     fftw         :      5.83s CPU      6.19s WALL (   10274 calls)
 
     Parallel routines
 
     PWSCF        :     23.24s CPU     25.04s WALL

 
   This run was terminated on:  13:59:44  19Nov2025            

=------------------------------------------------------------------------------=
   JOB DONE.
=------------------------------------------------------------------------------=
