
     Program PWSCF v.7.5 starts on 19Nov2025 at 14: 3:17 

     This program is part of the open-source Quantum ESPRESSO suite
     for quantum simulation of materials; please cite
         "P. Giannozzi et al., J. Phys.:Condens. Matter 21 395502 (2009);
         "P. Giannozzi et al., J. Phys.:Condens. Matter 29 465901 (2017);
         "P. Giannozzi et al., J. Chem. Phys. 152 154105 (2020);
          URL http://www.quantum-espresso.org", 
     in publications or presentations arising from this work. More details at
     http://www.quantum-espresso.org/quote

     Parallel version (MPI), running on    96 processors

     MPI processes distributed on     2 nodes
     144224 MiB available memory on the printing compute node when the environment starts
 
     Reading input from supercell-074.in

     Current dimensions of program PWSCF are:
     Max number of different atomic species (ntypx) = 10
     Max number of k-points (npk) =  40000
     Max angular momentum in pseudopotentials (lmaxx) =  4

     gamma-point specific algorithms are used
     Message from routine setup:
     using ibrav=0 with symmetry is DISCOURAGED, use correct ibrav instead
 
     K-points division:     npool     =       2
     R & G space division:  proc/nbgrp/npool/nimage =      48
     Subspace diagonalization in iterative solution of the eigenvalue problem:
     one sub-group per band group will be used
     scalapack distributed-memory algorithm (size of sub-group:  2*  2 procs)

 
     Parallelization info
     --------------------
     sticks:   dense  smooth     PW     G-vecs:    dense   smooth      PW
     Min          59      59     14                 2432     2432     302
     Max          62      62     16                 2442     2442     316
     Sum        2885    2885    725               116921   116921   14771
 
     Using Slab Decomposition
 


     bravais-lattice index     =            0
     lattice parameter (alat)  =      13.4813  a.u.
     unit-cell volume          =    2450.1683 (a.u.)^3
     number of atoms/cell      =           63
     number of atomic types    =            2
     number of electrons       =       254.00 (up: 128.00, down: 126.00)
     number of Kohn-Sham states=          152
     kinetic-energy cutoff     =      50.0000  Ry
     charge density cutoff     =     200.0000  Ry
     scf convergence threshold =      1.0E-08
     mixing beta               =       0.7000
     number of iterations used =            8  plain     mixing
     Exchange-correlation= PBE
                           (   1   4   3   4   0   0   0)

     celldm(1)=  13.481306  celldm(2)=   0.000000  celldm(3)=   0.000000
     celldm(4)=   0.000000  celldm(5)=   0.000000  celldm(6)=   0.000000

     crystal axes: (cart. coord. in units of alat)
               a(1) = (   1.000000   0.000000   0.000000 )  
               a(2) = (   0.000000   1.000000   0.000000 )  
               a(3) = (   0.000000   0.000000   1.000000 )  

     reciprocal axes: (cart. coord. in units 2 pi/alat)
               b(1) = (  1.000000  0.000000  0.000000 )  
               b(2) = (  0.000000  1.000000  0.000000 )  
               b(3) = (  0.000000  0.000000  1.000000 )  


     PseudoPot. # 1 for N  read from file:
     ./N_ONCV_PBE-1.2.upf
     MD5 check sum: 5312fdf34e96954e02a33bdc911c617a
     Pseudo is Norm-conserving, Zval =  5.0
     Generated using ONCVPSP code by D. R. Hamann
     Using radial grid of  602 points,  4 beta functions with: 
                l(1) =   0
                l(2) =   0
                l(3) =   1
                l(4) =   1

     PseudoPot. # 2 for C  read from file:
     ./C_ONCV_PBE-1.2.upf
     MD5 check sum: d60b57d9bdca4133f5fde4b584ee909d
     Pseudo is Norm-conserving, Zval =  4.0
     Generated using ONCVPSP code by D. R. Hamann
     Using radial grid of  602 points,  4 beta functions with: 
                l(1) =   0
                l(2) =   0
                l(3) =   1
                l(4) =   1

     atomic species   valence    mass     pseudopotential
     N                 5.00    14.00670     N ( 1.00)
     C                 4.00    12.01070     C ( 1.00)

     Starting magnetic structure 
     atomic species   magnetization
     N               0.000
     C               0.000

      2 Sym. Ops. (no inversion) found


                                    s                        frac. trans.

      isym =  1     identity                                     

 cryst.   s( 1) = (     1          0          0      )
                  (     0          1          0      )
                  (     0          0          1      )

 cart.    s( 1) = (  1.0000000  0.0000000  0.0000000 )
                  (  0.0000000  1.0000000  0.0000000 )
                  (  0.0000000  0.0000000  1.0000000 )


      isym =  2     inv. 180 deg rotation - cart. axis [0,1,-1]  

 cryst.   s( 2) = (     1          0          0      )
                  (     0          0          1      )
                  (     0          1          0      )

 cart.    s( 2) = (  1.0000000  0.0000000  0.0000000 )
                  (  0.0000000  0.0000000  1.0000000 )
                  (  0.0000000  1.0000000  0.0000000 )


   Cartesian axes

     site n.     atom                  positions (alat units)
         1        N      tau(   1) = (   0.9869283   0.9869283   0.9869283  )
         2        C      tau(   2) = (   0.9921390   0.2607625   0.2607625  )
         3        C      tau(   3) = (   0.1236981   0.3746848   0.3746848  )
         4        C      tau(   4) = (   0.2607625   0.9921390   0.2607625  )
         5        C      tau(   5) = (   0.3746848   0.1236981   0.3746848  )
         6        C      tau(   6) = (   0.2607625   0.2607625   0.9921390  )
         7        C      tau(   7) = (   0.3746848   0.3746848   0.1236981  )
         8        C      tau(   8) = (   0.0007517   0.0007517   0.4988587  )
         9        C      tau(   9) = (   0.1251291   0.1251291   0.6250516  )
        10        C      tau(  10) = (   0.0014372   0.2476607   0.7521916  )
        11        C      tau(  11) = (   0.1266329   0.3730745   0.8775065  )
        12        C      tau(  12) = (   0.2476607   0.0014372   0.7521916  )
        13        C      tau(  13) = (   0.3730745   0.1266329   0.8775065  )
        14        C      tau(  14) = (   0.2498467   0.2498467   0.4996267  )
        15        C      tau(  15) = (   0.3749463   0.3749463   0.6249280  )
        16        C      tau(  16) = (   0.0007517   0.4988587   0.0007517  )
        17        C      tau(  17) = (   0.1251291   0.6250516   0.1251291  )
        18        C      tau(  18) = (   0.0014372   0.7521916   0.2476607  )
        19        C      tau(  19) = (   0.1266329   0.8775065   0.3730745  )
        20        C      tau(  20) = (   0.2498467   0.4996267   0.2498467  )
        21        C      tau(  21) = (   0.3749463   0.6249280   0.3749463  )
        22        C      tau(  22) = (   0.2476607   0.7521916   0.0014372  )
        23        C      tau(  23) = (   0.3730745   0.8775065   0.1266329  )
        24        C      tau(  24) = (   0.0010116   0.5014264   0.5014264  )
        25        C      tau(  25) = (   0.1250381   0.6250852   0.6250852  )
        26        C      tau(  26) = (   0.9996941   0.7483805   0.7483805  )
        27        C      tau(  27) = (   0.1189720   0.8751585   0.8751585  )
        28        C      tau(  28) = (   0.2496290   0.5009902   0.7494822  )
        29        C      tau(  29) = (   0.3740517   0.6261334   0.8754230  )
        30        C      tau(  30) = (   0.2496290   0.7494822   0.5009902  )
        31        C      tau(  31) = (   0.3740517   0.8754230   0.6261334  )
        32        C      tau(  32) = (   0.4988587   0.0007517   0.0007517  )
        33        C      tau(  33) = (   0.6250516   0.1251291   0.1251291  )
        34        C      tau(  34) = (   0.4996267   0.2498467   0.2498467  )
        35        C      tau(  35) = (   0.6249280   0.3749463   0.3749463  )
        36        C      tau(  36) = (   0.7521916   0.0014372   0.2476607  )
        37        C      tau(  37) = (   0.8775065   0.1266329   0.3730745  )
        38        C      tau(  38) = (   0.7521916   0.2476607   0.0014372  )
        39        C      tau(  39) = (   0.8775065   0.3730745   0.1266329  )
        40        C      tau(  40) = (   0.5014264   0.0010116   0.5014264  )
        41        C      tau(  41) = (   0.6250852   0.1250381   0.6250852  )
        42        C      tau(  42) = (   0.5009902   0.2496290   0.7494822  )
        43        C      tau(  43) = (   0.6261334   0.3740517   0.8754230  )
        44        C      tau(  44) = (   0.7483805   0.9996941   0.7483805  )
        45        C      tau(  45) = (   0.8751585   0.1189720   0.8751585  )
        46        C      tau(  46) = (   0.7494822   0.2496290   0.5009902  )
        47        C      tau(  47) = (   0.8754230   0.3740517   0.6261334  )
        48        C      tau(  48) = (   0.5014264   0.5014264   0.0010116  )
        49        C      tau(  49) = (   0.6250852   0.6250852   0.1250381  )
        50        C      tau(  50) = (   0.5009902   0.7494822   0.2496290  )
        51        C      tau(  51) = (   0.6261334   0.8754230   0.3740517  )
        52        C      tau(  52) = (   0.7494822   0.5009902   0.2496290  )
        53        C      tau(  53) = (   0.8754230   0.6261334   0.3740517  )
        54        C      tau(  54) = (   0.7483805   0.7483805   0.9996941  )
        55        C      tau(  55) = (   0.8751585   0.8751585   0.1189720  )
        56        C      tau(  56) = (   0.4999757   0.4999757   0.4999757  )
        57        C      tau(  57) = (   0.6249536   0.6249536   0.6249536  )
        58        C      tau(  58) = (   0.4976122   0.7503802   0.7503802  )
        59        C      tau(  59) = (   0.6235333   0.8749829   0.8749829  )
        60        C      tau(  60) = (   0.7503802   0.4990957   0.7503802  )
        61        C      tau(  61) = (   0.8749829   0.6235333   0.8749829  )
        62        C      tau(  62) = (   0.7503802   0.7503802   0.4990957  )
        63        C      tau(  63) = (   0.8749829   0.8749829   0.6235333  )

   Crystallographic axes

     site n.     atom                  positions (cryst. coord.)
         1        N      tau(   1) = (  0.9869283  0.9869283  0.9869283  )
         2        C      tau(   2) = (  0.9921390  0.2607625  0.2607625  )
         3        C      tau(   3) = (  0.1236981  0.3746848  0.3746848  )
         4        C      tau(   4) = (  0.2607625  0.9921390  0.2607625  )
         5        C      tau(   5) = (  0.3746848  0.1236981  0.3746848  )
         6        C      tau(   6) = (  0.2607625  0.2607625  0.9921390  )
         7        C      tau(   7) = (  0.3746848  0.3746848  0.1236981  )
         8        C      tau(   8) = (  0.0007517  0.0007517  0.4988587  )
         9        C      tau(   9) = (  0.1251291  0.1251291  0.6250516  )
        10        C      tau(  10) = (  0.0014372  0.2476607  0.7521916  )
        11        C      tau(  11) = (  0.1266329  0.3730745  0.8775065  )
        12        C      tau(  12) = (  0.2476607  0.0014372  0.7521916  )
        13        C      tau(  13) = (  0.3730745  0.1266329  0.8775065  )
        14        C      tau(  14) = (  0.2498467  0.2498467  0.4996267  )
        15        C      tau(  15) = (  0.3749463  0.3749463  0.6249280  )
        16        C      tau(  16) = (  0.0007517  0.4988587  0.0007517  )
        17        C      tau(  17) = (  0.1251291  0.6250516  0.1251291  )
        18        C      tau(  18) = (  0.0014372  0.7521916  0.2476607  )
        19        C      tau(  19) = (  0.1266329  0.8775065  0.3730745  )
        20        C      tau(  20) = (  0.2498467  0.4996267  0.2498467  )
        21        C      tau(  21) = (  0.3749463  0.6249280  0.3749463  )
        22        C      tau(  22) = (  0.2476607  0.7521916  0.0014372  )
        23        C      tau(  23) = (  0.3730745  0.8775065  0.1266329  )
        24        C      tau(  24) = (  0.0010116  0.5014264  0.5014264  )
        25        C      tau(  25) = (  0.1250381  0.6250852  0.6250852  )
        26        C      tau(  26) = (  0.9996941  0.7483805  0.7483805  )
        27        C      tau(  27) = (  0.1189720  0.8751585  0.8751585  )
        28        C      tau(  28) = (  0.2496290  0.5009902  0.7494822  )
        29        C      tau(  29) = (  0.3740517  0.6261334  0.8754230  )
        30        C      tau(  30) = (  0.2496290  0.7494822  0.5009902  )
        31        C      tau(  31) = (  0.3740517  0.8754230  0.6261334  )
        32        C      tau(  32) = (  0.4988587  0.0007517  0.0007517  )
        33        C      tau(  33) = (  0.6250516  0.1251291  0.1251291  )
        34        C      tau(  34) = (  0.4996267  0.2498467  0.2498467  )
        35        C      tau(  35) = (  0.6249280  0.3749463  0.3749463  )
        36        C      tau(  36) = (  0.7521916  0.0014372  0.2476607  )
        37        C      tau(  37) = (  0.8775065  0.1266329  0.3730745  )
        38        C      tau(  38) = (  0.7521916  0.2476607  0.0014372  )
        39        C      tau(  39) = (  0.8775065  0.3730745  0.1266329  )
        40        C      tau(  40) = (  0.5014264  0.0010116  0.5014264  )
        41        C      tau(  41) = (  0.6250852  0.1250381  0.6250852  )
        42        C      tau(  42) = (  0.5009902  0.2496290  0.7494822  )
        43        C      tau(  43) = (  0.6261334  0.3740517  0.8754230  )
        44        C      tau(  44) = (  0.7483805  0.9996941  0.7483805  )
        45        C      tau(  45) = (  0.8751585  0.1189720  0.8751585  )
        46        C      tau(  46) = (  0.7494822  0.2496290  0.5009902  )
        47        C      tau(  47) = (  0.8754230  0.3740517  0.6261334  )
        48        C      tau(  48) = (  0.5014264  0.5014264  0.0010116  )
        49        C      tau(  49) = (  0.6250852  0.6250852  0.1250381  )
        50        C      tau(  50) = (  0.5009902  0.7494822  0.2496290  )
        51        C      tau(  51) = (  0.6261334  0.8754230  0.3740517  )
        52        C      tau(  52) = (  0.7494822  0.5009902  0.2496290  )
        53        C      tau(  53) = (  0.8754230  0.6261334  0.3740517  )
        54        C      tau(  54) = (  0.7483805  0.7483805  0.9996941  )
        55        C      tau(  55) = (  0.8751585  0.8751585  0.1189720  )
        56        C      tau(  56) = (  0.4999757  0.4999757  0.4999757  )
        57        C      tau(  57) = (  0.6249536  0.6249536  0.6249536  )
        58        C      tau(  58) = (  0.4976122  0.7503802  0.7503802  )
        59        C      tau(  59) = (  0.6235333  0.8749829  0.8749829  )
        60        C      tau(  60) = (  0.7503802  0.4990957  0.7503802  )
        61        C      tau(  61) = (  0.8749829  0.6235333  0.8749829  )
        62        C      tau(  62) = (  0.7503802  0.7503802  0.4990957  )
        63        C      tau(  63) = (  0.8749829  0.8749829  0.6235333  )

     number of k points=     1
                       cart. coord. in units 2pi/alat
        k(    1) = (   0.0000000   0.0000000   0.0000000), wk =   1.0000000

                       cryst. coord.
        k(    1) = (   0.0000000   0.0000000   0.0000000), wk =   1.0000000

     Dense  grid:    58461 G-vectors     FFT dimensions: (  64,  64,  64)

     Dynamical RAM for                 wfc:       0.35 MB

     Dynamical RAM for     wfc (w. buffer):       0.35 MB

     Dynamical RAM for           str. fact:       0.04 MB

     Dynamical RAM for           local pot:       0.00 MB

     Dynamical RAM for          nlocal pot:       1.17 MB

     Dynamical RAM for                qrad:       0.65 MB

     Dynamical RAM for          rho,v,vnew:       0.49 MB

     Dynamical RAM for               rhoin:       0.16 MB

     Dynamical RAM for            rho*nmix:       0.60 MB

     Dynamical RAM for           G-vectors:       0.08 MB

     Dynamical RAM for          h,s,v(r/c):       0.53 MB

     Dynamical RAM for          <psi|beta>:       0.58 MB

     Dynamical RAM for                 psi:       0.71 MB

     Dynamical RAM for                hpsi:       0.71 MB

     Dynamical RAM for      wfcinit/wfcrot:       1.24 MB

     Estimated static dynamical RAM per process >       3.37 MB

     Estimated max dynamical RAM per process >       6.49 MB

     Estimated total dynamical RAM >     594.05 MB
     Generating pointlists ...
     new r_m :   0.0850 (alat units)  1.1454 (a.u.) for type    1
     new r_m :   0.0850 (alat units)  1.1454 (a.u.) for type    2

     Initial potential from superposition of free atoms

     starting charge     252.5655, renormalised to     254.0000
     Starting wfcs are random

     total cpu time spent up to now is        1.2 secs

     Self-consistent Calculation

     iteration #  1     ecut=    50.00 Ry     beta= 0.70
     Davidson diagonalization with overlap

---- Real-time Memory Report at c_bands before calling an iterative solver
           158 MiB given to the printing process from OS
             0 MiB allocation reported by mallinfo(arena+hblkhd)
        143240 MiB available memory on the node where the printing process lives
------------------
     ethr =  1.00E-02,  avg # of iterations = 14.0

     total cpu time spent up to now is        2.1 secs

     total energy              =    -723.30965410 Ry
     estimated scf accuracy    <       3.69363928 Ry

     total magnetization       =     2.00 Bohr mag/cell
     absolute magnetization    =     2.00 Bohr mag/cell

     iteration #  2     ecut=    50.00 Ry     beta= 0.70
     Davidson diagonalization with overlap

---- Real-time Memory Report at c_bands before calling an iterative solver
           164 MiB given to the printing process from OS
             0 MiB allocation reported by mallinfo(arena+hblkhd)
        143182 MiB available memory on the node where the printing process lives
------------------
     ethr =  1.45E-03,  avg # of iterations = 11.0

     total cpu time spent up to now is        2.7 secs

     total energy              =    -723.68004002 Ry
     estimated scf accuracy    <       0.44093716 Ry

     total magnetization       =     2.00 Bohr mag/cell
     absolute magnetization    =     2.07 Bohr mag/cell

     iteration #  3     ecut=    50.00 Ry     beta= 0.70
     Davidson diagonalization with overlap

---- Real-time Memory Report at c_bands before calling an iterative solver
           164 MiB given to the printing process from OS
             0 MiB allocation reported by mallinfo(arena+hblkhd)
        143185 MiB available memory on the node where the printing process lives
------------------
     c_bands:  1 eigenvalues not converged
     ethr =  1.74E-04,  avg # of iterations = 20.0

     total cpu time spent up to now is        3.1 secs

     total energy              =    -723.73931786 Ry
     estimated scf accuracy    <       0.86087085 Ry

     total magnetization       =     2.00 Bohr mag/cell
     absolute magnetization    =     2.11 Bohr mag/cell

     iteration #  4     ecut=    50.00 Ry     beta= 0.70
     Davidson diagonalization with overlap

---- Real-time Memory Report at c_bands before calling an iterative solver
           165 MiB given to the printing process from OS
             0 MiB allocation reported by mallinfo(arena+hblkhd)
        143190 MiB available memory on the node where the printing process lives
------------------
     c_bands:  1 eigenvalues not converged
     ethr =  1.74E-04,  avg # of iterations = 19.5

     total cpu time spent up to now is        3.9 secs

     total energy              =    -723.91138905 Ry
     estimated scf accuracy    <       0.00815762 Ry

     total magnetization       =     2.00 Bohr mag/cell
     absolute magnetization    =     2.18 Bohr mag/cell

     iteration #  5     ecut=    50.00 Ry     beta= 0.70
     Davidson diagonalization with overlap

---- Real-time Memory Report at c_bands before calling an iterative solver
           165 MiB given to the printing process from OS
             0 MiB allocation reported by mallinfo(arena+hblkhd)
        143180 MiB available memory on the node where the printing process lives
------------------
     c_bands:  4 eigenvalues not converged
     ethr =  3.21E-06,  avg # of iterations = 20.0

     total cpu time spent up to now is        5.0 secs

     total energy              =    -723.91590940 Ry
     estimated scf accuracy    <       0.00401536 Ry

     total magnetization       =     2.00 Bohr mag/cell
     absolute magnetization    =     2.22 Bohr mag/cell

     iteration #  6     ecut=    50.00 Ry     beta= 0.70
     Davidson diagonalization with overlap

---- Real-time Memory Report at c_bands before calling an iterative solver
           166 MiB given to the printing process from OS
             0 MiB allocation reported by mallinfo(arena+hblkhd)
        143183 MiB available memory on the node where the printing process lives
------------------
     c_bands:  3 eigenvalues not converged
     ethr =  1.58E-06,  avg # of iterations = 20.0

     total cpu time spent up to now is        5.4 secs

     total energy              =    -723.91661548 Ry
     estimated scf accuracy    <       0.00070463 Ry

     total magnetization       =     2.00 Bohr mag/cell
     absolute magnetization    =     2.24 Bohr mag/cell

     iteration #  7     ecut=    50.00 Ry     beta= 0.70
     Davidson diagonalization with overlap

---- Real-time Memory Report at c_bands before calling an iterative solver
           166 MiB given to the printing process from OS
             0 MiB allocation reported by mallinfo(arena+hblkhd)
        143188 MiB available memory on the node where the printing process lives
------------------
     c_bands:  2 eigenvalues not converged
     ethr =  2.77E-07,  avg # of iterations = 20.0

     total cpu time spent up to now is        6.3 secs

     total energy              =    -723.91681377 Ry
     estimated scf accuracy    <       0.00006466 Ry

     total magnetization       =     2.00 Bohr mag/cell
     absolute magnetization    =     2.26 Bohr mag/cell

     iteration #  8     ecut=    50.00 Ry     beta= 0.70
     Davidson diagonalization with overlap

---- Real-time Memory Report at c_bands before calling an iterative solver
           166 MiB given to the printing process from OS
             0 MiB allocation reported by mallinfo(arena+hblkhd)
        143188 MiB available memory on the node where the printing process lives
------------------
     c_bands:  2 eigenvalues not converged
     ethr =  2.55E-08,  avg # of iterations = 20.0

     total cpu time spent up to now is        7.3 secs

     total energy              =    -723.91684064 Ry
     estimated scf accuracy    <       0.00002057 Ry

     total magnetization       =     2.00 Bohr mag/cell
     absolute magnetization    =     2.27 Bohr mag/cell

     iteration #  9     ecut=    50.00 Ry     beta= 0.70
     Davidson diagonalization with overlap

---- Real-time Memory Report at c_bands before calling an iterative solver
           166 MiB given to the printing process from OS
             0 MiB allocation reported by mallinfo(arena+hblkhd)
        143187 MiB available memory on the node where the printing process lives
------------------
     c_bands:  1 eigenvalues not converged
     ethr =  8.10E-09,  avg # of iterations = 20.0

     total cpu time spent up to now is        7.9 secs

     total energy              =    -723.91684766 Ry
     estimated scf accuracy    <       0.00000649 Ry

     total magnetization       =     2.00 Bohr mag/cell
     absolute magnetization    =     2.28 Bohr mag/cell

     iteration # 10     ecut=    50.00 Ry     beta= 0.70
     Davidson diagonalization with overlap

---- Real-time Memory Report at c_bands before calling an iterative solver
           166 MiB given to the printing process from OS
             0 MiB allocation reported by mallinfo(arena+hblkhd)
        143180 MiB available memory on the node where the printing process lives
------------------
     c_bands:  1 eigenvalues not converged
     ethr =  2.55E-09,  avg # of iterations = 20.0

     total cpu time spent up to now is        8.5 secs

     total energy              =    -723.91685044 Ry
     estimated scf accuracy    <       0.00000093 Ry

     total magnetization       =     2.00 Bohr mag/cell
     absolute magnetization    =     2.28 Bohr mag/cell

     iteration # 11     ecut=    50.00 Ry     beta= 0.70
     Davidson diagonalization with overlap

---- Real-time Memory Report at c_bands before calling an iterative solver
           166 MiB given to the printing process from OS
             0 MiB allocation reported by mallinfo(arena+hblkhd)
        143192 MiB available memory on the node where the printing process lives
------------------
     c_bands:  1 eigenvalues not converged
     ethr =  3.66E-10,  avg # of iterations = 19.5

     total cpu time spent up to now is        9.1 secs

     total energy              =    -723.91685101 Ry
     estimated scf accuracy    <       0.00000018 Ry

     total magnetization       =     2.00 Bohr mag/cell
     absolute magnetization    =     2.29 Bohr mag/cell

     iteration # 12     ecut=    50.00 Ry     beta= 0.70
     Davidson diagonalization with overlap

---- Real-time Memory Report at c_bands before calling an iterative solver
           166 MiB given to the printing process from OS
             0 MiB allocation reported by mallinfo(arena+hblkhd)
        143186 MiB available memory on the node where the printing process lives
------------------
     c_bands:  1 eigenvalues not converged
     ethr =  7.19E-11,  avg # of iterations = 20.0

     total cpu time spent up to now is        9.7 secs

     total energy              =    -723.91685111 Ry
     estimated scf accuracy    <       0.00000005 Ry

     total magnetization       =     2.00 Bohr mag/cell
     absolute magnetization    =     2.29 Bohr mag/cell

     iteration # 13     ecut=    50.00 Ry     beta= 0.70
     Davidson diagonalization with overlap

---- Real-time Memory Report at c_bands before calling an iterative solver
           166 MiB given to the printing process from OS
             0 MiB allocation reported by mallinfo(arena+hblkhd)
        143186 MiB available memory on the node where the printing process lives
------------------
     c_bands:  1 eigenvalues not converged
     ethr =  2.01E-11,  avg # of iterations = 20.0

     total cpu time spent up to now is       10.3 secs

     total energy              =    -723.91685114 Ry
     estimated scf accuracy    <       0.00000001 Ry

     total magnetization       =     2.00 Bohr mag/cell
     absolute magnetization    =     2.29 Bohr mag/cell

     iteration # 14     ecut=    50.00 Ry     beta= 0.70
     Davidson diagonalization with overlap

---- Real-time Memory Report at c_bands before calling an iterative solver
           166 MiB given to the printing process from OS
             0 MiB allocation reported by mallinfo(arena+hblkhd)
        143182 MiB available memory on the node where the printing process lives
------------------
     c_bands:  3 eigenvalues not converged
     ethr =  4.78E-12,  avg # of iterations = 20.0
 
     Magnetic moment per site  (integrated on atomic sphere of radius R)
     atom   1 (R=0.085)  charge=  2.8976  magn=  0.0040
     atom   2 (R=0.085)  charge=  1.8130  magn=  0.2494
     atom   3 (R=0.085)  charge=  1.8113  magn= -0.0087
     atom   4 (R=0.085)  charge=  1.8130  magn=  0.2494
     atom   5 (R=0.085)  charge=  1.8113  magn= -0.0087
     atom   6 (R=0.085)  charge=  1.8130  magn=  0.2494
     atom   7 (R=0.085)  charge=  1.8113  magn= -0.0087
     atom   8 (R=0.085)  charge=  1.8016  magn=  0.0085
     atom   9 (R=0.085)  charge=  1.8085  magn= -0.0018
     atom  10 (R=0.085)  charge=  1.7946  magn=  0.0054
     atom  11 (R=0.085)  charge=  1.8030  magn= -0.0034
     atom  12 (R=0.085)  charge=  1.7947  magn=  0.0054
     atom  13 (R=0.085)  charge=  1.8030  magn= -0.0034
     atom  14 (R=0.085)  charge=  1.8001  magn=  0.0086
     atom  15 (R=0.085)  charge=  1.8013  magn= -0.0019
     atom  16 (R=0.085)  charge=  1.8016  magn=  0.0085
     atom  17 (R=0.085)  charge=  1.8085  magn= -0.0018
     atom  18 (R=0.085)  charge=  1.7946  magn=  0.0054
     atom  19 (R=0.085)  charge=  1.8030  magn= -0.0034
     atom  20 (R=0.085)  charge=  1.8001  magn=  0.0086
     atom  21 (R=0.085)  charge=  1.8013  magn= -0.0019
     atom  22 (R=0.085)  charge=  1.7947  magn=  0.0054
     atom  23 (R=0.085)  charge=  1.8030  magn= -0.0034
     atom  24 (R=0.085)  charge=  1.8004  magn=  0.0181
     atom  25 (R=0.085)  charge=  1.8200  magn=  0.0089
     atom  26 (R=0.085)  charge=  1.8120  magn=  0.0032
     atom  27 (R=0.085)  charge=  1.7813  magn= -0.0000
     atom  28 (R=0.085)  charge=  1.8009  magn=  0.0212
     atom  29 (R=0.085)  charge=  1.7973  magn= -0.0013
     atom  30 (R=0.085)  charge=  1.8009  magn=  0.0212
     atom  31 (R=0.085)  charge=  1.7973  magn= -0.0013
     atom  32 (R=0.085)  charge=  1.8016  magn=  0.0085
     atom  33 (R=0.085)  charge=  1.8085  magn= -0.0018
     atom  34 (R=0.085)  charge=  1.8001  magn=  0.0086
     atom  35 (R=0.085)  charge=  1.8013  magn= -0.0019
     atom  36 (R=0.085)  charge=  1.7946  magn=  0.0054
     atom  37 (R=0.085)  charge=  1.8030  magn= -0.0034
     atom  38 (R=0.085)  charge=  1.7946  magn=  0.0054
     atom  39 (R=0.085)  charge=  1.8030  magn= -0.0034
     atom  40 (R=0.085)  charge=  1.8003  magn=  0.0181
     atom  41 (R=0.085)  charge=  1.8200  magn=  0.0089
     atom  42 (R=0.085)  charge=  1.8008  magn=  0.0212
     atom  43 (R=0.085)  charge=  1.7953  magn= -0.0013
     atom  44 (R=0.085)  charge=  1.8119  magn=  0.0032
     atom  45 (R=0.085)  charge=  1.7813  magn= -0.0000
     atom  46 (R=0.085)  charge=  1.8008  magn=  0.0212
     atom  47 (R=0.085)  charge=  1.7953  magn= -0.0013
     atom  48 (R=0.085)  charge=  1.8003  magn=  0.0181
     atom  49 (R=0.085)  charge=  1.8200  magn=  0.0089
     atom  50 (R=0.085)  charge=  1.8008  magn=  0.0212
     atom  51 (R=0.085)  charge=  1.7953  magn= -0.0013
     atom  52 (R=0.085)  charge=  1.8008  magn=  0.0212
     atom  53 (R=0.085)  charge=  1.7953  magn= -0.0013
     atom  54 (R=0.085)  charge=  1.8119  magn=  0.0032
     atom  55 (R=0.085)  charge=  1.7813  magn= -0.0000
     atom  56 (R=0.085)  charge=  1.8051  magn=  0.0010
     atom  57 (R=0.085)  charge=  1.7963  magn=  0.0010
     atom  58 (R=0.085)  charge=  1.8049  magn=  0.0018
     atom  59 (R=0.085)  charge=  1.8001  magn= -0.0009
     atom  60 (R=0.085)  charge=  1.8060  magn=  0.0018
     atom  61 (R=0.085)  charge=  1.8021  magn= -0.0009
     atom  62 (R=0.085)  charge=  1.8060  magn=  0.0018
     atom  63 (R=0.085)  charge=  1.8021  magn= -0.0009

     total cpu time spent up to now is       10.9 secs

     End of self-consistent calculation

 ------ SPIN UP ------------


          k = 0.0000 0.0000 0.0000 (  7386 PWs)   bands (ev):

    -8.5685  -7.0168  -6.2655  -6.2645  -6.1620  -6.1593  -5.8713  -4.9402
    -4.1227  -4.1224  -4.0906  -4.0887  -4.0312  -4.0303  -3.9811  -3.9091
    -3.8652  -3.8622  -3.3476  -2.9528  -2.6682  -2.6657  -2.1123  -0.3572
    -0.3570  -0.3172  -0.2876  -0.0885   0.1879   0.1914   0.2944   0.2954
     0.3749   0.6081   0.8208   0.8244   0.9868   0.9873   1.0236   1.0515
     1.0534   1.0718   1.3039   1.3047   3.0620   3.8876   3.8877   4.0442
     4.2318   4.2382   4.2451   4.2548   4.2898   4.2901   4.4365   4.4384
     4.4987   4.5017   4.5998   4.6812   4.6879   4.6885   4.6915   4.7773
     4.7790   4.9191   4.9645   4.9680   5.0571   5.2274   5.2284   5.3006
     5.3724   5.3725   5.4063   5.4199   5.4236   6.0467   6.0481   6.0799
     6.6435   6.6442   6.7614   7.0075   7.0296   7.0337   7.5223   8.3349
     8.3355   8.4196   8.4907   8.4980   8.6724   8.6744   8.8298   8.8305
     8.8517   8.8530   8.8925   8.8949   8.9432   9.3066   9.3072   9.3172
     9.7195   9.7212   9.9289   9.9416   9.9450   9.9527   9.9805  10.0033
    10.0072  10.0162  10.0343  10.0463  10.1306  10.1354  10.2826  10.2860
    10.3539  10.9863  12.2261  12.4658  12.4719  13.8196  14.7964  14.7976
    17.3734  17.3856  17.3923  17.5499  17.5631  17.5679  17.8924  17.9289
    17.9301  18.0140  18.0202  18.3711  18.9890  18.9902  19.0223  20.7103
    20.8196  20.8225  20.8713  20.9478  20.9600  21.0325  21.0329  21.0777

     occupation numbers 
     1.0000   1.0000   1.0000   1.0000   1.0000   1.0000   1.0000   1.0000
     1.0000   1.0000   1.0000   1.0000   1.0000   1.0000   1.0000   1.0000
     1.0000   1.0000   1.0000   1.0000   1.0000   1.0000   1.0000   1.0000
     1.0000   1.0000   1.0000   1.0000   1.0000   1.0000   1.0000   1.0000
     1.0000   1.0000   1.0000   1.0000   1.0000   1.0000   1.0000   1.0000
     1.0000   1.0000   1.0000   1.0000   1.0000   1.0000   1.0000   1.0000
     1.0000   1.0000   1.0000   1.0000   1.0000   1.0000   1.0000   1.0000
     1.0000   1.0000   1.0000   1.0000   1.0000   1.0000   1.0000   1.0000
     1.0000   1.0000   1.0000   1.0000   1.0000   1.0000   1.0000   1.0000
     1.0000   1.0000   1.0000   1.0000   1.0000   1.0000   1.0000   1.0000
     1.0000   1.0000   1.0000   1.0000   1.0000   1.0000   1.0000   1.0000
     1.0000   1.0000   1.0000   1.0000   1.0000   1.0000   1.0000   1.0000
     1.0000   1.0000   1.0000   1.0000   1.0000   1.0000   1.0000   1.0000
     1.0000   1.0000   1.0000   1.0000   1.0000   1.0000   1.0000   1.0000
     1.0000   1.0000   1.0000   1.0000   1.0000   1.0000   1.0000   1.0000
     1.0000   1.0000   1.0000   1.0000   1.0000   1.0000   1.0000   1.0000
     0.0000   0.0000   0.0000   0.0000   0.0000   0.0000   0.0000   0.0000
     0.0000   0.0000   0.0000   0.0000   0.0000   0.0000   0.0000   0.0000
     0.0000   0.0000   0.0000   0.0000   0.0000   0.0000   0.0000   0.0000

 ------ SPIN DOWN ----------


          k = 0.0000 0.0000 0.0000 (  7386 PWs)   bands (ev):

    -8.5451  -7.0023  -6.2459  -6.2451  -6.1205  -6.1175  -5.8344  -4.9242
    -4.1027  -4.1024  -4.0735  -4.0730  -3.9758  -3.9743  -3.9557  -3.8972
    -3.8207  -3.8160  -3.3042  -2.9349  -2.6141  -2.6116  -1.9717  -0.3403
    -0.3401  -0.2987  -0.2663  -0.0224   0.2036   0.2072   0.3294   0.3307
     0.4007   0.6402   0.8334   0.8369   1.0116   1.0123   1.0564   1.0668
     1.0685   1.0897   1.4751   1.4760   3.1767   3.9081   3.9081   4.0670
     4.2661   4.2723   4.2735   4.2872   4.3088   4.3107   4.4846   4.4860
     4.5224   4.5224   4.6270   4.7039   4.7045   4.7070   4.7078   4.8139
     4.8158   4.9307   4.9962   4.9998   5.1415   5.2612   5.2624   5.3242
     5.3834   5.3836   5.4194   5.4791   5.4836   6.1060   6.1078   6.1206
     6.6698   6.6706   6.7958   7.0505   7.1221   7.1262   7.7019   8.3733
     8.3741   8.4556   8.5235   8.5302   8.7030   8.7050   8.8607   8.8696
     8.8698   8.8833   8.9438   8.9473   8.9671   9.3361   9.3430   9.3517
     9.7486   9.7503   9.9481   9.9557   9.9594   9.9773  10.0064  10.0188
    10.0267  10.0350  10.0677  10.0780  10.1627  10.1674  10.3381  10.3413
    10.4155  11.3842  12.5335  12.6123  12.6190  14.2854  16.1586  16.1593
    17.3988  17.4091  17.4110  17.5751  17.6134  17.6207  17.9167  17.9493
    17.9506  18.0522  18.0582  18.4835  19.0660  19.0772  19.0783  20.7597
    20.8328  20.8357  20.8854  20.9670  20.9783  21.0534  21.0567  21.0919

     occupation numbers 
     1.0000   1.0000   1.0000   1.0000   1.0000   1.0000   1.0000   1.0000
     1.0000   1.0000   1.0000   1.0000   1.0000   1.0000   1.0000   1.0000
     1.0000   1.0000   1.0000   1.0000   1.0000   1.0000   1.0000   1.0000
     1.0000   1.0000   1.0000   1.0000   1.0000   1.0000   1.0000   1.0000
     1.0000   1.0000   1.0000   1.0000   1.0000   1.0000   1.0000   1.0000
     1.0000   1.0000   1.0000   1.0000   1.0000   1.0000   1.0000   1.0000
     1.0000   1.0000   1.0000   1.0000   1.0000   1.0000   1.0000   1.0000
     1.0000   1.0000   1.0000   1.0000   1.0000   1.0000   1.0000   1.0000
     1.0000   1.0000   1.0000   1.0000   1.0000   1.0000   1.0000   1.0000
     1.0000   1.0000   1.0000   1.0000   1.0000   1.0000   1.0000   1.0000
     1.0000   1.0000   1.0000   1.0000   1.0000   1.0000   1.0000   1.0000
     1.0000   1.0000   1.0000   1.0000   1.0000   1.0000   1.0000   1.0000
     1.0000   1.0000   1.0000   1.0000   1.0000   1.0000   1.0000   1.0000
     1.0000   1.0000   1.0000   1.0000   1.0000   1.0000   1.0000   1.0000
     1.0000   1.0000   1.0000   1.0000   1.0000   1.0000   1.0000   1.0000
     1.0000   1.0000   1.0000   1.0000   1.0000   1.0000   0.0000   0.0000
     0.0000   0.0000   0.0000   0.0000   0.0000   0.0000   0.0000   0.0000
     0.0000   0.0000   0.0000   0.0000   0.0000   0.0000   0.0000   0.0000
     0.0000   0.0000   0.0000   0.0000   0.0000   0.0000   0.0000   0.0000

     highest occupied, lowest unoccupied level (ev):    14.7976   16.1586

!    total energy              =    -723.91685115 Ry
     estimated scf accuracy    <          4.1E-09 Ry

     The total energy is the sum of the following terms:
     one-electron contribution =     232.80717798 Ry
     hartree contribution      =      70.09141183 Ry
     xc contribution           =    -226.74488291 Ry
     ewald contribution        =    -800.07055805 Ry

     total magnetization       =     2.00 Bohr mag/cell
     absolute magnetization    =     2.29 Bohr mag/cell

     convergence has been achieved in  14 iterations

     Forces acting on atoms (cartesian axes, Ry/au):

     atom    1 type  1   force =     0.00239297    0.00235108    0.00235108
     atom    2 type  2   force =    -0.00029742    0.00020322    0.00020322
     atom    3 type  2   force =     0.00082380    0.00085763    0.00085763
     atom    4 type  2   force =     0.00017684   -0.00029378    0.00018456
     atom    5 type  2   force =     0.00075728    0.00073244    0.00097753
     atom    6 type  2   force =     0.00017684    0.00018456   -0.00029378
     atom    7 type  2   force =     0.00075728    0.00097753    0.00073244
     atom    8 type  2   force =     0.00036650    0.00030671   -0.00054589
     atom    9 type  2   force =    -0.00003511    0.00010428   -0.00009629
     atom   10 type  2   force =     0.00005713   -0.00029163    0.00039120
     atom   11 type  2   force =    -0.00085285    0.00044734   -0.00064244
     atom   12 type  2   force =    -0.00087625    0.00073985    0.00007023
     atom   13 type  2   force =     0.00057608   -0.00083386   -0.00053062
     atom   14 type  2   force =    -0.00009883   -0.00005815   -0.00023324
     atom   15 type  2   force =    -0.00015038   -0.00017443    0.00000884
     atom   16 type  2   force =     0.00036650   -0.00054589    0.00030671
     atom   17 type  2   force =    -0.00003511   -0.00009629    0.00010428
     atom   18 type  2   force =     0.00005713    0.00039120   -0.00029163
     atom   19 type  2   force =    -0.00085285   -0.00064244    0.00044734
     atom   20 type  2   force =    -0.00009883   -0.00023324   -0.00005815
     atom   21 type  2   force =    -0.00015038    0.00000884   -0.00017443
     atom   22 type  2   force =    -0.00087625    0.00007023    0.00073985
     atom   23 type  2   force =     0.00057608   -0.00053062   -0.00083386
     atom   24 type  2   force =     0.00023479   -0.00000419   -0.00000419
     atom   25 type  2   force =     0.00005039    0.00003026    0.00003026
     atom   26 type  2   force =    -0.00009299   -0.00022667   -0.00022667
     atom   27 type  2   force =     0.00094900   -0.00159256   -0.00159256
     atom   28 type  2   force =    -0.00090003   -0.00064222    0.00036033
     atom   29 type  2   force =    -0.00466581   -0.00069100    0.00137183
     atom   30 type  2   force =    -0.00090003    0.00036033   -0.00064222
     atom   31 type  2   force =    -0.00466581    0.00137183   -0.00069100
     atom   32 type  2   force =     0.00005455    0.00066177    0.00066177
     atom   33 type  2   force =    -0.00033731    0.00012342    0.00012342
     atom   34 type  2   force =    -0.00008421   -0.00007294   -0.00007294
     atom   35 type  2   force =    -0.00012346   -0.00031492   -0.00031492
     atom   36 type  2   force =     0.00036413    0.00013908   -0.00029569
     atom   37 type  2   force =    -0.00053193   -0.00080699    0.00052005
     atom   38 type  2   force =     0.00036413   -0.00029569    0.00013908
     atom   39 type  2   force =    -0.00053193    0.00052005   -0.00080699
     atom   40 type  2   force =     0.00060524   -0.00013825    0.00035670
     atom   41 type  2   force =     0.00006134    0.00008275   -0.00001004
     atom   42 type  2   force =    -0.00002213   -0.00029114    0.00001557
     atom   43 type  2   force =     0.00040840   -0.00061995    0.00034471
     atom   44 type  2   force =    -0.00083092   -0.00069327   -0.00056800
     atom   45 type  2   force =    -0.00162648    0.00087507   -0.00146546
     atom   46 type  2   force =    -0.00000959   -0.00027369   -0.00000271
     atom   47 type  2   force =     0.00029032   -0.00050363    0.00024941
     atom   48 type  2   force =     0.00060524    0.00035670   -0.00013825
     atom   49 type  2   force =     0.00006134   -0.00001004    0.00008275
     atom   50 type  2   force =    -0.00002213    0.00001557   -0.00029114
     atom   51 type  2   force =     0.00040840    0.00034471   -0.00061995
     atom   52 type  2   force =    -0.00000959   -0.00000271   -0.00027369
     atom   53 type  2   force =     0.00029032    0.00024941   -0.00050363
     atom   54 type  2   force =    -0.00083092   -0.00056800   -0.00069327
     atom   55 type  2   force =    -0.00162648   -0.00146546    0.00087507
     atom   56 type  2   force =     0.00051917   -0.00041797   -0.00041797
     atom   57 type  2   force =    -0.00384361    0.00076576    0.00076576
     atom   58 type  2   force =     0.01852336    0.00013263    0.00013263
     atom   59 type  2   force =    -0.00440356   -0.00072739   -0.00072739
     atom   60 type  2   force =    -0.00049638    0.00033502    0.00042003
     atom   61 type  2   force =     0.00025068   -0.00038423    0.00028391
     atom   62 type  2   force =    -0.00049638    0.00042003    0.00033502
     atom   63 type  2   force =     0.00025068    0.00028391   -0.00038423
     The non-local contrib.  to forces
     atom    1 type  1   force =    -0.73695888   -0.73716146   -0.73716146
     atom    2 type  2   force =    -0.22490508    0.21099792    0.21099792
     atom    3 type  2   force =     0.06994295    0.06936622    0.06936622
     atom    4 type  2   force =     0.21103421   -0.22480379    0.21101591
     atom    5 type  2   force =     0.06959429    0.06950217    0.06981982
     atom    6 type  2   force =     0.21103421    0.21101591   -0.22480379
     atom    7 type  2   force =     0.06959429    0.06981982    0.06950217
     atom    8 type  2   force =    -0.00811635   -0.00823407    0.05210900
     atom    9 type  2   force =    -0.00502360   -0.00464885    0.01552927
     atom   10 type  2   force =    -0.04447515   -0.01303031   -0.01936800
     atom   11 type  2   force =    -0.07162093    0.05987867   -0.08280626
     atom   12 type  2   force =    -0.01368584   -0.04358231   -0.01941475
     atom   13 type  2   force =     0.05998596   -0.07137754   -0.08300358
     atom   14 type  2   force =    -0.00171556   -0.00182109    0.05133869
     atom   15 type  2   force =     0.01353633    0.01356271    0.00059664
     atom   16 type  2   force =    -0.00811635    0.05210900   -0.00823407
     atom   17 type  2   force =    -0.00502360    0.01552927   -0.00464885
     atom   18 type  2   force =    -0.04447515   -0.01936800   -0.01303031
     atom   19 type  2   force =    -0.07162093   -0.08280626    0.05987867
     atom   20 type  2   force =    -0.00171556    0.05133869   -0.00182109
     atom   21 type  2   force =     0.01353633    0.00059664    0.01356271
     atom   22 type  2   force =    -0.01368584   -0.01941475   -0.04358231
     atom   23 type  2   force =     0.05998596   -0.08300358   -0.07137754
     atom   24 type  2   force =    -0.07366698    0.02817828    0.02817828
     atom   25 type  2   force =    -0.01129318    0.01689178    0.01689178
     atom   26 type  2   force =    -0.06026662   -0.02494324   -0.02494324
     atom   27 type  2   force =    -0.11770401    0.13535756    0.13535756
     atom   28 type  2   force =     0.06165946    0.02763879   -0.01923562
     atom   29 type  2   force =    -0.00221853    0.01779132    0.00637061
     atom   30 type  2   force =     0.06165946   -0.01923562    0.02763879
     atom   31 type  2   force =    -0.00221853    0.00637061    0.01779132
     atom   32 type  2   force =     0.05173432   -0.00721987   -0.00721987
     atom   33 type  2   force =     0.01579635   -0.00442889   -0.00442889
     atom   34 type  2   force =     0.05100705   -0.00175157   -0.00175157
     atom   35 type  2   force =     0.00066500    0.01319876    0.01319876
     atom   36 type  2   force =    -0.01934527   -0.04417761   -0.01292876
     atom   37 type  2   force =    -0.08285222   -0.07149105    0.06011898
     atom   38 type  2   force =    -0.01934527   -0.01292876   -0.04417761
     atom   39 type  2   force =    -0.08285222    0.06011898   -0.07149105
     atom   40 type  2   force =     0.02775130   -0.07490343    0.02925068
     atom   41 type  2   force =     0.01670864   -0.01154978    0.01666501
     atom   42 type  2   force =     0.02817096    0.06232928   -0.01925366
     atom   43 type  2   force =     0.01853170    0.00174160    0.00566836
     atom   44 type  2   force =    -0.02561696   -0.06093133   -0.02498998
     atom   45 type  2   force =     0.13519963   -0.11812015    0.13531883
     atom   46 type  2   force =    -0.01922425    0.06227274    0.02823926
     atom   47 type  2   force =     0.00535506    0.00189662    0.01871725
     atom   48 type  2   force =     0.02775130    0.02925068   -0.07490343
     atom   49 type  2   force =     0.01670864    0.01666501   -0.01154978
     atom   50 type  2   force =     0.02817096   -0.01925366    0.06232928
     atom   51 type  2   force =     0.01853170    0.00566836    0.00174160
     atom   52 type  2   force =    -0.01922425    0.02823926    0.06227274
     atom   53 type  2   force =     0.00535506    0.01871725    0.00189662
     atom   54 type  2   force =    -0.02561696   -0.02498998   -0.06093133
     atom   55 type  2   force =     0.13519963    0.13531883   -0.11812015
     atom   56 type  2   force =     0.01572391    0.01507281    0.01507281
     atom   57 type  2   force =     0.00405264    0.00816503    0.00816503
     atom   58 type  2   force =     0.03600627   -0.01288482   -0.01288482
     atom   59 type  2   force =     0.00680184   -0.01133206   -0.01133206
     atom   60 type  2   force =    -0.01349230    0.01405489   -0.01279925
     atom   61 type  2   force =    -0.01035434    0.01057998   -0.01048689
     atom   62 type  2   force =    -0.01349230   -0.01279925    0.01405489
     atom   63 type  2   force =    -0.01035434   -0.01048689    0.01057998
     The ionic contribution  to forces
     atom    1 type  1   force =     3.03569026    3.03964383    3.03964383
     atom    2 type  2   force =     2.25633385   -2.16004585   -2.16004585
     atom    3 type  2   force =     0.43058927   -0.74903164   -0.74903164
     atom    4 type  2   force =    -2.16005308    2.25812504   -2.16015851
     atom    5 type  2   force =    -0.74754559    0.43220541   -0.74917861
     atom    6 type  2   force =    -2.16005308   -2.16015851    2.25812504
     atom    7 type  2   force =    -0.74754559   -0.74917861    0.43220541
     atom    8 type  2   force =     0.24041311    0.24342509   -0.70066282
     atom    9 type  2   force =     0.11010113    0.11347270   -0.22587778
     atom   10 type  2   force =     0.20809913    0.06569701    0.52742062
     atom   11 type  2   force =    -0.29338968   -0.72567865    0.72967738
     atom   12 type  2   force =     0.06142514    0.21846133    0.52748043
     atom   13 type  2   force =    -0.72236427   -0.28887044    0.73010919
     atom   14 type  2   force =    -0.19940930   -0.19928313   -0.67264753
     atom   15 type  2   force =    -0.15638405   -0.16098647   -0.04924065
     atom   16 type  2   force =     0.24041311   -0.70066282    0.24342509
     atom   17 type  2   force =     0.11010113   -0.22587778    0.11347270
     atom   18 type  2   force =     0.20809913    0.52742062    0.06569701
     atom   19 type  2   force =    -0.29338968    0.72967738   -0.72567865
     atom   20 type  2   force =    -0.19940930   -0.67264753   -0.19928313
     atom   21 type  2   force =    -0.15638405   -0.04924065   -0.16098647
     atom   22 type  2   force =     0.06142514    0.52748043    0.21846133
     atom   23 type  2   force =    -0.72236427    0.73010919   -0.28887044
     atom   24 type  2   force =     0.03027972   -0.19228615   -0.19228615
     atom   25 type  2   force =     0.08856642   -0.07504857   -0.07504857
     atom   26 type  2   force =     0.10636450   -0.17688127   -0.17688127
     atom   27 type  2   force =     1.33463231    0.24504688    0.24504688
     atom   28 type  2   force =    -0.09032753   -0.23540893    0.15666191
     atom   29 type  2   force =    -0.15985691   -0.02820507    0.25580972
     atom   30 type  2   force =    -0.09032753    0.15666191   -0.23540893
     atom   31 type  2   force =    -0.15985691    0.25580972   -0.02820507
     atom   32 type  2   force =    -0.69531677    0.24338428    0.24338428
     atom   33 type  2   force =    -0.22426145    0.11174406    0.11174406
     atom   34 type  2   force =    -0.67079815   -0.19928851   -0.19928851
     atom   35 type  2   force =    -0.04719850   -0.15805057   -0.15805057
     atom   36 type  2   force =     0.52724215    0.20965029    0.06566926
     atom   37 type  2   force =     0.72803181   -0.29161913   -0.72413945
     atom   38 type  2   force =     0.52724215    0.06566926    0.20965029
     atom   39 type  2   force =     0.72803181   -0.72413945   -0.29161913
     atom   40 type  2   force =    -0.18690043    0.03320394   -0.19215586
     atom   41 type  2   force =    -0.07043868    0.09372738   -0.07157741
     atom   42 type  2   force =    -0.22423601   -0.08600757    0.15669265
     atom   43 type  2   force =    -0.00033873   -0.15643219    0.22889232
     atom   44 type  2   force =    -0.18123387    0.10704651   -0.17681305
     atom   45 type  2   force =     0.24045919    1.34095028    0.24218622
     atom   46 type  2   force =     0.15654215   -0.08601475   -0.22639166
     atom   47 type  2   force =     0.22767092   -0.15771428   -0.00191222
     atom   48 type  2   force =    -0.18690043   -0.19215586    0.03320394
     atom   49 type  2   force =    -0.07043868   -0.07157741    0.09372738
     atom   50 type  2   force =    -0.22423601    0.15669265   -0.08600757
     atom   51 type  2   force =    -0.00033873    0.22889232   -0.15643219
     atom   52 type  2   force =     0.15654215   -0.22639166   -0.08601475
     atom   53 type  2   force =     0.22767092   -0.00191222   -0.15771428
     atom   54 type  2   force =    -0.18123387   -0.17681305    0.10704651
     atom   55 type  2   force =     0.24045919    0.24218622    1.34095028
     atom   56 type  2   force =    -0.10347257   -0.10873771   -0.10873771
     atom   57 type  2   force =    -0.02354093    0.00304059    0.00304059
     atom   58 type  2   force =    -0.06465212    0.01204576    0.01204576
     atom   59 type  2   force =    -0.31299744    0.09804753    0.09804753
     atom   60 type  2   force =     0.00611318   -0.12568066    0.01040109
     atom   61 type  2   force =     0.11627101   -0.30932755    0.12143592
     atom   62 type  2   force =     0.00611318    0.01040109   -0.12568066
     atom   63 type  2   force =     0.11627101    0.12143592   -0.30932755
     The local contribution  to forces
     atom    1 type  1   force =    -2.29632893   -2.30010446   -2.30008602
     atom    2 type  2   force =    -2.03171543    1.94925604    1.94925646
     atom    3 type  2   force =    -0.49968894    0.68051712    0.68050977
     atom    4 type  2   force =     1.94922789   -2.03358872    1.94932701
     atom    5 type  2   force =     0.67873283   -0.50096843    0.68031942
     atom    6 type  2   force =     1.94923058    1.94932980   -2.03357995
     atom    7 type  2   force =     0.67873260    0.68032793   -0.50095187
     atom    8 type  2   force =    -0.23191664   -0.23485750    0.64799382
     atom    9 type  2   force =    -0.10509100   -0.10870680    0.21024376
     atom   10 type  2   force =    -0.16355512   -0.05296014   -0.50765125
     atom   11 type  2   force =     0.36418000    0.66624427   -0.64748180
     atom   12 type  2   force =    -0.04858812   -0.17411351   -0.50798236
     atom   13 type  2   force =     0.66298192    0.35942629   -0.64760420
     atom   14 type  2   force =     0.20105202    0.20104299    0.62105875
     atom   15 type  2   force =     0.14272247    0.14723835    0.04865066
     atom   16 type  2   force =    -0.23191727    0.64800711   -0.23484547
     atom   17 type  2   force =    -0.10509259    0.21025435   -0.10869621
     atom   18 type  2   force =    -0.16355284   -0.50764625   -0.05295907
     atom   19 type  2   force =     0.36418564   -0.64748400    0.66623239
     atom   20 type  2   force =     0.20104891    0.62107033    0.20104698
     atom   21 type  2   force =     0.14271817    0.04866225    0.14723284
     atom   22 type  2   force =    -0.04859001   -0.50797823   -0.17410113
     atom   23 type  2   force =     0.66298078   -0.64760427    0.35944374
     atom   24 type  2   force =     0.04363273    0.16409571    0.16408513
     atom   25 type  2   force =    -0.07720307    0.05819056    0.05818179
     atom   26 type  2   force =    -0.04618174    0.20161545    0.20161420
     atom   27 type  2   force =    -1.21596447   -0.38196786   -0.38196069
     atom   28 type  2   force =     0.02779628    0.20712299   -0.13705048
     atom   29 type  2   force =     0.15743390    0.00972433   -0.26077547
     atom   30 type  2   force =     0.02779614   -0.13704521    0.20710871
     atom   31 type  2   force =     0.15743340   -0.26077891    0.00971344
     atom   32 type  2   force =     0.64365318   -0.23547898   -0.23546232
     atom   33 type  2   force =     0.20812842   -0.10718309   -0.10716701
     atom   34 type  2   force =     0.61972071    0.20096101    0.20096967
     atom   35 type  2   force =     0.04642141    0.14452572    0.14452468
     atom   36 type  2   force =    -0.50753667   -0.16531002   -0.05303449
     atom   37 type  2   force =    -0.64570891    0.36231874    0.66453225
     atom   38 type  2   force =    -0.50753334   -0.05303742   -0.16529785
     atom   39 type  2   force =    -0.64570614    0.66453851    0.36232994
     atom   40 type  2   force =     0.15976664    0.04158692    0.16324066
     atom   41 type  2   force =     0.05379742   -0.08208039    0.05489497
     atom   42 type  2   force =     0.19605872    0.02338859   -0.13741046
     atom   43 type  2   force =    -0.01778291    0.15406250   -0.23418569
     atom   44 type  2   force =     0.20602252   -0.04678638    0.20124990
     atom   45 type  2   force =    -0.37727861   -1.22194949   -0.37893692
     atom   46 type  2   force =    -0.13732553    0.02346990    0.19813362
     atom   47 type  2   force =    -0.23273180    0.15530526   -0.01656651
     atom   48 type  2   force =     0.15976890    0.16325647    0.04159442
     atom   49 type  2   force =     0.05379933    0.05490985   -0.08207267
     atom   50 type  2   force =     0.19605639   -0.13739780    0.02338784
     atom   51 type  2   force =    -0.01778516   -0.23418542    0.15405306
     atom   52 type  2   force =    -0.13732106    0.19814375    0.02347130
     atom   53 type  2   force =    -0.23272980   -0.01655788    0.15529859
     atom   54 type  2   force =     0.20602251    0.20125421   -0.04677390
     atom   55 type  2   force =    -0.37727814   -0.37894291   -1.22193910
     atom   56 type  2   force =     0.08828488    0.09323831    0.09323211
     atom   57 type  2   force =     0.01565288   -0.01043666   -0.01044245
     atom   58 type  2   force =     0.04718613    0.00099026    0.00098866
     atom   59 type  2   force =     0.30180106   -0.08741589   -0.08740852
     atom   60 type  2   force =     0.00688409    0.11195549    0.00283160
     atom   61 type  2   force =    -0.10566045    0.29837151   -0.11063152
     atom   62 type  2   force =     0.00688569    0.00283618    0.11194596
     atom   63 type  2   force =    -0.10566168   -0.11063705    0.29836192
     The core correction contribution to forces
     atom    1 type  1   force =     0.00000000    0.00000000    0.00000000
     atom    2 type  2   force =     0.00000000    0.00000000    0.00000000
     atom    3 type  2   force =     0.00000000    0.00000000    0.00000000
     atom    4 type  2   force =     0.00000000    0.00000000    0.00000000
     atom    5 type  2   force =     0.00000000    0.00000000    0.00000000
     atom    6 type  2   force =     0.00000000    0.00000000    0.00000000
     atom    7 type  2   force =     0.00000000    0.00000000    0.00000000
     atom    8 type  2   force =     0.00000000    0.00000000    0.00000000
     atom    9 type  2   force =     0.00000000    0.00000000    0.00000000
     atom   10 type  2   force =     0.00000000    0.00000000    0.00000000
     atom   11 type  2   force =     0.00000000    0.00000000    0.00000000
     atom   12 type  2   force =     0.00000000    0.00000000    0.00000000
     atom   13 type  2   force =     0.00000000    0.00000000    0.00000000
     atom   14 type  2   force =     0.00000000    0.00000000    0.00000000
     atom   15 type  2   force =     0.00000000    0.00000000    0.00000000
     atom   16 type  2   force =     0.00000000    0.00000000    0.00000000
     atom   17 type  2   force =     0.00000000    0.00000000    0.00000000
     atom   18 type  2   force =     0.00000000    0.00000000    0.00000000
     atom   19 type  2   force =     0.00000000    0.00000000    0.00000000
     atom   20 type  2   force =     0.00000000    0.00000000    0.00000000
     atom   21 type  2   force =     0.00000000    0.00000000    0.00000000
     atom   22 type  2   force =     0.00000000    0.00000000    0.00000000
     atom   23 type  2   force =     0.00000000    0.00000000    0.00000000
     atom   24 type  2   force =     0.00000000    0.00000000    0.00000000
     atom   25 type  2   force =     0.00000000    0.00000000    0.00000000
     atom   26 type  2   force =     0.00000000    0.00000000    0.00000000
     atom   27 type  2   force =     0.00000000    0.00000000    0.00000000
     atom   28 type  2   force =     0.00000000    0.00000000    0.00000000
     atom   29 type  2   force =     0.00000000    0.00000000    0.00000000
     atom   30 type  2   force =     0.00000000    0.00000000    0.00000000
     atom   31 type  2   force =     0.00000000    0.00000000    0.00000000
     atom   32 type  2   force =     0.00000000    0.00000000    0.00000000
     atom   33 type  2   force =     0.00000000    0.00000000    0.00000000
     atom   34 type  2   force =     0.00000000    0.00000000    0.00000000
     atom   35 type  2   force =     0.00000000    0.00000000    0.00000000
     atom   36 type  2   force =     0.00000000    0.00000000    0.00000000
     atom   37 type  2   force =     0.00000000    0.00000000    0.00000000
     atom   38 type  2   force =     0.00000000    0.00000000    0.00000000
     atom   39 type  2   force =     0.00000000    0.00000000    0.00000000
     atom   40 type  2   force =     0.00000000    0.00000000    0.00000000
     atom   41 type  2   force =     0.00000000    0.00000000    0.00000000
     atom   42 type  2   force =     0.00000000    0.00000000    0.00000000
     atom   43 type  2   force =     0.00000000    0.00000000    0.00000000
     atom   44 type  2   force =     0.00000000    0.00000000    0.00000000
     atom   45 type  2   force =     0.00000000    0.00000000    0.00000000
     atom   46 type  2   force =     0.00000000    0.00000000    0.00000000
     atom   47 type  2   force =     0.00000000    0.00000000    0.00000000
     atom   48 type  2   force =     0.00000000    0.00000000    0.00000000
     atom   49 type  2   force =     0.00000000    0.00000000    0.00000000
     atom   50 type  2   force =     0.00000000    0.00000000    0.00000000
     atom   51 type  2   force =     0.00000000    0.00000000    0.00000000
     atom   52 type  2   force =     0.00000000    0.00000000    0.00000000
     atom   53 type  2   force =     0.00000000    0.00000000    0.00000000
     atom   54 type  2   force =     0.00000000    0.00000000    0.00000000
     atom   55 type  2   force =     0.00000000    0.00000000    0.00000000
     atom   56 type  2   force =     0.00000000    0.00000000    0.00000000
     atom   57 type  2   force =     0.00000000    0.00000000    0.00000000
     atom   58 type  2   force =     0.00000000    0.00000000    0.00000000
     atom   59 type  2   force =     0.00000000    0.00000000    0.00000000
     atom   60 type  2   force =     0.00000000    0.00000000    0.00000000
     atom   61 type  2   force =     0.00000000    0.00000000    0.00000000
     atom   62 type  2   force =     0.00000000    0.00000000    0.00000000
     atom   63 type  2   force =     0.00000000    0.00000000    0.00000000
     The Hubbard contrib.    to forces
     atom    1 type  1   force =     0.00000000    0.00000000    0.00000000
     atom    2 type  2   force =     0.00000000    0.00000000    0.00000000
     atom    3 type  2   force =     0.00000000    0.00000000    0.00000000
     atom    4 type  2   force =     0.00000000    0.00000000    0.00000000
     atom    5 type  2   force =     0.00000000    0.00000000    0.00000000
     atom    6 type  2   force =     0.00000000    0.00000000    0.00000000
     atom    7 type  2   force =     0.00000000    0.00000000    0.00000000
     atom    8 type  2   force =     0.00000000    0.00000000    0.00000000
     atom    9 type  2   force =     0.00000000    0.00000000    0.00000000
     atom   10 type  2   force =     0.00000000    0.00000000    0.00000000
     atom   11 type  2   force =     0.00000000    0.00000000    0.00000000
     atom   12 type  2   force =     0.00000000    0.00000000    0.00000000
     atom   13 type  2   force =     0.00000000    0.00000000    0.00000000
     atom   14 type  2   force =     0.00000000    0.00000000    0.00000000
     atom   15 type  2   force =     0.00000000    0.00000000    0.00000000
     atom   16 type  2   force =     0.00000000    0.00000000    0.00000000
     atom   17 type  2   force =     0.00000000    0.00000000    0.00000000
     atom   18 type  2   force =     0.00000000    0.00000000    0.00000000
     atom   19 type  2   force =     0.00000000    0.00000000    0.00000000
     atom   20 type  2   force =     0.00000000    0.00000000    0.00000000
     atom   21 type  2   force =     0.00000000    0.00000000    0.00000000
     atom   22 type  2   force =     0.00000000    0.00000000    0.00000000
     atom   23 type  2   force =     0.00000000    0.00000000    0.00000000
     atom   24 type  2   force =     0.00000000    0.00000000    0.00000000
     atom   25 type  2   force =     0.00000000    0.00000000    0.00000000
     atom   26 type  2   force =     0.00000000    0.00000000    0.00000000
     atom   27 type  2   force =     0.00000000    0.00000000    0.00000000
     atom   28 type  2   force =     0.00000000    0.00000000    0.00000000
     atom   29 type  2   force =     0.00000000    0.00000000    0.00000000
     atom   30 type  2   force =     0.00000000    0.00000000    0.00000000
     atom   31 type  2   force =     0.00000000    0.00000000    0.00000000
     atom   32 type  2   force =     0.00000000    0.00000000    0.00000000
     atom   33 type  2   force =     0.00000000    0.00000000    0.00000000
     atom   34 type  2   force =     0.00000000    0.00000000    0.00000000
     atom   35 type  2   force =     0.00000000    0.00000000    0.00000000
     atom   36 type  2   force =     0.00000000    0.00000000    0.00000000
     atom   37 type  2   force =     0.00000000    0.00000000    0.00000000
     atom   38 type  2   force =     0.00000000    0.00000000    0.00000000
     atom   39 type  2   force =     0.00000000    0.00000000    0.00000000
     atom   40 type  2   force =     0.00000000    0.00000000    0.00000000
     atom   41 type  2   force =     0.00000000    0.00000000    0.00000000
     atom   42 type  2   force =     0.00000000    0.00000000    0.00000000
     atom   43 type  2   force =     0.00000000    0.00000000    0.00000000
     atom   44 type  2   force =     0.00000000    0.00000000    0.00000000
     atom   45 type  2   force =     0.00000000    0.00000000    0.00000000
     atom   46 type  2   force =     0.00000000    0.00000000    0.00000000
     atom   47 type  2   force =     0.00000000    0.00000000    0.00000000
     atom   48 type  2   force =     0.00000000    0.00000000    0.00000000
     atom   49 type  2   force =     0.00000000    0.00000000    0.00000000
     atom   50 type  2   force =     0.00000000    0.00000000    0.00000000
     atom   51 type  2   force =     0.00000000    0.00000000    0.00000000
     atom   52 type  2   force =     0.00000000    0.00000000    0.00000000
     atom   53 type  2   force =     0.00000000    0.00000000    0.00000000
     atom   54 type  2   force =     0.00000000    0.00000000    0.00000000
     atom   55 type  2   force =     0.00000000    0.00000000    0.00000000
     atom   56 type  2   force =     0.00000000    0.00000000    0.00000000
     atom   57 type  2   force =     0.00000000    0.00000000    0.00000000
     atom   58 type  2   force =     0.00000000    0.00000000    0.00000000
     atom   59 type  2   force =     0.00000000    0.00000000    0.00000000
     atom   60 type  2   force =     0.00000000    0.00000000    0.00000000
     atom   61 type  2   force =     0.00000000    0.00000000    0.00000000
     atom   62 type  2   force =     0.00000000    0.00000000    0.00000000
     atom   63 type  2   force =     0.00000000    0.00000000    0.00000000
     The SCF correction term to forces
     atom    1 type  1   force =     0.00000463   -0.00001545   -0.00003859
     atom    2 type  2   force =     0.00000335    0.00000468    0.00000320
     atom    3 type  2   force =    -0.00000536    0.00001452    0.00002277
     atom    4 type  2   force =    -0.00002053   -0.00001412    0.00000628
     atom    5 type  2   force =    -0.00000955    0.00000418    0.00002695
     atom    6 type  2   force =    -0.00001830    0.00000932   -0.00002918
     atom    7 type  2   force =    -0.00001050    0.00001643   -0.00001608
     atom    8 type  2   force =     0.00000029   -0.00001605    0.00002478
     atom    9 type  2   force =    -0.00000777   -0.00000247    0.00001940
     atom   10 type  2   force =     0.00000256    0.00001093   -0.00000066
     atom   11 type  2   force =    -0.00000786    0.00001039   -0.00002300
     atom   12 type  2   force =    -0.00001294   -0.00001461   -0.00000345
     atom   13 type  2   force =    -0.00001444   -0.00000170   -0.00002368
     atom   14 type  2   force =    -0.00001274    0.00001264    0.00002792
     atom   15 type  2   force =    -0.00001054    0.00001933    0.00001244
     atom   16 type  2   force =     0.00000133    0.00000822   -0.00003150
     atom   17 type  2   force =    -0.00000568    0.00000503   -0.00001558
     atom   18 type  2   force =    -0.00000006   -0.00000659    0.00000971
     atom   19 type  2   force =    -0.00001402   -0.00002024    0.00002570
     atom   20 type  2   force =    -0.00000792    0.00001229    0.00000760
     atom   21 type  2   force =    -0.00000718   -0.00000158    0.00002624
     atom   22 type  2   force =    -0.00001179   -0.00000878   -0.00003100
     atom   23 type  2   force =    -0.00001124   -0.00002221   -0.00002202
     atom   24 type  2   force =     0.00000344    0.00001560    0.00002899
     atom   25 type  2   force =    -0.00000567    0.00000449    0.00001533
     atom   26 type  2   force =     0.00000499   -0.00000897   -0.00000690
     atom   27 type  2   force =    -0.00000070   -0.00001903   -0.00002833
     atom   28 type  2   force =    -0.00001432    0.00001301   -0.00000587
     atom   29 type  2   force =    -0.00000951    0.00000584   -0.00002466
     atom   30 type  2   force =    -0.00001379   -0.00001225    0.00002921
     atom   31 type  2   force =    -0.00001028   -0.00001987    0.00001996
     atom   32 type  2   force =    -0.00000206   -0.00001285   -0.00003305
     atom   33 type  2   force =     0.00001348    0.00000171   -0.00001701
     atom   34 type  2   force =     0.00000030    0.00001642    0.00000528
     atom   35 type  2   force =     0.00000274    0.00001939    0.00002207
     atom   36 type  2   force =     0.00001790   -0.00001272    0.00000706
     atom   37 type  2   force =     0.00001133   -0.00000520    0.00001853
     atom   38 type  2   force =     0.00001485    0.00001057   -0.00002852
     atom   39 type  2   force =     0.00000892    0.00000983   -0.00001902
     atom   40 type  2   force =     0.00000152   -0.00001531    0.00003179
     atom   41 type  2   force =     0.00000827   -0.00000398    0.00001746
     atom   42 type  2   force =    -0.00000156    0.00000861   -0.00000338
     atom   43 type  2   force =     0.00001243    0.00001675   -0.00002177
     atom   44 type  2   force =     0.00001205   -0.00001185   -0.00000510
     atom   45 type  2   force =     0.00000750    0.00000529   -0.00002524
     atom   46 type  2   force =     0.00001209    0.00000834    0.00002620
     atom   47 type  2   force =     0.00001059    0.00001679    0.00002159
     atom   48 type  2   force =    -0.00000005    0.00001295   -0.00002545
     atom   49 type  2   force =     0.00000598    0.00000052   -0.00001457
     atom   50 type  2   force =     0.00000053   -0.00001712    0.00000735
     atom   51 type  2   force =     0.00001475   -0.00002098    0.00002706
     atom   52 type  2   force =     0.00000774    0.00001390    0.00000520
     atom   53 type  2   force =     0.00000794    0.00000964    0.00002553
     atom   54 type  2   force =     0.00001098   -0.00001087   -0.00002667
     atom   55 type  2   force =     0.00000688   -0.00001787   -0.00000875
     atom   56 type  2   force =    -0.00000293    0.00001659    0.00002494
     atom   57 type  2   force =     0.00000592    0.00000436    0.00001313
     atom   58 type  2   force =    -0.00000282   -0.00000998   -0.00000748
     atom   59 type  2   force =     0.00000510   -0.00001724   -0.00002598
     atom   60 type  2   force =     0.00001225    0.00001251   -0.00000378
     atom   61 type  2   force =     0.00000872   -0.00000037   -0.00002536
     atom   62 type  2   force =     0.00001168   -0.00000955    0.00002570
     atom   63 type  2   force =     0.00000967   -0.00001823    0.00001171

     Total force =     0.022226     Total SCF correction =     0.000210

     Writing all to output data dir ./pwscf.save/ :
     XML data file, charge density, pseudopotentials, collected wavefunctions
 
     init_run     :      0.61s CPU      0.69s WALL (       1 calls)
     electrons    :      9.30s CPU      9.82s WALL (       1 calls)
     forces       :      0.17s CPU      0.18s WALL (       1 calls)

     Called by init_run:
     wfcinit      :      0.09s CPU      0.11s WALL (       1 calls)
     wfcinit:wfcr :      0.09s CPU      0.09s WALL (       1 calls)
     potinit      :      0.41s CPU      0.45s WALL (       1 calls)
     hinit0       :      0.02s CPU      0.03s WALL (       1 calls)

     Called by electrons:
     c_bands      :      7.40s CPU      7.85s WALL (      14 calls)
     sum_band     :      1.02s CPU      1.05s WALL (      14 calls)
     v_of_rho     :      0.14s CPU      0.15s WALL (      15 calls)
     v_h          :      0.00s CPU      0.00s WALL (      15 calls)
     v_xc         :      0.14s CPU      0.15s WALL (      15 calls)
     mix_rho      :      0.07s CPU      0.07s WALL (      14 calls)

     Called by c_bands:
     init_us_2    :      0.02s CPU      0.02s WALL (      30 calls)
     regterg      :      6.96s CPU      7.41s WALL (      14 calls)

     Called by sum_band:
     sum_band:wei :      0.03s CPU      0.03s WALL (      14 calls)
     sum_band:loo :      0.18s CPU      0.20s WALL (      14 calls)
     sum_band:buf :      0.00s CPU      0.00s WALL (      14 calls)
     sum_band:ini :      0.01s CPU      0.01s WALL (      14 calls)

     Called by *egterg:
     rdiaghg      :      4.53s CPU      4.91s WALL (     279 calls)
     regterg:over :      0.33s CPU      0.34s WALL (     265 calls)
     regterg:upda :      0.15s CPU      0.17s WALL (     265 calls)
     regterg:last :      0.13s CPU      0.13s WALL (      52 calls)
     rdiaghg:chol :      0.15s CPU      0.15s WALL (     279 calls)
     rdiaghg:inve :      0.03s CPU      0.03s WALL (     279 calls)
     rdiaghg:para :      0.41s CPU      0.45s WALL (     558 calls)
     h_psi        :      1.80s CPU      1.84s WALL (     280 calls)
     g_psi        :      0.00s CPU      0.00s WALL (     265 calls)

     Called by h_psi:
     h_psi:calbec :      0.27s CPU      0.28s WALL (     280 calls)
     vloc_psi     :      1.42s CPU      1.44s WALL (     280 calls)
                                        0.00s GPU  (     280 calls)
     add_vuspsi   :      0.10s CPU      0.11s WALL (     280 calls)

     General routines
     calbec       :      0.44s CPU      0.45s WALL (     284 calls)
     fft          :      0.11s CPU      0.12s WALL (     196 calls)
     ffts         :      0.02s CPU      0.02s WALL (      14 calls)
     fftw         :      1.49s CPU      1.51s WALL (   10212 calls)
 
     Parallel routines
 
     PWSCF        :     10.88s CPU     11.73s WALL

 
   This run was terminated on:  14: 3:28  19Nov2025            

=------------------------------------------------------------------------------=
   JOB DONE.
=------------------------------------------------------------------------------=
