
     Program PWSCF v.7.5 starts on 19Nov2025 at 13:42:54 

     This program is part of the open-source Quantum ESPRESSO suite
     for quantum simulation of materials; please cite
         "P. Giannozzi et al., J. Phys.:Condens. Matter 21 395502 (2009);
         "P. Giannozzi et al., J. Phys.:Condens. Matter 29 465901 (2017);
         "P. Giannozzi et al., J. Chem. Phys. 152 154105 (2020);
          URL http://www.quantum-espresso.org", 
     in publications or presentations arising from this work. More details at
     http://www.quantum-espresso.org/quote

     Parallel version (MPI), running on    96 processors

     MPI processes distributed on     2 nodes
     144377 MiB available memory on the printing compute node when the environment starts
 
     Reading input from supercell-013.in

     Current dimensions of program PWSCF are:
     Max number of different atomic species (ntypx) = 10
     Max number of k-points (npk) =  40000
     Max angular momentum in pseudopotentials (lmaxx) =  4

     gamma-point specific algorithms are used
     Message from routine setup:
     using ibrav=0 with symmetry is DISCOURAGED, use correct ibrav instead
 
     K-points division:     npool     =       2
     R & G space division:  proc/nbgrp/npool/nimage =      48
     Subspace diagonalization in iterative solution of the eigenvalue problem:
     one sub-group per band group will be used
     scalapack distributed-memory algorithm (size of sub-group:  2*  2 procs)

 
     Parallelization info
     --------------------
     sticks:   dense  smooth     PW     G-vecs:    dense   smooth      PW
     Min          59      59     14                 2432     2432     302
     Max          62      62     16                 2442     2442     316
     Sum        2885    2885    725               116921   116921   14771
 
     Using Slab Decomposition
 


     bravais-lattice index     =            0
     lattice parameter (alat)  =      13.4813  a.u.
     unit-cell volume          =    2450.1683 (a.u.)^3
     number of atoms/cell      =           63
     number of atomic types    =            2
     number of electrons       =       254.00 (up: 128.00, down: 126.00)
     number of Kohn-Sham states=          152
     kinetic-energy cutoff     =      50.0000  Ry
     charge density cutoff     =     200.0000  Ry
     scf convergence threshold =      1.0E-08
     mixing beta               =       0.7000
     number of iterations used =            8  plain     mixing
     Exchange-correlation= PBE
                           (   1   4   3   4   0   0   0)

     celldm(1)=  13.481306  celldm(2)=   0.000000  celldm(3)=   0.000000
     celldm(4)=   0.000000  celldm(5)=   0.000000  celldm(6)=   0.000000

     crystal axes: (cart. coord. in units of alat)
               a(1) = (   1.000000   0.000000   0.000000 )  
               a(2) = (   0.000000   1.000000   0.000000 )  
               a(3) = (   0.000000   0.000000   1.000000 )  

     reciprocal axes: (cart. coord. in units 2 pi/alat)
               b(1) = (  1.000000  0.000000  0.000000 )  
               b(2) = (  0.000000  1.000000  0.000000 )  
               b(3) = (  0.000000  0.000000  1.000000 )  


     PseudoPot. # 1 for N  read from file:
     ./N_ONCV_PBE-1.2.upf
     MD5 check sum: 5312fdf34e96954e02a33bdc911c617a
     Pseudo is Norm-conserving, Zval =  5.0
     Generated using ONCVPSP code by D. R. Hamann
     Using radial grid of  602 points,  4 beta functions with: 
                l(1) =   0
                l(2) =   0
                l(3) =   1
                l(4) =   1

     PseudoPot. # 2 for C  read from file:
     ./C_ONCV_PBE-1.2.upf
     MD5 check sum: d60b57d9bdca4133f5fde4b584ee909d
     Pseudo is Norm-conserving, Zval =  4.0
     Generated using ONCVPSP code by D. R. Hamann
     Using radial grid of  602 points,  4 beta functions with: 
                l(1) =   0
                l(2) =   0
                l(3) =   1
                l(4) =   1

     atomic species   valence    mass     pseudopotential
     N                 5.00    14.00670     N ( 1.00)
     C                 4.00    12.01070     C ( 1.00)

     Starting magnetic structure 
     atomic species   magnetization
     N               0.000
     C               0.000

      2 Sym. Ops. (no inversion) found


                                    s                        frac. trans.

      isym =  1     identity                                     

 cryst.   s( 1) = (     1          0          0      )
                  (     0          1          0      )
                  (     0          0          1      )

 cart.    s( 1) = (  1.0000000  0.0000000  0.0000000 )
                  (  0.0000000  1.0000000  0.0000000 )
                  (  0.0000000  0.0000000  1.0000000 )


      isym =  2     inv. 180 deg rotation - cart. axis [1,-1,0]  

 cryst.   s( 2) = (     0          1          0      )
                  (     1          0          0      )
                  (     0          0          1      )

 cart.    s( 2) = (  0.0000000  1.0000000  0.0000000 )
                  (  1.0000000  0.0000000  0.0000000 )
                  (  0.0000000  0.0000000  1.0000000 )


   Cartesian axes

     site n.     atom                  positions (alat units)
         1        N      tau(   1) = (   0.9869283   0.9869283   0.9869283  )
         2        C      tau(   2) = (   0.9921390   0.2607625   0.2607625  )
         3        C      tau(   3) = (   0.1236981   0.3746848   0.3746848  )
         4        C      tau(   4) = (   0.2607625   0.9921390   0.2607625  )
         5        C      tau(   5) = (   0.3746848   0.1236981   0.3746848  )
         6        C      tau(   6) = (   0.2607625   0.2607625   0.9921390  )
         7        C      tau(   7) = (   0.3746848   0.3746848   0.1236981  )
         8        C      tau(   8) = (   0.0007517   0.0007517   0.5003422  )
         9        C      tau(   9) = (   0.1251291   0.1251291   0.6250516  )
        10        C      tau(  10) = (   0.0014372   0.2476607   0.7521916  )
        11        C      tau(  11) = (   0.1266329   0.3730745   0.8775065  )
        12        C      tau(  12) = (   0.2476607   0.0014372   0.7521916  )
        13        C      tau(  13) = (   0.3730745   0.1266329   0.8775065  )
        14        C      tau(  14) = (   0.2498467   0.2498467   0.4996267  )
        15        C      tau(  15) = (   0.3749463   0.3749463   0.6249280  )
        16        C      tau(  16) = (   0.0007517   0.4988587   0.0007517  )
        17        C      tau(  17) = (   0.1251291   0.6250516   0.1251291  )
        18        C      tau(  18) = (   0.0014372   0.7521916   0.2476607  )
        19        C      tau(  19) = (   0.1266329   0.8775065   0.3730745  )
        20        C      tau(  20) = (   0.2498467   0.4996267   0.2498467  )
        21        C      tau(  21) = (   0.3749463   0.6249280   0.3749463  )
        22        C      tau(  22) = (   0.2476607   0.7521916   0.0014372  )
        23        C      tau(  23) = (   0.3730745   0.8775065   0.1266329  )
        24        C      tau(  24) = (   0.0010116   0.5014264   0.5014264  )
        25        C      tau(  25) = (   0.1250381   0.6250852   0.6250852  )
        26        C      tau(  26) = (   0.9996941   0.7483805   0.7483805  )
        27        C      tau(  27) = (   0.1189720   0.8751585   0.8751585  )
        28        C      tau(  28) = (   0.2496290   0.5009902   0.7494822  )
        29        C      tau(  29) = (   0.3740517   0.6261334   0.8754230  )
        30        C      tau(  30) = (   0.2496290   0.7494822   0.5009902  )
        31        C      tau(  31) = (   0.3740517   0.8754230   0.6261334  )
        32        C      tau(  32) = (   0.4988587   0.0007517   0.0007517  )
        33        C      tau(  33) = (   0.6250516   0.1251291   0.1251291  )
        34        C      tau(  34) = (   0.4996267   0.2498467   0.2498467  )
        35        C      tau(  35) = (   0.6249280   0.3749463   0.3749463  )
        36        C      tau(  36) = (   0.7521916   0.0014372   0.2476607  )
        37        C      tau(  37) = (   0.8775065   0.1266329   0.3730745  )
        38        C      tau(  38) = (   0.7521916   0.2476607   0.0014372  )
        39        C      tau(  39) = (   0.8775065   0.3730745   0.1266329  )
        40        C      tau(  40) = (   0.5014264   0.0010116   0.5014264  )
        41        C      tau(  41) = (   0.6250852   0.1250381   0.6250852  )
        42        C      tau(  42) = (   0.5009902   0.2496290   0.7494822  )
        43        C      tau(  43) = (   0.6261334   0.3740517   0.8754230  )
        44        C      tau(  44) = (   0.7483805   0.9996941   0.7483805  )
        45        C      tau(  45) = (   0.8751585   0.1189720   0.8751585  )
        46        C      tau(  46) = (   0.7494822   0.2496290   0.5009902  )
        47        C      tau(  47) = (   0.8754230   0.3740517   0.6261334  )
        48        C      tau(  48) = (   0.5014264   0.5014264   0.0010116  )
        49        C      tau(  49) = (   0.6250852   0.6250852   0.1250381  )
        50        C      tau(  50) = (   0.5009902   0.7494822   0.2496290  )
        51        C      tau(  51) = (   0.6261334   0.8754230   0.3740517  )
        52        C      tau(  52) = (   0.7494822   0.5009902   0.2496290  )
        53        C      tau(  53) = (   0.8754230   0.6261334   0.3740517  )
        54        C      tau(  54) = (   0.7483805   0.7483805   0.9996941  )
        55        C      tau(  55) = (   0.8751585   0.8751585   0.1189720  )
        56        C      tau(  56) = (   0.4999757   0.4999757   0.4999757  )
        57        C      tau(  57) = (   0.6249536   0.6249536   0.6249536  )
        58        C      tau(  58) = (   0.4990957   0.7503802   0.7503802  )
        59        C      tau(  59) = (   0.6235333   0.8749829   0.8749829  )
        60        C      tau(  60) = (   0.7503802   0.4990957   0.7503802  )
        61        C      tau(  61) = (   0.8749829   0.6235333   0.8749829  )
        62        C      tau(  62) = (   0.7503802   0.7503802   0.4990957  )
        63        C      tau(  63) = (   0.8749829   0.8749829   0.6235333  )

   Crystallographic axes

     site n.     atom                  positions (cryst. coord.)
         1        N      tau(   1) = (  0.9869283  0.9869283  0.9869283  )
         2        C      tau(   2) = (  0.9921390  0.2607625  0.2607625  )
         3        C      tau(   3) = (  0.1236981  0.3746848  0.3746848  )
         4        C      tau(   4) = (  0.2607625  0.9921390  0.2607625  )
         5        C      tau(   5) = (  0.3746848  0.1236981  0.3746848  )
         6        C      tau(   6) = (  0.2607625  0.2607625  0.9921390  )
         7        C      tau(   7) = (  0.3746848  0.3746848  0.1236981  )
         8        C      tau(   8) = (  0.0007517  0.0007517  0.5003422  )
         9        C      tau(   9) = (  0.1251291  0.1251291  0.6250516  )
        10        C      tau(  10) = (  0.0014372  0.2476607  0.7521916  )
        11        C      tau(  11) = (  0.1266329  0.3730745  0.8775065  )
        12        C      tau(  12) = (  0.2476607  0.0014372  0.7521916  )
        13        C      tau(  13) = (  0.3730745  0.1266329  0.8775065  )
        14        C      tau(  14) = (  0.2498467  0.2498467  0.4996267  )
        15        C      tau(  15) = (  0.3749463  0.3749463  0.6249280  )
        16        C      tau(  16) = (  0.0007517  0.4988587  0.0007517  )
        17        C      tau(  17) = (  0.1251291  0.6250516  0.1251291  )
        18        C      tau(  18) = (  0.0014372  0.7521916  0.2476607  )
        19        C      tau(  19) = (  0.1266329  0.8775065  0.3730745  )
        20        C      tau(  20) = (  0.2498467  0.4996267  0.2498467  )
        21        C      tau(  21) = (  0.3749463  0.6249280  0.3749463  )
        22        C      tau(  22) = (  0.2476607  0.7521916  0.0014372  )
        23        C      tau(  23) = (  0.3730745  0.8775065  0.1266329  )
        24        C      tau(  24) = (  0.0010116  0.5014264  0.5014264  )
        25        C      tau(  25) = (  0.1250381  0.6250852  0.6250852  )
        26        C      tau(  26) = (  0.9996941  0.7483805  0.7483805  )
        27        C      tau(  27) = (  0.1189720  0.8751585  0.8751585  )
        28        C      tau(  28) = (  0.2496290  0.5009902  0.7494822  )
        29        C      tau(  29) = (  0.3740517  0.6261334  0.8754230  )
        30        C      tau(  30) = (  0.2496290  0.7494822  0.5009902  )
        31        C      tau(  31) = (  0.3740517  0.8754230  0.6261334  )
        32        C      tau(  32) = (  0.4988587  0.0007517  0.0007517  )
        33        C      tau(  33) = (  0.6250516  0.1251291  0.1251291  )
        34        C      tau(  34) = (  0.4996267  0.2498467  0.2498467  )
        35        C      tau(  35) = (  0.6249280  0.3749463  0.3749463  )
        36        C      tau(  36) = (  0.7521916  0.0014372  0.2476607  )
        37        C      tau(  37) = (  0.8775065  0.1266329  0.3730745  )
        38        C      tau(  38) = (  0.7521916  0.2476607  0.0014372  )
        39        C      tau(  39) = (  0.8775065  0.3730745  0.1266329  )
        40        C      tau(  40) = (  0.5014264  0.0010116  0.5014264  )
        41        C      tau(  41) = (  0.6250852  0.1250381  0.6250852  )
        42        C      tau(  42) = (  0.5009902  0.2496290  0.7494822  )
        43        C      tau(  43) = (  0.6261334  0.3740517  0.8754230  )
        44        C      tau(  44) = (  0.7483805  0.9996941  0.7483805  )
        45        C      tau(  45) = (  0.8751585  0.1189720  0.8751585  )
        46        C      tau(  46) = (  0.7494822  0.2496290  0.5009902  )
        47        C      tau(  47) = (  0.8754230  0.3740517  0.6261334  )
        48        C      tau(  48) = (  0.5014264  0.5014264  0.0010116  )
        49        C      tau(  49) = (  0.6250852  0.6250852  0.1250381  )
        50        C      tau(  50) = (  0.5009902  0.7494822  0.2496290  )
        51        C      tau(  51) = (  0.6261334  0.8754230  0.3740517  )
        52        C      tau(  52) = (  0.7494822  0.5009902  0.2496290  )
        53        C      tau(  53) = (  0.8754230  0.6261334  0.3740517  )
        54        C      tau(  54) = (  0.7483805  0.7483805  0.9996941  )
        55        C      tau(  55) = (  0.8751585  0.8751585  0.1189720  )
        56        C      tau(  56) = (  0.4999757  0.4999757  0.4999757  )
        57        C      tau(  57) = (  0.6249536  0.6249536  0.6249536  )
        58        C      tau(  58) = (  0.4990957  0.7503802  0.7503802  )
        59        C      tau(  59) = (  0.6235333  0.8749829  0.8749829  )
        60        C      tau(  60) = (  0.7503802  0.4990957  0.7503802  )
        61        C      tau(  61) = (  0.8749829  0.6235333  0.8749829  )
        62        C      tau(  62) = (  0.7503802  0.7503802  0.4990957  )
        63        C      tau(  63) = (  0.8749829  0.8749829  0.6235333  )

     number of k points=     1
                       cart. coord. in units 2pi/alat
        k(    1) = (   0.0000000   0.0000000   0.0000000), wk =   1.0000000

                       cryst. coord.
        k(    1) = (   0.0000000   0.0000000   0.0000000), wk =   1.0000000

     Dense  grid:    58461 G-vectors     FFT dimensions: (  64,  64,  64)

     Dynamical RAM for                 wfc:       0.35 MB

     Dynamical RAM for     wfc (w. buffer):       0.35 MB

     Dynamical RAM for           str. fact:       0.04 MB

     Dynamical RAM for           local pot:       0.00 MB

     Dynamical RAM for          nlocal pot:       1.17 MB

     Dynamical RAM for                qrad:       0.65 MB

     Dynamical RAM for          rho,v,vnew:       0.49 MB

     Dynamical RAM for               rhoin:       0.16 MB

     Dynamical RAM for            rho*nmix:       0.60 MB

     Dynamical RAM for           G-vectors:       0.08 MB

     Dynamical RAM for          h,s,v(r/c):       0.53 MB

     Dynamical RAM for          <psi|beta>:       0.58 MB

     Dynamical RAM for                 psi:       0.71 MB

     Dynamical RAM for                hpsi:       0.71 MB

     Dynamical RAM for      wfcinit/wfcrot:       1.24 MB

     Estimated static dynamical RAM per process >       3.37 MB

     Estimated max dynamical RAM per process >       6.49 MB

     Estimated total dynamical RAM >     594.05 MB
     Generating pointlists ...
     new r_m :   0.0850 (alat units)  1.1454 (a.u.) for type    1
     new r_m :   0.0850 (alat units)  1.1454 (a.u.) for type    2

     Initial potential from superposition of free atoms

     starting charge     252.5655, renormalised to     254.0000
     Starting wfcs are random

     total cpu time spent up to now is        1.2 secs

     Self-consistent Calculation

     iteration #  1     ecut=    50.00 Ry     beta= 0.70
     Davidson diagonalization with overlap

---- Real-time Memory Report at c_bands before calling an iterative solver
           160 MiB given to the printing process from OS
             0 MiB allocation reported by mallinfo(arena+hblkhd)
        143388 MiB available memory on the node where the printing process lives
------------------
     ethr =  1.00E-02,  avg # of iterations = 14.0

     total cpu time spent up to now is        1.9 secs

     total energy              =    -723.30998260 Ry
     estimated scf accuracy    <       3.69337551 Ry

     total magnetization       =     2.00 Bohr mag/cell
     absolute magnetization    =     2.00 Bohr mag/cell

     iteration #  2     ecut=    50.00 Ry     beta= 0.70
     Davidson diagonalization with overlap

---- Real-time Memory Report at c_bands before calling an iterative solver
           166 MiB given to the printing process from OS
             0 MiB allocation reported by mallinfo(arena+hblkhd)
        143329 MiB available memory on the node where the printing process lives
------------------
     ethr =  1.45E-03,  avg # of iterations = 11.5

     total cpu time spent up to now is        2.2 secs

     total energy              =    -723.68209835 Ry
     estimated scf accuracy    <       0.43626421 Ry

     total magnetization       =     2.00 Bohr mag/cell
     absolute magnetization    =     2.07 Bohr mag/cell

     iteration #  3     ecut=    50.00 Ry     beta= 0.70
     Davidson diagonalization with overlap

---- Real-time Memory Report at c_bands before calling an iterative solver
           166 MiB given to the printing process from OS
             0 MiB allocation reported by mallinfo(arena+hblkhd)
        143326 MiB available memory on the node where the printing process lives
------------------
     c_bands:  2 eigenvalues not converged
     ethr =  1.72E-04,  avg # of iterations = 17.5

     total cpu time spent up to now is        3.1 secs

     total energy              =    -723.74032258 Ry
     estimated scf accuracy    <       0.85382119 Ry

     total magnetization       =     2.00 Bohr mag/cell
     absolute magnetization    =     2.11 Bohr mag/cell

     iteration #  4     ecut=    50.00 Ry     beta= 0.70
     Davidson diagonalization with overlap

---- Real-time Memory Report at c_bands before calling an iterative solver
           166 MiB given to the printing process from OS
             0 MiB allocation reported by mallinfo(arena+hblkhd)
        143331 MiB available memory on the node where the printing process lives
------------------
     c_bands:  1 eigenvalues not converged
     ethr =  1.72E-04,  avg # of iterations = 20.0

     total cpu time spent up to now is        3.5 secs

     total energy              =    -723.91151215 Ry
     estimated scf accuracy    <       0.00824827 Ry

     total magnetization       =     2.00 Bohr mag/cell
     absolute magnetization    =     2.19 Bohr mag/cell

     iteration #  5     ecut=    50.00 Ry     beta= 0.70
     Davidson diagonalization with overlap

---- Real-time Memory Report at c_bands before calling an iterative solver
           167 MiB given to the printing process from OS
             0 MiB allocation reported by mallinfo(arena+hblkhd)
        143325 MiB available memory on the node where the printing process lives
------------------
     c_bands:  4 eigenvalues not converged
     ethr =  3.25E-06,  avg # of iterations = 20.0

     total cpu time spent up to now is        4.1 secs

     total energy              =    -723.91592006 Ry
     estimated scf accuracy    <       0.00389049 Ry

     total magnetization       =     2.00 Bohr mag/cell
     absolute magnetization    =     2.22 Bohr mag/cell

     iteration #  6     ecut=    50.00 Ry     beta= 0.70
     Davidson diagonalization with overlap

---- Real-time Memory Report at c_bands before calling an iterative solver
           167 MiB given to the printing process from OS
             0 MiB allocation reported by mallinfo(arena+hblkhd)
        143330 MiB available memory on the node where the printing process lives
------------------
     c_bands:  2 eigenvalues not converged
     ethr =  1.53E-06,  avg # of iterations = 20.0

     total cpu time spent up to now is        5.5 secs

     total energy              =    -723.91661537 Ry
     estimated scf accuracy    <       0.00067453 Ry

     total magnetization       =     2.00 Bohr mag/cell
     absolute magnetization    =     2.25 Bohr mag/cell

     iteration #  7     ecut=    50.00 Ry     beta= 0.70
     Davidson diagonalization with overlap

---- Real-time Memory Report at c_bands before calling an iterative solver
           167 MiB given to the printing process from OS
             0 MiB allocation reported by mallinfo(arena+hblkhd)
        143330 MiB available memory on the node where the printing process lives
------------------
     c_bands:  2 eigenvalues not converged
     ethr =  2.66E-07,  avg # of iterations = 20.0

     total cpu time spent up to now is        5.9 secs

     total energy              =    -723.91680668 Ry
     estimated scf accuracy    <       0.00007025 Ry

     total magnetization       =     2.00 Bohr mag/cell
     absolute magnetization    =     2.26 Bohr mag/cell

     iteration #  8     ecut=    50.00 Ry     beta= 0.70
     Davidson diagonalization with overlap

---- Real-time Memory Report at c_bands before calling an iterative solver
           167 MiB given to the printing process from OS
             0 MiB allocation reported by mallinfo(arena+hblkhd)
        143325 MiB available memory on the node where the printing process lives
------------------
     c_bands:  1 eigenvalues not converged
     ethr =  2.77E-08,  avg # of iterations = 20.0

     total cpu time spent up to now is        7.4 secs

     total energy              =    -723.91683484 Ry
     estimated scf accuracy    <       0.00001995 Ry

     total magnetization       =     2.00 Bohr mag/cell
     absolute magnetization    =     2.27 Bohr mag/cell

     iteration #  9     ecut=    50.00 Ry     beta= 0.70
     Davidson diagonalization with overlap

---- Real-time Memory Report at c_bands before calling an iterative solver
           167 MiB given to the printing process from OS
             0 MiB allocation reported by mallinfo(arena+hblkhd)
        143329 MiB available memory on the node where the printing process lives
------------------
     c_bands:  2 eigenvalues not converged
     ethr =  7.85E-09,  avg # of iterations = 20.0

     total cpu time spent up to now is        8.5 secs

     total energy              =    -723.91684196 Ry
     estimated scf accuracy    <       0.00000693 Ry

     total magnetization       =     2.00 Bohr mag/cell
     absolute magnetization    =     2.28 Bohr mag/cell

     iteration # 10     ecut=    50.00 Ry     beta= 0.70
     Davidson diagonalization with overlap

---- Real-time Memory Report at c_bands before calling an iterative solver
           167 MiB given to the printing process from OS
             0 MiB allocation reported by mallinfo(arena+hblkhd)
        143325 MiB available memory on the node where the printing process lives
------------------
     c_bands:  2 eigenvalues not converged
     ethr =  2.73E-09,  avg # of iterations = 20.0

     total cpu time spent up to now is        9.4 secs

     total energy              =    -723.91684482 Ry
     estimated scf accuracy    <       0.00000085 Ry

     total magnetization       =     2.00 Bohr mag/cell
     absolute magnetization    =     2.28 Bohr mag/cell

     iteration # 11     ecut=    50.00 Ry     beta= 0.70
     Davidson diagonalization with overlap

---- Real-time Memory Report at c_bands before calling an iterative solver
           167 MiB given to the printing process from OS
             0 MiB allocation reported by mallinfo(arena+hblkhd)
        143331 MiB available memory on the node where the printing process lives
------------------
     ethr =  3.35E-10,  avg # of iterations = 19.0

     total cpu time spent up to now is       10.0 secs

     total energy              =    -723.91684538 Ry
     estimated scf accuracy    <       0.00000017 Ry

     total magnetization       =     2.00 Bohr mag/cell
     absolute magnetization    =     2.29 Bohr mag/cell

     iteration # 12     ecut=    50.00 Ry     beta= 0.70
     Davidson diagonalization with overlap

---- Real-time Memory Report at c_bands before calling an iterative solver
           167 MiB given to the printing process from OS
             0 MiB allocation reported by mallinfo(arena+hblkhd)
        143331 MiB available memory on the node where the printing process lives
------------------
     ethr =  6.53E-11,  avg # of iterations = 19.0

     total cpu time spent up to now is       10.6 secs

     total energy              =    -723.91684548 Ry
     estimated scf accuracy    <       0.00000004 Ry

     total magnetization       =     2.00 Bohr mag/cell
     absolute magnetization    =     2.29 Bohr mag/cell

     iteration # 13     ecut=    50.00 Ry     beta= 0.70
     Davidson diagonalization with overlap

---- Real-time Memory Report at c_bands before calling an iterative solver
           167 MiB given to the printing process from OS
             0 MiB allocation reported by mallinfo(arena+hblkhd)
        143331 MiB available memory on the node where the printing process lives
------------------
     c_bands:  1 eigenvalues not converged
     ethr =  1.70E-11,  avg # of iterations = 20.0

     total cpu time spent up to now is       11.2 secs

     total energy              =    -723.91684551 Ry
     estimated scf accuracy    <       0.00000001 Ry

     total magnetization       =     2.00 Bohr mag/cell
     absolute magnetization    =     2.29 Bohr mag/cell

     iteration # 14     ecut=    50.00 Ry     beta= 0.70
     Davidson diagonalization with overlap

---- Real-time Memory Report at c_bands before calling an iterative solver
           167 MiB given to the printing process from OS
             0 MiB allocation reported by mallinfo(arena+hblkhd)
        143329 MiB available memory on the node where the printing process lives
------------------
     c_bands:  1 eigenvalues not converged
     ethr =  4.41E-12,  avg # of iterations = 17.5
 
     Magnetic moment per site  (integrated on atomic sphere of radius R)
     atom   1 (R=0.085)  charge=  2.8976  magn=  0.0040
     atom   2 (R=0.085)  charge=  1.8129  magn=  0.2493
     atom   3 (R=0.085)  charge=  1.8113  magn= -0.0087
     atom   4 (R=0.085)  charge=  1.8129  magn=  0.2493
     atom   5 (R=0.085)  charge=  1.8113  magn= -0.0087
     atom   6 (R=0.085)  charge=  1.8130  magn=  0.2494
     atom   7 (R=0.085)  charge=  1.8113  magn= -0.0087
     atom   8 (R=0.085)  charge=  1.8023  magn=  0.0086
     atom   9 (R=0.085)  charge=  1.8104  magn= -0.0018
     atom  10 (R=0.085)  charge=  1.7947  magn=  0.0054
     atom  11 (R=0.085)  charge=  1.8030  magn= -0.0034
     atom  12 (R=0.085)  charge=  1.7947  magn=  0.0054
     atom  13 (R=0.085)  charge=  1.8030  magn= -0.0034
     atom  14 (R=0.085)  charge=  1.8000  magn=  0.0086
     atom  15 (R=0.085)  charge=  1.8013  magn= -0.0019
     atom  16 (R=0.085)  charge=  1.8016  magn=  0.0085
     atom  17 (R=0.085)  charge=  1.8084  magn= -0.0018
     atom  18 (R=0.085)  charge=  1.7945  magn=  0.0054
     atom  19 (R=0.085)  charge=  1.8010  magn= -0.0035
     atom  20 (R=0.085)  charge=  1.8001  magn=  0.0086
     atom  21 (R=0.085)  charge=  1.8013  magn= -0.0019
     atom  22 (R=0.085)  charge=  1.7946  magn=  0.0054
     atom  23 (R=0.085)  charge=  1.8030  magn= -0.0034
     atom  24 (R=0.085)  charge=  1.8004  magn=  0.0181
     atom  25 (R=0.085)  charge=  1.8200  magn=  0.0089
     atom  26 (R=0.085)  charge=  1.8121  magn=  0.0032
     atom  27 (R=0.085)  charge=  1.7813  magn= -0.0000
     atom  28 (R=0.085)  charge=  1.8008  magn=  0.0212
     atom  29 (R=0.085)  charge=  1.7953  magn= -0.0013
     atom  30 (R=0.085)  charge=  1.8008  magn=  0.0213
     atom  31 (R=0.085)  charge=  1.7953  magn= -0.0013
     atom  32 (R=0.085)  charge=  1.8016  magn=  0.0085
     atom  33 (R=0.085)  charge=  1.8084  magn= -0.0018
     atom  34 (R=0.085)  charge=  1.8001  magn=  0.0086
     atom  35 (R=0.085)  charge=  1.8013  magn= -0.0019
     atom  36 (R=0.085)  charge=  1.7945  magn=  0.0054
     atom  37 (R=0.085)  charge=  1.8010  magn= -0.0035
     atom  38 (R=0.085)  charge=  1.7946  magn=  0.0054
     atom  39 (R=0.085)  charge=  1.8030  magn= -0.0034
     atom  40 (R=0.085)  charge=  1.8004  magn=  0.0181
     atom  41 (R=0.085)  charge=  1.8200  magn=  0.0089
     atom  42 (R=0.085)  charge=  1.8008  magn=  0.0212
     atom  43 (R=0.085)  charge=  1.7953  magn= -0.0013
     atom  44 (R=0.085)  charge=  1.8121  magn=  0.0032
     atom  45 (R=0.085)  charge=  1.7813  magn= -0.0000
     atom  46 (R=0.085)  charge=  1.8009  magn=  0.0213
     atom  47 (R=0.085)  charge=  1.7954  magn= -0.0013
     atom  48 (R=0.085)  charge=  1.8004  magn=  0.0181
     atom  49 (R=0.085)  charge=  1.8200  magn=  0.0089
     atom  50 (R=0.085)  charge=  1.8008  magn=  0.0212
     atom  51 (R=0.085)  charge=  1.7953  magn= -0.0013
     atom  52 (R=0.085)  charge=  1.8008  magn=  0.0212
     atom  53 (R=0.085)  charge=  1.7953  magn= -0.0013
     atom  54 (R=0.085)  charge=  1.8120  magn=  0.0032
     atom  55 (R=0.085)  charge=  1.7813  magn= -0.0000
     atom  56 (R=0.085)  charge=  1.8051  magn=  0.0010
     atom  57 (R=0.085)  charge=  1.7981  magn=  0.0010
     atom  58 (R=0.085)  charge=  1.8061  magn=  0.0018
     atom  59 (R=0.085)  charge=  1.8021  magn= -0.0009
     atom  60 (R=0.085)  charge=  1.8061  magn=  0.0018
     atom  61 (R=0.085)  charge=  1.8021  magn= -0.0009
     atom  62 (R=0.085)  charge=  1.8060  magn=  0.0018
     atom  63 (R=0.085)  charge=  1.8039  magn= -0.0009

     total cpu time spent up to now is       11.8 secs

     End of self-consistent calculation

 ------ SPIN UP ------------


          k = 0.0000 0.0000 0.0000 (  7386 PWs)   bands (ev):

    -8.5694  -7.0169  -6.2681  -6.2639  -6.1586  -6.1565  -5.8784  -4.9411
    -4.1292  -4.1225  -4.0895  -4.0886  -4.0327  -4.0296  -3.9785  -3.9101
    -3.8616  -3.8545  -3.3546  -2.9530  -2.6665  -2.6642  -2.1114  -0.3581
    -0.3577  -0.3166  -0.2904  -0.0893   0.1886   0.1915   0.2947   0.2959
     0.3690   0.6089   0.8211   0.8244   0.9819   0.9889   1.0246   1.0521
     1.0537   1.0809   1.3021   1.3047   3.0583   3.8883   3.8884   4.0387
     4.2325   4.2373   4.2514   4.2543   4.2882   4.2895   4.4327   4.4390
     4.4987   4.5014   4.6008   4.6817   4.6881   4.6916   4.6931   4.7787
     4.7787   4.9076   4.9654   4.9671   5.0608   5.2265   5.2304   5.2994
     5.3723   5.3749   5.4068   5.4219   5.4255   6.0475   6.0505   6.0782
     6.6418   6.6478   6.7637   7.0068   7.0296   7.0297   7.5137   8.3327
     8.3350   8.4196   8.4971   8.4971   8.6704   8.6760   8.8288   8.8347
     8.8531   8.8554   8.8893   8.8989   8.9478   9.3045   9.3060   9.3105
     9.7197   9.7214   9.9339   9.9363   9.9431   9.9585   9.9852   9.9995
    10.0062  10.0065  10.0279  10.0348  10.1348  10.1378  10.2856  10.2944
    10.3574  10.9870  12.2203  12.4699  12.4744  13.8178  14.7986  14.7992
    17.3778  17.3859  17.3869  17.5573  17.5604  17.5607  17.8914  17.9225
    17.9320  18.0153  18.0218  18.3793  18.9823  18.9881  19.0319  20.7209
    20.8144  20.8208  20.8693  20.9561  20.9562  21.0288  21.0290  21.0800

     occupation numbers 
     1.0000   1.0000   1.0000   1.0000   1.0000   1.0000   1.0000   1.0000
     1.0000   1.0000   1.0000   1.0000   1.0000   1.0000   1.0000   1.0000
     1.0000   1.0000   1.0000   1.0000   1.0000   1.0000   1.0000   1.0000
     1.0000   1.0000   1.0000   1.0000   1.0000   1.0000   1.0000   1.0000
     1.0000   1.0000   1.0000   1.0000   1.0000   1.0000   1.0000   1.0000
     1.0000   1.0000   1.0000   1.0000   1.0000   1.0000   1.0000   1.0000
     1.0000   1.0000   1.0000   1.0000   1.0000   1.0000   1.0000   1.0000
     1.0000   1.0000   1.0000   1.0000   1.0000   1.0000   1.0000   1.0000
     1.0000   1.0000   1.0000   1.0000   1.0000   1.0000   1.0000   1.0000
     1.0000   1.0000   1.0000   1.0000   1.0000   1.0000   1.0000   1.0000
     1.0000   1.0000   1.0000   1.0000   1.0000   1.0000   1.0000   1.0000
     1.0000   1.0000   1.0000   1.0000   1.0000   1.0000   1.0000   1.0000
     1.0000   1.0000   1.0000   1.0000   1.0000   1.0000   1.0000   1.0000
     1.0000   1.0000   1.0000   1.0000   1.0000   1.0000   1.0000   1.0000
     1.0000   1.0000   1.0000   1.0000   1.0000   1.0000   1.0000   1.0000
     1.0000   1.0000   1.0000   1.0000   1.0000   1.0000   1.0000   1.0000
     0.0000   0.0000   0.0000   0.0000   0.0000   0.0000   0.0000   0.0000
     0.0000   0.0000   0.0000   0.0000   0.0000   0.0000   0.0000   0.0000
     0.0000   0.0000   0.0000   0.0000   0.0000   0.0000   0.0000   0.0000

 ------ SPIN DOWN ----------


          k = 0.0000 0.0000 0.0000 (  7386 PWs)   bands (ev):

    -8.5461  -7.0025  -6.2488  -6.2445  -6.1168  -6.1146  -5.8417  -4.9252
    -4.1090  -4.1025  -4.0745  -4.0731  -3.9749  -3.9735  -3.9532  -3.8981
    -3.8158  -3.8098  -3.3111  -2.9351  -2.6123  -2.6099  -1.9703  -0.3412
    -0.3408  -0.2989  -0.2685  -0.0232   0.2043   0.2071   0.3298   0.3310
     0.3945   0.6412   0.8338   0.8370   1.0065   1.0140   1.0571   1.0673
     1.0691   1.0992   1.4731   1.4758   3.1728   3.9088   3.9089   4.0614
     4.2668   4.2725   4.2766   4.2870   4.3094   4.3096   4.4831   4.4888
     4.5184   4.5214   4.6277   4.7035   4.7039   4.7078   4.7124   4.8156
     4.8159   4.9200   4.9974   4.9992   5.1451   5.2607   5.2640   5.3232
     5.3836   5.3858   5.4194   5.4818   5.4849   6.1072   6.1101   6.1188
     6.6681   6.6742   6.7981   7.0498   7.1223   7.1225   7.6929   8.3710
     8.3732   8.4556   8.5294   8.5295   8.7006   8.7062   8.8665   8.8703
     8.8710   8.8814   8.9436   8.9513   8.9716   9.3322   9.3426   9.3472
     9.7488   9.7504   9.9507   9.9508   9.9574   9.9833  10.0134  10.0137
    10.0241  10.0261  10.0612  10.0681  10.1672  10.1706  10.3410  10.3494
    10.4186  11.3843  12.5269  12.6164  12.6221  14.2847  16.1585  16.1605
    17.4045  17.4050  17.4076  17.5819  17.6129  17.6139  17.9157  17.9426
    17.9523  18.0536  18.0601  18.4913  19.0709  19.0719  19.0794  20.7712
    20.8276  20.8340  20.8834  20.9729  20.9732  21.0539  21.0541  21.0918

     occupation numbers 
     1.0000   1.0000   1.0000   1.0000   1.0000   1.0000   1.0000   1.0000
     1.0000   1.0000   1.0000   1.0000   1.0000   1.0000   1.0000   1.0000
     1.0000   1.0000   1.0000   1.0000   1.0000   1.0000   1.0000   1.0000
     1.0000   1.0000   1.0000   1.0000   1.0000   1.0000   1.0000   1.0000
     1.0000   1.0000   1.0000   1.0000   1.0000   1.0000   1.0000   1.0000
     1.0000   1.0000   1.0000   1.0000   1.0000   1.0000   1.0000   1.0000
     1.0000   1.0000   1.0000   1.0000   1.0000   1.0000   1.0000   1.0000
     1.0000   1.0000   1.0000   1.0000   1.0000   1.0000   1.0000   1.0000
     1.0000   1.0000   1.0000   1.0000   1.0000   1.0000   1.0000   1.0000
     1.0000   1.0000   1.0000   1.0000   1.0000   1.0000   1.0000   1.0000
     1.0000   1.0000   1.0000   1.0000   1.0000   1.0000   1.0000   1.0000
     1.0000   1.0000   1.0000   1.0000   1.0000   1.0000   1.0000   1.0000
     1.0000   1.0000   1.0000   1.0000   1.0000   1.0000   1.0000   1.0000
     1.0000   1.0000   1.0000   1.0000   1.0000   1.0000   1.0000   1.0000
     1.0000   1.0000   1.0000   1.0000   1.0000   1.0000   1.0000   1.0000
     1.0000   1.0000   1.0000   1.0000   1.0000   1.0000   0.0000   0.0000
     0.0000   0.0000   0.0000   0.0000   0.0000   0.0000   0.0000   0.0000
     0.0000   0.0000   0.0000   0.0000   0.0000   0.0000   0.0000   0.0000
     0.0000   0.0000   0.0000   0.0000   0.0000   0.0000   0.0000   0.0000

     highest occupied, lowest unoccupied level (ev):    14.7992   16.1585

!    total energy              =    -723.91684552 Ry
     estimated scf accuracy    <          3.1E-09 Ry

     The total energy is the sum of the following terms:
     one-electron contribution =     232.77481670 Ry
     hartree contribution      =      70.10697148 Ry
     xc contribution           =    -226.74470550 Ry
     ewald contribution        =    -800.05392820 Ry

     total magnetization       =     2.00 Bohr mag/cell
     absolute magnetization    =     2.29 Bohr mag/cell

     convergence has been achieved in  14 iterations

     Forces acting on atoms (cartesian axes, Ry/au):

     atom    1 type  1   force =     0.00234519    0.00234519    0.00236083
     atom    2 type  2   force =    -0.00005078   -0.00044713    0.00080495
     atom    3 type  2   force =     0.00078892    0.00095169    0.00081589
     atom    4 type  2   force =    -0.00044713   -0.00005078    0.00080495
     atom    5 type  2   force =     0.00095169    0.00078892    0.00081589
     atom    6 type  2   force =     0.00019115    0.00019115   -0.00030327
     atom    7 type  2   force =     0.00085536    0.00085536    0.00077097
     atom    8 type  2   force =     0.00028377    0.00028377   -0.01785604
     atom    9 type  2   force =     0.00094719    0.00094719    0.00381122
     atom   10 type  2   force =     0.00044676    0.00037098    0.00100202
     atom   11 type  2   force =    -0.00089838    0.00056159   -0.00050582
     atom   12 type  2   force =     0.00037098    0.00044676    0.00100202
     atom   13 type  2   force =     0.00056159   -0.00089838   -0.00050582
     atom   14 type  2   force =    -0.00040135   -0.00040135   -0.00090867
     atom   15 type  2   force =    -0.00032228   -0.00032228    0.00013420
     atom   16 type  2   force =     0.00030218   -0.00056418    0.00032162
     atom   17 type  2   force =     0.00010722   -0.00010184    0.00008785
     atom   18 type  2   force =    -0.00022269    0.00096433    0.00023584
     atom   19 type  2   force =    -0.00159989    0.00047969    0.00428368
     atom   20 type  2   force =    -0.00005449   -0.00025642   -0.00006989
     atom   21 type  2   force =    -0.00014459   -0.00006325   -0.00011371
     atom   22 type  2   force =    -0.00026857    0.00037418    0.00004857
     atom   23 type  2   force =     0.00034748   -0.00056820   -0.00080881
     atom   24 type  2   force =     0.00019696    0.00000442    0.00002070
     atom   25 type  2   force =     0.00002866    0.00004438   -0.00010771
     atom   26 type  2   force =    -0.00037532   -0.00087848    0.00032528
     atom   27 type  2   force =     0.00088817   -0.00150502   -0.00159540
     atom   28 type  2   force =    -0.00033073    0.00003289    0.00002707
     atom   29 type  2   force =    -0.00055210    0.00030607    0.00032246
     atom   30 type  2   force =     0.00005187   -0.00032602   -0.00051523
     atom   31 type  2   force =    -0.00063089    0.00033560    0.00023632
     atom   32 type  2   force =    -0.00056418    0.00030218    0.00032162
     atom   33 type  2   force =    -0.00010184    0.00010722    0.00008785
     atom   34 type  2   force =    -0.00025642   -0.00005449   -0.00006989
     atom   35 type  2   force =    -0.00006325   -0.00014459   -0.00011371
     atom   36 type  2   force =     0.00096433   -0.00022269    0.00023584
     atom   37 type  2   force =     0.00047969   -0.00159989    0.00428368
     atom   38 type  2   force =     0.00037418   -0.00026857    0.00004857
     atom   39 type  2   force =    -0.00056820    0.00034748   -0.00080881
     atom   40 type  2   force =     0.00000442    0.00019696    0.00002070
     atom   41 type  2   force =     0.00004438    0.00002866   -0.00010771
     atom   42 type  2   force =     0.00003289   -0.00033073    0.00002707
     atom   43 type  2   force =     0.00030607   -0.00055210    0.00032246
     atom   44 type  2   force =    -0.00087848   -0.00037532    0.00032528
     atom   45 type  2   force =    -0.00150502    0.00088817   -0.00159540
     atom   46 type  2   force =    -0.00032602    0.00005187   -0.00051523
     atom   47 type  2   force =     0.00033560   -0.00063089    0.00023632
     atom   48 type  2   force =     0.00000606    0.00000606    0.00019311
     atom   49 type  2   force =     0.00001320    0.00001320   -0.00002017
     atom   50 type  2   force =     0.00000694   -0.00001455   -0.00026571
     atom   51 type  2   force =     0.00028836    0.00035989   -0.00066830
     atom   52 type  2   force =    -0.00001455    0.00000694   -0.00026571
     atom   53 type  2   force =     0.00035989    0.00028836   -0.00066830
     atom   54 type  2   force =    -0.00021368   -0.00021368   -0.00010174
     atom   55 type  2   force =    -0.00161856   -0.00161856    0.00093533
     atom   56 type  2   force =    -0.00008395   -0.00008395   -0.00028742
     atom   57 type  2   force =     0.00010415    0.00010415    0.00013062
     atom   58 type  2   force =    -0.00029614    0.00010084    0.00008180
     atom   59 type  2   force =    -0.00040643    0.00032088    0.00027304
     atom   60 type  2   force =     0.00010084   -0.00029614    0.00008180
     atom   61 type  2   force =     0.00032088   -0.00040643    0.00027304
     atom   62 type  2   force =     0.00040868    0.00040868   -0.00091978
     atom   63 type  2   force =    -0.00061979   -0.00061979    0.00358778
     The non-local contrib.  to forces
     atom    1 type  1   force =    -0.73719200   -0.73719200   -0.73734030
     atom    2 type  2   force =    -0.22469478    0.21015718    0.21147067
     atom    3 type  2   force =     0.07010908    0.06930907    0.06955346
     atom    4 type  2   force =     0.21015718   -0.22469478    0.21147067
     atom    5 type  2   force =     0.06930907    0.07010908    0.06955346
     atom    6 type  2   force =     0.21097673    0.21097673   -0.22496726
     atom    7 type  2   force =     0.06936865    0.06936865    0.06996197
     atom    8 type  2   force =    -0.00837745   -0.00837745    0.03148506
     atom    9 type  2   force =    -0.00416622   -0.00416622    0.01922148
     atom   10 type  2   force =    -0.04413522   -0.01247575   -0.01864011
     atom   11 type  2   force =    -0.07145421    0.06038536   -0.08270657
     atom   12 type  2   force =    -0.01247575   -0.04413522   -0.01864011
     atom   13 type  2   force =     0.06038536   -0.07145421   -0.08270657
     atom   14 type  2   force =    -0.00271605   -0.00271605    0.05175562
     atom   15 type  2   force =     0.01320543    0.01320543    0.00014269
     atom   16 type  2   force =    -0.00828895    0.05219553   -0.00802085
     atom   17 type  2   force =    -0.00492614    0.01584098   -0.00468935
     atom   18 type  2   force =    -0.04412343   -0.01892416   -0.01239324
     atom   19 type  2   force =    -0.07249380   -0.08174616    0.06381064
     atom   20 type  2   force =    -0.00183373    0.05136320   -0.00177547
     atom   21 type  2   force =     0.01412450   -0.00003724    0.01342136
     atom   22 type  2   force =    -0.01298607   -0.01933951   -0.04423048
     atom   23 type  2   force =     0.05973764   -0.08270318   -0.07128756
     atom   24 type  2   force =    -0.07382672    0.02812667    0.02810402
     atom   25 type  2   force =    -0.01163734    0.01678781    0.01696688
     atom   26 type  2   force =    -0.06043151   -0.02552176   -0.02428140
     atom   27 type  2   force =    -0.11794810    0.13543283    0.13523090
     atom   28 type  2   force =     0.06245083    0.02809998   -0.01929579
     atom   29 type  2   force =     0.00164831    0.01869049    0.00549716
     atom   30 type  2   force =     0.06340955   -0.02032514    0.02866031
     atom   31 type  2   force =     0.00175379    0.00565418    0.01881397
     atom   32 type  2   force =     0.05219553   -0.00828895   -0.00802085
     atom   33 type  2   force =     0.01584098   -0.00492614   -0.00468935
     atom   34 type  2   force =     0.05136320   -0.00183373   -0.00177547
     atom   35 type  2   force =    -0.00003724    0.01412450    0.01342136
     atom   36 type  2   force =    -0.01892416   -0.04412343   -0.01239324
     atom   37 type  2   force =    -0.08174616   -0.07249380    0.06381064
     atom   38 type  2   force =    -0.01933951   -0.01298607   -0.04423048
     atom   39 type  2   force =    -0.08270318    0.05973764   -0.07128756
     atom   40 type  2   force =     0.02812667   -0.07382672    0.02810402
     atom   41 type  2   force =     0.01678781   -0.01163734    0.01696688
     atom   42 type  2   force =     0.02809998    0.06245083   -0.01929579
     atom   43 type  2   force =     0.01869049    0.00164831    0.00549716
     atom   44 type  2   force =    -0.02552176   -0.06043151   -0.02428140
     atom   45 type  2   force =     0.13543283   -0.11794810    0.13523090
     atom   46 type  2   force =    -0.02032514    0.06340955    0.02866031
     atom   47 type  2   force =     0.00565418    0.00175379    0.01881397
     atom   48 type  2   force =     0.02816165    0.02816165   -0.07386105
     atom   49 type  2   force =     0.01682813    0.01682813   -0.01143255
     atom   50 type  2   force =     0.02823144   -0.01918260    0.06233079
     atom   51 type  2   force =     0.01880039    0.00533325    0.00178193
     atom   52 type  2   force =    -0.01918260    0.02823144    0.06233079
     atom   53 type  2   force =     0.00533325    0.01880039    0.00178193
     atom   54 type  2   force =    -0.02492190   -0.02492190   -0.06051604
     atom   55 type  2   force =     0.13530935    0.13530935   -0.11807621
     atom   56 type  2   force =     0.01612740    0.01612740    0.01652799
     atom   57 type  2   force =     0.00806829    0.00806829    0.00733775
     atom   58 type  2   force =     0.01363096   -0.01292639   -0.01287054
     atom   59 type  2   force =     0.01038585   -0.01057996   -0.01040940
     atom   60 type  2   force =    -0.01292639    0.01363096   -0.01287054
     atom   61 type  2   force =    -0.01057996    0.01038585   -0.01040940
     atom   62 type  2   force =    -0.01181530   -0.01181530    0.01399789
     atom   63 type  2   force =    -0.01109024   -0.01109024    0.01412175
     The ionic contribution  to forces
     atom    1 type  1   force =     3.03975807    3.03975807    3.05098333
     atom    2 type  2   force =     2.25770841   -2.16827562   -2.15655276
     atom    3 type  2   force =     0.43070222   -0.75114221   -0.75083592
     atom    4 type  2   force =    -2.16827562    2.25770841   -2.15655276
     atom    5 type  2   force =    -0.75114221    0.43070222   -0.75083592
     atom    6 type  2   force =    -2.15997716   -2.15997716    2.26024068
     atom    7 type  2   force =    -0.74903626   -0.74903626    0.43278275
     atom    8 type  2   force =     0.24098028    0.24098028   -0.76397049
     atom    9 type  2   force =     0.13810928    0.13810928   -0.22394792
     atom   10 type  2   force =     0.21034867    0.07395339    0.53196434
     atom   11 type  2   force =    -0.29073158   -0.72332991    0.73137014
     atom   12 type  2   force =     0.07395339    0.21034867    0.53196434
     atom   13 type  2   force =    -0.72332991   -0.29073158    0.73137014
     atom   14 type  2   force =    -0.19928760   -0.19928760   -0.67737634
     atom   15 type  2   force =    -0.15804458   -0.15804458   -0.04937128
     atom   16 type  2   force =     0.24340114   -0.70063897    0.24562742
     atom   17 type  2   force =     0.11175242   -0.22416513    0.11445712
     atom   18 type  2   force =     0.21030220    0.53562456    0.07013308
     atom   19 type  2   force =    -0.31711129    0.75445211   -0.72286774
     atom   20 type  2   force =    -0.19996836   -0.67197943   -0.19915281
     atom   21 type  2   force =    -0.15910473   -0.04775126   -0.15967457
     atom   22 type  2   force =     0.06567756    0.52743932    0.21337836
     atom   23 type  2   force =    -0.72573006    0.72967817   -0.28904950
     atom   24 type  2   force =     0.03330792   -0.19225942   -0.19509362
     atom   25 type  2   force =     0.09715515   -0.07499511   -0.07471033
     atom   26 type  2   force =     0.11528090   -0.18504853   -0.17272389
     atom   27 type  2   force =     1.34452354    0.24022966    0.25049150
     atom   28 type  2   force =    -0.08532728   -0.22707258    0.15682979
     atom   29 type  2   force =    -0.15847564   -0.00280666    0.23096805
     atom   30 type  2   force =    -0.08596072    0.15664568   -0.23241159
     atom   31 type  2   force =    -0.15636194    0.22886538   -0.00456442
     atom   32 type  2   force =    -0.70063897    0.24340114    0.24562742
     atom   33 type  2   force =    -0.22416513    0.11175242    0.11445712
     atom   34 type  2   force =    -0.67197943   -0.19996836   -0.19915281
     atom   35 type  2   force =    -0.04775126   -0.15910473   -0.15967457
     atom   36 type  2   force =     0.53562456    0.21030220    0.07013308
     atom   37 type  2   force =     0.75445211   -0.31711129   -0.72286774
     atom   38 type  2   force =     0.52743932    0.06567756    0.21337836
     atom   39 type  2   force =     0.72967817   -0.72573006   -0.28904950
     atom   40 type  2   force =    -0.19225942    0.03330792   -0.19509362
     atom   41 type  2   force =    -0.07499511    0.09715515   -0.07471033
     atom   42 type  2   force =    -0.22707258   -0.08532728    0.15682979
     atom   43 type  2   force =    -0.00280666   -0.15847564    0.23096805
     atom   44 type  2   force =    -0.18504853    0.11528090   -0.17272389
     atom   45 type  2   force =     0.24022966    1.34452354    0.25049150
     atom   46 type  2   force =     0.15664568   -0.08596072   -0.23241159
     atom   47 type  2   force =     0.22886538   -0.15636194   -0.00456442
     atom   48 type  2   force =    -0.19225916   -0.19225916    0.03440200
     atom   49 type  2   force =    -0.07218329   -0.07218329    0.09727732
     atom   50 type  2   force =    -0.22706777    0.15737046   -0.08587087
     atom   51 type  2   force =     0.00002805    0.23084436   -0.16101159
     atom   52 type  2   force =     0.15737046   -0.22706777   -0.08587087
     atom   53 type  2   force =     0.23084436    0.00002805   -0.16101159
     atom   54 type  2   force =    -0.17687981   -0.17687981    0.11827565
     atom   55 type  2   force =     0.24501339    0.24501339    1.34964655
     atom   56 type  2   force =    -0.10879185   -0.10879185   -0.10996179
     atom   57 type  2   force =    -0.02265193   -0.02265193   -0.02321628
     atom   58 type  2   force =    -0.13371541    0.00972303    0.01054691
     atom   59 type  2   force =    -0.31289114    0.12328913    0.12597474
     atom   60 type  2   force =     0.00972303   -0.13371541    0.01054691
     atom   61 type  2   force =     0.12328913   -0.31289114    0.12597474
     atom   62 type  2   force =     0.01041795    0.01041795   -0.13905406
     atom   63 type  2   force =     0.09843999    0.09843999   -0.31115380
     The local contribution  to forces
     atom    1 type  1   force =    -2.30021256   -2.30018133   -2.31123915
     atom    2 type  2   force =    -2.03305308    1.95769330    1.94590593
     atom    3 type  2   force =    -0.50001210    0.68279193    0.68211155
     atom    4 type  2   force =     1.95769479   -2.03302836    1.94590806
     atom    5 type  2   force =     0.68280862   -0.49998662    0.68211543
     atom    6 type  2   force =     1.94920936    1.94921037   -2.03553890
     atom    7 type  2   force =     0.68053223    0.68051972   -0.50195010
     atom    8 type  2   force =    -0.23231434   -0.23228695    0.71465315
     atom    9 type  2   force =    -0.13298438   -0.13296468    0.20856736
     atom   10 type  2   force =    -0.16575037   -0.06109267   -0.51228631
     atom   11 type  2   force =     0.36131086    0.66350702   -0.64912099
     atom   12 type  2   force =    -0.06109296   -0.16572782   -0.51228397
     atom   13 type  2   force =     0.66351875    0.36132756   -0.64912357
     atom   14 type  2   force =     0.20161869    0.20162202    0.62473385
     atom   15 type  2   force =     0.14453351    0.14451806    0.04939425
     atom   16 type  2   force =    -0.23479143    0.64787419   -0.23723926
     atom   17 type  2   force =    -0.10671133    0.20821116   -0.10964923
     atom   18 type  2   force =    -0.16639946   -0.51573034   -0.05748367
     atom   19 type  2   force =     0.38800843   -0.67220551    0.66336266
     atom   20 type  2   force =     0.20175726    0.62035014    0.20087521
     atom   21 type  2   force =     0.14485518    0.04772147    0.14615834
     atom   22 type  2   force =    -0.05294857   -0.50771937   -0.16906278
     atom   23 type  2   force =     0.66636439   -0.64751569    0.35955555
     atom   24 type  2   force =     0.04072390    0.16413239    0.16702369
     atom   25 type  2   force =    -0.08547678    0.05824888    0.05766225
     atom   26 type  2   force =    -0.05521506    0.20970427    0.19736516
     atom   27 type  2   force =    -1.22568180   -0.37713733   -0.38727460
     atom   28 type  2   force =     0.02256308    0.19899608   -0.13746729
     atom   29 type  2   force =     0.15628706   -0.01558745   -0.23610299
     atom   30 type  2   force =     0.02261959   -0.13664052    0.20325946
     atom   31 type  2   force =     0.15399574   -0.23415872   -0.01398769
     atom   32 type  2   force =     0.64789722   -0.23477090   -0.23724370
     atom   33 type  2   force =     0.20823441   -0.10669198   -0.10964714
     atom   34 type  2   force =     0.62037581    0.20176269    0.20087794
     atom   35 type  2   force =     0.04774409    0.14483882    0.14615706
     atom   36 type  2   force =    -0.51572686   -0.16637286   -0.05748210
     atom   37 type  2   force =    -0.67222054    0.38803491    0.66336072
     atom   38 type  2   force =    -0.50771512   -0.05294663   -0.16905643
     atom   39 type  2   force =    -0.64752733    0.66634754    0.35956583
     atom   40 type  2   force =     0.16416028    0.04074905    0.16702912
     atom   41 type  2   force =     0.05826742   -0.08545976    0.05765957
     atom   42 type  2   force =     0.19901661    0.02256389   -0.13746866
     atom   43 type  2   force =    -0.01557264    0.15627386   -0.23610265
     atom   44 type  2   force =     0.20970620   -0.05519327    0.19736308
     atom   45 type  2   force =    -0.37714994   -1.22566621   -0.38727313
     atom   46 type  2   force =    -0.13663374    0.02261956    0.20325321
     atom   47 type  2   force =    -0.23417365    0.15397952   -0.01399484
     atom   48 type  2   force =     0.16411357    0.16409187    0.03969036
     atom   49 type  2   force =     0.05538844    0.05536889   -0.08582702
     atom   50 type  2   force =     0.19886989   -0.13819127    0.02330024
     atom   51 type  2   force =    -0.01852124   -0.23579317    0.15857643
     atom   52 type  2   force =    -0.13818427    0.19884084    0.02330051
     atom   53 type  2   force =    -0.23580897   -0.01854353    0.15857474
     atom   54 type  2   force =     0.20160506    0.20160295   -0.05781638
     atom   55 type  2   force =    -0.38193005   -0.38191531   -1.23060573
     atom   56 type  2   force =     0.09259971    0.09257399    0.09316488
     atom   57 type  2   force =     0.01470410    0.01468503    0.01602911
     atom   58 type  2   force =     0.11980470    0.00331594    0.00243818
     atom   59 type  2   force =     0.30211730   -0.11235888   -0.11524968
     atom   60 type  2   force =     0.00331587    0.11978281    0.00243533
     atom   61 type  2   force =    -0.11237314    0.30210161   -0.11524899
     atom   62 type  2   force =     0.00181991    0.00181822    0.12414986
     atom   63 type  2   force =    -0.08795966   -0.08794286    0.30064428
     The core correction contribution to forces
     atom    1 type  1   force =     0.00000000    0.00000000    0.00000000
     atom    2 type  2   force =     0.00000000    0.00000000    0.00000000
     atom    3 type  2   force =     0.00000000    0.00000000    0.00000000
     atom    4 type  2   force =     0.00000000    0.00000000    0.00000000
     atom    5 type  2   force =     0.00000000    0.00000000    0.00000000
     atom    6 type  2   force =     0.00000000    0.00000000    0.00000000
     atom    7 type  2   force =     0.00000000    0.00000000    0.00000000
     atom    8 type  2   force =     0.00000000    0.00000000    0.00000000
     atom    9 type  2   force =     0.00000000    0.00000000    0.00000000
     atom   10 type  2   force =     0.00000000    0.00000000    0.00000000
     atom   11 type  2   force =     0.00000000    0.00000000    0.00000000
     atom   12 type  2   force =     0.00000000    0.00000000    0.00000000
     atom   13 type  2   force =     0.00000000    0.00000000    0.00000000
     atom   14 type  2   force =     0.00000000    0.00000000    0.00000000
     atom   15 type  2   force =     0.00000000    0.00000000    0.00000000
     atom   16 type  2   force =     0.00000000    0.00000000    0.00000000
     atom   17 type  2   force =     0.00000000    0.00000000    0.00000000
     atom   18 type  2   force =     0.00000000    0.00000000    0.00000000
     atom   19 type  2   force =     0.00000000    0.00000000    0.00000000
     atom   20 type  2   force =     0.00000000    0.00000000    0.00000000
     atom   21 type  2   force =     0.00000000    0.00000000    0.00000000
     atom   22 type  2   force =     0.00000000    0.00000000    0.00000000
     atom   23 type  2   force =     0.00000000    0.00000000    0.00000000
     atom   24 type  2   force =     0.00000000    0.00000000    0.00000000
     atom   25 type  2   force =     0.00000000    0.00000000    0.00000000
     atom   26 type  2   force =     0.00000000    0.00000000    0.00000000
     atom   27 type  2   force =     0.00000000    0.00000000    0.00000000
     atom   28 type  2   force =     0.00000000    0.00000000    0.00000000
     atom   29 type  2   force =     0.00000000    0.00000000    0.00000000
     atom   30 type  2   force =     0.00000000    0.00000000    0.00000000
     atom   31 type  2   force =     0.00000000    0.00000000    0.00000000
     atom   32 type  2   force =     0.00000000    0.00000000    0.00000000
     atom   33 type  2   force =     0.00000000    0.00000000    0.00000000
     atom   34 type  2   force =     0.00000000    0.00000000    0.00000000
     atom   35 type  2   force =     0.00000000    0.00000000    0.00000000
     atom   36 type  2   force =     0.00000000    0.00000000    0.00000000
     atom   37 type  2   force =     0.00000000    0.00000000    0.00000000
     atom   38 type  2   force =     0.00000000    0.00000000    0.00000000
     atom   39 type  2   force =     0.00000000    0.00000000    0.00000000
     atom   40 type  2   force =     0.00000000    0.00000000    0.00000000
     atom   41 type  2   force =     0.00000000    0.00000000    0.00000000
     atom   42 type  2   force =     0.00000000    0.00000000    0.00000000
     atom   43 type  2   force =     0.00000000    0.00000000    0.00000000
     atom   44 type  2   force =     0.00000000    0.00000000    0.00000000
     atom   45 type  2   force =     0.00000000    0.00000000    0.00000000
     atom   46 type  2   force =     0.00000000    0.00000000    0.00000000
     atom   47 type  2   force =     0.00000000    0.00000000    0.00000000
     atom   48 type  2   force =     0.00000000    0.00000000    0.00000000
     atom   49 type  2   force =     0.00000000    0.00000000    0.00000000
     atom   50 type  2   force =     0.00000000    0.00000000    0.00000000
     atom   51 type  2   force =     0.00000000    0.00000000    0.00000000
     atom   52 type  2   force =     0.00000000    0.00000000    0.00000000
     atom   53 type  2   force =     0.00000000    0.00000000    0.00000000
     atom   54 type  2   force =     0.00000000    0.00000000    0.00000000
     atom   55 type  2   force =     0.00000000    0.00000000    0.00000000
     atom   56 type  2   force =     0.00000000    0.00000000    0.00000000
     atom   57 type  2   force =     0.00000000    0.00000000    0.00000000
     atom   58 type  2   force =     0.00000000    0.00000000    0.00000000
     atom   59 type  2   force =     0.00000000    0.00000000    0.00000000
     atom   60 type  2   force =     0.00000000    0.00000000    0.00000000
     atom   61 type  2   force =     0.00000000    0.00000000    0.00000000
     atom   62 type  2   force =     0.00000000    0.00000000    0.00000000
     atom   63 type  2   force =     0.00000000    0.00000000    0.00000000
     The Hubbard contrib.    to forces
     atom    1 type  1   force =     0.00000000    0.00000000    0.00000000
     atom    2 type  2   force =     0.00000000    0.00000000    0.00000000
     atom    3 type  2   force =     0.00000000    0.00000000    0.00000000
     atom    4 type  2   force =     0.00000000    0.00000000    0.00000000
     atom    5 type  2   force =     0.00000000    0.00000000    0.00000000
     atom    6 type  2   force =     0.00000000    0.00000000    0.00000000
     atom    7 type  2   force =     0.00000000    0.00000000    0.00000000
     atom    8 type  2   force =     0.00000000    0.00000000    0.00000000
     atom    9 type  2   force =     0.00000000    0.00000000    0.00000000
     atom   10 type  2   force =     0.00000000    0.00000000    0.00000000
     atom   11 type  2   force =     0.00000000    0.00000000    0.00000000
     atom   12 type  2   force =     0.00000000    0.00000000    0.00000000
     atom   13 type  2   force =     0.00000000    0.00000000    0.00000000
     atom   14 type  2   force =     0.00000000    0.00000000    0.00000000
     atom   15 type  2   force =     0.00000000    0.00000000    0.00000000
     atom   16 type  2   force =     0.00000000    0.00000000    0.00000000
     atom   17 type  2   force =     0.00000000    0.00000000    0.00000000
     atom   18 type  2   force =     0.00000000    0.00000000    0.00000000
     atom   19 type  2   force =     0.00000000    0.00000000    0.00000000
     atom   20 type  2   force =     0.00000000    0.00000000    0.00000000
     atom   21 type  2   force =     0.00000000    0.00000000    0.00000000
     atom   22 type  2   force =     0.00000000    0.00000000    0.00000000
     atom   23 type  2   force =     0.00000000    0.00000000    0.00000000
     atom   24 type  2   force =     0.00000000    0.00000000    0.00000000
     atom   25 type  2   force =     0.00000000    0.00000000    0.00000000
     atom   26 type  2   force =     0.00000000    0.00000000    0.00000000
     atom   27 type  2   force =     0.00000000    0.00000000    0.00000000
     atom   28 type  2   force =     0.00000000    0.00000000    0.00000000
     atom   29 type  2   force =     0.00000000    0.00000000    0.00000000
     atom   30 type  2   force =     0.00000000    0.00000000    0.00000000
     atom   31 type  2   force =     0.00000000    0.00000000    0.00000000
     atom   32 type  2   force =     0.00000000    0.00000000    0.00000000
     atom   33 type  2   force =     0.00000000    0.00000000    0.00000000
     atom   34 type  2   force =     0.00000000    0.00000000    0.00000000
     atom   35 type  2   force =     0.00000000    0.00000000    0.00000000
     atom   36 type  2   force =     0.00000000    0.00000000    0.00000000
     atom   37 type  2   force =     0.00000000    0.00000000    0.00000000
     atom   38 type  2   force =     0.00000000    0.00000000    0.00000000
     atom   39 type  2   force =     0.00000000    0.00000000    0.00000000
     atom   40 type  2   force =     0.00000000    0.00000000    0.00000000
     atom   41 type  2   force =     0.00000000    0.00000000    0.00000000
     atom   42 type  2   force =     0.00000000    0.00000000    0.00000000
     atom   43 type  2   force =     0.00000000    0.00000000    0.00000000
     atom   44 type  2   force =     0.00000000    0.00000000    0.00000000
     atom   45 type  2   force =     0.00000000    0.00000000    0.00000000
     atom   46 type  2   force =     0.00000000    0.00000000    0.00000000
     atom   47 type  2   force =     0.00000000    0.00000000    0.00000000
     atom   48 type  2   force =     0.00000000    0.00000000    0.00000000
     atom   49 type  2   force =     0.00000000    0.00000000    0.00000000
     atom   50 type  2   force =     0.00000000    0.00000000    0.00000000
     atom   51 type  2   force =     0.00000000    0.00000000    0.00000000
     atom   52 type  2   force =     0.00000000    0.00000000    0.00000000
     atom   53 type  2   force =     0.00000000    0.00000000    0.00000000
     atom   54 type  2   force =     0.00000000    0.00000000    0.00000000
     atom   55 type  2   force =     0.00000000    0.00000000    0.00000000
     atom   56 type  2   force =     0.00000000    0.00000000    0.00000000
     atom   57 type  2   force =     0.00000000    0.00000000    0.00000000
     atom   58 type  2   force =     0.00000000    0.00000000    0.00000000
     atom   59 type  2   force =     0.00000000    0.00000000    0.00000000
     atom   60 type  2   force =     0.00000000    0.00000000    0.00000000
     atom   61 type  2   force =     0.00000000    0.00000000    0.00000000
     atom   62 type  2   force =     0.00000000    0.00000000    0.00000000
     atom   63 type  2   force =     0.00000000    0.00000000    0.00000000
     The SCF correction term to forces
     atom    1 type  1   force =     0.00000978   -0.00002984   -0.00001427
     atom    2 type  2   force =     0.00000762   -0.00001042    0.00000842
     atom    3 type  2   force =     0.00000669    0.00000953    0.00001615
     atom    4 type  2   force =    -0.00000724   -0.00002718    0.00000925
     atom    5 type  2   force =    -0.00001260   -0.00002490    0.00001114
     atom    6 type  2   force =    -0.00000339   -0.00000535   -0.00000901
     atom    7 type  2   force =     0.00000252    0.00001931    0.00000514
     atom    8 type  2   force =     0.00001312   -0.00002213    0.00000503
     atom    9 type  2   force =     0.00000438   -0.00001926   -0.00000091
     atom   10 type  2   force =     0.00000065   -0.00000054   -0.00000703
     atom   11 type  2   force =    -0.00000726    0.00001550   -0.00001997
     atom   12 type  2   force =     0.00000068   -0.00002802   -0.00000952
     atom   13 type  2   force =    -0.00000118   -0.00002850   -0.00001668
     atom   14 type  2   force =    -0.00000177   -0.00000652    0.00000699
     atom   15 type  2   force =    -0.00000499    0.00001497   -0.00000268
     atom   16 type  2   force =    -0.00000109    0.00002261   -0.00001757
     atom   17 type  2   force =     0.00000860    0.00002770   -0.00000180
     atom   18 type  2   force =     0.00001539    0.00000946    0.00000887
     atom   19 type  2   force =     0.00001341   -0.00000883    0.00000643
     atom   20 type  2   force =     0.00000500    0.00002714    0.00001188
     atom   21 type  2   force =    -0.00000748    0.00002081    0.00001041
     atom   22 type  2   force =     0.00000320    0.00000846   -0.00000763
     atom   23 type  2   force =    -0.00001302   -0.00001550    0.00000173
     atom   24 type  2   force =     0.00000902    0.00002184    0.00001514
     atom   25 type  2   force =     0.00000466    0.00001955    0.00000207
     atom   26 type  2   force =     0.00000739    0.00000169   -0.00000573
     atom   27 type  2   force =     0.00001123   -0.00001888   -0.00001424
     atom   28 type  2   force =    -0.00000299    0.00002666   -0.00001118
     atom   29 type  2   force =    -0.00000022    0.00002637   -0.00001101
     atom   30 type  2   force =    -0.00000155    0.00000777    0.00000533
     atom   31 type  2   force =    -0.00000681   -0.00001387    0.00000286
     atom   32 type  2   force =    -0.00000769   -0.00002880   -0.00001180
     atom   33 type  2   force =    -0.00000086   -0.00001559   -0.00000409
     atom   34 type  2   force =    -0.00000565   -0.00000195    0.00000931
     atom   35 type  2   force =    -0.00000805    0.00001257    0.00001077
     atom   36 type  2   force =     0.00000342   -0.00001816    0.00000648
     atom   37 type  2   force =     0.00001017   -0.00001855    0.00000932
     atom   38 type  2   force =     0.00000258   -0.00000029   -0.00001420
     atom   39 type  2   force =    -0.00000003    0.00000870   -0.00000903
     atom   40 type  2   force =    -0.00001234   -0.00002263    0.00001023
     atom   41 type  2   force =    -0.00000468   -0.00001860    0.00000515
     atom   42 type  2   force =    -0.00000057   -0.00000472   -0.00000915
     atom   43 type  2   force =     0.00000599    0.00001757   -0.00001130
     atom   44 type  2   force =    -0.00000073   -0.00002067   -0.00000379
     atom   45 type  2   force =    -0.00000105   -0.00000994   -0.00001603
     atom   46 type  2   force =     0.00000121   -0.00000369    0.00001168
     atom   47 type  2   force =     0.00000614    0.00001388    0.00001078
     atom   48 type  2   force =     0.00000081    0.00002870   -0.00000942
     atom   49 type  2   force =    -0.00000919    0.00001639   -0.00000913
     atom   50 type  2   force =    -0.00001578    0.00000284    0.00000331
     atom   51 type  2   force =    -0.00000807   -0.00001310    0.00001374
     atom   52 type  2   force =    -0.00000428    0.00001939    0.00000226
     atom   53 type  2   force =     0.00000761    0.00002049    0.00001541
     atom   54 type  2   force =    -0.00000338   -0.00000075   -0.00001618
     atom   55 type  2   force =     0.00000543   -0.00001483   -0.00000050
     atom   56 type  2   force =    -0.00000856    0.00002369    0.00001029
     atom   57 type  2   force =    -0.00000442    0.00001868    0.00000883
     atom   58 type  2   force =    -0.00000545    0.00000284   -0.00000392
     atom   59 type  2   force =    -0.00000730   -0.00001725   -0.00001353
     atom   60 type  2   force =     0.00000156    0.00002239   -0.00000117
     atom   61 type  2   force =     0.00000051    0.00001393   -0.00001484
     atom   62 type  2   force =    -0.00000049    0.00000221    0.00001532
     atom   63 type  2   force =     0.00000598   -0.00001473    0.00000433

     Total force =     0.021338     Total SCF correction =     0.000172

     Writing all to output data dir ./pwscf.save/ :
     XML data file, charge density, pseudopotentials, collected wavefunctions
 
     init_run     :      0.63s CPU      0.69s WALL (       1 calls)
     electrons    :     10.83s CPU     11.10s WALL (       1 calls)
     forces       :      0.30s CPU      0.31s WALL (       1 calls)

     Called by init_run:
     wfcinit      :      0.12s CPU      0.15s WALL (       1 calls)
     wfcinit:wfcr :      0.12s CPU      0.13s WALL (       1 calls)
     potinit      :      0.32s CPU      0.32s WALL (       1 calls)
     hinit0       :      0.09s CPU      0.10s WALL (       1 calls)

     Called by electrons:
     c_bands      :      8.83s CPU      9.02s WALL (      14 calls)
     sum_band     :      1.03s CPU      1.04s WALL (      14 calls)
     v_of_rho     :      0.28s CPU      0.29s WALL (      15 calls)
     v_h          :      0.02s CPU      0.02s WALL (      15 calls)
     v_xc         :      0.26s CPU      0.27s WALL (      15 calls)
     mix_rho      :      0.13s CPU      0.13s WALL (      14 calls)

     Called by c_bands:
     init_us_2    :      0.02s CPU      0.02s WALL (      30 calls)
     regterg      :      6.64s CPU      6.81s WALL (      14 calls)

     Called by sum_band:
     sum_band:wei :      0.02s CPU      0.02s WALL (      14 calls)
     sum_band:loo :      0.26s CPU      0.26s WALL (      14 calls)
     sum_band:buf :      0.00s CPU      0.00s WALL (      14 calls)
     sum_band:ini :      0.01s CPU      0.01s WALL (      14 calls)

     Called by *egterg:
     rdiaghg      :      4.23s CPU      4.35s WALL (     277 calls)
     regterg:over :      0.27s CPU      0.28s WALL (     263 calls)
     regterg:upda :      0.16s CPU      0.17s WALL (     263 calls)
     regterg:last :      0.13s CPU      0.13s WALL (      53 calls)
     rdiaghg:chol :      0.14s CPU      0.15s WALL (     277 calls)
     rdiaghg:inve :      0.03s CPU      0.03s WALL (     277 calls)
     rdiaghg:para :      0.37s CPU      0.39s WALL (     554 calls)
     h_psi        :      1.85s CPU      1.90s WALL (     278 calls)
     g_psi        :      0.00s CPU      0.00s WALL (     263 calls)

     Called by h_psi:
     h_psi:calbec :      0.27s CPU      0.29s WALL (     278 calls)
     vloc_psi     :      1.46s CPU      1.49s WALL (     278 calls)
                                        0.00s GPU  (     278 calls)
     add_vuspsi   :      0.11s CPU      0.11s WALL (     278 calls)

     General routines
     calbec       :      0.57s CPU      0.58s WALL (     282 calls)
     fft          :      0.14s CPU      0.16s WALL (     196 calls)
     ffts         :      0.00s CPU      0.00s WALL (      14 calls)
     fftw         :      1.61s CPU      1.64s WALL (   10212 calls)
 
     Parallel routines
 
     PWSCF        :     13.08s CPU     13.63s WALL

 
   This run was terminated on:  13:43: 7  19Nov2025            

=------------------------------------------------------------------------------=
   JOB DONE.
=------------------------------------------------------------------------------=
