
     Program PWSCF v.7.5 starts on 19Nov2025 at 13:42:17 

     This program is part of the open-source Quantum ESPRESSO suite
     for quantum simulation of materials; please cite
         "P. Giannozzi et al., J. Phys.:Condens. Matter 21 395502 (2009);
         "P. Giannozzi et al., J. Phys.:Condens. Matter 29 465901 (2017);
         "P. Giannozzi et al., J. Chem. Phys. 152 154105 (2020);
          URL http://www.quantum-espresso.org", 
     in publications or presentations arising from this work. More details at
     http://www.quantum-espresso.org/quote

     Parallel version (MPI), running on    96 processors

     MPI processes distributed on     2 nodes
     144364 MiB available memory on the printing compute node when the environment starts
 
     Reading input from supercell-011.in

     Current dimensions of program PWSCF are:
     Max number of different atomic species (ntypx) = 10
     Max number of k-points (npk) =  40000
     Max angular momentum in pseudopotentials (lmaxx) =  4

     gamma-point specific algorithms are used
 
     K-points division:     npool     =       2
     R & G space division:  proc/nbgrp/npool/nimage =      48
     Subspace diagonalization in iterative solution of the eigenvalue problem:
     one sub-group per band group will be used
     scalapack distributed-memory algorithm (size of sub-group:  2*  2 procs)

 
     Parallelization info
     --------------------
     sticks:   dense  smooth     PW     G-vecs:    dense   smooth      PW
     Min          59      59     14                 2432     2432     302
     Max          62      62     16                 2442     2442     316
     Sum        2885    2885    725               116921   116921   14771
 
     Using Slab Decomposition
 


     bravais-lattice index     =            0
     lattice parameter (alat)  =      13.4813  a.u.
     unit-cell volume          =    2450.1683 (a.u.)^3
     number of atoms/cell      =           63
     number of atomic types    =            2
     number of electrons       =       254.00 (up: 128.00, down: 126.00)
     number of Kohn-Sham states=          152
     kinetic-energy cutoff     =      50.0000  Ry
     charge density cutoff     =     200.0000  Ry
     scf convergence threshold =      1.0E-08
     mixing beta               =       0.7000
     number of iterations used =            8  plain     mixing
     Exchange-correlation= PBE
                           (   1   4   3   4   0   0   0)

     celldm(1)=  13.481306  celldm(2)=   0.000000  celldm(3)=   0.000000
     celldm(4)=   0.000000  celldm(5)=   0.000000  celldm(6)=   0.000000

     crystal axes: (cart. coord. in units of alat)
               a(1) = (   1.000000   0.000000   0.000000 )  
               a(2) = (   0.000000   1.000000   0.000000 )  
               a(3) = (   0.000000   0.000000   1.000000 )  

     reciprocal axes: (cart. coord. in units 2 pi/alat)
               b(1) = (  1.000000  0.000000  0.000000 )  
               b(2) = (  0.000000  1.000000  0.000000 )  
               b(3) = (  0.000000  0.000000  1.000000 )  


     PseudoPot. # 1 for N  read from file:
     ./N_ONCV_PBE-1.2.upf
     MD5 check sum: 5312fdf34e96954e02a33bdc911c617a
     Pseudo is Norm-conserving, Zval =  5.0
     Generated using ONCVPSP code by D. R. Hamann
     Using radial grid of  602 points,  4 beta functions with: 
                l(1) =   0
                l(2) =   0
                l(3) =   1
                l(4) =   1

     PseudoPot. # 2 for C  read from file:
     ./C_ONCV_PBE-1.2.upf
     MD5 check sum: d60b57d9bdca4133f5fde4b584ee909d
     Pseudo is Norm-conserving, Zval =  4.0
     Generated using ONCVPSP code by D. R. Hamann
     Using radial grid of  602 points,  4 beta functions with: 
                l(1) =   0
                l(2) =   0
                l(3) =   1
                l(4) =   1

     atomic species   valence    mass     pseudopotential
     N                 5.00    14.00670     N ( 1.00)
     C                 4.00    12.01070     C ( 1.00)

     Starting magnetic structure 
     atomic species   magnetization
     N               0.000
     C               0.000

     No symmetry found


                                    s                        frac. trans.

      isym =  1     identity                                     

 cryst.   s( 1) = (     1          0          0      )
                  (     0          1          0      )
                  (     0          0          1      )

 cart.    s( 1) = (  1.0000000  0.0000000  0.0000000 )
                  (  0.0000000  1.0000000  0.0000000 )
                  (  0.0000000  0.0000000  1.0000000 )


   Cartesian axes

     site n.     atom                  positions (alat units)
         1        N      tau(   1) = (   0.9869283   0.9869283   0.9869283  )
         2        C      tau(   2) = (   0.9921390   0.2607625   0.2607625  )
         3        C      tau(   3) = (   0.1236981   0.3746848   0.3746848  )
         4        C      tau(   4) = (   0.2607625   0.9921390   0.2607625  )
         5        C      tau(   5) = (   0.3746848   0.1236981   0.3746848  )
         6        C      tau(   6) = (   0.2607625   0.2607625   0.9921390  )
         7        C      tau(   7) = (   0.3746848   0.3746848   0.1236981  )
         8        C      tau(   8) = (   0.0022353   0.0007517   0.4988587  )
         9        C      tau(   9) = (   0.1251291   0.1251291   0.6250516  )
        10        C      tau(  10) = (   0.0014372   0.2476607   0.7521916  )
        11        C      tau(  11) = (   0.1266329   0.3730745   0.8775065  )
        12        C      tau(  12) = (   0.2476607   0.0014372   0.7521916  )
        13        C      tau(  13) = (   0.3730745   0.1266329   0.8775065  )
        14        C      tau(  14) = (   0.2498467   0.2498467   0.4996267  )
        15        C      tau(  15) = (   0.3749463   0.3749463   0.6249280  )
        16        C      tau(  16) = (   0.0007517   0.4988587   0.0007517  )
        17        C      tau(  17) = (   0.1251291   0.6250516   0.1251291  )
        18        C      tau(  18) = (   0.0014372   0.7521916   0.2476607  )
        19        C      tau(  19) = (   0.1266329   0.8775065   0.3730745  )
        20        C      tau(  20) = (   0.2498467   0.4996267   0.2498467  )
        21        C      tau(  21) = (   0.3749463   0.6249280   0.3749463  )
        22        C      tau(  22) = (   0.2476607   0.7521916   0.0014372  )
        23        C      tau(  23) = (   0.3730745   0.8775065   0.1266329  )
        24        C      tau(  24) = (   0.0010116   0.5014264   0.5014264  )
        25        C      tau(  25) = (   0.1250381   0.6250852   0.6250852  )
        26        C      tau(  26) = (   0.9996941   0.7483805   0.7483805  )
        27        C      tau(  27) = (   0.1189720   0.8751585   0.8751585  )
        28        C      tau(  28) = (   0.2496290   0.5009902   0.7494822  )
        29        C      tau(  29) = (   0.3740517   0.6261334   0.8754230  )
        30        C      tau(  30) = (   0.2496290   0.7494822   0.5009902  )
        31        C      tau(  31) = (   0.3740517   0.8754230   0.6261334  )
        32        C      tau(  32) = (   0.4988587   0.0007517   0.0007517  )
        33        C      tau(  33) = (   0.6250516   0.1251291   0.1251291  )
        34        C      tau(  34) = (   0.4996267   0.2498467   0.2498467  )
        35        C      tau(  35) = (   0.6249280   0.3749463   0.3749463  )
        36        C      tau(  36) = (   0.7521916   0.0014372   0.2476607  )
        37        C      tau(  37) = (   0.8775065   0.1266329   0.3730745  )
        38        C      tau(  38) = (   0.7521916   0.2476607   0.0014372  )
        39        C      tau(  39) = (   0.8775065   0.3730745   0.1266329  )
        40        C      tau(  40) = (   0.5014264   0.0010116   0.5014264  )
        41        C      tau(  41) = (   0.6250852   0.1250381   0.6250852  )
        42        C      tau(  42) = (   0.5009902   0.2496290   0.7494822  )
        43        C      tau(  43) = (   0.6261334   0.3740517   0.8754230  )
        44        C      tau(  44) = (   0.7483805   0.9996941   0.7483805  )
        45        C      tau(  45) = (   0.8751585   0.1189720   0.8751585  )
        46        C      tau(  46) = (   0.7494822   0.2496290   0.5009902  )
        47        C      tau(  47) = (   0.8754230   0.3740517   0.6261334  )
        48        C      tau(  48) = (   0.5014264   0.5014264   0.0010116  )
        49        C      tau(  49) = (   0.6250852   0.6250852   0.1250381  )
        50        C      tau(  50) = (   0.5009902   0.7494822   0.2496290  )
        51        C      tau(  51) = (   0.6261334   0.8754230   0.3740517  )
        52        C      tau(  52) = (   0.7494822   0.5009902   0.2496290  )
        53        C      tau(  53) = (   0.8754230   0.6261334   0.3740517  )
        54        C      tau(  54) = (   0.7483805   0.7483805   0.9996941  )
        55        C      tau(  55) = (   0.8751585   0.8751585   0.1189720  )
        56        C      tau(  56) = (   0.4999757   0.4999757   0.4999757  )
        57        C      tau(  57) = (   0.6249536   0.6249536   0.6249536  )
        58        C      tau(  58) = (   0.4990957   0.7503802   0.7503802  )
        59        C      tau(  59) = (   0.6235333   0.8749829   0.8749829  )
        60        C      tau(  60) = (   0.7503802   0.4990957   0.7503802  )
        61        C      tau(  61) = (   0.8749829   0.6235333   0.8749829  )
        62        C      tau(  62) = (   0.7503802   0.7503802   0.4990957  )
        63        C      tau(  63) = (   0.8749829   0.8749829   0.6235333  )

   Crystallographic axes

     site n.     atom                  positions (cryst. coord.)
         1        N      tau(   1) = (  0.9869283  0.9869283  0.9869283  )
         2        C      tau(   2) = (  0.9921390  0.2607625  0.2607625  )
         3        C      tau(   3) = (  0.1236981  0.3746848  0.3746848  )
         4        C      tau(   4) = (  0.2607625  0.9921390  0.2607625  )
         5        C      tau(   5) = (  0.3746848  0.1236981  0.3746848  )
         6        C      tau(   6) = (  0.2607625  0.2607625  0.9921390  )
         7        C      tau(   7) = (  0.3746848  0.3746848  0.1236981  )
         8        C      tau(   8) = (  0.0022353  0.0007517  0.4988587  )
         9        C      tau(   9) = (  0.1251291  0.1251291  0.6250516  )
        10        C      tau(  10) = (  0.0014372  0.2476607  0.7521916  )
        11        C      tau(  11) = (  0.1266329  0.3730745  0.8775065  )
        12        C      tau(  12) = (  0.2476607  0.0014372  0.7521916  )
        13        C      tau(  13) = (  0.3730745  0.1266329  0.8775065  )
        14        C      tau(  14) = (  0.2498467  0.2498467  0.4996267  )
        15        C      tau(  15) = (  0.3749463  0.3749463  0.6249280  )
        16        C      tau(  16) = (  0.0007517  0.4988587  0.0007517  )
        17        C      tau(  17) = (  0.1251291  0.6250516  0.1251291  )
        18        C      tau(  18) = (  0.0014372  0.7521916  0.2476607  )
        19        C      tau(  19) = (  0.1266329  0.8775065  0.3730745  )
        20        C      tau(  20) = (  0.2498467  0.4996267  0.2498467  )
        21        C      tau(  21) = (  0.3749463  0.6249280  0.3749463  )
        22        C      tau(  22) = (  0.2476607  0.7521916  0.0014372  )
        23        C      tau(  23) = (  0.3730745  0.8775065  0.1266329  )
        24        C      tau(  24) = (  0.0010116  0.5014264  0.5014264  )
        25        C      tau(  25) = (  0.1250381  0.6250852  0.6250852  )
        26        C      tau(  26) = (  0.9996941  0.7483805  0.7483805  )
        27        C      tau(  27) = (  0.1189720  0.8751585  0.8751585  )
        28        C      tau(  28) = (  0.2496290  0.5009902  0.7494822  )
        29        C      tau(  29) = (  0.3740517  0.6261334  0.8754230  )
        30        C      tau(  30) = (  0.2496290  0.7494822  0.5009902  )
        31        C      tau(  31) = (  0.3740517  0.8754230  0.6261334  )
        32        C      tau(  32) = (  0.4988587  0.0007517  0.0007517  )
        33        C      tau(  33) = (  0.6250516  0.1251291  0.1251291  )
        34        C      tau(  34) = (  0.4996267  0.2498467  0.2498467  )
        35        C      tau(  35) = (  0.6249280  0.3749463  0.3749463  )
        36        C      tau(  36) = (  0.7521916  0.0014372  0.2476607  )
        37        C      tau(  37) = (  0.8775065  0.1266329  0.3730745  )
        38        C      tau(  38) = (  0.7521916  0.2476607  0.0014372  )
        39        C      tau(  39) = (  0.8775065  0.3730745  0.1266329  )
        40        C      tau(  40) = (  0.5014264  0.0010116  0.5014264  )
        41        C      tau(  41) = (  0.6250852  0.1250381  0.6250852  )
        42        C      tau(  42) = (  0.5009902  0.2496290  0.7494822  )
        43        C      tau(  43) = (  0.6261334  0.3740517  0.8754230  )
        44        C      tau(  44) = (  0.7483805  0.9996941  0.7483805  )
        45        C      tau(  45) = (  0.8751585  0.1189720  0.8751585  )
        46        C      tau(  46) = (  0.7494822  0.2496290  0.5009902  )
        47        C      tau(  47) = (  0.8754230  0.3740517  0.6261334  )
        48        C      tau(  48) = (  0.5014264  0.5014264  0.0010116  )
        49        C      tau(  49) = (  0.6250852  0.6250852  0.1250381  )
        50        C      tau(  50) = (  0.5009902  0.7494822  0.2496290  )
        51        C      tau(  51) = (  0.6261334  0.8754230  0.3740517  )
        52        C      tau(  52) = (  0.7494822  0.5009902  0.2496290  )
        53        C      tau(  53) = (  0.8754230  0.6261334  0.3740517  )
        54        C      tau(  54) = (  0.7483805  0.7483805  0.9996941  )
        55        C      tau(  55) = (  0.8751585  0.8751585  0.1189720  )
        56        C      tau(  56) = (  0.4999757  0.4999757  0.4999757  )
        57        C      tau(  57) = (  0.6249536  0.6249536  0.6249536  )
        58        C      tau(  58) = (  0.4990957  0.7503802  0.7503802  )
        59        C      tau(  59) = (  0.6235333  0.8749829  0.8749829  )
        60        C      tau(  60) = (  0.7503802  0.4990957  0.7503802  )
        61        C      tau(  61) = (  0.8749829  0.6235333  0.8749829  )
        62        C      tau(  62) = (  0.7503802  0.7503802  0.4990957  )
        63        C      tau(  63) = (  0.8749829  0.8749829  0.6235333  )

     number of k points=     1
                       cart. coord. in units 2pi/alat
        k(    1) = (   0.0000000   0.0000000   0.0000000), wk =   1.0000000

                       cryst. coord.
        k(    1) = (   0.0000000   0.0000000   0.0000000), wk =   1.0000000

     Dense  grid:    58461 G-vectors     FFT dimensions: (  64,  64,  64)

     Dynamical RAM for                 wfc:       0.35 MB

     Dynamical RAM for     wfc (w. buffer):       0.35 MB

     Dynamical RAM for           str. fact:       0.04 MB

     Dynamical RAM for           local pot:       0.00 MB

     Dynamical RAM for          nlocal pot:       1.17 MB

     Dynamical RAM for                qrad:       0.65 MB

     Dynamical RAM for          rho,v,vnew:       0.49 MB

     Dynamical RAM for               rhoin:       0.16 MB

     Dynamical RAM for            rho*nmix:       0.60 MB

     Dynamical RAM for           G-vectors:       0.08 MB

     Dynamical RAM for          h,s,v(r/c):       0.53 MB

     Dynamical RAM for          <psi|beta>:       0.58 MB

     Dynamical RAM for                 psi:       0.71 MB

     Dynamical RAM for                hpsi:       0.71 MB

     Dynamical RAM for      wfcinit/wfcrot:       1.24 MB

     Estimated static dynamical RAM per process >       3.37 MB

     Estimated max dynamical RAM per process >       6.49 MB

     Estimated total dynamical RAM >     594.05 MB
     Generating pointlists ...
     new r_m :   0.0850 (alat units)  1.1454 (a.u.) for type    1
     new r_m :   0.0850 (alat units)  1.1454 (a.u.) for type    2

     Initial potential from superposition of free atoms

     starting charge     252.5655, renormalised to     254.0000
     Starting wfcs are random

     total cpu time spent up to now is        1.4 secs

     Self-consistent Calculation

     iteration #  1     ecut=    50.00 Ry     beta= 0.70
     Davidson diagonalization with overlap

---- Real-time Memory Report at c_bands before calling an iterative solver
           158 MiB given to the printing process from OS
             0 MiB allocation reported by mallinfo(arena+hblkhd)
        143390 MiB available memory on the node where the printing process lives
------------------
     ethr =  1.00E-02,  avg # of iterations = 14.0

     total cpu time spent up to now is        2.2 secs

     total energy              =    -723.29846002 Ry
     estimated scf accuracy    <       3.69050613 Ry

     total magnetization       =     2.00 Bohr mag/cell
     absolute magnetization    =     2.00 Bohr mag/cell

     iteration #  2     ecut=    50.00 Ry     beta= 0.70
     Davidson diagonalization with overlap

---- Real-time Memory Report at c_bands before calling an iterative solver
           164 MiB given to the printing process from OS
             0 MiB allocation reported by mallinfo(arena+hblkhd)
        143342 MiB available memory on the node where the printing process lives
------------------
     ethr =  1.45E-03,  avg # of iterations = 13.0

     total cpu time spent up to now is        2.9 secs

     total energy              =    -723.67759624 Ry
     estimated scf accuracy    <       0.44233436 Ry

     total magnetization       =     2.00 Bohr mag/cell
     absolute magnetization    =     2.07 Bohr mag/cell

     iteration #  3     ecut=    50.00 Ry     beta= 0.70
     Davidson diagonalization with overlap

---- Real-time Memory Report at c_bands before calling an iterative solver
           164 MiB given to the printing process from OS
             0 MiB allocation reported by mallinfo(arena+hblkhd)
        143350 MiB available memory on the node where the printing process lives
------------------
     ethr =  1.74E-04,  avg # of iterations = 16.0

     total cpu time spent up to now is        3.6 secs

     total energy              =    -723.73918897 Ry
     estimated scf accuracy    <       0.86038733 Ry

     total magnetization       =     2.00 Bohr mag/cell
     absolute magnetization    =     2.12 Bohr mag/cell

     iteration #  4     ecut=    50.00 Ry     beta= 0.70
     Davidson diagonalization with overlap

---- Real-time Memory Report at c_bands before calling an iterative solver
           164 MiB given to the printing process from OS
             0 MiB allocation reported by mallinfo(arena+hblkhd)
        143347 MiB available memory on the node where the printing process lives
------------------
     c_bands:  1 eigenvalues not converged
     ethr =  1.74E-04,  avg # of iterations = 20.0

     total cpu time spent up to now is        6.0 secs

     total energy              =    -723.91130944 Ry
     estimated scf accuracy    <       0.00803744 Ry

     total magnetization       =     2.00 Bohr mag/cell
     absolute magnetization    =     2.18 Bohr mag/cell

     iteration #  5     ecut=    50.00 Ry     beta= 0.70
     Davidson diagonalization with overlap

---- Real-time Memory Report at c_bands before calling an iterative solver
           165 MiB given to the printing process from OS
             0 MiB allocation reported by mallinfo(arena+hblkhd)
        143344 MiB available memory on the node where the printing process lives
------------------
     c_bands:  5 eigenvalues not converged
     ethr =  3.16E-06,  avg # of iterations = 20.0

     total cpu time spent up to now is        6.4 secs

     total energy              =    -723.91591077 Ry
     estimated scf accuracy    <       0.00415644 Ry

     total magnetization       =     2.00 Bohr mag/cell
     absolute magnetization    =     2.22 Bohr mag/cell

     iteration #  6     ecut=    50.00 Ry     beta= 0.70
     Davidson diagonalization with overlap

---- Real-time Memory Report at c_bands before calling an iterative solver
           165 MiB given to the printing process from OS
             0 MiB allocation reported by mallinfo(arena+hblkhd)
        143348 MiB available memory on the node where the printing process lives
------------------
     c_bands:  4 eigenvalues not converged
     ethr =  1.64E-06,  avg # of iterations = 20.0

     total cpu time spent up to now is        6.8 secs

     total energy              =    -723.91660924 Ry
     estimated scf accuracy    <       0.00072485 Ry

     total magnetization       =     2.00 Bohr mag/cell
     absolute magnetization    =     2.24 Bohr mag/cell

     iteration #  7     ecut=    50.00 Ry     beta= 0.70
     Davidson diagonalization with overlap

---- Real-time Memory Report at c_bands before calling an iterative solver
           165 MiB given to the printing process from OS
             0 MiB allocation reported by mallinfo(arena+hblkhd)
        143342 MiB available memory on the node where the printing process lives
------------------
     c_bands:  3 eigenvalues not converged
     ethr =  2.85E-07,  avg # of iterations = 20.0

     total cpu time spent up to now is        7.4 secs

     total energy              =    -723.91681335 Ry
     estimated scf accuracy    <       0.00007593 Ry

     total magnetization       =     2.00 Bohr mag/cell
     absolute magnetization    =     2.26 Bohr mag/cell

     iteration #  8     ecut=    50.00 Ry     beta= 0.70
     Davidson diagonalization with overlap

---- Real-time Memory Report at c_bands before calling an iterative solver
           165 MiB given to the printing process from OS
             0 MiB allocation reported by mallinfo(arena+hblkhd)
        143344 MiB available memory on the node where the printing process lives
------------------
     c_bands:  1 eigenvalues not converged
     ethr =  2.99E-08,  avg # of iterations = 20.0

     total cpu time spent up to now is        8.0 secs

     total energy              =    -723.91684253 Ry
     estimated scf accuracy    <       0.00002215 Ry

     total magnetization       =     2.00 Bohr mag/cell
     absolute magnetization    =     2.27 Bohr mag/cell

     iteration #  9     ecut=    50.00 Ry     beta= 0.70
     Davidson diagonalization with overlap

---- Real-time Memory Report at c_bands before calling an iterative solver
           165 MiB given to the printing process from OS
             0 MiB allocation reported by mallinfo(arena+hblkhd)
        143337 MiB available memory on the node where the printing process lives
------------------
     c_bands:  3 eigenvalues not converged
     ethr =  8.72E-09,  avg # of iterations = 20.0

     total cpu time spent up to now is        8.6 secs

     total energy              =    -723.91684997 Ry
     estimated scf accuracy    <       0.00000720 Ry

     total magnetization       =     2.00 Bohr mag/cell
     absolute magnetization    =     2.28 Bohr mag/cell

     iteration # 10     ecut=    50.00 Ry     beta= 0.70
     Davidson diagonalization with overlap

---- Real-time Memory Report at c_bands before calling an iterative solver
           165 MiB given to the printing process from OS
             0 MiB allocation reported by mallinfo(arena+hblkhd)
        143336 MiB available memory on the node where the printing process lives
------------------
     c_bands:  1 eigenvalues not converged
     ethr =  2.84E-09,  avg # of iterations = 20.0

     total cpu time spent up to now is        9.4 secs

     total energy              =    -723.91685299 Ry
     estimated scf accuracy    <       0.00000083 Ry

     total magnetization       =     2.00 Bohr mag/cell
     absolute magnetization    =     2.28 Bohr mag/cell

     iteration # 11     ecut=    50.00 Ry     beta= 0.70
     Davidson diagonalization with overlap

---- Real-time Memory Report at c_bands before calling an iterative solver
           166 MiB given to the printing process from OS
             0 MiB allocation reported by mallinfo(arena+hblkhd)
        143344 MiB available memory on the node where the printing process lives
------------------
     c_bands:  1 eigenvalues not converged
     ethr =  3.27E-10,  avg # of iterations = 19.0

     total cpu time spent up to now is       10.0 secs

     total energy              =    -723.91685358 Ry
     estimated scf accuracy    <       0.00000018 Ry

     total magnetization       =     2.00 Bohr mag/cell
     absolute magnetization    =     2.29 Bohr mag/cell

     iteration # 12     ecut=    50.00 Ry     beta= 0.70
     Davidson diagonalization with overlap

---- Real-time Memory Report at c_bands before calling an iterative solver
           166 MiB given to the printing process from OS
             0 MiB allocation reported by mallinfo(arena+hblkhd)
        143341 MiB available memory on the node where the printing process lives
------------------
     c_bands:  1 eigenvalues not converged
     ethr =  7.24E-11,  avg # of iterations = 19.0

     total cpu time spent up to now is       10.8 secs

     total energy              =    -723.91685368 Ry
     estimated scf accuracy    <       0.00000005 Ry

     total magnetization       =     2.00 Bohr mag/cell
     absolute magnetization    =     2.29 Bohr mag/cell

     iteration # 13     ecut=    50.00 Ry     beta= 0.70
     Davidson diagonalization with overlap

---- Real-time Memory Report at c_bands before calling an iterative solver
           166 MiB given to the printing process from OS
             0 MiB allocation reported by mallinfo(arena+hblkhd)
        143341 MiB available memory on the node where the printing process lives
------------------
     c_bands:  1 eigenvalues not converged
     ethr =  2.08E-11,  avg # of iterations = 20.0

     total cpu time spent up to now is       11.5 secs

     total energy              =    -723.91685371 Ry
     estimated scf accuracy    <       0.00000001 Ry

     total magnetization       =     2.00 Bohr mag/cell
     absolute magnetization    =     2.29 Bohr mag/cell

     iteration # 14     ecut=    50.00 Ry     beta= 0.70
     Davidson diagonalization with overlap

---- Real-time Memory Report at c_bands before calling an iterative solver
           166 MiB given to the printing process from OS
             0 MiB allocation reported by mallinfo(arena+hblkhd)
        143341 MiB available memory on the node where the printing process lives
------------------
     c_bands:  5 eigenvalues not converged
     ethr =  4.57E-12,  avg # of iterations = 20.0
 
     Magnetic moment per site  (integrated on atomic sphere of radius R)
     atom   1 (R=0.085)  charge=  2.8976  magn=  0.0040
     atom   2 (R=0.085)  charge=  1.8130  magn=  0.2494
     atom   3 (R=0.085)  charge=  1.8113  magn= -0.0087
     atom   4 (R=0.085)  charge=  1.8131  magn=  0.2493
     atom   5 (R=0.085)  charge=  1.8113  magn= -0.0087
     atom   6 (R=0.085)  charge=  1.8130  magn=  0.2494
     atom   7 (R=0.085)  charge=  1.8113  magn= -0.0087
     atom   8 (R=0.085)  charge=  1.8005  magn=  0.0085
     atom   9 (R=0.085)  charge=  1.8104  magn= -0.0018
     atom  10 (R=0.085)  charge=  1.7945  magn=  0.0054
     atom  11 (R=0.085)  charge=  1.8030  magn= -0.0034
     atom  12 (R=0.085)  charge=  1.7947  magn=  0.0054
     atom  13 (R=0.085)  charge=  1.8030  magn= -0.0034
     atom  14 (R=0.085)  charge=  1.8002  magn=  0.0086
     atom  15 (R=0.085)  charge=  1.8013  magn= -0.0019
     atom  16 (R=0.085)  charge=  1.8016  magn=  0.0085
     atom  17 (R=0.085)  charge=  1.8084  magn= -0.0018
     atom  18 (R=0.085)  charge=  1.7945  magn=  0.0054
     atom  19 (R=0.085)  charge=  1.8050  magn= -0.0034
     atom  20 (R=0.085)  charge=  1.8001  magn=  0.0086
     atom  21 (R=0.085)  charge=  1.8013  magn= -0.0019
     atom  22 (R=0.085)  charge=  1.7946  magn=  0.0054
     atom  23 (R=0.085)  charge=  1.8030  magn= -0.0034
     atom  24 (R=0.085)  charge=  1.8004  magn=  0.0181
     atom  25 (R=0.085)  charge=  1.8200  magn=  0.0089
     atom  26 (R=0.085)  charge=  1.8120  magn=  0.0032
     atom  27 (R=0.085)  charge=  1.7813  magn= -0.0000
     atom  28 (R=0.085)  charge=  1.8008  magn=  0.0212
     atom  29 (R=0.085)  charge=  1.7953  magn= -0.0013
     atom  30 (R=0.085)  charge=  1.8009  magn=  0.0213
     atom  31 (R=0.085)  charge=  1.7954  magn= -0.0013
     atom  32 (R=0.085)  charge=  1.8016  magn=  0.0085
     atom  33 (R=0.085)  charge=  1.8084  magn= -0.0018
     atom  34 (R=0.085)  charge=  1.8001  magn=  0.0086
     atom  35 (R=0.085)  charge=  1.8013  magn= -0.0019
     atom  36 (R=0.085)  charge=  1.7945  magn=  0.0054
     atom  37 (R=0.085)  charge=  1.8011  magn= -0.0034
     atom  38 (R=0.085)  charge=  1.7946  magn=  0.0054
     atom  39 (R=0.085)  charge=  1.8030  magn= -0.0034
     atom  40 (R=0.085)  charge=  1.8004  magn=  0.0181
     atom  41 (R=0.085)  charge=  1.8200  magn=  0.0089
     atom  42 (R=0.085)  charge=  1.8008  magn=  0.0212
     atom  43 (R=0.085)  charge=  1.7953  magn= -0.0013
     atom  44 (R=0.085)  charge=  1.8119  magn=  0.0031
     atom  45 (R=0.085)  charge=  1.7813  magn= -0.0000
     atom  46 (R=0.085)  charge=  1.8007  magn=  0.0211
     atom  47 (R=0.085)  charge=  1.7953  magn= -0.0013
     atom  48 (R=0.085)  charge=  1.8004  magn=  0.0181
     atom  49 (R=0.085)  charge=  1.8200  magn=  0.0089
     atom  50 (R=0.085)  charge=  1.8008  magn=  0.0212
     atom  51 (R=0.085)  charge=  1.7953  magn= -0.0013
     atom  52 (R=0.085)  charge=  1.8008  magn=  0.0212
     atom  53 (R=0.085)  charge=  1.7953  magn= -0.0013
     atom  54 (R=0.085)  charge=  1.8120  magn=  0.0032
     atom  55 (R=0.085)  charge=  1.7813  magn= -0.0000
     atom  56 (R=0.085)  charge=  1.8051  magn=  0.0010
     atom  57 (R=0.085)  charge=  1.7981  magn=  0.0010
     atom  58 (R=0.085)  charge=  1.8061  magn=  0.0018
     atom  59 (R=0.085)  charge=  1.8021  magn= -0.0009
     atom  60 (R=0.085)  charge=  1.8061  magn=  0.0018
     atom  61 (R=0.085)  charge=  1.8021  magn= -0.0009
     atom  62 (R=0.085)  charge=  1.8060  magn=  0.0018
     atom  63 (R=0.085)  charge=  1.8002  magn= -0.0009

     total cpu time spent up to now is       12.3 secs

     End of self-consistent calculation

 ------ SPIN UP ------------


          k = 0.0000 0.0000 0.0000 (  7386 PWs)   bands (ev):

    -8.5684  -7.0163  -6.2668  -6.2636  -6.1598  -6.1561  -5.8782  -4.9410
    -4.1279  -4.1224  -4.0888  -4.0883  -4.0308  -4.0240  -3.9799  -3.9086
    -3.8642  -3.8607  -3.3548  -2.9518  -2.6666  -2.6650  -2.1133  -0.3592
    -0.3578  -0.3174  -0.2906  -0.0884   0.1885   0.1930   0.2954   0.2957
     0.3709   0.6089   0.8214   0.8242   0.9867   0.9917   1.0238   1.0488
     1.0525   1.0771   1.3038   1.3052   3.0575   3.8881   3.8889   4.0410
     4.2327   4.2367   4.2468   4.2541   4.2898   4.2913   4.4357   4.4379
     4.5005   4.5023   4.6013   4.6812   4.6857   4.6886   4.6918   4.7770
     4.7792   4.9149   4.9671   4.9692   5.0595   5.2255   5.2295   5.3013
     5.3689   5.3727   5.4089   5.4215   5.4231   6.0474   6.0479   6.0808
     6.6433   6.6468   6.7637   7.0059   7.0274   7.0291   7.5199   8.3318
     8.3349   8.4248   8.4957   8.4967   8.6674   8.6748   8.8289   8.8337
     8.8534   8.8552   8.8946   8.8966   8.9431   9.2963   9.3065   9.3099
     9.7209   9.7308   9.9334   9.9413   9.9447   9.9573   9.9799  10.0053
    10.0065  10.0068  10.0347  10.0379  10.1352  10.1363  10.2831  10.2866
    10.3559  10.9870  12.2188  12.4685  12.4759  13.8186  14.7976  14.7986
    17.3732  17.3888  17.3922  17.5573  17.5617  17.5631  17.8924  17.9234
    17.9316  18.0139  18.0177  18.3741  18.9844  18.9875  19.0272  20.7124
    20.8215  20.8291  20.8699  20.9563  20.9580  21.0257  21.0304  21.0808

     occupation numbers 
     1.0000   1.0000   1.0000   1.0000   1.0000   1.0000   1.0000   1.0000
     1.0000   1.0000   1.0000   1.0000   1.0000   1.0000   1.0000   1.0000
     1.0000   1.0000   1.0000   1.0000   1.0000   1.0000   1.0000   1.0000
     1.0000   1.0000   1.0000   1.0000   1.0000   1.0000   1.0000   1.0000
     1.0000   1.0000   1.0000   1.0000   1.0000   1.0000   1.0000   1.0000
     1.0000   1.0000   1.0000   1.0000   1.0000   1.0000   1.0000   1.0000
     1.0000   1.0000   1.0000   1.0000   1.0000   1.0000   1.0000   1.0000
     1.0000   1.0000   1.0000   1.0000   1.0000   1.0000   1.0000   1.0000
     1.0000   1.0000   1.0000   1.0000   1.0000   1.0000   1.0000   1.0000
     1.0000   1.0000   1.0000   1.0000   1.0000   1.0000   1.0000   1.0000
     1.0000   1.0000   1.0000   1.0000   1.0000   1.0000   1.0000   1.0000
     1.0000   1.0000   1.0000   1.0000   1.0000   1.0000   1.0000   1.0000
     1.0000   1.0000   1.0000   1.0000   1.0000   1.0000   1.0000   1.0000
     1.0000   1.0000   1.0000   1.0000   1.0000   1.0000   1.0000   1.0000
     1.0000   1.0000   1.0000   1.0000   1.0000   1.0000   1.0000   1.0000
     1.0000   1.0000   1.0000   1.0000   1.0000   1.0000   1.0000   1.0000
     0.0000   0.0000   0.0000   0.0000   0.0000   0.0000   0.0000   0.0000
     0.0000   0.0000   0.0000   0.0000   0.0000   0.0000   0.0000   0.0000
     0.0000   0.0000   0.0000   0.0000   0.0000   0.0000   0.0000   0.0000

 ------ SPIN DOWN ----------


          k = 0.0000 0.0000 0.0000 (  7386 PWs)   bands (ev):

    -8.5451  -7.0019  -6.2475  -6.2442  -6.1179  -6.1142  -5.8414  -4.9252
    -4.1079  -4.1024  -4.0730  -4.0723  -3.9748  -3.9683  -3.9540  -3.8967
    -3.8191  -3.8148  -3.3113  -2.9339  -2.6125  -2.6110  -1.9726  -0.3424
    -0.3409  -0.2995  -0.2688  -0.0222   0.2042   0.2087   0.3306   0.3309
     0.3966   0.6413   0.8340   0.8368   1.0115   1.0160   1.0564   1.0645
     1.0677   1.0952   1.4750   1.4764   3.1722   3.9086   3.9094   4.0636
     4.2676   4.2720   4.2730   4.2866   4.3094   4.3122   4.4849   4.4860
     4.5213   4.5236   4.6284   4.7015   4.7037   4.7069   4.7081   4.8138
     4.8162   4.9268   4.9989   5.0013   5.1436   5.2598   5.2633   5.3251
     5.3798   5.3837   5.4214   5.4812   5.4835   6.1069   6.1076   6.1218
     6.6697   6.6731   6.7981   7.0492   7.1199   7.1217   7.6984   8.3701
     8.3731   8.4614   8.5280   8.5289   8.6977   8.7052   8.8648   8.8703
     8.8726   8.8816   8.9474   8.9485   8.9668   9.3261   9.3417   9.3450
     9.7501   9.7601   9.9489   9.9555   9.9588   9.9838  10.0078  10.0189
    10.0256  10.0266  10.0676  10.0714  10.1676  10.1687  10.3387  10.3417
    10.4172  11.3840  12.5261  12.6155  12.6233  14.2856  16.1593  16.1604
    17.4026  17.4070  17.4101  17.5814  17.6150  17.6160  17.9167  17.9438
    17.9517  18.0525  18.0557  18.4861  19.0675  19.0753  19.0768  20.7616
    20.8347  20.8423  20.8840  20.9728  20.9747  21.0519  21.0556  21.0930

     occupation numbers 
     1.0000   1.0000   1.0000   1.0000   1.0000   1.0000   1.0000   1.0000
     1.0000   1.0000   1.0000   1.0000   1.0000   1.0000   1.0000   1.0000
     1.0000   1.0000   1.0000   1.0000   1.0000   1.0000   1.0000   1.0000
     1.0000   1.0000   1.0000   1.0000   1.0000   1.0000   1.0000   1.0000
     1.0000   1.0000   1.0000   1.0000   1.0000   1.0000   1.0000   1.0000
     1.0000   1.0000   1.0000   1.0000   1.0000   1.0000   1.0000   1.0000
     1.0000   1.0000   1.0000   1.0000   1.0000   1.0000   1.0000   1.0000
     1.0000   1.0000   1.0000   1.0000   1.0000   1.0000   1.0000   1.0000
     1.0000   1.0000   1.0000   1.0000   1.0000   1.0000   1.0000   1.0000
     1.0000   1.0000   1.0000   1.0000   1.0000   1.0000   1.0000   1.0000
     1.0000   1.0000   1.0000   1.0000   1.0000   1.0000   1.0000   1.0000
     1.0000   1.0000   1.0000   1.0000   1.0000   1.0000   1.0000   1.0000
     1.0000   1.0000   1.0000   1.0000   1.0000   1.0000   1.0000   1.0000
     1.0000   1.0000   1.0000   1.0000   1.0000   1.0000   1.0000   1.0000
     1.0000   1.0000   1.0000   1.0000   1.0000   1.0000   1.0000   1.0000
     1.0000   1.0000   1.0000   1.0000   1.0000   1.0000   0.0000   0.0000
     0.0000   0.0000   0.0000   0.0000   0.0000   0.0000   0.0000   0.0000
     0.0000   0.0000   0.0000   0.0000   0.0000   0.0000   0.0000   0.0000
     0.0000   0.0000   0.0000   0.0000   0.0000   0.0000   0.0000   0.0000

     highest occupied, lowest unoccupied level (ev):    14.7986   16.1593

!    total energy              =    -723.91685372 Ry
     estimated scf accuracy    <          3.8E-09 Ry

     The total energy is the sum of the following terms:
     one-electron contribution =     232.81139283 Ry
     hartree contribution      =      70.08936120 Ry
     xc contribution           =    -226.74487073 Ry
     ewald contribution        =    -800.07273702 Ry

     total magnetization       =     2.00 Bohr mag/cell
     absolute magnetization    =     2.29 Bohr mag/cell

     convergence has been achieved in  14 iterations

     Forces acting on atoms (cartesian axes, Ry/au):

     atom    1 type  1   force =     0.00233513    0.00234277    0.00231972
     atom    2 type  2   force =    -0.00086113    0.00044507   -0.00012461
     atom    3 type  2   force =     0.00075191    0.00085658    0.00086424
     atom    4 type  2   force =     0.00071504   -0.00057306   -0.00047259
     atom    5 type  2   force =     0.00082755    0.00077802    0.00089777
     atom    6 type  2   force =     0.00019641    0.00019545   -0.00026860
     atom    7 type  2   force =     0.00086781    0.00090616    0.00077153
     atom    8 type  2   force =    -0.01820468    0.00008399   -0.00018870
     atom    9 type  2   force =     0.00406421    0.00096908    0.00075687
     atom   10 type  2   force =    -0.00051458   -0.00063832    0.00005090
     atom   11 type  2   force =    -0.00062378    0.00041645   -0.00063509
     atom   12 type  2   force =     0.00030547    0.00046817    0.00104021
     atom   13 type  2   force =     0.00055205   -0.00087125   -0.00048246
     atom   14 type  2   force =     0.00053138    0.00056924    0.00005293
     atom   15 type  2   force =    -0.00016275   -0.00013534   -0.00007783
     atom   16 type  2   force =     0.00014340   -0.00057182    0.00030568
     atom   17 type  2   force =     0.00017398   -0.00009053    0.00011324
     atom   18 type  2   force =    -0.00047644    0.00073377    0.00003064
     atom   19 type  2   force =     0.00320202   -0.00145562   -0.00049528
     atom   20 type  2   force =    -0.00006451   -0.00028294   -0.00006157
     atom   21 type  2   force =    -0.00016783   -0.00004929   -0.00014420
     atom   22 type  2   force =    -0.00027371    0.00042208    0.00008277
     atom   23 type  2   force =     0.00062382   -0.00047572   -0.00082147
     atom   24 type  2   force =     0.00022671    0.00000132   -0.00000512
     atom   25 type  2   force =    -0.00002729    0.00004529   -0.00002156
     atom   26 type  2   force =    -0.00066314   -0.00055907    0.00009395
     atom   27 type  2   force =     0.00087522   -0.00155985   -0.00161220
     atom   28 type  2   force =    -0.00028509    0.00004645   -0.00002597
     atom   29 type  2   force =    -0.00058603    0.00031795    0.00036476
     atom   30 type  2   force =     0.00030369   -0.00067793   -0.00029575
     atom   31 type  2   force =    -0.00058843    0.00041199    0.00027534
     atom   32 type  2   force =    -0.00054169    0.00031889    0.00032097
     atom   33 type  2   force =    -0.00011389    0.00012186    0.00010542
     atom   34 type  2   force =    -0.00030855   -0.00005066   -0.00009847
     atom   35 type  2   force =     0.00008212   -0.00030282   -0.00032165
     atom   36 type  2   force =     0.00091997   -0.00020198    0.00030058
     atom   37 type  2   force =     0.00337254   -0.00160049    0.00141241
     atom   38 type  2   force =     0.00041523   -0.00025952    0.00011786
     atom   39 type  2   force =    -0.00043381    0.00060988   -0.00090070
     atom   40 type  2   force =     0.00007805    0.00018877    0.00000120
     atom   41 type  2   force =    -0.00004279    0.00008517    0.00002410
     atom   42 type  2   force =    -0.00002751   -0.00031476   -0.00001111
     atom   43 type  2   force =     0.00032084   -0.00058874    0.00031716
     atom   44 type  2   force =     0.00033450    0.00028197   -0.00085776
     atom   45 type  2   force =    -0.00162566    0.00094794   -0.00151331
     atom   46 type  2   force =     0.00063309   -0.00094573    0.00035062
     atom   47 type  2   force =     0.00026664   -0.00052076    0.00031929
     atom   48 type  2   force =     0.00002781    0.00001085    0.00018759
     atom   49 type  2   force =    -0.00002965    0.00002078    0.00004562
     atom   50 type  2   force =    -0.00001513    0.00003323   -0.00030588
     atom   51 type  2   force =     0.00031498    0.00031296   -0.00063371
     atom   52 type  2   force =     0.00003633    0.00000579   -0.00032130
     atom   53 type  2   force =     0.00027611    0.00029467   -0.00057251
     atom   54 type  2   force =    -0.00020906   -0.00024749   -0.00007036
     atom   55 type  2   force =    -0.00162822   -0.00153818    0.00087523
     atom   56 type  2   force =    -0.00003538   -0.00008332   -0.00008904
     atom   57 type  2   force =     0.00007100    0.00009581    0.00008608
     atom   58 type  2   force =    -0.00033031    0.00006500    0.00007639
     atom   59 type  2   force =    -0.00027972    0.00014878    0.00015865
     atom   60 type  2   force =     0.00009333   -0.00026044    0.00009435
     atom   61 type  2   force =     0.00037135   -0.00041713    0.00031874
     atom   62 type  2   force =     0.00065929    0.00070654   -0.00063031
     atom   63 type  2   force =     0.00415178    0.00101399   -0.00107366
     The non-local contrib.  to forces
     atom    1 type  1   force =    -0.73718864   -0.73720252   -0.73712161
     atom    2 type  2   force =    -0.22459799    0.21217410    0.21007846
     atom    3 type  2   force =     0.07004999    0.06944029    0.06949381
     atom    4 type  2   force =     0.21199938   -0.22517582    0.21077803
     atom    5 type  2   force =     0.06917530    0.06989240    0.06938636
     atom    6 type  2   force =     0.21097661    0.21114270   -0.22501131
     atom    7 type  2   force =     0.06939298    0.06938774    0.06997257
     atom    8 type  2   force =    -0.03045025   -0.00878478    0.05266980
     atom    9 type  2   force =    -0.00114891   -0.00405524    0.01629060
     atom   10 type  2   force =    -0.04375932   -0.01407120   -0.02048913
     atom   11 type  2   force =    -0.07176539    0.05968946   -0.08333047
     atom   12 type  2   force =    -0.01231180   -0.04412233   -0.01881721
     atom   13 type  2   force =     0.06032735   -0.07146105   -0.08258952
     atom   14 type  2   force =    -0.00108975   -0.00123170    0.05141478
     atom   15 type  2   force =     0.01383120    0.01392617    0.00043810
     atom   16 type  2   force =    -0.00791143    0.05209600   -0.00822286
     atom   17 type  2   force =    -0.00512297    0.01601977   -0.00442341
     atom   18 type  2   force =    -0.04373081   -0.01833442   -0.01198307
     atom   19 type  2   force =    -0.06784637   -0.08365239    0.05931135
     atom   20 type  2   force =    -0.00181484    0.05145045   -0.00180134
     atom   21 type  2   force =     0.01384470    0.00013927    0.01364113
     atom   22 type  2   force =    -0.01306889   -0.01947407   -0.04406602
     atom   23 type  2   force =     0.06040864   -0.08298214   -0.07184189
     atom   24 type  2   force =    -0.07380872    0.02807688    0.02809164
     atom   25 type  2   force =    -0.01133403    0.01675625    0.01662847
     atom   26 type  2   force =    -0.06001253   -0.02605837   -0.02388163
     atom   27 type  2   force =    -0.11774175    0.13557906    0.13551214
     atom   28 type  2   force =     0.06233237    0.02810801   -0.01919831
     atom   29 type  2   force =     0.00166945    0.01868593    0.00550292
     atom   30 type  2   force =     0.06305486   -0.01981810    0.02823627
     atom   31 type  2   force =     0.00148747    0.00555299    0.01863797
     atom   32 type  2   force =     0.05244826   -0.00832531   -0.00823065
     atom   33 type  2   force =     0.01572573   -0.00491540   -0.00460216
     atom   34 type  2   force =     0.05132539   -0.00176714   -0.00171500
     atom   35 type  2   force =     0.00058643    0.01340768    0.01369995
     atom   36 type  2   force =    -0.01878639   -0.04411855   -0.01255922
     atom   37 type  2   force =    -0.07888670   -0.07222956    0.06086522
     atom   38 type  2   force =    -0.01939831   -0.01305221   -0.04413405
     atom   39 type  2   force =    -0.08304609    0.06048925   -0.07190968
     atom   40 type  2   force =     0.02805562   -0.07382292    0.02821616
     atom   41 type  2   force =     0.01664734   -0.01141836    0.01681175
     atom   42 type  2   force =     0.02802006    0.06238618   -0.01922627
     atom   43 type  2   force =     0.01870031    0.00164058    0.00550805
     atom   44 type  2   force =    -0.02419082   -0.06043420   -0.02540112
     atom   45 type  2   force =     0.13551339   -0.11771542    0.13527169
     atom   46 type  2   force =    -0.01852856    0.06177727    0.02812197
     atom   47 type  2   force =     0.00563533    0.00152747    0.01883684
     atom   48 type  2   force =     0.02813534    0.02816076   -0.07381938
     atom   49 type  2   force =     0.01687949    0.01680421   -0.01144925
     atom   50 type  2   force =     0.02798364   -0.01925633    0.06228805
     atom   51 type  2   force =     0.01852580    0.00544927    0.00159570
     atom   52 type  2   force =    -0.01925859    0.02817780    0.06240225
     atom   53 type  2   force =     0.00563309    0.01878212    0.00147985
     atom   54 type  2   force =    -0.02496842   -0.02483955   -0.06036108
     atom   55 type  2   force =     0.13553613    0.13521729   -0.11778442
     atom   56 type  2   force =     0.01648185    0.01613418    0.01614672
     atom   57 type  2   force =     0.00773451    0.00785614    0.00754409
     atom   58 type  2   force =     0.01341881   -0.01279793   -0.01287814
     atom   59 type  2   force =     0.01077126   -0.01050126   -0.01078272
     atom   60 type  2   force =    -0.01286819    0.01349798   -0.01291275
     atom   61 type  2   force =    -0.01081013    0.01012886   -0.01003064
     atom   62 type  2   force =    -0.01211840   -0.01230400    0.01355282
     atom   63 type  2   force =    -0.00714821   -0.01001426    0.01012928
     The ionic contribution  to forces
     atom    1 type  1   force =     3.03626630    3.03981202    3.03975845
     atom    2 type  2   force =     2.25205324   -2.16037746   -2.15974276
     atom    3 type  2   force =     0.42943510   -0.74620238   -0.74962230
     atom    4 type  2   force =    -2.15487001    2.25712345   -2.16835834
     atom    5 type  2   force =    -0.74093045    0.43415631   -0.75115610
     atom    6 type  2   force =    -2.15981941   -2.15938462    2.25749244
     atom    7 type  2   force =    -0.74756642   -0.74826437    0.43129022
     atom    8 type  2   force =     0.17287262    0.24484043   -0.70306045
     atom    9 type  2   force =     0.11291061    0.13773214   -0.19951584
     atom   10 type  2   force =     0.20498772    0.06569444    0.52741856
     atom   11 type  2   force =    -0.29234676   -0.72397420    0.72965909
     atom   12 type  2   force =     0.06973948    0.21034811    0.53567517
     atom   13 type  2   force =    -0.72237666   -0.29072583    0.73030887
     atom   14 type  2   force =    -0.19495986   -0.19091197   -0.67194169
     atom   15 type  2   force =    -0.15639809   -0.15738213   -0.04773726
     atom   16 type  2   force =     0.24223114   -0.70063882    0.24340118
     atom   17 type  2   force =     0.11117083   -0.22586597    0.11175139
     atom   18 type  2   force =     0.20497039    0.52742236    0.06569821
     atom   19 type  2   force =    -0.28999068    0.70359622   -0.75056854
     atom   20 type  2   force =    -0.19916804   -0.67195662   -0.19996951
     atom   21 type  2   force =    -0.15640515   -0.04946324   -0.15910576
     atom   22 type  2   force =     0.06579317    0.52673736    0.21029894
     atom   23 type  2   force =    -0.72230195    0.72859307   -0.29250198
     atom   24 type  2   force =     0.03047335   -0.19225911   -0.19225923
     atom   25 type  2   force =     0.09400365   -0.07495779   -0.07159662
     atom   26 type  2   force =     0.11003299   -0.17682090   -0.17693995
     atom   27 type  2   force =     1.33985001    0.24179532    0.24504990
     atom   28 type  2   force =    -0.08589033   -0.22707256    0.15737241
     atom   29 type  2   force =    -0.15778240   -0.00280970    0.23024748
     atom   30 type  2   force =    -0.08180531    0.14842806   -0.22699857
     atom   31 type  2   force =    -0.15127938    0.22737637    0.00010149
     atom   32 type  2   force =    -0.69841267    0.24340114    0.24340072
     atom   33 type  2   force =    -0.22312835    0.11175424    0.11345388
     atom   34 type  2   force =    -0.66894182   -0.19926956   -0.19930742
     atom   35 type  2   force =    -0.04606457   -0.15975059   -0.15805856
     atom   36 type  2   force =     0.53165331    0.21030242    0.07390136
     atom   37 type  2   force =     0.72972623   -0.31659816   -0.69917893
     atom   38 type  2   force =     0.52755300    0.06501430    0.21035171
     atom   39 type  2   force =     0.72802134   -0.72504508   -0.29071241
     atom   40 type  2   force =    -0.18330804    0.03330790   -0.19225914
     atom   41 type  2   force =    -0.06499467    0.09380700   -0.07498141
     atom   42 type  2   force =    -0.22405800   -0.08600211    0.15669764
     atom   43 type  2   force =    -0.00132735   -0.15924137    0.22948490
     atom   44 type  2   force =    -0.17247339    0.11535087   -0.18496720
     atom   45 type  2   force =     0.24058086    1.34123512    0.24024399
     atom   46 type  2   force =     0.16111256   -0.09418926   -0.22714168
     atom   47 type  2   force =     0.22771970   -0.16133301   -0.00342796
     atom   48 type  2   force =    -0.19116499   -0.19225918    0.03330789
     atom   49 type  2   force =    -0.07145901   -0.07218505    0.09656831
     atom   50 type  2   force =    -0.22406807    0.15668747   -0.08601222
     atom   51 type  2   force =     0.00517359    0.23229820   -0.15643501
     atom   52 type  2   force =     0.15685266   -0.22706776   -0.08532931
     atom   53 type  2   force =     0.22772191    0.00003810   -0.15787886
     atom   54 type  2   force =    -0.17671144   -0.17620636    0.11532413
     atom   55 type  2   force =     0.24064056    0.24365981    1.34448541
     atom   56 type  2   force =    -0.10656575   -0.10879176   -0.10879182
     atom   57 type  2   force =    -0.01994388   -0.02098048   -0.02265081
     atom   58 type  2   force =    -0.13074401    0.01037714    0.01042513
     atom   59 type  2   force =    -0.30954848    0.12432173    0.12267531
     atom   60 type  2   force =     0.01054958   -0.13374856    0.00972425
     atom   61 type  2   force =     0.12273745   -0.31122520    0.12329024
     atom   62 type  2   force =     0.01471944    0.01855222   -0.13373992
     atom   63 type  2   force =     0.12525258    0.14919786   -0.33691111
     The local contribution  to forces
     atom    1 type  1   force =    -2.29674024   -2.30023363   -2.30026538
     atom    2 type  2   force =    -2.02831030    1.94865551    1.94955453
     atom    3 type  2   force =    -0.49871889    0.67760820    0.68099161
     atom    4 type  2   force =     1.94361677   -2.03248780    1.95712148
     atom    5 type  2   force =     0.67260760   -0.50325348    0.68266659
     atom    6 type  2   force =     1.94906745    1.94843997   -2.03270430
     atom    7 type  2   force =     0.67905985    0.67976728   -0.50046238
     atom    8 type  2   force =    -0.16062090   -0.23594075    0.65020452
     atom    9 type  2   force =    -0.10768094   -0.13268958    0.18398824
     atom   10 type  2   force =    -0.16173445   -0.05226222   -0.50685576
     atom   11 type  2   force =     0.36350938    0.66469257   -0.64691835
     atom   12 type  2   force =    -0.05709851   -0.16572741   -0.51579218
     atom   13 type  2   force =     0.66262677    0.36133677   -0.64815856
     atom   14 type  2   force =     0.19660411    0.19271232    0.62057894
     atom   15 type  2   force =     0.14242714    0.14330533    0.04723423
     atom   16 type  2   force =    -0.23416638    0.64795982   -0.23482354
     atom   17 type  2   force =    -0.10586120    0.20974319   -0.10718439
     atom   18 type  2   force =    -0.16171229   -0.50834824   -0.05367432
     atom   19 type  2   force =     0.36105511   -0.62137258    0.69076485
     atom   20 type  2   force =     0.20093562    0.62020561    0.20171878
     atom   21 type  2   force =     0.14241420    0.04927018    0.14532013
     atom   22 type  2   force =    -0.05297650   -0.50683378   -0.16610810
     atom   23 type  2   force =     0.66254574   -0.64605660    0.36355457
     atom   24 type  2   force =     0.04356718    0.16416703    0.16415832
     atom   25 type  2   force =    -0.08268202    0.05824044    0.05495699
     atom   26 type  2   force =    -0.05067845    0.20233121    0.20094345
     atom   27 type  2   force =    -1.22122375   -0.37890693   -0.38213044
     atom   28 type  2   force =     0.02329823    0.19899607   -0.13817108
     atom   29 type  2   force =     0.15554816   -0.01556752   -0.23534448
     atom   30 type  2   force =     0.01907809   -0.12927661    0.19846780
     atom   31 type  2   force =     0.14922799   -0.23248962   -0.01845642
     atom   32 type  2   force =     0.64544027   -0.23472723   -0.23480331
     atom   33 type  2   force =     0.20728945   -0.10670335   -0.10871336
     atom   34 type  2   force =     0.61732087    0.20098185    0.20093664
     atom   35 type  2   force =     0.04557107    0.14602532    0.14403889
     atom   36 type  2   force =    -0.51195206   -0.16636012   -0.06102846
     atom   37 type  2   force =    -0.64746869    0.38724710    0.63973132
     atom   38 type  2   force =    -0.50774184   -0.05222190   -0.16605460
     atom   39 type  2   force =    -0.64540498    0.66516031    0.36175734
     atom   40 type  2   force =     0.15534669    0.04073307    0.16404098
     atom   41 type  2   force =     0.04831005   -0.08228587    0.05820131
     atom   42 type  2   force =     0.19602374    0.02330267   -0.13745579
     atom   43 type  2   force =    -0.01705281    0.15699836   -0.23463612
     atom   44 type  2   force =     0.19699791   -0.05460908    0.20953630
     atom   45 type  2   force =    -0.37771656   -1.22256208   -0.37698556
     atom   46 type  2   force =    -0.14195011    0.03146800    0.19936917
     atom   47 type  2   force =    -0.23308843    0.15927184   -0.01508766
     atom   48 type  2   force =     0.16306908    0.16409310    0.04073970
     atom   49 type  2   force =     0.05455991    0.05539948   -0.08504195
     atom   50 type  2   force =     0.19608870   -0.13738147    0.02343153
     atom   51 type  2   force =    -0.02338067   -0.23740561    0.15420365
     atom   52 type  2   force =    -0.13755163    0.19888172    0.02262048
     atom   53 type  2   force =    -0.23307769   -0.01853617    0.15582411
     atom   54 type  2   force =     0.20147241    0.20081189   -0.05498927
     atom   55 type  2   force =    -0.37780430   -0.38038934   -1.22579988
     atom   56 type  2   force =     0.09006542    0.09255666    0.09255705
     atom   57 type  2   force =     0.01228727    0.01321470    0.01520250
     atom   58 type  2   force =     0.11701089    0.00249828    0.00255750
     atom   59 type  2   force =     0.29850596   -0.11364493   -0.11169077
     atom   60 type  2   force =     0.00241170    0.11997637    0.00330741
     atom   61 type  2   force =    -0.11155318    0.30067771   -0.11289650
     atom   62 type  2   force =    -0.00194113   -0.00552907    0.11955501
     atom   63 type  2   force =    -0.11395276   -0.13814271    0.32571932
     The core correction contribution to forces
     atom    1 type  1   force =     0.00000000    0.00000000    0.00000000
     atom    2 type  2   force =     0.00000000    0.00000000    0.00000000
     atom    3 type  2   force =     0.00000000    0.00000000    0.00000000
     atom    4 type  2   force =     0.00000000    0.00000000    0.00000000
     atom    5 type  2   force =     0.00000000    0.00000000    0.00000000
     atom    6 type  2   force =     0.00000000    0.00000000    0.00000000
     atom    7 type  2   force =     0.00000000    0.00000000    0.00000000
     atom    8 type  2   force =     0.00000000    0.00000000    0.00000000
     atom    9 type  2   force =     0.00000000    0.00000000    0.00000000
     atom   10 type  2   force =     0.00000000    0.00000000    0.00000000
     atom   11 type  2   force =     0.00000000    0.00000000    0.00000000
     atom   12 type  2   force =     0.00000000    0.00000000    0.00000000
     atom   13 type  2   force =     0.00000000    0.00000000    0.00000000
     atom   14 type  2   force =     0.00000000    0.00000000    0.00000000
     atom   15 type  2   force =     0.00000000    0.00000000    0.00000000
     atom   16 type  2   force =     0.00000000    0.00000000    0.00000000
     atom   17 type  2   force =     0.00000000    0.00000000    0.00000000
     atom   18 type  2   force =     0.00000000    0.00000000    0.00000000
     atom   19 type  2   force =     0.00000000    0.00000000    0.00000000
     atom   20 type  2   force =     0.00000000    0.00000000    0.00000000
     atom   21 type  2   force =     0.00000000    0.00000000    0.00000000
     atom   22 type  2   force =     0.00000000    0.00000000    0.00000000
     atom   23 type  2   force =     0.00000000    0.00000000    0.00000000
     atom   24 type  2   force =     0.00000000    0.00000000    0.00000000
     atom   25 type  2   force =     0.00000000    0.00000000    0.00000000
     atom   26 type  2   force =     0.00000000    0.00000000    0.00000000
     atom   27 type  2   force =     0.00000000    0.00000000    0.00000000
     atom   28 type  2   force =     0.00000000    0.00000000    0.00000000
     atom   29 type  2   force =     0.00000000    0.00000000    0.00000000
     atom   30 type  2   force =     0.00000000    0.00000000    0.00000000
     atom   31 type  2   force =     0.00000000    0.00000000    0.00000000
     atom   32 type  2   force =     0.00000000    0.00000000    0.00000000
     atom   33 type  2   force =     0.00000000    0.00000000    0.00000000
     atom   34 type  2   force =     0.00000000    0.00000000    0.00000000
     atom   35 type  2   force =     0.00000000    0.00000000    0.00000000
     atom   36 type  2   force =     0.00000000    0.00000000    0.00000000
     atom   37 type  2   force =     0.00000000    0.00000000    0.00000000
     atom   38 type  2   force =     0.00000000    0.00000000    0.00000000
     atom   39 type  2   force =     0.00000000    0.00000000    0.00000000
     atom   40 type  2   force =     0.00000000    0.00000000    0.00000000
     atom   41 type  2   force =     0.00000000    0.00000000    0.00000000
     atom   42 type  2   force =     0.00000000    0.00000000    0.00000000
     atom   43 type  2   force =     0.00000000    0.00000000    0.00000000
     atom   44 type  2   force =     0.00000000    0.00000000    0.00000000
     atom   45 type  2   force =     0.00000000    0.00000000    0.00000000
     atom   46 type  2   force =     0.00000000    0.00000000    0.00000000
     atom   47 type  2   force =     0.00000000    0.00000000    0.00000000
     atom   48 type  2   force =     0.00000000    0.00000000    0.00000000
     atom   49 type  2   force =     0.00000000    0.00000000    0.00000000
     atom   50 type  2   force =     0.00000000    0.00000000    0.00000000
     atom   51 type  2   force =     0.00000000    0.00000000    0.00000000
     atom   52 type  2   force =     0.00000000    0.00000000    0.00000000
     atom   53 type  2   force =     0.00000000    0.00000000    0.00000000
     atom   54 type  2   force =     0.00000000    0.00000000    0.00000000
     atom   55 type  2   force =     0.00000000    0.00000000    0.00000000
     atom   56 type  2   force =     0.00000000    0.00000000    0.00000000
     atom   57 type  2   force =     0.00000000    0.00000000    0.00000000
     atom   58 type  2   force =     0.00000000    0.00000000    0.00000000
     atom   59 type  2   force =     0.00000000    0.00000000    0.00000000
     atom   60 type  2   force =     0.00000000    0.00000000    0.00000000
     atom   61 type  2   force =     0.00000000    0.00000000    0.00000000
     atom   62 type  2   force =     0.00000000    0.00000000    0.00000000
     atom   63 type  2   force =     0.00000000    0.00000000    0.00000000
     The Hubbard contrib.    to forces
     atom    1 type  1   force =     0.00000000    0.00000000    0.00000000
     atom    2 type  2   force =     0.00000000    0.00000000    0.00000000
     atom    3 type  2   force =     0.00000000    0.00000000    0.00000000
     atom    4 type  2   force =     0.00000000    0.00000000    0.00000000
     atom    5 type  2   force =     0.00000000    0.00000000    0.00000000
     atom    6 type  2   force =     0.00000000    0.00000000    0.00000000
     atom    7 type  2   force =     0.00000000    0.00000000    0.00000000
     atom    8 type  2   force =     0.00000000    0.00000000    0.00000000
     atom    9 type  2   force =     0.00000000    0.00000000    0.00000000
     atom   10 type  2   force =     0.00000000    0.00000000    0.00000000
     atom   11 type  2   force =     0.00000000    0.00000000    0.00000000
     atom   12 type  2   force =     0.00000000    0.00000000    0.00000000
     atom   13 type  2   force =     0.00000000    0.00000000    0.00000000
     atom   14 type  2   force =     0.00000000    0.00000000    0.00000000
     atom   15 type  2   force =     0.00000000    0.00000000    0.00000000
     atom   16 type  2   force =     0.00000000    0.00000000    0.00000000
     atom   17 type  2   force =     0.00000000    0.00000000    0.00000000
     atom   18 type  2   force =     0.00000000    0.00000000    0.00000000
     atom   19 type  2   force =     0.00000000    0.00000000    0.00000000
     atom   20 type  2   force =     0.00000000    0.00000000    0.00000000
     atom   21 type  2   force =     0.00000000    0.00000000    0.00000000
     atom   22 type  2   force =     0.00000000    0.00000000    0.00000000
     atom   23 type  2   force =     0.00000000    0.00000000    0.00000000
     atom   24 type  2   force =     0.00000000    0.00000000    0.00000000
     atom   25 type  2   force =     0.00000000    0.00000000    0.00000000
     atom   26 type  2   force =     0.00000000    0.00000000    0.00000000
     atom   27 type  2   force =     0.00000000    0.00000000    0.00000000
     atom   28 type  2   force =     0.00000000    0.00000000    0.00000000
     atom   29 type  2   force =     0.00000000    0.00000000    0.00000000
     atom   30 type  2   force =     0.00000000    0.00000000    0.00000000
     atom   31 type  2   force =     0.00000000    0.00000000    0.00000000
     atom   32 type  2   force =     0.00000000    0.00000000    0.00000000
     atom   33 type  2   force =     0.00000000    0.00000000    0.00000000
     atom   34 type  2   force =     0.00000000    0.00000000    0.00000000
     atom   35 type  2   force =     0.00000000    0.00000000    0.00000000
     atom   36 type  2   force =     0.00000000    0.00000000    0.00000000
     atom   37 type  2   force =     0.00000000    0.00000000    0.00000000
     atom   38 type  2   force =     0.00000000    0.00000000    0.00000000
     atom   39 type  2   force =     0.00000000    0.00000000    0.00000000
     atom   40 type  2   force =     0.00000000    0.00000000    0.00000000
     atom   41 type  2   force =     0.00000000    0.00000000    0.00000000
     atom   42 type  2   force =     0.00000000    0.00000000    0.00000000
     atom   43 type  2   force =     0.00000000    0.00000000    0.00000000
     atom   44 type  2   force =     0.00000000    0.00000000    0.00000000
     atom   45 type  2   force =     0.00000000    0.00000000    0.00000000
     atom   46 type  2   force =     0.00000000    0.00000000    0.00000000
     atom   47 type  2   force =     0.00000000    0.00000000    0.00000000
     atom   48 type  2   force =     0.00000000    0.00000000    0.00000000
     atom   49 type  2   force =     0.00000000    0.00000000    0.00000000
     atom   50 type  2   force =     0.00000000    0.00000000    0.00000000
     atom   51 type  2   force =     0.00000000    0.00000000    0.00000000
     atom   52 type  2   force =     0.00000000    0.00000000    0.00000000
     atom   53 type  2   force =     0.00000000    0.00000000    0.00000000
     atom   54 type  2   force =     0.00000000    0.00000000    0.00000000
     atom   55 type  2   force =     0.00000000    0.00000000    0.00000000
     atom   56 type  2   force =     0.00000000    0.00000000    0.00000000
     atom   57 type  2   force =     0.00000000    0.00000000    0.00000000
     atom   58 type  2   force =     0.00000000    0.00000000    0.00000000
     atom   59 type  2   force =     0.00000000    0.00000000    0.00000000
     atom   60 type  2   force =     0.00000000    0.00000000    0.00000000
     atom   61 type  2   force =     0.00000000    0.00000000    0.00000000
     atom   62 type  2   force =     0.00000000    0.00000000    0.00000000
     atom   63 type  2   force =     0.00000000    0.00000000    0.00000000
     The SCF correction term to forces
     atom    1 type  1   force =     0.00000916   -0.00002669   -0.00003115
     atom    2 type  2   force =     0.00000537   -0.00000068    0.00000575
     atom    3 type  2   force =    -0.00000284    0.00001688    0.00002172
     atom    4 type  2   force =    -0.00001964   -0.00002648    0.00000684
     atom    5 type  2   force =    -0.00001345   -0.00001080    0.00002151
     atom    6 type  2   force =    -0.00001679    0.00000380   -0.00002483
     atom    7 type  2   force =    -0.00000716    0.00002190   -0.00000829
     atom    8 type  2   force =     0.00000530   -0.00002451    0.00001802
     atom    9 type  2   force =    -0.00000510   -0.00001184    0.00001446
     atom   10 type  2   force =     0.00000292    0.00000707   -0.00000218
     atom   11 type  2   force =    -0.00000955    0.00001502   -0.00002477
     atom   12 type  2   force =    -0.00001224   -0.00002380   -0.00000499
     atom   13 type  2   force =    -0.00001396   -0.00001474   -0.00002265
     atom   14 type  2   force =    -0.00001166    0.00000699    0.00002149
     atom   15 type  2   force =    -0.00001154    0.00002170    0.00000768
     atom   16 type  2   force =     0.00000152    0.00001757   -0.00002851
     atom   17 type  2   force =    -0.00000124    0.00001888   -0.00000977
     atom   18 type  2   force =     0.00000772    0.00000047    0.00001041
     atom   19 type  2   force =    -0.00000458   -0.00002048    0.00001766
     atom   20 type  2   force =    -0.00000580    0.00002401    0.00001109
     atom   21 type  2   force =    -0.00001013    0.00001091    0.00002089
     atom   22 type  2   force =    -0.00001003   -0.00000103   -0.00002146
     atom   23 type  2   force =    -0.00001716   -0.00002364   -0.00001158
     atom   24 type  2   force =     0.00000636    0.00002292    0.00002475
     atom   25 type  2   force =    -0.00000344    0.00001279    0.00001018
     atom   26 type  2   force =     0.00000630   -0.00000461   -0.00000733
     atom   27 type  2   force =     0.00000216   -0.00002090   -0.00002322
     atom   28 type  2   force =    -0.00001391    0.00002134   -0.00000841
     atom   29 type  2   force =    -0.00000980    0.00001564   -0.00002057
     atom   30 type  2   force =    -0.00001250   -0.00000488    0.00001933
     atom   31 type  2   force =    -0.00001305   -0.00002135    0.00001289
     atom   32 type  2   force =    -0.00000610   -0.00002331   -0.00002521
     atom   33 type  2   force =     0.00001073   -0.00000722   -0.00001235
     atom   34 type  2   force =    -0.00000154    0.00001059    0.00000789
     atom   35 type  2   force =     0.00000065    0.00002117    0.00001866
     atom   36 type  2   force =     0.00001656   -0.00001933    0.00000749
     atom   37 type  2   force =     0.00001315   -0.00001347    0.00001539
     atom   38 type  2   force =     0.00001383    0.00000669   -0.00002462
     atom   39 type  2   force =     0.00000737    0.00001180   -0.00001537
     atom   40 type  2   force =    -0.00000477   -0.00002289    0.00002379
     atom   41 type  2   force =     0.00000594   -0.00001120    0.00001304
     atom   42 type  2   force =    -0.00000186    0.00000490   -0.00000611
     atom   43 type  2   force =     0.00001214    0.00002009   -0.00001908
     atom   44 type  2   force =     0.00001226   -0.00001922   -0.00000516
     atom   45 type  2   force =     0.00000809   -0.00000328   -0.00002284
     atom   46 type  2   force =     0.00001065    0.00000466    0.00002176
     atom   47 type  2   force =     0.00001148    0.00001935    0.00001866
     atom   48 type  2   force =    -0.00000016    0.00002258   -0.00002003
     atom   49 type  2   force =     0.00000141    0.00000854   -0.00001090
     atom   50 type  2   force =    -0.00000795   -0.00001004    0.00000735
     atom   51 type  2   force =     0.00000771   -0.00002251    0.00002253
     atom   52 type  2   force =     0.00000534    0.00002043    0.00000586
     atom   53 type  2   force =     0.00001024    0.00001703    0.00002298
     atom   54 type  2   force =     0.00000985   -0.00000706   -0.00002356
     atom   55 type  2   force =     0.00001084   -0.00001954   -0.00000529
     atom   56 type  2   force =    -0.00000545    0.00002400    0.00001960
     atom   57 type  2   force =     0.00000455    0.00001186    0.00001088
     atom   58 type  2   force =    -0.00000455   -0.00000610   -0.00000750
     atom   59 type  2   force =     0.00000299   -0.00002037   -0.00002259
     atom   60 type  2   force =     0.00001169    0.00002018   -0.00000396
     atom   61 type  2   force =     0.00000866    0.00000790   -0.00002378
     atom   62 type  2   force =     0.00001083   -0.00000620    0.00002237
     atom   63 type  2   force =     0.00001162   -0.00002049    0.00000944

     Total force =     0.021466     Total SCF correction =     0.000205

     Writing all to output data dir ./pwscf.save/ :
     XML data file, charge density, pseudopotentials, collected wavefunctions
 
     init_run     :      0.38s CPU      0.81s WALL (       1 calls)
     electrons    :     11.51s CPU     11.73s WALL (       1 calls)
     forces       :      0.76s CPU      0.76s WALL (       1 calls)

     Called by init_run:
     wfcinit      :      0.11s CPU      0.13s WALL (       1 calls)
     wfcinit:wfcr :      0.11s CPU      0.12s WALL (       1 calls)
     potinit      :      0.13s CPU      0.14s WALL (       1 calls)
     hinit0       :      0.02s CPU      0.43s WALL (       1 calls)

     Called by electrons:
     c_bands      :      8.58s CPU      8.75s WALL (      14 calls)
     sum_band     :      0.50s CPU      0.50s WALL (      14 calls)
     v_of_rho     :      0.91s CPU      0.92s WALL (      15 calls)
     v_h          :      0.01s CPU      0.01s WALL (      15 calls)
     v_xc         :      0.91s CPU      0.92s WALL (      15 calls)
     mix_rho      :      0.15s CPU      0.15s WALL (      14 calls)

     Called by c_bands:
     init_us_2    :      0.02s CPU      0.03s WALL (      30 calls)
     regterg      :      7.15s CPU      7.31s WALL (      14 calls)

     Called by sum_band:
     sum_band:wei :      0.03s CPU      0.03s WALL (      14 calls)
     sum_band:loo :      0.22s CPU      0.23s WALL (      14 calls)
     sum_band:buf :      0.00s CPU      0.00s WALL (      14 calls)
     sum_band:ini :      0.01s CPU      0.01s WALL (      14 calls)

     Called by *egterg:
     rdiaghg      :      4.36s CPU      4.47s WALL (     279 calls)
     regterg:over :      0.40s CPU      0.41s WALL (     265 calls)
     regterg:upda :      0.20s CPU      0.20s WALL (     265 calls)
     regterg:last :      0.12s CPU      0.13s WALL (      53 calls)
     rdiaghg:chol :      0.14s CPU      0.15s WALL (     279 calls)
     rdiaghg:inve :      0.03s CPU      0.03s WALL (     279 calls)
     rdiaghg:para :      0.39s CPU      0.42s WALL (     558 calls)
     h_psi        :      1.99s CPU      2.04s WALL (     280 calls)
     g_psi        :      0.00s CPU      0.00s WALL (     265 calls)

     Called by h_psi:
     h_psi:calbec :      0.34s CPU      0.35s WALL (     280 calls)
     vloc_psi     :      1.54s CPU      1.57s WALL (     280 calls)
                                        0.00s GPU  (     280 calls)
     add_vuspsi   :      0.11s CPU      0.11s WALL (     280 calls)

     General routines
     calbec       :      0.35s CPU      0.37s WALL (     284 calls)
     fft          :      0.66s CPU      1.06s WALL (     196 calls)
     ffts         :      0.01s CPU      0.01s WALL (      14 calls)
     fftw         :      1.65s CPU      1.68s WALL (   10272 calls)
 
     Parallel routines
 
     PWSCF        :     17.30s CPU     18.27s WALL

 
   This run was terminated on:  13:42:35  19Nov2025            

=------------------------------------------------------------------------------=
   JOB DONE.
=------------------------------------------------------------------------------=
