
     Program PWSCF v.7.5 starts on 19Nov2025 at 13:52:48 

     This program is part of the open-source Quantum ESPRESSO suite
     for quantum simulation of materials; please cite
         "P. Giannozzi et al., J. Phys.:Condens. Matter 21 395502 (2009);
         "P. Giannozzi et al., J. Phys.:Condens. Matter 29 465901 (2017);
         "P. Giannozzi et al., J. Chem. Phys. 152 154105 (2020);
          URL http://www.quantum-espresso.org", 
     in publications or presentations arising from this work. More details at
     http://www.quantum-espresso.org/quote

     Parallel version (MPI), running on    96 processors

     MPI processes distributed on     2 nodes
     144308 MiB available memory on the printing compute node when the environment starts
 
     Reading input from supercell-044.in

     Current dimensions of program PWSCF are:
     Max number of different atomic species (ntypx) = 10
     Max number of k-points (npk) =  40000
     Max angular momentum in pseudopotentials (lmaxx) =  4

     gamma-point specific algorithms are used
 
     K-points division:     npool     =       2
     R & G space division:  proc/nbgrp/npool/nimage =      48
     Subspace diagonalization in iterative solution of the eigenvalue problem:
     one sub-group per band group will be used
     scalapack distributed-memory algorithm (size of sub-group:  2*  2 procs)

 
     Parallelization info
     --------------------
     sticks:   dense  smooth     PW     G-vecs:    dense   smooth      PW
     Min          59      59     14                 2432     2432     302
     Max          62      62     16                 2442     2442     316
     Sum        2885    2885    725               116921   116921   14771
 
     Using Slab Decomposition
 


     bravais-lattice index     =            0
     lattice parameter (alat)  =      13.4813  a.u.
     unit-cell volume          =    2450.1683 (a.u.)^3
     number of atoms/cell      =           63
     number of atomic types    =            2
     number of electrons       =       254.00 (up: 128.00, down: 126.00)
     number of Kohn-Sham states=          152
     kinetic-energy cutoff     =      50.0000  Ry
     charge density cutoff     =     200.0000  Ry
     scf convergence threshold =      1.0E-08
     mixing beta               =       0.7000
     number of iterations used =            8  plain     mixing
     Exchange-correlation= PBE
                           (   1   4   3   4   0   0   0)

     celldm(1)=  13.481306  celldm(2)=   0.000000  celldm(3)=   0.000000
     celldm(4)=   0.000000  celldm(5)=   0.000000  celldm(6)=   0.000000

     crystal axes: (cart. coord. in units of alat)
               a(1) = (   1.000000   0.000000   0.000000 )  
               a(2) = (   0.000000   1.000000   0.000000 )  
               a(3) = (   0.000000   0.000000   1.000000 )  

     reciprocal axes: (cart. coord. in units 2 pi/alat)
               b(1) = (  1.000000  0.000000  0.000000 )  
               b(2) = (  0.000000  1.000000  0.000000 )  
               b(3) = (  0.000000  0.000000  1.000000 )  


     PseudoPot. # 1 for N  read from file:
     ./N_ONCV_PBE-1.2.upf
     MD5 check sum: 5312fdf34e96954e02a33bdc911c617a
     Pseudo is Norm-conserving, Zval =  5.0
     Generated using ONCVPSP code by D. R. Hamann
     Using radial grid of  602 points,  4 beta functions with: 
                l(1) =   0
                l(2) =   0
                l(3) =   1
                l(4) =   1

     PseudoPot. # 2 for C  read from file:
     ./C_ONCV_PBE-1.2.upf
     MD5 check sum: d60b57d9bdca4133f5fde4b584ee909d
     Pseudo is Norm-conserving, Zval =  4.0
     Generated using ONCVPSP code by D. R. Hamann
     Using radial grid of  602 points,  4 beta functions with: 
                l(1) =   0
                l(2) =   0
                l(3) =   1
                l(4) =   1

     atomic species   valence    mass     pseudopotential
     N                 5.00    14.00670     N ( 1.00)
     C                 4.00    12.01070     C ( 1.00)

     Starting magnetic structure 
     atomic species   magnetization
     N               0.000
     C               0.000

     No symmetry found


                                    s                        frac. trans.

      isym =  1     identity                                     

 cryst.   s( 1) = (     1          0          0      )
                  (     0          1          0      )
                  (     0          0          1      )

 cart.    s( 1) = (  1.0000000  0.0000000  0.0000000 )
                  (  0.0000000  1.0000000  0.0000000 )
                  (  0.0000000  0.0000000  1.0000000 )


   Cartesian axes

     site n.     atom                  positions (alat units)
         1        N      tau(   1) = (   0.9869283   0.9869283   0.9869283  )
         2        C      tau(   2) = (   0.9921390   0.2607625   0.2607625  )
         3        C      tau(   3) = (   0.1236981   0.3746848   0.3746848  )
         4        C      tau(   4) = (   0.2607625   0.9921390   0.2607625  )
         5        C      tau(   5) = (   0.3746848   0.1236981   0.3746848  )
         6        C      tau(   6) = (   0.2607625   0.2607625   0.9921390  )
         7        C      tau(   7) = (   0.3746848   0.3746848   0.1236981  )
         8        C      tau(   8) = (   0.0007517   0.0007517   0.4988587  )
         9        C      tau(   9) = (   0.1251291   0.1251291   0.6250516  )
        10        C      tau(  10) = (   0.0014372   0.2476607   0.7521916  )
        11        C      tau(  11) = (   0.1266329   0.3730745   0.8775065  )
        12        C      tau(  12) = (   0.2476607   0.0014372   0.7521916  )
        13        C      tau(  13) = (   0.3730745   0.1266329   0.8775065  )
        14        C      tau(  14) = (   0.2498467   0.2498467   0.4996267  )
        15        C      tau(  15) = (   0.3749463   0.3749463   0.6249280  )
        16        C      tau(  16) = (   0.0007517   0.4988587   0.0007517  )
        17        C      tau(  17) = (   0.1251291   0.6250516   0.1251291  )
        18        C      tau(  18) = (   0.0014372   0.7521916   0.2476607  )
        19        C      tau(  19) = (   0.1266329   0.8775065   0.3730745  )
        20        C      tau(  20) = (   0.2498467   0.4996267   0.2498467  )
        21        C      tau(  21) = (   0.3749463   0.6249280   0.3749463  )
        22        C      tau(  22) = (   0.2476607   0.7521916   0.0014372  )
        23        C      tau(  23) = (   0.3730745   0.8775065   0.1266329  )
        24        C      tau(  24) = (   0.0010116   0.5014264   0.5014264  )
        25        C      tau(  25) = (   0.1250381   0.6236017   0.6250852  )
        26        C      tau(  26) = (   0.9996941   0.7483805   0.7483805  )
        27        C      tau(  27) = (   0.1189720   0.8751585   0.8751585  )
        28        C      tau(  28) = (   0.2496290   0.5009902   0.7494822  )
        29        C      tau(  29) = (   0.3740517   0.6261334   0.8754230  )
        30        C      tau(  30) = (   0.2496290   0.7494822   0.5009902  )
        31        C      tau(  31) = (   0.3740517   0.8754230   0.6261334  )
        32        C      tau(  32) = (   0.4988587   0.0007517   0.0007517  )
        33        C      tau(  33) = (   0.6250516   0.1251291   0.1251291  )
        34        C      tau(  34) = (   0.4996267   0.2498467   0.2498467  )
        35        C      tau(  35) = (   0.6249280   0.3749463   0.3749463  )
        36        C      tau(  36) = (   0.7521916   0.0014372   0.2476607  )
        37        C      tau(  37) = (   0.8775065   0.1266329   0.3730745  )
        38        C      tau(  38) = (   0.7521916   0.2476607   0.0014372  )
        39        C      tau(  39) = (   0.8775065   0.3730745   0.1266329  )
        40        C      tau(  40) = (   0.5014264   0.0010116   0.5014264  )
        41        C      tau(  41) = (   0.6250852   0.1250381   0.6250852  )
        42        C      tau(  42) = (   0.5009902   0.2496290   0.7494822  )
        43        C      tau(  43) = (   0.6261334   0.3740517   0.8754230  )
        44        C      tau(  44) = (   0.7483805   0.9996941   0.7483805  )
        45        C      tau(  45) = (   0.8751585   0.1189720   0.8751585  )
        46        C      tau(  46) = (   0.7494822   0.2496290   0.5009902  )
        47        C      tau(  47) = (   0.8754230   0.3740517   0.6261334  )
        48        C      tau(  48) = (   0.5014264   0.5014264   0.0010116  )
        49        C      tau(  49) = (   0.6250852   0.6250852   0.1250381  )
        50        C      tau(  50) = (   0.5009902   0.7494822   0.2496290  )
        51        C      tau(  51) = (   0.6261334   0.8754230   0.3740517  )
        52        C      tau(  52) = (   0.7494822   0.5009902   0.2496290  )
        53        C      tau(  53) = (   0.8754230   0.6261334   0.3740517  )
        54        C      tau(  54) = (   0.7483805   0.7483805   0.9996941  )
        55        C      tau(  55) = (   0.8751585   0.8751585   0.1189720  )
        56        C      tau(  56) = (   0.4999757   0.4999757   0.4999757  )
        57        C      tau(  57) = (   0.6249536   0.6249536   0.6249536  )
        58        C      tau(  58) = (   0.4990957   0.7503802   0.7503802  )
        59        C      tau(  59) = (   0.6235333   0.8749829   0.8749829  )
        60        C      tau(  60) = (   0.7503802   0.4990957   0.7503802  )
        61        C      tau(  61) = (   0.8749829   0.6235333   0.8749829  )
        62        C      tau(  62) = (   0.7503802   0.7503802   0.4990957  )
        63        C      tau(  63) = (   0.8749829   0.8749829   0.6235333  )

   Crystallographic axes

     site n.     atom                  positions (cryst. coord.)
         1        N      tau(   1) = (  0.9869283  0.9869283  0.9869283  )
         2        C      tau(   2) = (  0.9921390  0.2607625  0.2607625  )
         3        C      tau(   3) = (  0.1236981  0.3746848  0.3746848  )
         4        C      tau(   4) = (  0.2607625  0.9921390  0.2607625  )
         5        C      tau(   5) = (  0.3746848  0.1236981  0.3746848  )
         6        C      tau(   6) = (  0.2607625  0.2607625  0.9921390  )
         7        C      tau(   7) = (  0.3746848  0.3746848  0.1236981  )
         8        C      tau(   8) = (  0.0007517  0.0007517  0.4988587  )
         9        C      tau(   9) = (  0.1251291  0.1251291  0.6250516  )
        10        C      tau(  10) = (  0.0014372  0.2476607  0.7521916  )
        11        C      tau(  11) = (  0.1266329  0.3730745  0.8775065  )
        12        C      tau(  12) = (  0.2476607  0.0014372  0.7521916  )
        13        C      tau(  13) = (  0.3730745  0.1266329  0.8775065  )
        14        C      tau(  14) = (  0.2498467  0.2498467  0.4996267  )
        15        C      tau(  15) = (  0.3749463  0.3749463  0.6249280  )
        16        C      tau(  16) = (  0.0007517  0.4988587  0.0007517  )
        17        C      tau(  17) = (  0.1251291  0.6250516  0.1251291  )
        18        C      tau(  18) = (  0.0014372  0.7521916  0.2476607  )
        19        C      tau(  19) = (  0.1266329  0.8775065  0.3730745  )
        20        C      tau(  20) = (  0.2498467  0.4996267  0.2498467  )
        21        C      tau(  21) = (  0.3749463  0.6249280  0.3749463  )
        22        C      tau(  22) = (  0.2476607  0.7521916  0.0014372  )
        23        C      tau(  23) = (  0.3730745  0.8775065  0.1266329  )
        24        C      tau(  24) = (  0.0010116  0.5014264  0.5014264  )
        25        C      tau(  25) = (  0.1250381  0.6236017  0.6250852  )
        26        C      tau(  26) = (  0.9996941  0.7483805  0.7483805  )
        27        C      tau(  27) = (  0.1189720  0.8751585  0.8751585  )
        28        C      tau(  28) = (  0.2496290  0.5009902  0.7494822  )
        29        C      tau(  29) = (  0.3740517  0.6261334  0.8754230  )
        30        C      tau(  30) = (  0.2496290  0.7494822  0.5009902  )
        31        C      tau(  31) = (  0.3740517  0.8754230  0.6261334  )
        32        C      tau(  32) = (  0.4988587  0.0007517  0.0007517  )
        33        C      tau(  33) = (  0.6250516  0.1251291  0.1251291  )
        34        C      tau(  34) = (  0.4996267  0.2498467  0.2498467  )
        35        C      tau(  35) = (  0.6249280  0.3749463  0.3749463  )
        36        C      tau(  36) = (  0.7521916  0.0014372  0.2476607  )
        37        C      tau(  37) = (  0.8775065  0.1266329  0.3730745  )
        38        C      tau(  38) = (  0.7521916  0.2476607  0.0014372  )
        39        C      tau(  39) = (  0.8775065  0.3730745  0.1266329  )
        40        C      tau(  40) = (  0.5014264  0.0010116  0.5014264  )
        41        C      tau(  41) = (  0.6250852  0.1250381  0.6250852  )
        42        C      tau(  42) = (  0.5009902  0.2496290  0.7494822  )
        43        C      tau(  43) = (  0.6261334  0.3740517  0.8754230  )
        44        C      tau(  44) = (  0.7483805  0.9996941  0.7483805  )
        45        C      tau(  45) = (  0.8751585  0.1189720  0.8751585  )
        46        C      tau(  46) = (  0.7494822  0.2496290  0.5009902  )
        47        C      tau(  47) = (  0.8754230  0.3740517  0.6261334  )
        48        C      tau(  48) = (  0.5014264  0.5014264  0.0010116  )
        49        C      tau(  49) = (  0.6250852  0.6250852  0.1250381  )
        50        C      tau(  50) = (  0.5009902  0.7494822  0.2496290  )
        51        C      tau(  51) = (  0.6261334  0.8754230  0.3740517  )
        52        C      tau(  52) = (  0.7494822  0.5009902  0.2496290  )
        53        C      tau(  53) = (  0.8754230  0.6261334  0.3740517  )
        54        C      tau(  54) = (  0.7483805  0.7483805  0.9996941  )
        55        C      tau(  55) = (  0.8751585  0.8751585  0.1189720  )
        56        C      tau(  56) = (  0.4999757  0.4999757  0.4999757  )
        57        C      tau(  57) = (  0.6249536  0.6249536  0.6249536  )
        58        C      tau(  58) = (  0.4990957  0.7503802  0.7503802  )
        59        C      tau(  59) = (  0.6235333  0.8749829  0.8749829  )
        60        C      tau(  60) = (  0.7503802  0.4990957  0.7503802  )
        61        C      tau(  61) = (  0.8749829  0.6235333  0.8749829  )
        62        C      tau(  62) = (  0.7503802  0.7503802  0.4990957  )
        63        C      tau(  63) = (  0.8749829  0.8749829  0.6235333  )

     number of k points=     1
                       cart. coord. in units 2pi/alat
        k(    1) = (   0.0000000   0.0000000   0.0000000), wk =   1.0000000

                       cryst. coord.
        k(    1) = (   0.0000000   0.0000000   0.0000000), wk =   1.0000000

     Dense  grid:    58461 G-vectors     FFT dimensions: (  64,  64,  64)

     Dynamical RAM for                 wfc:       0.35 MB

     Dynamical RAM for     wfc (w. buffer):       0.35 MB

     Dynamical RAM for           str. fact:       0.04 MB

     Dynamical RAM for           local pot:       0.00 MB

     Dynamical RAM for          nlocal pot:       1.17 MB

     Dynamical RAM for                qrad:       0.65 MB

     Dynamical RAM for          rho,v,vnew:       0.49 MB

     Dynamical RAM for               rhoin:       0.16 MB

     Dynamical RAM for            rho*nmix:       0.60 MB

     Dynamical RAM for           G-vectors:       0.08 MB

     Dynamical RAM for          h,s,v(r/c):       0.53 MB

     Dynamical RAM for          <psi|beta>:       0.58 MB

     Dynamical RAM for                 psi:       0.71 MB

     Dynamical RAM for                hpsi:       0.71 MB

     Dynamical RAM for      wfcinit/wfcrot:       1.24 MB

     Estimated static dynamical RAM per process >       3.37 MB

     Estimated max dynamical RAM per process >       6.49 MB

     Estimated total dynamical RAM >     594.05 MB
     Generating pointlists ...
     new r_m :   0.0850 (alat units)  1.1454 (a.u.) for type    1
     new r_m :   0.0850 (alat units)  1.1454 (a.u.) for type    2

     Initial potential from superposition of free atoms

     starting charge     252.5655, renormalised to     254.0000
     Starting wfcs are random

     total cpu time spent up to now is        1.3 secs

     Self-consistent Calculation

     iteration #  1     ecut=    50.00 Ry     beta= 0.70
     Davidson diagonalization with overlap

---- Real-time Memory Report at c_bands before calling an iterative solver
           160 MiB given to the printing process from OS
             0 MiB allocation reported by mallinfo(arena+hblkhd)
        143351 MiB available memory on the node where the printing process lives
------------------
     ethr =  1.00E-02,  avg # of iterations = 14.0

     total cpu time spent up to now is        2.0 secs

     total energy              =    -723.30919371 Ry
     estimated scf accuracy    <       3.69476604 Ry

     total magnetization       =     2.00 Bohr mag/cell
     absolute magnetization    =     2.00 Bohr mag/cell

     iteration #  2     ecut=    50.00 Ry     beta= 0.70
     Davidson diagonalization with overlap

---- Real-time Memory Report at c_bands before calling an iterative solver
           165 MiB given to the printing process from OS
             0 MiB allocation reported by mallinfo(arena+hblkhd)
        143270 MiB available memory on the node where the printing process lives
------------------
     ethr =  1.45E-03,  avg # of iterations = 11.5

     total cpu time spent up to now is        2.3 secs

     total energy              =    -723.68010556 Ry
     estimated scf accuracy    <       0.44007567 Ry

     total magnetization       =     2.00 Bohr mag/cell
     absolute magnetization    =     2.07 Bohr mag/cell

     iteration #  3     ecut=    50.00 Ry     beta= 0.70
     Davidson diagonalization with overlap

---- Real-time Memory Report at c_bands before calling an iterative solver
           166 MiB given to the printing process from OS
             0 MiB allocation reported by mallinfo(arena+hblkhd)
        143278 MiB available memory on the node where the printing process lives
------------------
     c_bands:  2 eigenvalues not converged
     ethr =  1.73E-04,  avg # of iterations = 17.5

     total cpu time spent up to now is        3.1 secs

     total energy              =    -723.73935862 Ry
     estimated scf accuracy    <       0.86001806 Ry

     total magnetization       =     2.00 Bohr mag/cell
     absolute magnetization    =     2.12 Bohr mag/cell

     iteration #  4     ecut=    50.00 Ry     beta= 0.70
     Davidson diagonalization with overlap

---- Real-time Memory Report at c_bands before calling an iterative solver
           166 MiB given to the printing process from OS
             0 MiB allocation reported by mallinfo(arena+hblkhd)
        143275 MiB available memory on the node where the printing process lives
------------------
     c_bands:  1 eigenvalues not converged
     ethr =  1.73E-04,  avg # of iterations = 20.0

     total cpu time spent up to now is        4.1 secs

     total energy              =    -723.91149291 Ry
     estimated scf accuracy    <       0.00825065 Ry

     total magnetization       =     2.00 Bohr mag/cell
     absolute magnetization    =     2.19 Bohr mag/cell

     iteration #  5     ecut=    50.00 Ry     beta= 0.70
     Davidson diagonalization with overlap

---- Real-time Memory Report at c_bands before calling an iterative solver
           167 MiB given to the printing process from OS
             0 MiB allocation reported by mallinfo(arena+hblkhd)
        143260 MiB available memory on the node where the printing process lives
------------------
     c_bands:  4 eigenvalues not converged
     ethr =  3.25E-06,  avg # of iterations = 20.0

     total cpu time spent up to now is        7.6 secs

     total energy              =    -723.91592767 Ry
     estimated scf accuracy    <       0.00386784 Ry

     total magnetization       =     2.00 Bohr mag/cell
     absolute magnetization    =     2.22 Bohr mag/cell

     iteration #  6     ecut=    50.00 Ry     beta= 0.70
     Davidson diagonalization with overlap

---- Real-time Memory Report at c_bands before calling an iterative solver
           167 MiB given to the printing process from OS
             0 MiB allocation reported by mallinfo(arena+hblkhd)
        143277 MiB available memory on the node where the printing process lives
------------------
     c_bands:  1 eigenvalues not converged
     ethr =  1.52E-06,  avg # of iterations = 20.0

     total cpu time spent up to now is        8.0 secs

     total energy              =    -723.91662211 Ry
     estimated scf accuracy    <       0.00066482 Ry

     total magnetization       =     2.00 Bohr mag/cell
     absolute magnetization    =     2.24 Bohr mag/cell

     iteration #  7     ecut=    50.00 Ry     beta= 0.70
     Davidson diagonalization with overlap

---- Real-time Memory Report at c_bands before calling an iterative solver
           167 MiB given to the printing process from OS
             0 MiB allocation reported by mallinfo(arena+hblkhd)
        143274 MiB available memory on the node where the printing process lives
------------------
     c_bands:  2 eigenvalues not converged
     ethr =  2.62E-07,  avg # of iterations = 20.0

     total cpu time spent up to now is       11.1 secs

     total energy              =    -723.91681134 Ry
     estimated scf accuracy    <       0.00006701 Ry

     total magnetization       =     2.00 Bohr mag/cell
     absolute magnetization    =     2.26 Bohr mag/cell

     iteration #  8     ecut=    50.00 Ry     beta= 0.70
     Davidson diagonalization with overlap

---- Real-time Memory Report at c_bands before calling an iterative solver
           167 MiB given to the printing process from OS
             0 MiB allocation reported by mallinfo(arena+hblkhd)
        143275 MiB available memory on the node where the printing process lives
------------------
     c_bands:  1 eigenvalues not converged
     ethr =  2.64E-08,  avg # of iterations = 20.0

     total cpu time spent up to now is       11.9 secs

     total energy              =    -723.91683900 Ry
     estimated scf accuracy    <       0.00001886 Ry

     total magnetization       =     2.00 Bohr mag/cell
     absolute magnetization    =     2.27 Bohr mag/cell

     iteration #  9     ecut=    50.00 Ry     beta= 0.70
     Davidson diagonalization with overlap

---- Real-time Memory Report at c_bands before calling an iterative solver
           167 MiB given to the printing process from OS
             0 MiB allocation reported by mallinfo(arena+hblkhd)
        143265 MiB available memory on the node where the printing process lives
------------------
     c_bands:  1 eigenvalues not converged
     ethr =  7.42E-09,  avg # of iterations = 20.0

     total cpu time spent up to now is       12.6 secs

     total energy              =    -723.91684579 Ry
     estimated scf accuracy    <       0.00000657 Ry

     total magnetization       =     2.00 Bohr mag/cell
     absolute magnetization    =     2.28 Bohr mag/cell

     iteration # 10     ecut=    50.00 Ry     beta= 0.70
     Davidson diagonalization with overlap

---- Real-time Memory Report at c_bands before calling an iterative solver
           168 MiB given to the printing process from OS
             0 MiB allocation reported by mallinfo(arena+hblkhd)
        143267 MiB available memory on the node where the printing process lives
------------------
     c_bands:  2 eigenvalues not converged
     ethr =  2.59E-09,  avg # of iterations = 20.0

     total cpu time spent up to now is       13.7 secs

     total energy              =    -723.91684856 Ry
     estimated scf accuracy    <       0.00000088 Ry

     total magnetization       =     2.00 Bohr mag/cell
     absolute magnetization    =     2.28 Bohr mag/cell

     iteration # 11     ecut=    50.00 Ry     beta= 0.70
     Davidson diagonalization with overlap

---- Real-time Memory Report at c_bands before calling an iterative solver
           168 MiB given to the printing process from OS
             0 MiB allocation reported by mallinfo(arena+hblkhd)
        143278 MiB available memory on the node where the printing process lives
------------------
     ethr =  3.47E-10,  avg # of iterations = 18.0

     total cpu time spent up to now is       15.1 secs

     total energy              =    -723.91684912 Ry
     estimated scf accuracy    <       0.00000017 Ry

     total magnetization       =     2.00 Bohr mag/cell
     absolute magnetization    =     2.29 Bohr mag/cell

     iteration # 12     ecut=    50.00 Ry     beta= 0.70
     Davidson diagonalization with overlap

---- Real-time Memory Report at c_bands before calling an iterative solver
           168 MiB given to the printing process from OS
             0 MiB allocation reported by mallinfo(arena+hblkhd)
        143278 MiB available memory on the node where the printing process lives
------------------
     ethr =  6.58E-11,  avg # of iterations = 18.5

     total cpu time spent up to now is       15.9 secs

     total energy              =    -723.91684922 Ry
     estimated scf accuracy    <       0.00000004 Ry

     total magnetization       =     2.00 Bohr mag/cell
     absolute magnetization    =     2.29 Bohr mag/cell

     iteration # 13     ecut=    50.00 Ry     beta= 0.70
     Davidson diagonalization with overlap

---- Real-time Memory Report at c_bands before calling an iterative solver
           168 MiB given to the printing process from OS
             0 MiB allocation reported by mallinfo(arena+hblkhd)
        143274 MiB available memory on the node where the printing process lives
------------------
     c_bands:  1 eigenvalues not converged
     ethr =  1.73E-11,  avg # of iterations = 20.0

     total cpu time spent up to now is       16.5 secs

     total energy              =    -723.91684925 Ry
     estimated scf accuracy    <       0.00000001 Ry

     total magnetization       =     2.00 Bohr mag/cell
     absolute magnetization    =     2.29 Bohr mag/cell

     iteration # 14     ecut=    50.00 Ry     beta= 0.70
     Davidson diagonalization with overlap

---- Real-time Memory Report at c_bands before calling an iterative solver
           168 MiB given to the printing process from OS
             0 MiB allocation reported by mallinfo(arena+hblkhd)
        143275 MiB available memory on the node where the printing process lives
------------------
     c_bands:  2 eigenvalues not converged
     ethr =  4.29E-12,  avg # of iterations = 17.5
 
     Magnetic moment per site  (integrated on atomic sphere of radius R)
     atom   1 (R=0.085)  charge=  2.8975  magn=  0.0040
     atom   2 (R=0.085)  charge=  1.8130  magn=  0.2495
     atom   3 (R=0.085)  charge=  1.8114  magn= -0.0087
     atom   4 (R=0.085)  charge=  1.8130  magn=  0.2491
     atom   5 (R=0.085)  charge=  1.8113  magn= -0.0087
     atom   6 (R=0.085)  charge=  1.8130  magn=  0.2495
     atom   7 (R=0.085)  charge=  1.8113  magn= -0.0087
     atom   8 (R=0.085)  charge=  1.8015  magn=  0.0085
     atom   9 (R=0.085)  charge=  1.8085  magn= -0.0018
     atom  10 (R=0.085)  charge=  1.7946  magn=  0.0054
     atom  11 (R=0.085)  charge=  1.8031  magn= -0.0034
     atom  12 (R=0.085)  charge=  1.7946  magn=  0.0054
     atom  13 (R=0.085)  charge=  1.8030  magn= -0.0034
     atom  14 (R=0.085)  charge=  1.8001  magn=  0.0086
     atom  15 (R=0.085)  charge=  1.8014  magn= -0.0019
     atom  16 (R=0.085)  charge=  1.8016  magn=  0.0085
     atom  17 (R=0.085)  charge=  1.8085  magn= -0.0018
     atom  18 (R=0.085)  charge=  1.7946  magn=  0.0054
     atom  19 (R=0.085)  charge=  1.8029  magn= -0.0035
     atom  20 (R=0.085)  charge=  1.8001  magn=  0.0086
     atom  21 (R=0.085)  charge=  1.8014  magn= -0.0019
     atom  22 (R=0.085)  charge=  1.7946  magn=  0.0054
     atom  23 (R=0.085)  charge=  1.8030  magn= -0.0034
     atom  24 (R=0.085)  charge=  1.8024  magn=  0.0181
     atom  25 (R=0.085)  charge=  1.8197  magn=  0.0088
     atom  26 (R=0.085)  charge=  1.8100  magn=  0.0033
     atom  27 (R=0.085)  charge=  1.7812  magn= -0.0000
     atom  28 (R=0.085)  charge=  1.8028  magn=  0.0212
     atom  29 (R=0.085)  charge=  1.7953  magn= -0.0013
     atom  30 (R=0.085)  charge=  1.7988  magn=  0.0212
     atom  31 (R=0.085)  charge=  1.7952  magn= -0.0013
     atom  32 (R=0.085)  charge=  1.8016  magn=  0.0085
     atom  33 (R=0.085)  charge=  1.8085  magn= -0.0018
     atom  34 (R=0.085)  charge=  1.8001  magn=  0.0086
     atom  35 (R=0.085)  charge=  1.8013  magn= -0.0019
     atom  36 (R=0.085)  charge=  1.7946  magn=  0.0054
     atom  37 (R=0.085)  charge=  1.8030  magn= -0.0034
     atom  38 (R=0.085)  charge=  1.7946  magn=  0.0054
     atom  39 (R=0.085)  charge=  1.8030  magn= -0.0034
     atom  40 (R=0.085)  charge=  1.8004  magn=  0.0180
     atom  41 (R=0.085)  charge=  1.8200  magn=  0.0089
     atom  42 (R=0.085)  charge=  1.8008  magn=  0.0212
     atom  43 (R=0.085)  charge=  1.7953  magn= -0.0013
     atom  44 (R=0.085)  charge=  1.8119  magn=  0.0032
     atom  45 (R=0.085)  charge=  1.7813  magn= -0.0000
     atom  46 (R=0.085)  charge=  1.8008  magn=  0.0212
     atom  47 (R=0.085)  charge=  1.7954  magn= -0.0013
     atom  48 (R=0.085)  charge=  1.8004  magn=  0.0181
     atom  49 (R=0.085)  charge=  1.8200  magn=  0.0089
     atom  50 (R=0.085)  charge=  1.8008  magn=  0.0212
     atom  51 (R=0.085)  charge=  1.7953  magn= -0.0013
     atom  52 (R=0.085)  charge=  1.8008  magn=  0.0212
     atom  53 (R=0.085)  charge=  1.7953  magn= -0.0013
     atom  54 (R=0.085)  charge=  1.8120  magn=  0.0032
     atom  55 (R=0.085)  charge=  1.7813  magn= -0.0000
     atom  56 (R=0.085)  charge=  1.8051  magn=  0.0010
     atom  57 (R=0.085)  charge=  1.7981  magn=  0.0010
     atom  58 (R=0.085)  charge=  1.8061  magn=  0.0018
     atom  59 (R=0.085)  charge=  1.8021  magn= -0.0009
     atom  60 (R=0.085)  charge=  1.8061  magn=  0.0018
     atom  61 (R=0.085)  charge=  1.8021  magn= -0.0009
     atom  62 (R=0.085)  charge=  1.8061  magn=  0.0018
     atom  63 (R=0.085)  charge=  1.8020  magn= -0.0009

     total cpu time spent up to now is       17.0 secs

     End of self-consistent calculation

 ------ SPIN UP ------------


          k = 0.0000 0.0000 0.0000 (  7386 PWs)   bands (ev):

    -8.5685  -7.0174  -6.2646  -6.2633  -6.1601  -6.1586  -5.8773  -4.9413
    -4.1272  -4.1221  -4.0885  -4.0842  -4.0304  -4.0301  -3.9797  -3.9086
    -3.8629  -3.8619  -3.3534  -2.9548  -2.6665  -2.6651  -2.1115  -0.3578
    -0.3576  -0.3158  -0.2894  -0.0899   0.1896   0.1902   0.2931   0.2994
     0.3712   0.6072   0.8225   0.8244   0.9870   0.9898   1.0244   1.0500
     1.0520   1.0762   1.3019   1.3049   3.0580   3.8877   3.8916   4.0409
     4.2306   4.2371   4.2467   4.2565   4.2895   4.2914   4.4331   4.4357
     4.4998   4.5014   4.6011   4.6823   4.6877   4.6887   4.6926   4.7773
     4.7788   4.9116   4.9664   4.9675   5.0584   5.2276   5.2305   5.3042
     5.3722   5.3727   5.4090   5.4202   5.4228   6.0477   6.0482   6.0809
     6.6437   6.6442   6.7637   7.0052   7.0275   7.0297   7.5182   8.3339
     8.3360   8.4271   8.4924   8.4973   8.6654   8.6741   8.8284   8.8338
     8.8533   8.8537   8.8949   8.8995   8.9435   9.3064   9.3079   9.3085
     9.7208   9.7217   9.9323   9.9429   9.9467   9.9570   9.9790   9.9950
    10.0064  10.0158  10.0337  10.0367  10.1350  10.1355  10.2858  10.2861
    10.3560  10.9864  12.2223  12.4693  12.4736  13.8167  14.7976  14.7996
    17.3760  17.3873  17.3888  17.5569  17.5616  17.5635  17.8920  17.9267
    17.9293  18.0165  18.0167  18.3734  18.9847  18.9905  19.0259  20.7123
    20.8221  20.8223  20.8698  20.9563  20.9599  21.0244  21.0304  21.0754

     occupation numbers 
     1.0000   1.0000   1.0000   1.0000   1.0000   1.0000   1.0000   1.0000
     1.0000   1.0000   1.0000   1.0000   1.0000   1.0000   1.0000   1.0000
     1.0000   1.0000   1.0000   1.0000   1.0000   1.0000   1.0000   1.0000
     1.0000   1.0000   1.0000   1.0000   1.0000   1.0000   1.0000   1.0000
     1.0000   1.0000   1.0000   1.0000   1.0000   1.0000   1.0000   1.0000
     1.0000   1.0000   1.0000   1.0000   1.0000   1.0000   1.0000   1.0000
     1.0000   1.0000   1.0000   1.0000   1.0000   1.0000   1.0000   1.0000
     1.0000   1.0000   1.0000   1.0000   1.0000   1.0000   1.0000   1.0000
     1.0000   1.0000   1.0000   1.0000   1.0000   1.0000   1.0000   1.0000
     1.0000   1.0000   1.0000   1.0000   1.0000   1.0000   1.0000   1.0000
     1.0000   1.0000   1.0000   1.0000   1.0000   1.0000   1.0000   1.0000
     1.0000   1.0000   1.0000   1.0000   1.0000   1.0000   1.0000   1.0000
     1.0000   1.0000   1.0000   1.0000   1.0000   1.0000   1.0000   1.0000
     1.0000   1.0000   1.0000   1.0000   1.0000   1.0000   1.0000   1.0000
     1.0000   1.0000   1.0000   1.0000   1.0000   1.0000   1.0000   1.0000
     1.0000   1.0000   1.0000   1.0000   1.0000   1.0000   1.0000   1.0000
     0.0000   0.0000   0.0000   0.0000   0.0000   0.0000   0.0000   0.0000
     0.0000   0.0000   0.0000   0.0000   0.0000   0.0000   0.0000   0.0000
     0.0000   0.0000   0.0000   0.0000   0.0000   0.0000   0.0000   0.0000

 ------ SPIN DOWN ----------


          k = 0.0000 0.0000 0.0000 (  7386 PWs)   bands (ev):

    -8.5451  -7.0030  -6.2451  -6.2440  -6.1181  -6.1168  -5.8405  -4.9254
    -4.1071  -4.1021  -4.0728  -4.0682  -3.9750  -3.9742  -3.9544  -3.8968
    -3.8168  -3.8160  -3.3098  -2.9369  -2.6124  -2.6111  -1.9709  -0.3409
    -0.3407  -0.2977  -0.2678  -0.0240   0.2052   0.2059   0.3281   0.3348
     0.3971   0.6396   0.8353   0.8369   1.0118   1.0140   1.0570   1.0656
     1.0672   1.0943   1.4731   1.4760   3.1727   3.9082   3.9121   4.0636
     4.2657   4.2721   4.2732   4.2888   4.3093   4.3118   4.4845   4.4858
     4.5180   4.5214   4.6285   4.7017   4.7069   4.7072   4.7085   4.8141
     4.8157   4.9235   4.9980   4.9995   5.1426   5.2616   5.2645   5.3279
     5.3832   5.3834   5.4215   5.4807   5.4827   6.1077   6.1078   6.1216
     6.6701   6.6705   6.7982   7.0483   7.1200   7.1222   7.6970   8.3727
     8.3741   8.4634   8.5241   8.5299   8.6958   8.7045   8.8645   8.8704
     8.8706   8.8815   8.9477   8.9516   8.9674   9.3340   9.3444   9.3447
     9.7500   9.7508   9.9490   9.9572   9.9622   9.9821  10.0059  10.0101
    10.0238  10.0358  10.0674  10.0692  10.1671  10.1678  10.3413  10.3415
    10.4173  11.3841  12.5282  12.6159  12.6214  14.2842  16.1583  16.1621
    17.4052  17.4064  17.4071  17.5806  17.6141  17.6165  17.9162  17.9472
    17.9497  18.0545  18.0548  18.4856  19.0690  19.0735  19.0790  20.7619
    20.8352  20.8354  20.8838  20.9733  20.9764  21.0501  21.0558  21.0876

     occupation numbers 
     1.0000   1.0000   1.0000   1.0000   1.0000   1.0000   1.0000   1.0000
     1.0000   1.0000   1.0000   1.0000   1.0000   1.0000   1.0000   1.0000
     1.0000   1.0000   1.0000   1.0000   1.0000   1.0000   1.0000   1.0000
     1.0000   1.0000   1.0000   1.0000   1.0000   1.0000   1.0000   1.0000
     1.0000   1.0000   1.0000   1.0000   1.0000   1.0000   1.0000   1.0000
     1.0000   1.0000   1.0000   1.0000   1.0000   1.0000   1.0000   1.0000
     1.0000   1.0000   1.0000   1.0000   1.0000   1.0000   1.0000   1.0000
     1.0000   1.0000   1.0000   1.0000   1.0000   1.0000   1.0000   1.0000
     1.0000   1.0000   1.0000   1.0000   1.0000   1.0000   1.0000   1.0000
     1.0000   1.0000   1.0000   1.0000   1.0000   1.0000   1.0000   1.0000
     1.0000   1.0000   1.0000   1.0000   1.0000   1.0000   1.0000   1.0000
     1.0000   1.0000   1.0000   1.0000   1.0000   1.0000   1.0000   1.0000
     1.0000   1.0000   1.0000   1.0000   1.0000   1.0000   1.0000   1.0000
     1.0000   1.0000   1.0000   1.0000   1.0000   1.0000   1.0000   1.0000
     1.0000   1.0000   1.0000   1.0000   1.0000   1.0000   1.0000   1.0000
     1.0000   1.0000   1.0000   1.0000   1.0000   1.0000   0.0000   0.0000
     0.0000   0.0000   0.0000   0.0000   0.0000   0.0000   0.0000   0.0000
     0.0000   0.0000   0.0000   0.0000   0.0000   0.0000   0.0000   0.0000
     0.0000   0.0000   0.0000   0.0000   0.0000   0.0000   0.0000   0.0000

     highest occupied, lowest unoccupied level (ev):    14.7996   16.1583

!    total energy              =    -723.91684925 Ry
     estimated scf accuracy    <          2.8E-09 Ry

     The total energy is the sum of the following terms:
     one-electron contribution =     232.80488739 Ry
     hartree contribution      =      70.09240757 Ry
     xc contribution           =    -226.74478679 Ry
     ewald contribution        =    -800.06935742 Ry

     total magnetization       =     2.00 Bohr mag/cell
     absolute magnetization    =     2.29 Bohr mag/cell

     convergence has been achieved in  14 iterations

     Forces acting on atoms (cartesian axes, Ry/au):

     atom    1 type  1   force =     0.00230674    0.00221421    0.00213893
     atom    2 type  2   force =    -0.00023346    0.00008250    0.00009106
     atom    3 type  2   force =     0.00047231    0.00029869    0.00020291
     atom    4 type  2   force =     0.00024014   -0.00031324    0.00029591
     atom    5 type  2   force =     0.00090953    0.00082410    0.00088147
     atom    6 type  2   force =     0.00015006    0.00008149   -0.00017891
     atom    7 type  2   force =     0.00084337    0.00084309    0.00083819
     atom    8 type  2   force =     0.00026120    0.00036094   -0.00062642
     atom    9 type  2   force =     0.00003399   -0.00000806   -0.00019087
     atom   10 type  2   force =     0.00017074   -0.00024786    0.00031934
     atom   11 type  2   force =    -0.00044737   -0.00010645    0.00014796
     atom   12 type  2   force =    -0.00025202    0.00015814    0.00045861
     atom   13 type  2   force =     0.00047523   -0.00072937   -0.00053131
     atom   14 type  2   force =    -0.00013348   -0.00003380   -0.00020651
     atom   15 type  2   force =     0.00040266   -0.00079931    0.00036199
     atom   16 type  2   force =     0.00031436   -0.00047254    0.00026772
     atom   17 type  2   force =     0.00003480   -0.00019761    0.00003246
     atom   18 type  2   force =     0.00011420    0.00046979   -0.00034224
     atom   19 type  2   force =    -0.00110497   -0.00111046    0.00113464
     atom   20 type  2   force =    -0.00008031   -0.00017197   -0.00002078
     atom   21 type  2   force =     0.00010879    0.00060304   -0.00054372
     atom   22 type  2   force =    -0.00030322    0.00047696    0.00016222
     atom   23 type  2   force =     0.00052380   -0.00056592   -0.00075779
     atom   24 type  2   force =    -0.00101799   -0.00415471   -0.00106478
     atom   25 type  2   force =     0.00010315    0.01786908    0.00052494
     atom   26 type  2   force =     0.00097036   -0.00426197   -0.00118161
     atom   27 type  2   force =     0.00137021   -0.00208074   -0.00215088
     atom   28 type  2   force =     0.00078696   -0.00386807    0.00080089
     atom   29 type  2   force =    -0.00092683    0.00093587    0.00000609
     atom   30 type  2   force =    -0.00129376   -0.00384125    0.00074325
     atom   31 type  2   force =    -0.00120919   -0.00022116    0.00068015
     atom   32 type  2   force =    -0.00059382    0.00034776    0.00028499
     atom   33 type  2   force =    -0.00019018    0.00003600    0.00003332
     atom   34 type  2   force =    -0.00023514   -0.00004902   -0.00011095
     atom   35 type  2   force =     0.00000514   -0.00023852   -0.00019789
     atom   36 type  2   force =     0.00041954    0.00014485   -0.00026604
     atom   37 type  2   force =    -0.00051870   -0.00072701    0.00049878
     atom   38 type  2   force =     0.00035570   -0.00025910    0.00014213
     atom   39 type  2   force =    -0.00050449    0.00046396   -0.00080740
     atom   40 type  2   force =    -0.00007377    0.00016066   -0.00009410
     atom   41 type  2   force =    -0.00002485    0.00005310    0.00000560
     atom   42 type  2   force =     0.00011764   -0.00034211   -0.00009144
     atom   43 type  2   force =     0.00034620   -0.00058577    0.00031339
     atom   44 type  2   force =    -0.00015660   -0.00007215   -0.00012279
     atom   45 type  2   force =    -0.00158967    0.00100441   -0.00157141
     atom   46 type  2   force =    -0.00007683   -0.00032872    0.00011675
     atom   47 type  2   force =    -0.00028870   -0.00115441   -0.00000226
     atom   48 type  2   force =    -0.00010466   -0.00012406    0.00009411
     atom   49 type  2   force =     0.00000775    0.00017320    0.00003606
     atom   50 type  2   force =     0.00010601   -0.00009894   -0.00038659
     atom   51 type  2   force =     0.00031849    0.00033833   -0.00060614
     atom   52 type  2   force =     0.00008998   -0.00009837   -0.00021486
     atom   53 type  2   force =     0.00070000    0.00095397   -0.00024842
     atom   54 type  2   force =    -0.00032129   -0.00035089    0.00002815
     atom   55 type  2   force =    -0.00160472   -0.00158455    0.00095547
     atom   56 type  2   force =    -0.00012597    0.00000972   -0.00009548
     atom   57 type  2   force =     0.00000719   -0.00001302    0.00000522
     atom   58 type  2   force =    -0.00023729    0.00016618    0.00005960
     atom   59 type  2   force =    -0.00031935    0.00022665    0.00025909
     atom   60 type  2   force =     0.00012068   -0.00018497    0.00007953
     atom   61 type  2   force =    -0.00010661    0.00026992    0.00056105
     atom   62 type  2   force =     0.00002418    0.00016474   -0.00027982
     atom   63 type  2   force =     0.00086413   -0.00033525   -0.00067055
     The non-local contrib.  to forces
     atom    1 type  1   force =    -0.73750829   -0.73739094   -0.73758704
     atom    2 type  2   force =    -0.22489241    0.21079448    0.21070659
     atom    3 type  2   force =     0.06987572    0.06873497    0.06888419
     atom    4 type  2   force =     0.21119712   -0.22512076    0.21139351
     atom    5 type  2   force =     0.06939293    0.07010008    0.06944986
     atom    6 type  2   force =     0.21089958    0.21082949   -0.22469825
     atom    7 type  2   force =     0.06944521    0.06940853    0.06991110
     atom    8 type  2   force =    -0.00834392   -0.00803458    0.05216430
     atom    9 type  2   force =    -0.00488763   -0.00472244    0.01556563
     atom   10 type  2   force =    -0.04408840   -0.01279464   -0.01937639
     atom   11 type  2   force =    -0.07147237    0.05948711   -0.08235234
     atom   12 type  2   force =    -0.01295927   -0.04389678   -0.01936393
     atom   13 type  2   force =     0.06016493   -0.07137689   -0.08282253
     atom   14 type  2   force =    -0.00179297   -0.00151159    0.05144362
     atom   15 type  2   force =     0.01425129    0.01292742    0.00034041
     atom   16 type  2   force =    -0.00807546    0.05196736   -0.00823862
     atom   17 type  2   force =    -0.00489270    0.01555357   -0.00489101
     atom   18 type  2   force =    -0.04437949   -0.01956295   -0.01298829
     atom   19 type  2   force =    -0.07156089   -0.08349956    0.06061726
     atom   20 type  2   force =    -0.00195833    0.05124498   -0.00181931
     atom   21 type  2   force =     0.01470554   -0.00005147    0.01264013
     atom   22 type  2   force =    -0.01280699   -0.01956509   -0.04419200
     atom   23 type  2   force =     0.06009167   -0.08284287   -0.07156079
     atom   24 type  2   force =    -0.07424335    0.02422334    0.02708509
     atom   25 type  2   force =    -0.01141966    0.03764578    0.01748541
     atom   26 type  2   force =    -0.06009842   -0.02858513   -0.02574502
     atom   27 type  2   force =    -0.11804617    0.13467532    0.13483222
     atom   28 type  2   force =     0.06238453    0.02445480   -0.01850611
     atom   29 type  2   force =     0.00062266    0.01816027    0.00439468
     atom   30 type  2   force =     0.06236365   -0.02293883    0.02896661
     atom   31 type  2   force =     0.00100602    0.00474065    0.01861374
     atom   32 type  2   force =     0.05218108   -0.00828486   -0.00828673
     atom   33 type  2   force =     0.01557232   -0.00483698   -0.00488484
     atom   34 type  2   force =     0.05144715   -0.00178056   -0.00176978
     atom   35 type  2   force =     0.00048828    0.01372206    0.01359893
     atom   36 type  2   force =    -0.01937674   -0.04414788   -0.01301769
     atom   37 type  2   force =    -0.08288107   -0.07137326    0.06009602
     atom   38 type  2   force =    -0.01938168   -0.01305530   -0.04414017
     atom   39 type  2   force =    -0.08292133    0.06015474   -0.07146103
     atom   40 type  2   force =     0.02804464   -0.07401966    0.02823755
     atom   41 type  2   force =     0.01682051   -0.01164279    0.01684959
     atom   42 type  2   force =     0.02826269    0.06214682   -0.01924915
     atom   43 type  2   force =     0.01863059    0.00168632    0.00558834
     atom   44 type  2   force =    -0.02478080   -0.06054878   -0.02495112
     atom   45 type  2   force =     0.13545173   -0.11780122    0.13538262
     atom   46 type  2   force =    -0.01942695    0.06219382    0.02815037
     atom   47 type  2   force =     0.00487723    0.00088746    0.01876271
     atom   48 type  2   force =     0.02754917    0.02835188   -0.07432875
     atom   49 type  2   force =     0.01689225    0.01641721   -0.01149403
     atom   50 type  2   force =     0.02874059   -0.01903917    0.06193008
     atom   51 type  2   force =     0.01875792    0.00553514    0.00172426
     atom   52 type  2   force =    -0.01878809    0.02839949    0.06281609
     atom   53 type  2   force =     0.00655761    0.01819607    0.00275764
     atom   54 type  2   force =    -0.02538558   -0.02466693   -0.05992331
     atom   55 type  2   force =     0.13544767    0.13541986   -0.11789167
     atom   56 type  2   force =     0.01628763    0.01601312    0.01629612
     atom   57 type  2   force =     0.00759161    0.00760674    0.00758950
     atom   58 type  2   force =     0.01344676   -0.01294932   -0.01267992
     atom   59 type  2   force =     0.01059196   -0.01051311   -0.01063470
     atom   60 type  2   force =    -0.01294545    0.01343967   -0.01298763
     atom   61 type  2   force =    -0.01151947    0.01020329   -0.00948680
     atom   62 type  2   force =    -0.01269819   -0.01295294    0.01342451
     atom   63 type  2   force =    -0.01000804   -0.01128522    0.01067887
     The ionic contribution  to forces
     atom    1 type  1   force =     3.04063929    3.03708853    3.03806407
     atom    2 type  2   force =     2.25678918   -2.16222389   -2.16142215
     atom    3 type  2   force =     0.43163270   -0.75293766   -0.75688265
     atom    4 type  2   force =    -2.16067504    2.25523341   -2.15872866
     atom    5 type  2   force =    -0.74865946    0.42867099   -0.74864646
     atom    6 type  2   force =    -2.15941043   -2.16218180    2.25876331
     atom    7 type  2   force =    -0.74797344   -0.74878718    0.43169167
     atom    8 type  2   force =     0.24578343    0.23583346   -0.69821972
     atom    9 type  2   force =     0.11227734    0.10332540   -0.22534181
     atom   10 type  2   force =     0.20796543    0.05813938    0.52984651
     atom   11 type  2   force =    -0.29120529   -0.72871017    0.73716905
     atom   12 type  2   force =     0.06335668    0.20274966    0.52499626
     atom   13 type  2   force =    -0.72447756   -0.29425944    0.72916193
     atom   14 type  2   force =    -0.19684134   -0.20689832   -0.67442780
     atom   15 type  2   force =    -0.15030625   -0.16288474   -0.04828151
     atom   16 type  2   force =     0.24243528   -0.69849080    0.24583390
     atom   17 type  2   force =     0.11227732   -0.22250718    0.11227733
     atom   18 type  2   force =     0.21128017    0.52949995    0.06810831
     atom   19 type  2   force =    -0.29130858    0.72486635   -0.71654992
     atom   20 type  2   force =    -0.19831933   -0.66980008   -0.20172078
     atom   21 type  2   force =    -0.15859794   -0.04293089   -0.15855865
     atom   22 type  2   force =     0.06473501    0.52951288    0.20787402
     atom   23 type  2   force =    -0.72517825    0.72896508   -0.29124150
     atom   24 type  2   force =     0.00681101   -0.19308461   -0.21867762
     atom   25 type  2   force =     0.09582856   -0.00576332   -0.07120768
     atom   26 type  2   force =     0.14158844   -0.17789305   -0.20272436
     atom   27 type  2   force =     1.34237466    0.23840187    0.23454852
     atom   28 type  2   force =    -0.05991664   -0.22783945    0.18274252
     atom   29 type  2   force =    -0.15891999    0.00294420    0.22980290
     atom   30 type  2   force =    -0.11195193    0.15537563   -0.20122858
     atom   31 type  2   force =    -0.16708708    0.22547048   -0.00245922
     atom   32 type  2   force =    -0.70101780    0.24229781    0.24302385
     atom   33 type  2   force =    -0.22534180    0.11118320    0.11227732
     atom   34 type  2   force =    -0.67158503   -0.20038031   -0.19967089
     atom   35 type  2   force =    -0.04827509   -0.15870927   -0.15925759
     atom   36 type  2   force =     0.52779704    0.20922036    0.06606857
     atom   37 type  2   force =     0.72911582   -0.29426866   -0.72452369
     atom   38 type  2   force =     0.52704082    0.06459064    0.21070168
     atom   39 type  2   force =     0.72845891   -0.72465392   -0.29127290
     atom   40 type  2   force =    -0.19340976    0.03111622   -0.19174765
     atom   41 type  2   force =    -0.07256235    0.09396314   -0.07256235
     atom   42 type  2   force =    -0.22589845   -0.08818616    0.15721566
     atom   43 type  2   force =    -0.00243488   -0.15900018    0.23054200
     atom   44 type  2   force =    -0.17571871    0.11313468   -0.17739586
     atom   45 type  2   force =     0.24278030    1.33916505    0.24267205
     atom   46 type  2   force =     0.15551590   -0.08819133   -0.22759374
     atom   47 type  2   force =     0.22162527   -0.16320204   -0.00238856
     atom   48 type  2   force =    -0.19174706   -0.19115476    0.03382045
     atom   49 type  2   force =    -0.07256235   -0.07139244    0.09618929
     atom   50 type  2   force =    -0.22759174    0.15778091   -0.08548513
     atom   51 type  2   force =    -0.00241292    0.22971504   -0.15818240
     atom   52 type  2   force =     0.15617423   -0.22596574   -0.08652558
     atom   53 type  2   force =     0.22992324    0.00290059   -0.15879964
     atom   54 type  2   force =    -0.17636239   -0.17578274    0.11479562
     atom   55 type  2   force =     0.24340551    0.24257925    1.34211060
     atom   56 type  2   force =    -0.10635755   -0.10661407   -0.10976383
     atom   57 type  2   force =    -0.02213024   -0.01929560   -0.02213023
     atom   58 type  2   force =    -0.13620436    0.01254673    0.00941279
     atom   59 type  2   force =    -0.31175811    0.12366439    0.12313052
     atom   60 type  2   force =     0.00795270   -0.13157318    0.01138016
     atom   61 type  2   force =     0.12378181   -0.30639454    0.12383631
     atom   62 type  2   force =     0.01284970    0.01253850   -0.13274705
     atom   63 type  2   force =     0.13200341    0.11948374   -0.31169103
     The local contribution  to forces
     atom    1 type  1   force =    -2.30081752   -2.29747190   -2.29829640
     atom    2 type  2   force =    -2.03212227    1.95150329    1.95081763
     atom    3 type  2   force =    -0.50101952    0.68448503    0.68819857
     atom    4 type  2   force =     1.94974718   -2.03041307    1.94764078
     atom    5 type  2   force =     0.68019856   -0.49795271    0.68007144
     atom    6 type  2   force =     1.94868794    1.95142036   -2.03420916
     atom    7 type  2   force =     0.67939157    0.68019880   -0.50074053
     atom    8 type  2   force =    -0.23716967   -0.22742844    0.64542599
     atom    9 type  2   force =    -0.10733902   -0.09861312    0.20958594
     atom   10 type  2   force =    -0.16369673   -0.04560772   -0.51013655
     atom   11 type  2   force =     0.36225023    0.66910033   -0.65463633
     atom   12 type  2   force =    -0.05062889   -0.15868305   -0.50515760
     atom   13 type  2   force =     0.66481065    0.36490943   -0.64683811
     atom   14 type  2   force =     0.19852497    0.20836079    0.62277218
     atom   15 type  2   force =     0.13648188    0.14913765    0.04830792
     atom   16 type  2   force =    -0.23403461    0.64603950   -0.23728953
     atom   17 type  2   force =    -0.10733746    0.20674690   -0.10732900
     atom   18 type  2   force =    -0.16678066   -0.50946391   -0.05545493
     atom   19 type  2   force =     0.36178368   -0.64246205    0.65706419
     atom   20 type  2   force =     0.20021553    0.61836662    0.20352702
     atom   21 type  2   force =     0.14402383    0.04358191    0.14537311
     atom   22 type  2   force =    -0.05221343   -0.50946591   -0.16348509
     atom   23 type  2   force =     0.66563340   -0.64666787    0.36207599
     atom   24 type  2   force =     0.06641983    0.16469130    0.19052019
     atom   25 type  2   force =    -0.08429003   -0.01401910    0.05425004
     atom   26 type  2   force =    -0.08051225    0.20222284    0.22730554
     atom   27 type  2   force =    -1.22294913   -0.37514223   -0.37149773
     atom   28 type  2   force =    -0.00165628    0.19950019   -0.16341769
     atom   29 type  2   force =     0.15738939   -0.02017947   -0.23416281
     atom   30 type  2   force =     0.04831817   -0.13627047    0.17299955
     atom   31 type  2   force =     0.16489337   -0.23041805   -0.01547735
     atom   32 type  2   force =     0.64825919   -0.23365208   -0.23441261
     atom   33 type  2   force =     0.20958164   -0.10631493   -0.10733175
     atom   34 type  2   force =     0.61991628    0.20209303    0.20133969
     atom   35 type  2   force =     0.04780287    0.14472981    0.14546090
     atom   36 type  2   force =    -0.50800276   -0.16492219   -0.05330694
     atom   37 type  2   force =    -0.64675341    0.36491240    0.66492878
     atom   38 type  2   force =    -0.50730368   -0.05180868   -0.16638506
     atom   39 type  2   force =    -0.64603793    0.66495144    0.36195416
     atom   40 type  2   force =     0.16530628    0.04307407    0.16340515
     atom   41 type  2   force =     0.05572498   -0.08226628    0.05571799
     atom   42 type  2   force =     0.19776814    0.02568705   -0.13804189
     atom   43 type  2   force =    -0.01584685    0.15670706   -0.23578936
     atom   44 type  2   force =     0.20034740   -0.05264903    0.20223961
     atom   45 type  2   force =    -0.37981465   -1.22036767   -0.37959383
     atom   46 type  2   force =    -0.13616434    0.02565776    0.19955606
     atom   47 type  2   force =    -0.22679057    0.16114112   -0.01637930
     atom   48 type  2   force =     0.16410684    0.16265929    0.04063382
     atom   49 type  2   force =     0.05569090    0.05514492   -0.08462976
     atom   50 type  2   force =     0.19897633   -0.13882879    0.02318201
     atom   51 type  2   force =    -0.01602096   -0.23489798    0.15584659
     atom   52 type  2   force =    -0.13728963    0.19745517    0.02350803
     atom   53 type  2   force =    -0.23577969   -0.02015103    0.15578849
     atom   54 type  2   force =     0.20143392    0.20010687   -0.05480722
     atom   55 type  2   force =    -0.38045249   -0.37957069   -1.22324172
     atom   56 type  2   force =     0.08996210    0.09059242    0.09336784
     atom   57 type  2   force =     0.01455468    0.01166720    0.01454461
     atom   58 type  2   force =     0.12253554    0.00057437    0.00334181
     atom   59 type  2   force =     0.30085850   -0.11290958   -0.11220415
     atom   60 type  2   force =     0.00511596    0.11793131    0.00170066
     atom   61 type  2   force =    -0.11236256    0.29645828   -0.11375583
     atom   62 type  2   force =    -0.00012375    0.00058514    0.11903326
     atom   63 type  2   force =    -0.12112727   -0.10852034    0.30034393
     The core correction contribution to forces
     atom    1 type  1   force =     0.00000000    0.00000000    0.00000000
     atom    2 type  2   force =     0.00000000    0.00000000    0.00000000
     atom    3 type  2   force =     0.00000000    0.00000000    0.00000000
     atom    4 type  2   force =     0.00000000    0.00000000    0.00000000
     atom    5 type  2   force =     0.00000000    0.00000000    0.00000000
     atom    6 type  2   force =     0.00000000    0.00000000    0.00000000
     atom    7 type  2   force =     0.00000000    0.00000000    0.00000000
     atom    8 type  2   force =     0.00000000    0.00000000    0.00000000
     atom    9 type  2   force =     0.00000000    0.00000000    0.00000000
     atom   10 type  2   force =     0.00000000    0.00000000    0.00000000
     atom   11 type  2   force =     0.00000000    0.00000000    0.00000000
     atom   12 type  2   force =     0.00000000    0.00000000    0.00000000
     atom   13 type  2   force =     0.00000000    0.00000000    0.00000000
     atom   14 type  2   force =     0.00000000    0.00000000    0.00000000
     atom   15 type  2   force =     0.00000000    0.00000000    0.00000000
     atom   16 type  2   force =     0.00000000    0.00000000    0.00000000
     atom   17 type  2   force =     0.00000000    0.00000000    0.00000000
     atom   18 type  2   force =     0.00000000    0.00000000    0.00000000
     atom   19 type  2   force =     0.00000000    0.00000000    0.00000000
     atom   20 type  2   force =     0.00000000    0.00000000    0.00000000
     atom   21 type  2   force =     0.00000000    0.00000000    0.00000000
     atom   22 type  2   force =     0.00000000    0.00000000    0.00000000
     atom   23 type  2   force =     0.00000000    0.00000000    0.00000000
     atom   24 type  2   force =     0.00000000    0.00000000    0.00000000
     atom   25 type  2   force =     0.00000000    0.00000000    0.00000000
     atom   26 type  2   force =     0.00000000    0.00000000    0.00000000
     atom   27 type  2   force =     0.00000000    0.00000000    0.00000000
     atom   28 type  2   force =     0.00000000    0.00000000    0.00000000
     atom   29 type  2   force =     0.00000000    0.00000000    0.00000000
     atom   30 type  2   force =     0.00000000    0.00000000    0.00000000
     atom   31 type  2   force =     0.00000000    0.00000000    0.00000000
     atom   32 type  2   force =     0.00000000    0.00000000    0.00000000
     atom   33 type  2   force =     0.00000000    0.00000000    0.00000000
     atom   34 type  2   force =     0.00000000    0.00000000    0.00000000
     atom   35 type  2   force =     0.00000000    0.00000000    0.00000000
     atom   36 type  2   force =     0.00000000    0.00000000    0.00000000
     atom   37 type  2   force =     0.00000000    0.00000000    0.00000000
     atom   38 type  2   force =     0.00000000    0.00000000    0.00000000
     atom   39 type  2   force =     0.00000000    0.00000000    0.00000000
     atom   40 type  2   force =     0.00000000    0.00000000    0.00000000
     atom   41 type  2   force =     0.00000000    0.00000000    0.00000000
     atom   42 type  2   force =     0.00000000    0.00000000    0.00000000
     atom   43 type  2   force =     0.00000000    0.00000000    0.00000000
     atom   44 type  2   force =     0.00000000    0.00000000    0.00000000
     atom   45 type  2   force =     0.00000000    0.00000000    0.00000000
     atom   46 type  2   force =     0.00000000    0.00000000    0.00000000
     atom   47 type  2   force =     0.00000000    0.00000000    0.00000000
     atom   48 type  2   force =     0.00000000    0.00000000    0.00000000
     atom   49 type  2   force =     0.00000000    0.00000000    0.00000000
     atom   50 type  2   force =     0.00000000    0.00000000    0.00000000
     atom   51 type  2   force =     0.00000000    0.00000000    0.00000000
     atom   52 type  2   force =     0.00000000    0.00000000    0.00000000
     atom   53 type  2   force =     0.00000000    0.00000000    0.00000000
     atom   54 type  2   force =     0.00000000    0.00000000    0.00000000
     atom   55 type  2   force =     0.00000000    0.00000000    0.00000000
     atom   56 type  2   force =     0.00000000    0.00000000    0.00000000
     atom   57 type  2   force =     0.00000000    0.00000000    0.00000000
     atom   58 type  2   force =     0.00000000    0.00000000    0.00000000
     atom   59 type  2   force =     0.00000000    0.00000000    0.00000000
     atom   60 type  2   force =     0.00000000    0.00000000    0.00000000
     atom   61 type  2   force =     0.00000000    0.00000000    0.00000000
     atom   62 type  2   force =     0.00000000    0.00000000    0.00000000
     atom   63 type  2   force =     0.00000000    0.00000000    0.00000000
     The Hubbard contrib.    to forces
     atom    1 type  1   force =     0.00000000    0.00000000    0.00000000
     atom    2 type  2   force =     0.00000000    0.00000000    0.00000000
     atom    3 type  2   force =     0.00000000    0.00000000    0.00000000
     atom    4 type  2   force =     0.00000000    0.00000000    0.00000000
     atom    5 type  2   force =     0.00000000    0.00000000    0.00000000
     atom    6 type  2   force =     0.00000000    0.00000000    0.00000000
     atom    7 type  2   force =     0.00000000    0.00000000    0.00000000
     atom    8 type  2   force =     0.00000000    0.00000000    0.00000000
     atom    9 type  2   force =     0.00000000    0.00000000    0.00000000
     atom   10 type  2   force =     0.00000000    0.00000000    0.00000000
     atom   11 type  2   force =     0.00000000    0.00000000    0.00000000
     atom   12 type  2   force =     0.00000000    0.00000000    0.00000000
     atom   13 type  2   force =     0.00000000    0.00000000    0.00000000
     atom   14 type  2   force =     0.00000000    0.00000000    0.00000000
     atom   15 type  2   force =     0.00000000    0.00000000    0.00000000
     atom   16 type  2   force =     0.00000000    0.00000000    0.00000000
     atom   17 type  2   force =     0.00000000    0.00000000    0.00000000
     atom   18 type  2   force =     0.00000000    0.00000000    0.00000000
     atom   19 type  2   force =     0.00000000    0.00000000    0.00000000
     atom   20 type  2   force =     0.00000000    0.00000000    0.00000000
     atom   21 type  2   force =     0.00000000    0.00000000    0.00000000
     atom   22 type  2   force =     0.00000000    0.00000000    0.00000000
     atom   23 type  2   force =     0.00000000    0.00000000    0.00000000
     atom   24 type  2   force =     0.00000000    0.00000000    0.00000000
     atom   25 type  2   force =     0.00000000    0.00000000    0.00000000
     atom   26 type  2   force =     0.00000000    0.00000000    0.00000000
     atom   27 type  2   force =     0.00000000    0.00000000    0.00000000
     atom   28 type  2   force =     0.00000000    0.00000000    0.00000000
     atom   29 type  2   force =     0.00000000    0.00000000    0.00000000
     atom   30 type  2   force =     0.00000000    0.00000000    0.00000000
     atom   31 type  2   force =     0.00000000    0.00000000    0.00000000
     atom   32 type  2   force =     0.00000000    0.00000000    0.00000000
     atom   33 type  2   force =     0.00000000    0.00000000    0.00000000
     atom   34 type  2   force =     0.00000000    0.00000000    0.00000000
     atom   35 type  2   force =     0.00000000    0.00000000    0.00000000
     atom   36 type  2   force =     0.00000000    0.00000000    0.00000000
     atom   37 type  2   force =     0.00000000    0.00000000    0.00000000
     atom   38 type  2   force =     0.00000000    0.00000000    0.00000000
     atom   39 type  2   force =     0.00000000    0.00000000    0.00000000
     atom   40 type  2   force =     0.00000000    0.00000000    0.00000000
     atom   41 type  2   force =     0.00000000    0.00000000    0.00000000
     atom   42 type  2   force =     0.00000000    0.00000000    0.00000000
     atom   43 type  2   force =     0.00000000    0.00000000    0.00000000
     atom   44 type  2   force =     0.00000000    0.00000000    0.00000000
     atom   45 type  2   force =     0.00000000    0.00000000    0.00000000
     atom   46 type  2   force =     0.00000000    0.00000000    0.00000000
     atom   47 type  2   force =     0.00000000    0.00000000    0.00000000
     atom   48 type  2   force =     0.00000000    0.00000000    0.00000000
     atom   49 type  2   force =     0.00000000    0.00000000    0.00000000
     atom   50 type  2   force =     0.00000000    0.00000000    0.00000000
     atom   51 type  2   force =     0.00000000    0.00000000    0.00000000
     atom   52 type  2   force =     0.00000000    0.00000000    0.00000000
     atom   53 type  2   force =     0.00000000    0.00000000    0.00000000
     atom   54 type  2   force =     0.00000000    0.00000000    0.00000000
     atom   55 type  2   force =     0.00000000    0.00000000    0.00000000
     atom   56 type  2   force =     0.00000000    0.00000000    0.00000000
     atom   57 type  2   force =     0.00000000    0.00000000    0.00000000
     atom   58 type  2   force =     0.00000000    0.00000000    0.00000000
     atom   59 type  2   force =     0.00000000    0.00000000    0.00000000
     atom   60 type  2   force =     0.00000000    0.00000000    0.00000000
     atom   61 type  2   force =     0.00000000    0.00000000    0.00000000
     atom   62 type  2   force =     0.00000000    0.00000000    0.00000000
     atom   63 type  2   force =     0.00000000    0.00000000    0.00000000
     The SCF correction term to forces
     atom    1 type  1   force =     0.00000570   -0.00001480   -0.00002791
     atom    2 type  2   force =     0.00000447    0.00000531    0.00000277
     atom    3 type  2   force =    -0.00000414    0.00001304    0.00001658
     atom    4 type  2   force =    -0.00001668   -0.00001614    0.00000406
     atom    5 type  2   force =    -0.00001006    0.00000242    0.00002041
     atom    6 type  2   force =    -0.00001459    0.00001013   -0.00002104
     atom    7 type  2   force =    -0.00000752    0.00001963   -0.00001027
     atom    8 type  2   force =     0.00000380   -0.00001281    0.00001679
     atom    9 type  2   force =    -0.00000425   -0.00000121    0.00001315
     atom   10 type  2   force =     0.00000289    0.00001180   -0.00000046
     atom   11 type  2   force =    -0.00000750    0.00001296   -0.00001864
     atom   12 type  2   force =    -0.00000810   -0.00001500   -0.00000233
     atom   13 type  2   force =    -0.00001035   -0.00000579   -0.00001881
     atom   14 type  2   force =    -0.00001170    0.00001200    0.00001927
     atom   15 type  2   force =    -0.00001182    0.00001706    0.00000895
     atom   16 type  2   force =     0.00000159    0.00000808   -0.00002425
     atom   17 type  2   force =     0.00000008    0.00000579   -0.00001107
     atom   18 type  2   force =     0.00000662   -0.00000661    0.00000646
     atom   19 type  2   force =    -0.00000674   -0.00001852    0.00001689
     atom   20 type  2   force =    -0.00000575    0.00001321    0.00000608
     atom   21 type  2   force =    -0.00001019    0.00000017    0.00001548
     atom   22 type  2   force =    -0.00000536   -0.00000823   -0.00002093
     atom   23 type  2   force =    -0.00001057   -0.00002357   -0.00001771
     atom   24 type  2   force =     0.00000697    0.00001194    0.00002134
     atom   25 type  2   force =    -0.00000327    0.00000240    0.00001095
     atom   26 type  2   force =     0.00000503   -0.00000994   -0.00000398
     atom   27 type  2   force =     0.00000329   -0.00001902   -0.00002010
     atom   28 type  2   force =    -0.00001222    0.00001306   -0.00000405
     atom   29 type  2   force =    -0.00000645    0.00000756   -0.00001490
     atom   30 type  2   force =    -0.00001121   -0.00001089    0.00001945
     atom   31 type  2   force =    -0.00000906   -0.00001756    0.00001676
     atom   32 type  2   force =    -0.00000384   -0.00001642   -0.00002574
     atom   33 type  2   force =     0.00001011    0.00000140   -0.00001363
     atom   34 type  2   force =    -0.00000110    0.00001551    0.00000382
     atom   35 type  2   force =     0.00000153    0.00001556    0.00001367
     atom   36 type  2   force =     0.00001444   -0.00000876    0.00000379
     atom   37 type  2   force =     0.00001240   -0.00000082    0.00001146
     atom   38 type  2   force =     0.00001267    0.00001091   -0.00002054
     atom   39 type  2   force =     0.00000831    0.00000838   -0.00001386
     atom   40 type  2   force =    -0.00000249   -0.00001329    0.00002464
     atom   41 type  2   force =     0.00000446   -0.00000429    0.00001415
     atom   42 type  2   force =    -0.00000229    0.00000686   -0.00000228
     atom   43 type  2   force =     0.00000979    0.00001771   -0.00001381
     atom   44 type  2   force =     0.00000797   -0.00001234   -0.00000165
     atom   45 type  2   force =     0.00000539    0.00000494   -0.00001847
     atom   46 type  2   force =     0.00001100    0.00000772    0.00001784
     atom   47 type  2   force =     0.00001181    0.00001573    0.00001667
     atom   48 type  2   force =    -0.00000117    0.00001621   -0.00001762
     atom   49 type  2   force =    -0.00000062    0.00000018   -0.00001565
     atom   50 type  2   force =    -0.00000673   -0.00001521    0.00000023
     atom   51 type  2   force =     0.00000689   -0.00001718    0.00001919
     atom   52 type  2   force =     0.00000591    0.00000940    0.00000039
     atom   53 type  2   force =     0.00001130    0.00000503    0.00001887
     atom   54 type  2   force =     0.00000520   -0.00001141   -0.00002316
     atom   55 type  2   force =     0.00000704   -0.00001628   -0.00000796
     atom   56 type  2   force =    -0.00000571    0.00001493    0.00001817
     atom   57 type  2   force =     0.00000359    0.00000532    0.00001512
     atom   58 type  2   force =    -0.00000278   -0.00000891   -0.00000129
     atom   59 type  2   force =     0.00000074   -0.00001836   -0.00001881
     atom   60 type  2   force =     0.00000990    0.00001393    0.00000012
     atom   61 type  2   force =     0.00000605   -0.00000043   -0.00001884
     atom   62 type  2   force =     0.00000886   -0.00000927    0.00002324
     atom   63 type  2   force =     0.00000847   -0.00001675    0.00001147

     Total force =     0.021444     Total SCF correction =     0.000169

     Writing all to output data dir ./pwscf.save/ :
     XML data file, charge density, pseudopotentials, collected wavefunctions
 
     init_run     :      0.60s CPU      0.66s WALL (       1 calls)
     electrons    :     14.84s CPU     15.85s WALL (       1 calls)
     forces       :      0.11s CPU      0.11s WALL (       1 calls)

     Called by init_run:
     wfcinit      :      0.08s CPU      0.10s WALL (       1 calls)
     wfcinit:wfcr :      0.08s CPU      0.09s WALL (       1 calls)
     potinit      :      0.39s CPU      0.40s WALL (       1 calls)
     hinit0       :      0.03s CPU      0.06s WALL (       1 calls)

     Called by electrons:
     c_bands      :     11.09s CPU     11.74s WALL (      14 calls)
     sum_band     :      0.45s CPU      0.46s WALL (      14 calls)
     v_of_rho     :      0.72s CPU      0.73s WALL (      15 calls)
     v_h          :      0.07s CPU      0.07s WALL (      15 calls)
     v_xc         :      0.65s CPU      0.66s WALL (      15 calls)
     mix_rho      :      0.95s CPU      1.25s WALL (      14 calls)

     Called by c_bands:
     init_us_2    :      0.02s CPU      0.02s WALL (      30 calls)
     regterg      :     10.71s CPU     11.36s WALL (      14 calls)

     Called by sum_band:
     sum_band:wei :      0.03s CPU      0.03s WALL (      14 calls)
     sum_band:loo :      0.35s CPU      0.36s WALL (      14 calls)
     sum_band:buf :      0.00s CPU      0.00s WALL (      14 calls)
     sum_band:ini :      0.01s CPU      0.01s WALL (      14 calls)

     Called by *egterg:
     rdiaghg      :      4.62s CPU      5.19s WALL (     276 calls)
     regterg:over :      0.77s CPU      0.78s WALL (     262 calls)
     regterg:upda :      0.35s CPU      0.35s WALL (     262 calls)
     regterg:last :      0.40s CPU      0.40s WALL (      53 calls)
     rdiaghg:chol :      0.15s CPU      0.15s WALL (     276 calls)
     rdiaghg:inve :      0.03s CPU      0.03s WALL (     276 calls)
     rdiaghg:para :      0.42s CPU      0.43s WALL (     552 calls)
     h_psi        :      4.41s CPU      4.47s WALL (     277 calls)
     g_psi        :      0.00s CPU      0.00s WALL (     262 calls)

     Called by h_psi:
     h_psi:calbec :      1.23s CPU      1.25s WALL (     277 calls)
     vloc_psi     :      3.07s CPU      3.10s WALL (     277 calls)
                                        0.00s GPU  (     277 calls)
     add_vuspsi   :      0.11s CPU      0.11s WALL (     277 calls)

     General routines
     calbec       :      1.25s CPU      1.27s WALL (     281 calls)
     fft          :      0.54s CPU      0.57s WALL (     196 calls)
     ffts         :      0.02s CPU      0.02s WALL (      14 calls)
     fftw         :      3.31s CPU      3.34s WALL (   10220 calls)
 
     Parallel routines
 
     PWSCF        :     16.34s CPU     17.66s WALL

 
   This run was terminated on:  13:53: 6  19Nov2025            

=------------------------------------------------------------------------------=
   JOB DONE.
=------------------------------------------------------------------------------=
