
     Program PWSCF v.7.5 starts on 19Nov2025 at 13:56:46 

     This program is part of the open-source Quantum ESPRESSO suite
     for quantum simulation of materials; please cite
         "P. Giannozzi et al., J. Phys.:Condens. Matter 21 395502 (2009);
         "P. Giannozzi et al., J. Phys.:Condens. Matter 29 465901 (2017);
         "P. Giannozzi et al., J. Chem. Phys. 152 154105 (2020);
          URL http://www.quantum-espresso.org", 
     in publications or presentations arising from this work. More details at
     http://www.quantum-espresso.org/quote

     Parallel version (MPI), running on    96 processors

     MPI processes distributed on     2 nodes
     144278 MiB available memory on the printing compute node when the environment starts
 
     Reading input from supercell-055.in

     Current dimensions of program PWSCF are:
     Max number of different atomic species (ntypx) = 10
     Max number of k-points (npk) =  40000
     Max angular momentum in pseudopotentials (lmaxx) =  4

     gamma-point specific algorithms are used
 
     K-points division:     npool     =       2
     R & G space division:  proc/nbgrp/npool/nimage =      48
     Subspace diagonalization in iterative solution of the eigenvalue problem:
     one sub-group per band group will be used
     scalapack distributed-memory algorithm (size of sub-group:  2*  2 procs)

 
     Parallelization info
     --------------------
     sticks:   dense  smooth     PW     G-vecs:    dense   smooth      PW
     Min          59      59     14                 2432     2432     302
     Max          62      62     16                 2442     2442     316
     Sum        2885    2885    725               116921   116921   14771
 
     Using Slab Decomposition
 


     bravais-lattice index     =            0
     lattice parameter (alat)  =      13.4813  a.u.
     unit-cell volume          =    2450.1683 (a.u.)^3
     number of atoms/cell      =           63
     number of atomic types    =            2
     number of electrons       =       254.00 (up: 128.00, down: 126.00)
     number of Kohn-Sham states=          152
     kinetic-energy cutoff     =      50.0000  Ry
     charge density cutoff     =     200.0000  Ry
     scf convergence threshold =      1.0E-08
     mixing beta               =       0.7000
     number of iterations used =            8  plain     mixing
     Exchange-correlation= PBE
                           (   1   4   3   4   0   0   0)

     celldm(1)=  13.481306  celldm(2)=   0.000000  celldm(3)=   0.000000
     celldm(4)=   0.000000  celldm(5)=   0.000000  celldm(6)=   0.000000

     crystal axes: (cart. coord. in units of alat)
               a(1) = (   1.000000   0.000000   0.000000 )  
               a(2) = (   0.000000   1.000000   0.000000 )  
               a(3) = (   0.000000   0.000000   1.000000 )  

     reciprocal axes: (cart. coord. in units 2 pi/alat)
               b(1) = (  1.000000  0.000000  0.000000 )  
               b(2) = (  0.000000  1.000000  0.000000 )  
               b(3) = (  0.000000  0.000000  1.000000 )  


     PseudoPot. # 1 for N  read from file:
     ./N_ONCV_PBE-1.2.upf
     MD5 check sum: 5312fdf34e96954e02a33bdc911c617a
     Pseudo is Norm-conserving, Zval =  5.0
     Generated using ONCVPSP code by D. R. Hamann
     Using radial grid of  602 points,  4 beta functions with: 
                l(1) =   0
                l(2) =   0
                l(3) =   1
                l(4) =   1

     PseudoPot. # 2 for C  read from file:
     ./C_ONCV_PBE-1.2.upf
     MD5 check sum: d60b57d9bdca4133f5fde4b584ee909d
     Pseudo is Norm-conserving, Zval =  4.0
     Generated using ONCVPSP code by D. R. Hamann
     Using radial grid of  602 points,  4 beta functions with: 
                l(1) =   0
                l(2) =   0
                l(3) =   1
                l(4) =   1

     atomic species   valence    mass     pseudopotential
     N                 5.00    14.00670     N ( 1.00)
     C                 4.00    12.01070     C ( 1.00)

     Starting magnetic structure 
     atomic species   magnetization
     N               0.000
     C               0.000

     No symmetry found


                                    s                        frac. trans.

      isym =  1     identity                                     

 cryst.   s( 1) = (     1          0          0      )
                  (     0          1          0      )
                  (     0          0          1      )

 cart.    s( 1) = (  1.0000000  0.0000000  0.0000000 )
                  (  0.0000000  1.0000000  0.0000000 )
                  (  0.0000000  0.0000000  1.0000000 )


   Cartesian axes

     site n.     atom                  positions (alat units)
         1        N      tau(   1) = (   0.9869283   0.9869283   0.9869283  )
         2        C      tau(   2) = (   0.9921390   0.2607625   0.2607625  )
         3        C      tau(   3) = (   0.1236981   0.3746848   0.3746848  )
         4        C      tau(   4) = (   0.2607625   0.9921390   0.2607625  )
         5        C      tau(   5) = (   0.3746848   0.1236981   0.3746848  )
         6        C      tau(   6) = (   0.2607625   0.2607625   0.9921390  )
         7        C      tau(   7) = (   0.3746848   0.3746848   0.1236981  )
         8        C      tau(   8) = (   0.0007517   0.0007517   0.4988587  )
         9        C      tau(   9) = (   0.1251291   0.1251291   0.6250516  )
        10        C      tau(  10) = (   0.0014372   0.2476607   0.7521916  )
        11        C      tau(  11) = (   0.1266329   0.3730745   0.8775065  )
        12        C      tau(  12) = (   0.2476607   0.0014372   0.7521916  )
        13        C      tau(  13) = (   0.3730745   0.1266329   0.8775065  )
        14        C      tau(  14) = (   0.2498467   0.2498467   0.4996267  )
        15        C      tau(  15) = (   0.3749463   0.3749463   0.6249280  )
        16        C      tau(  16) = (   0.0007517   0.4988587   0.0007517  )
        17        C      tau(  17) = (   0.1251291   0.6250516   0.1251291  )
        18        C      tau(  18) = (   0.0014372   0.7521916   0.2476607  )
        19        C      tau(  19) = (   0.1266329   0.8775065   0.3730745  )
        20        C      tau(  20) = (   0.2498467   0.4996267   0.2498467  )
        21        C      tau(  21) = (   0.3749463   0.6249280   0.3749463  )
        22        C      tau(  22) = (   0.2476607   0.7521916   0.0014372  )
        23        C      tau(  23) = (   0.3730745   0.8775065   0.1266329  )
        24        C      tau(  24) = (   0.0010116   0.5014264   0.5014264  )
        25        C      tau(  25) = (   0.1250381   0.6250852   0.6250852  )
        26        C      tau(  26) = (   0.9996941   0.7483805   0.7483805  )
        27        C      tau(  27) = (   0.1189720   0.8751585   0.8751585  )
        28        C      tau(  28) = (   0.2511125   0.5009902   0.7494822  )
        29        C      tau(  29) = (   0.3740517   0.6261334   0.8754230  )
        30        C      tau(  30) = (   0.2496290   0.7494822   0.5009902  )
        31        C      tau(  31) = (   0.3740517   0.8754230   0.6261334  )
        32        C      tau(  32) = (   0.4988587   0.0007517   0.0007517  )
        33        C      tau(  33) = (   0.6250516   0.1251291   0.1251291  )
        34        C      tau(  34) = (   0.4996267   0.2498467   0.2498467  )
        35        C      tau(  35) = (   0.6249280   0.3749463   0.3749463  )
        36        C      tau(  36) = (   0.7521916   0.0014372   0.2476607  )
        37        C      tau(  37) = (   0.8775065   0.1266329   0.3730745  )
        38        C      tau(  38) = (   0.7521916   0.2476607   0.0014372  )
        39        C      tau(  39) = (   0.8775065   0.3730745   0.1266329  )
        40        C      tau(  40) = (   0.5014264   0.0010116   0.5014264  )
        41        C      tau(  41) = (   0.6250852   0.1250381   0.6250852  )
        42        C      tau(  42) = (   0.5009902   0.2496290   0.7494822  )
        43        C      tau(  43) = (   0.6261334   0.3740517   0.8754230  )
        44        C      tau(  44) = (   0.7483805   0.9996941   0.7483805  )
        45        C      tau(  45) = (   0.8751585   0.1189720   0.8751585  )
        46        C      tau(  46) = (   0.7494822   0.2496290   0.5009902  )
        47        C      tau(  47) = (   0.8754230   0.3740517   0.6261334  )
        48        C      tau(  48) = (   0.5014264   0.5014264   0.0010116  )
        49        C      tau(  49) = (   0.6250852   0.6250852   0.1250381  )
        50        C      tau(  50) = (   0.5009902   0.7494822   0.2496290  )
        51        C      tau(  51) = (   0.6261334   0.8754230   0.3740517  )
        52        C      tau(  52) = (   0.7494822   0.5009902   0.2496290  )
        53        C      tau(  53) = (   0.8754230   0.6261334   0.3740517  )
        54        C      tau(  54) = (   0.7483805   0.7483805   0.9996941  )
        55        C      tau(  55) = (   0.8751585   0.8751585   0.1189720  )
        56        C      tau(  56) = (   0.4999757   0.4999757   0.4999757  )
        57        C      tau(  57) = (   0.6249536   0.6249536   0.6249536  )
        58        C      tau(  58) = (   0.4990957   0.7503802   0.7503802  )
        59        C      tau(  59) = (   0.6235333   0.8749829   0.8749829  )
        60        C      tau(  60) = (   0.7503802   0.4990957   0.7503802  )
        61        C      tau(  61) = (   0.8749829   0.6235333   0.8749829  )
        62        C      tau(  62) = (   0.7503802   0.7503802   0.4990957  )
        63        C      tau(  63) = (   0.8749829   0.8749829   0.6235333  )

   Crystallographic axes

     site n.     atom                  positions (cryst. coord.)
         1        N      tau(   1) = (  0.9869283  0.9869283  0.9869283  )
         2        C      tau(   2) = (  0.9921390  0.2607625  0.2607625  )
         3        C      tau(   3) = (  0.1236981  0.3746848  0.3746848  )
         4        C      tau(   4) = (  0.2607625  0.9921390  0.2607625  )
         5        C      tau(   5) = (  0.3746848  0.1236981  0.3746848  )
         6        C      tau(   6) = (  0.2607625  0.2607625  0.9921390  )
         7        C      tau(   7) = (  0.3746848  0.3746848  0.1236981  )
         8        C      tau(   8) = (  0.0007517  0.0007517  0.4988587  )
         9        C      tau(   9) = (  0.1251291  0.1251291  0.6250516  )
        10        C      tau(  10) = (  0.0014372  0.2476607  0.7521916  )
        11        C      tau(  11) = (  0.1266329  0.3730745  0.8775065  )
        12        C      tau(  12) = (  0.2476607  0.0014372  0.7521916  )
        13        C      tau(  13) = (  0.3730745  0.1266329  0.8775065  )
        14        C      tau(  14) = (  0.2498467  0.2498467  0.4996267  )
        15        C      tau(  15) = (  0.3749463  0.3749463  0.6249280  )
        16        C      tau(  16) = (  0.0007517  0.4988587  0.0007517  )
        17        C      tau(  17) = (  0.1251291  0.6250516  0.1251291  )
        18        C      tau(  18) = (  0.0014372  0.7521916  0.2476607  )
        19        C      tau(  19) = (  0.1266329  0.8775065  0.3730745  )
        20        C      tau(  20) = (  0.2498467  0.4996267  0.2498467  )
        21        C      tau(  21) = (  0.3749463  0.6249280  0.3749463  )
        22        C      tau(  22) = (  0.2476607  0.7521916  0.0014372  )
        23        C      tau(  23) = (  0.3730745  0.8775065  0.1266329  )
        24        C      tau(  24) = (  0.0010116  0.5014264  0.5014264  )
        25        C      tau(  25) = (  0.1250381  0.6250852  0.6250852  )
        26        C      tau(  26) = (  0.9996941  0.7483805  0.7483805  )
        27        C      tau(  27) = (  0.1189720  0.8751585  0.8751585  )
        28        C      tau(  28) = (  0.2511125  0.5009902  0.7494822  )
        29        C      tau(  29) = (  0.3740517  0.6261334  0.8754230  )
        30        C      tau(  30) = (  0.2496290  0.7494822  0.5009902  )
        31        C      tau(  31) = (  0.3740517  0.8754230  0.6261334  )
        32        C      tau(  32) = (  0.4988587  0.0007517  0.0007517  )
        33        C      tau(  33) = (  0.6250516  0.1251291  0.1251291  )
        34        C      tau(  34) = (  0.4996267  0.2498467  0.2498467  )
        35        C      tau(  35) = (  0.6249280  0.3749463  0.3749463  )
        36        C      tau(  36) = (  0.7521916  0.0014372  0.2476607  )
        37        C      tau(  37) = (  0.8775065  0.1266329  0.3730745  )
        38        C      tau(  38) = (  0.7521916  0.2476607  0.0014372  )
        39        C      tau(  39) = (  0.8775065  0.3730745  0.1266329  )
        40        C      tau(  40) = (  0.5014264  0.0010116  0.5014264  )
        41        C      tau(  41) = (  0.6250852  0.1250381  0.6250852  )
        42        C      tau(  42) = (  0.5009902  0.2496290  0.7494822  )
        43        C      tau(  43) = (  0.6261334  0.3740517  0.8754230  )
        44        C      tau(  44) = (  0.7483805  0.9996941  0.7483805  )
        45        C      tau(  45) = (  0.8751585  0.1189720  0.8751585  )
        46        C      tau(  46) = (  0.7494822  0.2496290  0.5009902  )
        47        C      tau(  47) = (  0.8754230  0.3740517  0.6261334  )
        48        C      tau(  48) = (  0.5014264  0.5014264  0.0010116  )
        49        C      tau(  49) = (  0.6250852  0.6250852  0.1250381  )
        50        C      tau(  50) = (  0.5009902  0.7494822  0.2496290  )
        51        C      tau(  51) = (  0.6261334  0.8754230  0.3740517  )
        52        C      tau(  52) = (  0.7494822  0.5009902  0.2496290  )
        53        C      tau(  53) = (  0.8754230  0.6261334  0.3740517  )
        54        C      tau(  54) = (  0.7483805  0.7483805  0.9996941  )
        55        C      tau(  55) = (  0.8751585  0.8751585  0.1189720  )
        56        C      tau(  56) = (  0.4999757  0.4999757  0.4999757  )
        57        C      tau(  57) = (  0.6249536  0.6249536  0.6249536  )
        58        C      tau(  58) = (  0.4990957  0.7503802  0.7503802  )
        59        C      tau(  59) = (  0.6235333  0.8749829  0.8749829  )
        60        C      tau(  60) = (  0.7503802  0.4990957  0.7503802  )
        61        C      tau(  61) = (  0.8749829  0.6235333  0.8749829  )
        62        C      tau(  62) = (  0.7503802  0.7503802  0.4990957  )
        63        C      tau(  63) = (  0.8749829  0.8749829  0.6235333  )

     number of k points=     1
                       cart. coord. in units 2pi/alat
        k(    1) = (   0.0000000   0.0000000   0.0000000), wk =   1.0000000

                       cryst. coord.
        k(    1) = (   0.0000000   0.0000000   0.0000000), wk =   1.0000000

     Dense  grid:    58461 G-vectors     FFT dimensions: (  64,  64,  64)

     Dynamical RAM for                 wfc:       0.35 MB

     Dynamical RAM for     wfc (w. buffer):       0.35 MB

     Dynamical RAM for           str. fact:       0.04 MB

     Dynamical RAM for           local pot:       0.00 MB

     Dynamical RAM for          nlocal pot:       1.17 MB

     Dynamical RAM for                qrad:       0.65 MB

     Dynamical RAM for          rho,v,vnew:       0.49 MB

     Dynamical RAM for               rhoin:       0.16 MB

     Dynamical RAM for            rho*nmix:       0.60 MB

     Dynamical RAM for           G-vectors:       0.08 MB

     Dynamical RAM for          h,s,v(r/c):       0.53 MB

     Dynamical RAM for          <psi|beta>:       0.58 MB

     Dynamical RAM for                 psi:       0.71 MB

     Dynamical RAM for                hpsi:       0.71 MB

     Dynamical RAM for      wfcinit/wfcrot:       1.24 MB

     Estimated static dynamical RAM per process >       3.37 MB

     Estimated max dynamical RAM per process >       6.49 MB

     Estimated total dynamical RAM >     594.05 MB
     Generating pointlists ...
     new r_m :   0.0850 (alat units)  1.1454 (a.u.) for type    1
     new r_m :   0.0850 (alat units)  1.1454 (a.u.) for type    2

     Initial potential from superposition of free atoms

     starting charge     252.5655, renormalised to     254.0000
     Starting wfcs are random

     total cpu time spent up to now is        1.4 secs

     Self-consistent Calculation

     iteration #  1     ecut=    50.00 Ry     beta= 0.70
     Davidson diagonalization with overlap

---- Real-time Memory Report at c_bands before calling an iterative solver
           158 MiB given to the printing process from OS
             0 MiB allocation reported by mallinfo(arena+hblkhd)
        143320 MiB available memory on the node where the printing process lives
------------------
     ethr =  1.00E-02,  avg # of iterations = 14.0

     total cpu time spent up to now is        2.1 secs

     total energy              =    -723.29477834 Ry
     estimated scf accuracy    <       3.68980366 Ry

     total magnetization       =     2.00 Bohr mag/cell
     absolute magnetization    =     2.00 Bohr mag/cell

     iteration #  2     ecut=    50.00 Ry     beta= 0.70
     Davidson diagonalization with overlap

---- Real-time Memory Report at c_bands before calling an iterative solver
           163 MiB given to the printing process from OS
             0 MiB allocation reported by mallinfo(arena+hblkhd)
        143223 MiB available memory on the node where the printing process lives
------------------
     ethr =  1.45E-03,  avg # of iterations = 11.5

     total cpu time spent up to now is        2.5 secs

     total energy              =    -723.67539501 Ry
     estimated scf accuracy    <       0.44590444 Ry

     total magnetization       =     2.00 Bohr mag/cell
     absolute magnetization    =     2.07 Bohr mag/cell

     iteration #  3     ecut=    50.00 Ry     beta= 0.70
     Davidson diagonalization with overlap

---- Real-time Memory Report at c_bands before calling an iterative solver
           164 MiB given to the printing process from OS
             0 MiB allocation reported by mallinfo(arena+hblkhd)
        143229 MiB available memory on the node where the printing process lives
------------------
     c_bands:  2 eigenvalues not converged
     ethr =  1.76E-04,  avg # of iterations = 20.0

     total cpu time spent up to now is        3.8 secs

     total energy              =    -723.73693944 Ry
     estimated scf accuracy    <       0.87142537 Ry

     total magnetization       =     2.00 Bohr mag/cell
     absolute magnetization    =     2.12 Bohr mag/cell

     iteration #  4     ecut=    50.00 Ry     beta= 0.70
     Davidson diagonalization with overlap

---- Real-time Memory Report at c_bands before calling an iterative solver
           164 MiB given to the printing process from OS
             0 MiB allocation reported by mallinfo(arena+hblkhd)
        143240 MiB available memory on the node where the printing process lives
------------------
     ethr =  1.76E-04,  avg # of iterations = 16.5

     total cpu time spent up to now is        5.7 secs

     total energy              =    -723.91133405 Ry
     estimated scf accuracy    <       0.00833282 Ry

     total magnetization       =     2.00 Bohr mag/cell
     absolute magnetization    =     2.19 Bohr mag/cell

     iteration #  5     ecut=    50.00 Ry     beta= 0.70
     Davidson diagonalization with overlap

---- Real-time Memory Report at c_bands before calling an iterative solver
           165 MiB given to the printing process from OS
             0 MiB allocation reported by mallinfo(arena+hblkhd)
        143235 MiB available memory on the node where the printing process lives
------------------
     c_bands:  5 eigenvalues not converged
     ethr =  3.28E-06,  avg # of iterations = 20.0

     total cpu time spent up to now is        7.4 secs

     total energy              =    -723.91589391 Ry
     estimated scf accuracy    <       0.00396878 Ry

     total magnetization       =     2.00 Bohr mag/cell
     absolute magnetization    =     2.22 Bohr mag/cell

     iteration #  6     ecut=    50.00 Ry     beta= 0.70
     Davidson diagonalization with overlap

---- Real-time Memory Report at c_bands before calling an iterative solver
           165 MiB given to the printing process from OS
             0 MiB allocation reported by mallinfo(arena+hblkhd)
        143229 MiB available memory on the node where the printing process lives
------------------
     c_bands:  3 eigenvalues not converged
     ethr =  1.56E-06,  avg # of iterations = 20.0

     total cpu time spent up to now is        9.4 secs

     total energy              =    -723.91661662 Ry
     estimated scf accuracy    <       0.00069282 Ry

     total magnetization       =     2.00 Bohr mag/cell
     absolute magnetization    =     2.25 Bohr mag/cell

     iteration #  7     ecut=    50.00 Ry     beta= 0.70
     Davidson diagonalization with overlap

---- Real-time Memory Report at c_bands before calling an iterative solver
           165 MiB given to the printing process from OS
             0 MiB allocation reported by mallinfo(arena+hblkhd)
        143228 MiB available memory on the node where the printing process lives
------------------
     c_bands:  2 eigenvalues not converged
     ethr =  2.73E-07,  avg # of iterations = 20.0

     total cpu time spent up to now is       10.4 secs

     total energy              =    -723.91681502 Ry
     estimated scf accuracy    <       0.00006936 Ry

     total magnetization       =     2.00 Bohr mag/cell
     absolute magnetization    =     2.26 Bohr mag/cell

     iteration #  8     ecut=    50.00 Ry     beta= 0.70
     Davidson diagonalization with overlap

---- Real-time Memory Report at c_bands before calling an iterative solver
           165 MiB given to the printing process from OS
             0 MiB allocation reported by mallinfo(arena+hblkhd)
        143229 MiB available memory on the node where the printing process lives
------------------
     c_bands:  1 eigenvalues not converged
     ethr =  2.73E-08,  avg # of iterations = 20.0

     total cpu time spent up to now is       11.5 secs

     total energy              =    -723.91684287 Ry
     estimated scf accuracy    <       0.00002095 Ry

     total magnetization       =     2.00 Bohr mag/cell
     absolute magnetization    =     2.27 Bohr mag/cell

     iteration #  9     ecut=    50.00 Ry     beta= 0.70
     Davidson diagonalization with overlap

---- Real-time Memory Report at c_bands before calling an iterative solver
           166 MiB given to the printing process from OS
             0 MiB allocation reported by mallinfo(arena+hblkhd)
        143227 MiB available memory on the node where the printing process lives
------------------
     c_bands:  1 eigenvalues not converged
     ethr =  8.25E-09,  avg # of iterations = 20.0

     total cpu time spent up to now is       12.0 secs

     total energy              =    -723.91685013 Ry
     estimated scf accuracy    <       0.00000704 Ry

     total magnetization       =     2.00 Bohr mag/cell
     absolute magnetization    =     2.28 Bohr mag/cell

     iteration # 10     ecut=    50.00 Ry     beta= 0.70
     Davidson diagonalization with overlap

---- Real-time Memory Report at c_bands before calling an iterative solver
           166 MiB given to the printing process from OS
             0 MiB allocation reported by mallinfo(arena+hblkhd)
        143226 MiB available memory on the node where the printing process lives
------------------
     c_bands:  3 eigenvalues not converged
     ethr =  2.77E-09,  avg # of iterations = 20.0

     total cpu time spent up to now is       12.6 secs

     total energy              =    -723.91685307 Ry
     estimated scf accuracy    <       0.00000092 Ry

     total magnetization       =     2.00 Bohr mag/cell
     absolute magnetization    =     2.28 Bohr mag/cell

     iteration # 11     ecut=    50.00 Ry     beta= 0.70
     Davidson diagonalization with overlap

---- Real-time Memory Report at c_bands before calling an iterative solver
           166 MiB given to the printing process from OS
             0 MiB allocation reported by mallinfo(arena+hblkhd)
        143235 MiB available memory on the node where the printing process lives
------------------
     c_bands:  1 eigenvalues not converged
     ethr =  3.63E-10,  avg # of iterations = 19.5

     total cpu time spent up to now is       13.4 secs

     total energy              =    -723.91685363 Ry
     estimated scf accuracy    <       0.00000018 Ry

     total magnetization       =     2.00 Bohr mag/cell
     absolute magnetization    =     2.29 Bohr mag/cell

     iteration # 12     ecut=    50.00 Ry     beta= 0.70
     Davidson diagonalization with overlap

---- Real-time Memory Report at c_bands before calling an iterative solver
           166 MiB given to the printing process from OS
             0 MiB allocation reported by mallinfo(arena+hblkhd)
        143230 MiB available memory on the node where the printing process lives
------------------
     c_bands:  1 eigenvalues not converged
     ethr =  7.16E-11,  avg # of iterations = 19.0

     total cpu time spent up to now is       14.0 secs

     total energy              =    -723.91685373 Ry
     estimated scf accuracy    <       0.00000005 Ry

     total magnetization       =     2.00 Bohr mag/cell
     absolute magnetization    =     2.29 Bohr mag/cell

     iteration # 13     ecut=    50.00 Ry     beta= 0.70
     Davidson diagonalization with overlap

---- Real-time Memory Report at c_bands before calling an iterative solver
           166 MiB given to the printing process from OS
             0 MiB allocation reported by mallinfo(arena+hblkhd)
        143229 MiB available memory on the node where the printing process lives
------------------
     ethr =  1.99E-11,  avg # of iterations = 19.5

     total cpu time spent up to now is       14.5 secs

     total energy              =    -723.91685377 Ry
     estimated scf accuracy    <       0.00000001 Ry

     total magnetization       =     2.00 Bohr mag/cell
     absolute magnetization    =     2.29 Bohr mag/cell

     iteration # 14     ecut=    50.00 Ry     beta= 0.70
     Davidson diagonalization with overlap

---- Real-time Memory Report at c_bands before calling an iterative solver
           166 MiB given to the printing process from OS
             0 MiB allocation reported by mallinfo(arena+hblkhd)
        143229 MiB available memory on the node where the printing process lives
------------------
     c_bands:  2 eigenvalues not converged
     ethr =  5.12E-12,  avg # of iterations = 18.5
 
     Magnetic moment per site  (integrated on atomic sphere of radius R)
     atom   1 (R=0.085)  charge=  2.8976  magn=  0.0040
     atom   2 (R=0.085)  charge=  1.8130  magn=  0.2493
     atom   3 (R=0.085)  charge=  1.8113  magn= -0.0087
     atom   4 (R=0.085)  charge=  1.8131  magn=  0.2492
     atom   5 (R=0.085)  charge=  1.8113  magn= -0.0087
     atom   6 (R=0.085)  charge=  1.8131  magn=  0.2495
     atom   7 (R=0.085)  charge=  1.8113  magn= -0.0087
     atom   8 (R=0.085)  charge=  1.8016  magn=  0.0085
     atom   9 (R=0.085)  charge=  1.8085  magn= -0.0018
     atom  10 (R=0.085)  charge=  1.7945  magn=  0.0054
     atom  11 (R=0.085)  charge=  1.8012  magn= -0.0034
     atom  12 (R=0.085)  charge=  1.7946  magn=  0.0054
     atom  13 (R=0.085)  charge=  1.8030  magn= -0.0035
     atom  14 (R=0.085)  charge=  1.8000  magn=  0.0086
     atom  15 (R=0.085)  charge=  1.8032  magn= -0.0019
     atom  16 (R=0.085)  charge=  1.8015  magn=  0.0085
     atom  17 (R=0.085)  charge=  1.8085  magn= -0.0018
     atom  18 (R=0.085)  charge=  1.7946  magn=  0.0054
     atom  19 (R=0.085)  charge=  1.8030  magn= -0.0034
     atom  20 (R=0.085)  charge=  1.8001  magn=  0.0086
     atom  21 (R=0.085)  charge=  1.8013  magn= -0.0019
     atom  22 (R=0.085)  charge=  1.7945  magn=  0.0054
     atom  23 (R=0.085)  charge=  1.8030  magn= -0.0034
     atom  24 (R=0.085)  charge=  1.8003  magn=  0.0181
     atom  25 (R=0.085)  charge=  1.8180  magn=  0.0090
     atom  26 (R=0.085)  charge=  1.8119  magn=  0.0031
     atom  27 (R=0.085)  charge=  1.7813  magn= -0.0000
     atom  28 (R=0.085)  charge=  1.8004  magn=  0.0215
     atom  29 (R=0.085)  charge=  1.7972  magn= -0.0014
     atom  30 (R=0.085)  charge=  1.8008  magn=  0.0212
     atom  31 (R=0.085)  charge=  1.7954  magn= -0.0013
     atom  32 (R=0.085)  charge=  1.8016  magn=  0.0085
     atom  33 (R=0.085)  charge=  1.8085  magn= -0.0018
     atom  34 (R=0.085)  charge=  1.8001  magn=  0.0086
     atom  35 (R=0.085)  charge=  1.8013  magn= -0.0019
     atom  36 (R=0.085)  charge=  1.7946  magn=  0.0054
     atom  37 (R=0.085)  charge=  1.8030  magn= -0.0034
     atom  38 (R=0.085)  charge=  1.7946  magn=  0.0054
     atom  39 (R=0.085)  charge=  1.8030  magn= -0.0034
     atom  40 (R=0.085)  charge=  1.8004  magn=  0.0180
     atom  41 (R=0.085)  charge=  1.8200  magn=  0.0089
     atom  42 (R=0.085)  charge=  1.8009  magn=  0.0213
     atom  43 (R=0.085)  charge=  1.7954  magn= -0.0013
     atom  44 (R=0.085)  charge=  1.8120  magn=  0.0032
     atom  45 (R=0.085)  charge=  1.7813  magn= -0.0000
     atom  46 (R=0.085)  charge=  1.8008  magn=  0.0212
     atom  47 (R=0.085)  charge=  1.7953  magn= -0.0013
     atom  48 (R=0.085)  charge=  1.8005  magn=  0.0181
     atom  49 (R=0.085)  charge=  1.8200  magn=  0.0089
     atom  50 (R=0.085)  charge=  1.8008  magn=  0.0212
     atom  51 (R=0.085)  charge=  1.7953  magn= -0.0013
     atom  52 (R=0.085)  charge=  1.8008  magn=  0.0212
     atom  53 (R=0.085)  charge=  1.7953  magn= -0.0013
     atom  54 (R=0.085)  charge=  1.8120  magn=  0.0032
     atom  55 (R=0.085)  charge=  1.7813  magn= -0.0000
     atom  56 (R=0.085)  charge=  1.8052  magn=  0.0011
     atom  57 (R=0.085)  charge=  1.7981  magn=  0.0010
     atom  58 (R=0.085)  charge=  1.8062  magn=  0.0019
     atom  59 (R=0.085)  charge=  1.8021  magn= -0.0009
     atom  60 (R=0.085)  charge=  1.8061  magn=  0.0018
     atom  61 (R=0.085)  charge=  1.8021  magn= -0.0009
     atom  62 (R=0.085)  charge=  1.8061  magn=  0.0018
     atom  63 (R=0.085)  charge=  1.8021  magn= -0.0009

     total cpu time spent up to now is       15.1 secs

     End of self-consistent calculation

 ------ SPIN UP ------------


          k = 0.0000 0.0000 0.0000 (  7386 PWs)   bands (ev):

    -8.5687  -7.0176  -6.2646  -6.2610  -6.1621  -6.1572  -5.8782  -4.9430
    -4.1224  -4.1185  -4.0914  -4.0882  -4.0324  -4.0298  -3.9777  -3.9107
    -3.8650  -3.8597  -3.3518  -2.9531  -2.6693  -2.6650  -2.1115  -0.3587
    -0.3566  -0.3174  -0.2898  -0.0887   0.1878   0.1899   0.2952   0.2961
     0.3709   0.6087   0.8199   0.8263   0.9881   0.9892   1.0254   1.0499
     1.0516   1.0754   1.3042   1.3047   3.0584   3.8867   3.8900   4.0406
     4.2362   4.2367   4.2481   4.2541   4.2898   4.2911   4.4337   4.4344
     4.5000   4.5010   4.6033   4.6829   4.6854   4.6897   4.6923   4.7781
     4.7798   4.9102   4.9650   4.9665   5.0560   5.2255   5.2278   5.2994
     5.3703   5.3740   5.4085   5.4234   5.4252   6.0483   6.0533   6.0802
     6.6432   6.6441   6.7634   7.0069   7.0286   7.0292   7.5195   8.3344
     8.3366   8.4198   8.4949   8.4982   8.6706   8.6748   8.8282   8.8336
     8.8474   8.8538   8.8956   8.8963   8.9461   9.3059   9.3075   9.3102
     9.7198   9.7205   9.9288   9.9403   9.9434   9.9557   9.9821  10.0040
    10.0051  10.0134  10.0341  10.0367  10.1297  10.1360  10.2844  10.2883
    10.3596  10.9892  12.2214  12.4683  12.4715  13.8188  14.7991  14.8050
    17.3729  17.3873  17.3930  17.5565  17.5586  17.5627  17.8925  17.9287
    17.9319  18.0127  18.0162  18.3709  18.9883  18.9907  19.0244  20.7116
    20.8220  20.8262  20.8706  20.9555  20.9604  21.0227  21.0289  21.0832

     occupation numbers 
     1.0000   1.0000   1.0000   1.0000   1.0000   1.0000   1.0000   1.0000
     1.0000   1.0000   1.0000   1.0000   1.0000   1.0000   1.0000   1.0000
     1.0000   1.0000   1.0000   1.0000   1.0000   1.0000   1.0000   1.0000
     1.0000   1.0000   1.0000   1.0000   1.0000   1.0000   1.0000   1.0000
     1.0000   1.0000   1.0000   1.0000   1.0000   1.0000   1.0000   1.0000
     1.0000   1.0000   1.0000   1.0000   1.0000   1.0000   1.0000   1.0000
     1.0000   1.0000   1.0000   1.0000   1.0000   1.0000   1.0000   1.0000
     1.0000   1.0000   1.0000   1.0000   1.0000   1.0000   1.0000   1.0000
     1.0000   1.0000   1.0000   1.0000   1.0000   1.0000   1.0000   1.0000
     1.0000   1.0000   1.0000   1.0000   1.0000   1.0000   1.0000   1.0000
     1.0000   1.0000   1.0000   1.0000   1.0000   1.0000   1.0000   1.0000
     1.0000   1.0000   1.0000   1.0000   1.0000   1.0000   1.0000   1.0000
     1.0000   1.0000   1.0000   1.0000   1.0000   1.0000   1.0000   1.0000
     1.0000   1.0000   1.0000   1.0000   1.0000   1.0000   1.0000   1.0000
     1.0000   1.0000   1.0000   1.0000   1.0000   1.0000   1.0000   1.0000
     1.0000   1.0000   1.0000   1.0000   1.0000   1.0000   1.0000   1.0000
     0.0000   0.0000   0.0000   0.0000   0.0000   0.0000   0.0000   0.0000
     0.0000   0.0000   0.0000   0.0000   0.0000   0.0000   0.0000   0.0000
     0.0000   0.0000   0.0000   0.0000   0.0000   0.0000   0.0000   0.0000

 ------ SPIN DOWN ----------


          k = 0.0000 0.0000 0.0000 (  7386 PWs)   bands (ev):

    -8.5454  -7.0032  -6.2452  -6.2415  -6.1203  -6.1155  -5.8415  -4.9270
    -4.1024  -4.0984  -4.0754  -4.0723  -3.9778  -3.9736  -3.9523  -3.8988
    -3.8190  -3.8138  -3.3082  -2.9352  -2.6149  -2.6107  -1.9708  -0.3419
    -0.3398  -0.2992  -0.2683  -0.0225   0.2035   0.2054   0.3305   0.3311
     0.3965   0.6410   0.8324   0.8389   1.0128   1.0140   1.0563   1.0654
     1.0670   1.0952   1.4753   1.4759   3.1727   3.9071   3.9105   4.0633
     4.2705   4.2722   4.2738   4.2868   4.3098   4.3124   4.4832   4.4841
     4.5205   4.5210   4.6305   4.7039   4.7046   4.7058   4.7088   4.8149
     4.8167   4.9223   4.9971   4.9983   5.1402   5.2595   5.2618   5.3233
     5.3816   5.3851   5.4211   5.4831   5.4852   6.1079   6.1128   6.1211
     6.6695   6.6704   6.7979   7.0498   7.1212   7.1218   7.6987   8.3724
     8.3743   8.4561   8.5274   8.5311   8.7010   8.7054   8.8616   8.8660
     8.8712   8.8818   8.9481   8.9489   8.9702   9.3333   9.3440   9.3468
     9.7488   9.7496   9.9446   9.9555   9.9575   9.9836  10.0064  10.0184
    10.0242  10.0339  10.0672  10.0703  10.1619  10.1681  10.3399  10.3439
    10.4214  11.3857  12.5280  12.6152  12.6194  14.2860  16.1601  16.1649
    17.4024  17.4062  17.4114  17.5812  17.6115  17.6154  17.9168  17.9491
    17.9524  18.0505  18.0544  18.4830  19.0679  19.0770  19.0786  20.7611
    20.8352  20.8393  20.8848  20.9733  20.9787  21.0463  21.0536  21.0951

     occupation numbers 
     1.0000   1.0000   1.0000   1.0000   1.0000   1.0000   1.0000   1.0000
     1.0000   1.0000   1.0000   1.0000   1.0000   1.0000   1.0000   1.0000
     1.0000   1.0000   1.0000   1.0000   1.0000   1.0000   1.0000   1.0000
     1.0000   1.0000   1.0000   1.0000   1.0000   1.0000   1.0000   1.0000
     1.0000   1.0000   1.0000   1.0000   1.0000   1.0000   1.0000   1.0000
     1.0000   1.0000   1.0000   1.0000   1.0000   1.0000   1.0000   1.0000
     1.0000   1.0000   1.0000   1.0000   1.0000   1.0000   1.0000   1.0000
     1.0000   1.0000   1.0000   1.0000   1.0000   1.0000   1.0000   1.0000
     1.0000   1.0000   1.0000   1.0000   1.0000   1.0000   1.0000   1.0000
     1.0000   1.0000   1.0000   1.0000   1.0000   1.0000   1.0000   1.0000
     1.0000   1.0000   1.0000   1.0000   1.0000   1.0000   1.0000   1.0000
     1.0000   1.0000   1.0000   1.0000   1.0000   1.0000   1.0000   1.0000
     1.0000   1.0000   1.0000   1.0000   1.0000   1.0000   1.0000   1.0000
     1.0000   1.0000   1.0000   1.0000   1.0000   1.0000   1.0000   1.0000
     1.0000   1.0000   1.0000   1.0000   1.0000   1.0000   1.0000   1.0000
     1.0000   1.0000   1.0000   1.0000   1.0000   1.0000   0.0000   0.0000
     0.0000   0.0000   0.0000   0.0000   0.0000   0.0000   0.0000   0.0000
     0.0000   0.0000   0.0000   0.0000   0.0000   0.0000   0.0000   0.0000
     0.0000   0.0000   0.0000   0.0000   0.0000   0.0000   0.0000   0.0000

     highest occupied, lowest unoccupied level (ev):    14.8050   16.1601

!    total energy              =    -723.91685377 Ry
     estimated scf accuracy    <          4.0E-09 Ry

     The total energy is the sum of the following terms:
     one-electron contribution =     232.79905614 Ry
     hartree contribution      =      70.09504005 Ry
     xc contribution           =    -226.74477639 Ry
     ewald contribution        =    -800.06617358 Ry

     total magnetization       =     2.00 Bohr mag/cell
     absolute magnetization    =     2.29 Bohr mag/cell

     convergence has been achieved in  14 iterations

     Forces acting on atoms (cartesian axes, Ry/au):

     atom    1 type  1   force =     0.00229647    0.00236617    0.00234247
     atom    2 type  2   force =    -0.00026289    0.00013496    0.00019107
     atom    3 type  2   force =     0.00069717    0.00089662    0.00084388
     atom    4 type  2   force =     0.00002789   -0.00022189    0.00015518
     atom    5 type  2   force =     0.00100318    0.00085015    0.00095304
     atom    6 type  2   force =    -0.00024072   -0.00008737   -0.00004381
     atom    7 type  2   force =     0.00074283    0.00084263    0.00077382
     atom    8 type  2   force =     0.00031090    0.00029551   -0.00059916
     atom    9 type  2   force =    -0.00004704   -0.00000946   -0.00019962
     atom   10 type  2   force =     0.00066882    0.00035587    0.00003701
     atom   11 type  2   force =     0.00267081    0.00095944   -0.00100121
     atom   12 type  2   force =    -0.00025323    0.00012199    0.00039476
     atom   13 type  2   force =     0.00038037   -0.00072922   -0.00051525
     atom   14 type  2   force =    -0.00072524    0.00024456    0.00003602
     atom   15 type  2   force =     0.00370636   -0.00114003   -0.00081507
     atom   16 type  2   force =     0.00089446   -0.00020861   -0.00034055
     atom   17 type  2   force =    -0.00004987   -0.00018131    0.00007931
     atom   18 type  2   force =     0.00010564    0.00042265   -0.00026619
     atom   19 type  2   force =    -0.00065059   -0.00042636    0.00038771
     atom   20 type  2   force =    -0.00004361   -0.00026626   -0.00009153
     atom   21 type  2   force =    -0.00031122    0.00002664   -0.00018967
     atom   22 type  2   force =    -0.00091812    0.00006848   -0.00022200
     atom   23 type  2   force =     0.00061718   -0.00060094   -0.00081682
     atom   24 type  2   force =     0.00077244   -0.00035027    0.00066087
     atom   25 type  2   force =     0.00407771   -0.00099670    0.00097843
     atom   26 type  2   force =     0.00054466   -0.00086260    0.00012503
     atom   27 type  2   force =     0.00085322   -0.00151969   -0.00157454
     atom   28 type  2   force =    -0.01754300    0.00030740   -0.00040653
     atom   29 type  2   force =     0.00339079    0.00121423    0.00128719
     atom   30 type  2   force =    -0.00091521    0.00028560   -0.00025878
     atom   31 type  2   force =    -0.00065923    0.00031091    0.00032547
     atom   32 type  2   force =    -0.00053206    0.00031873    0.00029746
     atom   33 type  2   force =    -0.00021894    0.00000881    0.00005310
     atom   34 type  2   force =    -0.00023754   -0.00005384   -0.00007786
     atom   35 type  2   force =     0.00006205   -0.00015296   -0.00030931
     atom   36 type  2   force =     0.00039268    0.00011159   -0.00028862
     atom   37 type  2   force =    -0.00056402   -0.00073125    0.00052167
     atom   38 type  2   force =     0.00033802   -0.00030166    0.00012813
     atom   39 type  2   force =    -0.00049900    0.00037876   -0.00084019
     atom   40 type  2   force =     0.00001663    0.00019579    0.00004913
     atom   41 type  2   force =     0.00003066   -0.00005601    0.00007194
     atom   42 type  2   force =     0.00064119   -0.00089725   -0.00032586
     atom   43 type  2   force =     0.00028851   -0.00052613    0.00030288
     atom   44 type  2   force =    -0.00017773   -0.00002073   -0.00023731
     atom   45 type  2   force =    -0.00152234    0.00099667   -0.00146215
     atom   46 type  2   force =    -0.00006010   -0.00029762    0.00003488
     atom   47 type  2   force =     0.00031599   -0.00061740    0.00028332
     atom   48 type  2   force =     0.00061179    0.00033843    0.00076989
     atom   49 type  2   force =     0.00001766   -0.00009391    0.00012267
     atom   50 type  2   force =     0.00003793   -0.00002855   -0.00030174
     atom   51 type  2   force =     0.00030226    0.00038025   -0.00060295
     atom   52 type  2   force =     0.00003995    0.00002708   -0.00029981
     atom   53 type  2   force =     0.00038690    0.00042702   -0.00050465
     atom   54 type  2   force =    -0.00029422   -0.00024355   -0.00006375
     atom   55 type  2   force =    -0.00157032   -0.00156851    0.00093346
     atom   56 type  2   force =     0.00049170   -0.00040739   -0.00072517
     atom   57 type  2   force =    -0.00003201   -0.00003814    0.00006046
     atom   58 type  2   force =     0.00031027    0.00073526    0.00040907
     atom   59 type  2   force =    -0.00029175    0.00031568    0.00015514
     atom   60 type  2   force =     0.00009828   -0.00027872    0.00006991
     atom   61 type  2   force =     0.00019584   -0.00028123    0.00027325
     atom   62 type  2   force =     0.00001287    0.00009497   -0.00030015
     atom   63 type  2   force =     0.00026791    0.00016273   -0.00042736
     The non-local contrib.  to forces
     atom    1 type  1   force =    -0.73727640   -0.73726209   -0.73735311
     atom    2 type  2   force =    -0.22494316    0.21104042    0.21104391
     atom    3 type  2   force =     0.07009150    0.06925124    0.06951395
     atom    4 type  2   force =     0.21152237   -0.22504616    0.21108838
     atom    5 type  2   force =     0.06920397    0.07049005    0.06990362
     atom    6 type  2   force =     0.21091461    0.20984205   -0.22388766
     atom    7 type  2   force =     0.06943229    0.06944703    0.06995464
     atom    8 type  2   force =    -0.00831236   -0.00820103    0.05229585
     atom    9 type  2   force =    -0.00474393   -0.00474386    0.01542916
     atom   10 type  2   force =    -0.04328812   -0.01229544   -0.01922372
     atom   11 type  2   force =    -0.06779290    0.06066555   -0.08347143
     atom   12 type  2   force =    -0.01298133   -0.04407966   -0.01935619
     atom   13 type  2   force =     0.06018148   -0.07149450   -0.08292941
     atom   14 type  2   force =    -0.00146286   -0.00070561    0.05255674
     atom   15 type  2   force =     0.01724148    0.01305578   -0.00009065
     atom   16 type  2   force =    -0.00745141    0.05198063   -0.00897735
     atom   17 type  2   force =    -0.00474631    0.01568820   -0.00503415
     atom   18 type  2   force =    -0.04416324   -0.01951627   -0.01307773
     atom   19 type  2   force =    -0.07175467   -0.08241868    0.05970239
     atom   20 type  2   force =    -0.00172407    0.05138487   -0.00179023
     atom   21 type  2   force =     0.01381068    0.00020914    0.01357220
     atom   22 type  2   force =    -0.01274214   -0.02049731   -0.04527309
     atom   23 type  2   force =     0.05993934   -0.08334640   -0.07202131
     atom   24 type  2   force =    -0.07312717    0.02818927    0.02871574
     atom   25 type  2   force =    -0.00748026    0.01577936    0.01788424
     atom   26 type  2   force =    -0.05967094   -0.02541896   -0.02489392
     atom   27 type  2   force =    -0.11776058    0.13528113    0.13552885
     atom   28 type  2   force =     0.04173092    0.02823788   -0.01949208
     atom   29 type  2   force =     0.00513285    0.01923493    0.00613394
     atom   30 type  2   force =     0.06265150   -0.01837609    0.02728150
     atom   31 type  2   force =     0.00178350    0.00560139    0.01888691
     atom   32 type  2   force =     0.05214742   -0.00829720   -0.00822810
     atom   33 type  2   force =     0.01556634   -0.00486532   -0.00490537
     atom   34 type  2   force =     0.05139886   -0.00180296   -0.00173074
     atom   35 type  2   force =     0.00053103    0.01366177    0.01346028
     atom   36 type  2   force =    -0.01942691   -0.04413285   -0.01300463
     atom   37 type  2   force =    -0.08285527   -0.07149966    0.06013966
     atom   38 type  2   force =    -0.01948663   -0.01300029   -0.04418902
     atom   39 type  2   force =    -0.08270823    0.06019983   -0.07179655
     atom   40 type  2   force =     0.02819646   -0.07383554    0.02817646
     atom   41 type  2   force =     0.01698534   -0.01167573    0.01685852
     atom   42 type  2   force =     0.02888729    0.06192321   -0.01944130
     atom   43 type  2   force =     0.01847646    0.00169567    0.00543842
     atom   44 type  2   force =    -0.02455747   -0.06037075   -0.02486892
     atom   45 type  2   force =     0.13552808   -0.11762760    0.13532547
     atom   46 type  2   force =    -0.01946835    0.06233400    0.02818838
     atom   47 type  2   force =     0.00535267    0.00157460    0.01870120
     atom   48 type  2   force =     0.02885017    0.02826334   -0.07338976
     atom   49 type  2   force =     0.01697663    0.01682688   -0.01126548
     atom   50 type  2   force =     0.02821288   -0.01928946    0.06240318
     atom   51 type  2   force =     0.01873292    0.00549128    0.00166425
     atom   52 type  2   force =    -0.01895938    0.02818943    0.06239967
     atom   53 type  2   force =     0.00566972    0.01863328    0.00193391
     atom   54 type  2   force =    -0.02509117   -0.02494423   -0.06041547
     atom   55 type  2   force =     0.13541148    0.13540291   -0.11790212
     atom   56 type  2   force =     0.01689206    0.01617635    0.01567942
     atom   57 type  2   force =     0.00738026    0.00750846    0.00763650
     atom   58 type  2   force =     0.01431112   -0.01233781   -0.01282303
     atom   59 type  2   force =     0.01075997   -0.01029712   -0.01050905
     atom   60 type  2   force =    -0.01297761    0.01359781   -0.01285428
     atom   61 type  2   force =    -0.01069691    0.01062896   -0.01049324
     atom   62 type  2   force =    -0.01298859   -0.01288167    0.01362665
     atom   63 type  2   force =    -0.01037854   -0.01082505    0.01068956
     The ionic contribution  to forces
     atom    1 type  1   force =     3.04017477    3.03961823    3.03895328
     atom    2 type  2   force =     2.25766718   -2.15936598   -2.15992974
     atom    3 type  2   force =     0.42955781   -0.74766563   -0.74620568
     atom    4 type  2   force =    -2.16121690    2.25743169   -2.16005010
     atom    5 type  2   force =    -0.74974639    0.43116184   -0.74917114
     atom    6 type  2   force =    -2.16598522   -2.16044896    2.25783503
     atom    7 type  2   force =    -0.75083394   -0.74963673    0.43411931
     atom    8 type  2   force =     0.24353413    0.24339875   -0.69996006
     atom    9 type  2   force =     0.11012597    0.11470106   -0.22437825
     atom   10 type  2   force =     0.21443334    0.07380122    0.52733187
     atom   11 type  2   force =    -0.29127218   -0.70015467    0.70477237
     atom   12 type  2   force =     0.06286235    0.21032553    0.52742016
     atom   13 type  2   force =    -0.72671072   -0.29366210    0.73012094
     atom   14 type  2   force =    -0.20460191   -0.19927098   -0.67195061
     atom   15 type  2   force =    -0.15768499   -0.18423735   -0.07363233
     atom   16 type  2   force =     0.24763673   -0.70056788    0.23521819
     atom   17 type  2   force =     0.11012254   -0.22630599    0.10984402
     atom   18 type  2   force =     0.21045041    0.52674161    0.06567803
     atom   19 type  2   force =    -0.29235307    0.72862644   -0.72398801
     atom   20 type  2   force =    -0.20212311   -0.67196801   -0.19928846
     atom   21 type  2   force =    -0.16075971   -0.04730410   -0.16103746
     atom   22 type  2   force =     0.06045564    0.52733190    0.21023647
     atom   23 type  2   force =    -0.72560286    0.72964584   -0.29075066
     atom   24 type  2   force =     0.03771801   -0.19227420   -0.18388085
     atom   25 type  2   force =     0.09758800   -0.09844354   -0.04661823
     atom   26 type  2   force =     0.11979237   -0.18522083   -0.17684286
     atom   27 type  2   force =     1.34015726    0.24021464    0.24171722
     atom   28 type  2   force =    -0.15405307   -0.22417668    0.15422575
     atom   29 type  2   force =    -0.15828134    0.02300662    0.25545594
     atom   30 type  2   force =    -0.09145674    0.15666696   -0.22704457
     atom   31 type  2   force =    -0.16106568    0.23232296   -0.00339095
     atom   32 type  2   force =    -0.70051859    0.24340354    0.24408021
     atom   33 type  2   force =    -0.22425360    0.11189910    0.11265575
     atom   34 type  2   force =    -0.67183940   -0.19996707   -0.19929215
     atom   35 type  2   force =    -0.04609130   -0.15911132   -0.15976018
     atom   36 type  2   force =     0.52851458    0.21032530    0.06569624
     atom   37 type  2   force =     0.73021885   -0.29087114   -0.72411640
     atom   38 type  2   force =     0.53037481    0.06571434    0.21030732
     atom   39 type  2   force =     0.73127788   -0.72396394   -0.29242325
     atom   40 type  2   force =    -0.19210847    0.03330768   -0.19293874
     atom   41 type  2   force =    -0.07038337    0.09501758   -0.07308546
     atom   42 type  2   force =    -0.22281690   -0.09413108    0.15669255
     atom   43 type  2   force =     0.00509090   -0.16128641    0.23227146
     atom   44 type  2   force =    -0.17465463    0.11531609   -0.17688079
     atom   45 type  2   force =     0.24484558    1.34327504    0.24222100
     atom   46 type  2   force =     0.15970110   -0.08601617   -0.22707907
     atom   47 type  2   force =     0.23746377   -0.15638432   -0.00001780
     atom   48 type  2   force =    -0.18800556   -0.19224484    0.04139877
     atom   49 type  2   force =    -0.07037819   -0.07203877    0.09736594
     atom   50 type  2   force =    -0.22692457    0.15737215   -0.08600867
     atom   51 type  2   force =    -0.00132514    0.23024312   -0.15923827
     atom   52 type  2   force =     0.15891869   -0.22707016   -0.08600719
     atom   53 type  2   force =     0.23204622   -0.00294978   -0.15768751
     atom   54 type  2   force =    -0.17384947   -0.17686061    0.11533618
     atom   55 type  2   force =     0.24383949    0.24233325    1.34177509
     atom   56 type  2   force =    -0.10445846   -0.10882623   -0.11707462
     atom   57 type  2   force =    -0.01447274   -0.01968408   -0.02458742
     atom   58 type  2   force =    -0.12941169    0.01873986    0.01043173
     atom   59 type  2   force =    -0.30956041    0.12501210    0.12434836
     atom   60 type  2   force =     0.01935246   -0.13373204    0.01040109
     atom   61 type  2   force =     0.13146325   -0.31414361    0.12135110
     atom   62 type  2   force =     0.01341049    0.01040100   -0.13373195
     atom   63 type  2   force =     0.12600572    0.12262977   -0.31121193
     The local contribution  to forces
     atom    1 type  1   force =    -2.30057642   -2.29996257   -2.29921883
     atom    2 type  2   force =    -2.03295971    1.94845278    1.94910045
     atom    3 type  2   force =    -0.49891741    0.67929698    0.67754206
     atom    4 type  2   force =     1.94976888   -2.03258105    1.94913930
     atom    5 type  2   force =     0.68157691   -0.50080640    0.68022083
     atom    6 type  2   force =     1.95487394    1.95050728   -2.03395676
     atom    7 type  2   force =     0.68217946    0.68101569   -0.50326632
     atom    8 type  2   force =    -0.23487892   -0.23487522    0.64706105
     atom    9 type  2   force =    -0.10539208   -0.10996144    0.20874036
     atom   10 type  2   force =    -0.17045133   -0.06116101   -0.50806715
     atom   11 type  2   force =     0.36176858    0.64044032   -0.62228027
     atom   12 type  2   force =    -0.05009441   -0.16610011   -0.50766405
     atom   13 type  2   force =     0.66695026    0.36443012   -0.64768354
     atom   14 type  2   force =     0.20537960    0.20020523    0.61942261
     atom   15 type  2   force =     0.14418620    0.17002385    0.07290566
     atom   16 type  2   force =    -0.23926411    0.64837994   -0.22654607
     atom   17 type  2   force =    -0.10539358    0.21044767   -0.10469971
     atom   18 type  2   force =    -0.16614980   -0.50677693   -0.05285174
     atom   19 type  2   force =     0.36350413   -0.64659476    0.66467470
     atom   20 type  2   force =     0.20383678    0.62031363    0.20100655
     atom   21 type  2   force =     0.14666845    0.04713996    0.14728025
     atom   22 type  2   force =    -0.04859578   -0.50673745   -0.16514936
     atom   23 type  2   force =     0.66631410   -0.64685824    0.36199586
     atom   24 type  2   force =     0.03620821    0.16372731    0.15582042
     atom   25 type  2   force =    -0.08599515    0.08167888    0.02970900
     atom   26 type  2   force =    -0.05955136    0.20980359    0.20187311
     atom   27 type  2   force =    -1.22151469   -0.37698084   -0.37879193
     atom   28 type  2   force =     0.09481918    0.19624295   -0.13513327
     atom   29 type  2   force =     0.15657304   -0.04101652   -0.26028060
     atom   30 type  2   force =     0.02793094   -0.13797301    0.19949651
     atom   31 type  2   force =     0.15865740   -0.23757729   -0.01518074
     atom   32 type  2   force =     0.64786502   -0.23476350   -0.23551648
     atom   33 type  2   force =     0.20847925   -0.10702424   -0.10766532
     atom   34 type  2   force =     0.62022493    0.20169605    0.20096673
     atom   35 type  2   force =     0.04564321    0.14527774    0.14599881
     atom   36 type  2   force =    -0.50868638   -0.16605718   -0.05296229
     atom   37 type  2   force =    -0.64790905    0.36164752    0.66450807
     atom   38 type  2   force =    -0.51053752   -0.05302780   -0.16595874
     atom   39 type  2   force =    -0.64904849    0.66413443    0.36341166
     atom   40 type  2   force =     0.16394858    0.04074964    0.16480041
     atom   41 type  2   force =     0.05344462   -0.08339057    0.05629369
     atom   42 type  2   force =     0.19459815    0.03130066   -0.13757189
     atom   43 type  2   force =    -0.02326389    0.15904844   -0.23738703
     atom   44 type  2   force =     0.19904834   -0.05494220    0.20152147
     atom   45 type  2   force =    -0.38187544   -1.22465170   -0.37898306
     atom   46 type  2   force =    -0.14027869    0.02337517    0.19892320
     atom   47 type  2   force =    -0.24248269    0.15417685   -0.01840787
     atom   48 type  2   force =     0.15979300    0.16431486    0.03278973
     atom   49 type  2   force =     0.05343964    0.05513325   -0.08594842
     atom   50 type  2   force =     0.19877138   -0.13807352    0.02332414
     atom   51 type  2   force =    -0.01709766   -0.23531546    0.15697344
     atom   52 type  2   force =    -0.13989966    0.19890224    0.02332779
     atom   53 type  2   force =    -0.23730729   -0.01525088    0.15525226
     atom   54 type  2   force =     0.19866386    0.20159039   -0.05495394
     atom   55 type  2   force =    -0.38079833   -0.37927006   -1.22291667
     atom   56 type  2   force =     0.08808448    0.09223465    0.10066937
     atom   57 type  2   force =     0.00707823    0.01214775    0.01701040
     atom   58 type  2   force =     0.11543743   -0.00563857    0.00280857
     atom   59 type  2   force =     0.29852840   -0.11436440   -0.11365871
     atom   60 type  2   force =    -0.00626178    0.11985032    0.00253018
     atom   61 type  2   force =    -0.12054960    0.30324777   -0.11055896
     atom   62 type  2   force =    -0.00039565    0.00260305    0.11980302
     atom   63 type  2   force =    -0.11534014   -0.11160740    0.30009620
     The core correction contribution to forces
     atom    1 type  1   force =     0.00000000    0.00000000    0.00000000
     atom    2 type  2   force =     0.00000000    0.00000000    0.00000000
     atom    3 type  2   force =     0.00000000    0.00000000    0.00000000
     atom    4 type  2   force =     0.00000000    0.00000000    0.00000000
     atom    5 type  2   force =     0.00000000    0.00000000    0.00000000
     atom    6 type  2   force =     0.00000000    0.00000000    0.00000000
     atom    7 type  2   force =     0.00000000    0.00000000    0.00000000
     atom    8 type  2   force =     0.00000000    0.00000000    0.00000000
     atom    9 type  2   force =     0.00000000    0.00000000    0.00000000
     atom   10 type  2   force =     0.00000000    0.00000000    0.00000000
     atom   11 type  2   force =     0.00000000    0.00000000    0.00000000
     atom   12 type  2   force =     0.00000000    0.00000000    0.00000000
     atom   13 type  2   force =     0.00000000    0.00000000    0.00000000
     atom   14 type  2   force =     0.00000000    0.00000000    0.00000000
     atom   15 type  2   force =     0.00000000    0.00000000    0.00000000
     atom   16 type  2   force =     0.00000000    0.00000000    0.00000000
     atom   17 type  2   force =     0.00000000    0.00000000    0.00000000
     atom   18 type  2   force =     0.00000000    0.00000000    0.00000000
     atom   19 type  2   force =     0.00000000    0.00000000    0.00000000
     atom   20 type  2   force =     0.00000000    0.00000000    0.00000000
     atom   21 type  2   force =     0.00000000    0.00000000    0.00000000
     atom   22 type  2   force =     0.00000000    0.00000000    0.00000000
     atom   23 type  2   force =     0.00000000    0.00000000    0.00000000
     atom   24 type  2   force =     0.00000000    0.00000000    0.00000000
     atom   25 type  2   force =     0.00000000    0.00000000    0.00000000
     atom   26 type  2   force =     0.00000000    0.00000000    0.00000000
     atom   27 type  2   force =     0.00000000    0.00000000    0.00000000
     atom   28 type  2   force =     0.00000000    0.00000000    0.00000000
     atom   29 type  2   force =     0.00000000    0.00000000    0.00000000
     atom   30 type  2   force =     0.00000000    0.00000000    0.00000000
     atom   31 type  2   force =     0.00000000    0.00000000    0.00000000
     atom   32 type  2   force =     0.00000000    0.00000000    0.00000000
     atom   33 type  2   force =     0.00000000    0.00000000    0.00000000
     atom   34 type  2   force =     0.00000000    0.00000000    0.00000000
     atom   35 type  2   force =     0.00000000    0.00000000    0.00000000
     atom   36 type  2   force =     0.00000000    0.00000000    0.00000000
     atom   37 type  2   force =     0.00000000    0.00000000    0.00000000
     atom   38 type  2   force =     0.00000000    0.00000000    0.00000000
     atom   39 type  2   force =     0.00000000    0.00000000    0.00000000
     atom   40 type  2   force =     0.00000000    0.00000000    0.00000000
     atom   41 type  2   force =     0.00000000    0.00000000    0.00000000
     atom   42 type  2   force =     0.00000000    0.00000000    0.00000000
     atom   43 type  2   force =     0.00000000    0.00000000    0.00000000
     atom   44 type  2   force =     0.00000000    0.00000000    0.00000000
     atom   45 type  2   force =     0.00000000    0.00000000    0.00000000
     atom   46 type  2   force =     0.00000000    0.00000000    0.00000000
     atom   47 type  2   force =     0.00000000    0.00000000    0.00000000
     atom   48 type  2   force =     0.00000000    0.00000000    0.00000000
     atom   49 type  2   force =     0.00000000    0.00000000    0.00000000
     atom   50 type  2   force =     0.00000000    0.00000000    0.00000000
     atom   51 type  2   force =     0.00000000    0.00000000    0.00000000
     atom   52 type  2   force =     0.00000000    0.00000000    0.00000000
     atom   53 type  2   force =     0.00000000    0.00000000    0.00000000
     atom   54 type  2   force =     0.00000000    0.00000000    0.00000000
     atom   55 type  2   force =     0.00000000    0.00000000    0.00000000
     atom   56 type  2   force =     0.00000000    0.00000000    0.00000000
     atom   57 type  2   force =     0.00000000    0.00000000    0.00000000
     atom   58 type  2   force =     0.00000000    0.00000000    0.00000000
     atom   59 type  2   force =     0.00000000    0.00000000    0.00000000
     atom   60 type  2   force =     0.00000000    0.00000000    0.00000000
     atom   61 type  2   force =     0.00000000    0.00000000    0.00000000
     atom   62 type  2   force =     0.00000000    0.00000000    0.00000000
     atom   63 type  2   force =     0.00000000    0.00000000    0.00000000
     The Hubbard contrib.    to forces
     atom    1 type  1   force =     0.00000000    0.00000000    0.00000000
     atom    2 type  2   force =     0.00000000    0.00000000    0.00000000
     atom    3 type  2   force =     0.00000000    0.00000000    0.00000000
     atom    4 type  2   force =     0.00000000    0.00000000    0.00000000
     atom    5 type  2   force =     0.00000000    0.00000000    0.00000000
     atom    6 type  2   force =     0.00000000    0.00000000    0.00000000
     atom    7 type  2   force =     0.00000000    0.00000000    0.00000000
     atom    8 type  2   force =     0.00000000    0.00000000    0.00000000
     atom    9 type  2   force =     0.00000000    0.00000000    0.00000000
     atom   10 type  2   force =     0.00000000    0.00000000    0.00000000
     atom   11 type  2   force =     0.00000000    0.00000000    0.00000000
     atom   12 type  2   force =     0.00000000    0.00000000    0.00000000
     atom   13 type  2   force =     0.00000000    0.00000000    0.00000000
     atom   14 type  2   force =     0.00000000    0.00000000    0.00000000
     atom   15 type  2   force =     0.00000000    0.00000000    0.00000000
     atom   16 type  2   force =     0.00000000    0.00000000    0.00000000
     atom   17 type  2   force =     0.00000000    0.00000000    0.00000000
     atom   18 type  2   force =     0.00000000    0.00000000    0.00000000
     atom   19 type  2   force =     0.00000000    0.00000000    0.00000000
     atom   20 type  2   force =     0.00000000    0.00000000    0.00000000
     atom   21 type  2   force =     0.00000000    0.00000000    0.00000000
     atom   22 type  2   force =     0.00000000    0.00000000    0.00000000
     atom   23 type  2   force =     0.00000000    0.00000000    0.00000000
     atom   24 type  2   force =     0.00000000    0.00000000    0.00000000
     atom   25 type  2   force =     0.00000000    0.00000000    0.00000000
     atom   26 type  2   force =     0.00000000    0.00000000    0.00000000
     atom   27 type  2   force =     0.00000000    0.00000000    0.00000000
     atom   28 type  2   force =     0.00000000    0.00000000    0.00000000
     atom   29 type  2   force =     0.00000000    0.00000000    0.00000000
     atom   30 type  2   force =     0.00000000    0.00000000    0.00000000
     atom   31 type  2   force =     0.00000000    0.00000000    0.00000000
     atom   32 type  2   force =     0.00000000    0.00000000    0.00000000
     atom   33 type  2   force =     0.00000000    0.00000000    0.00000000
     atom   34 type  2   force =     0.00000000    0.00000000    0.00000000
     atom   35 type  2   force =     0.00000000    0.00000000    0.00000000
     atom   36 type  2   force =     0.00000000    0.00000000    0.00000000
     atom   37 type  2   force =     0.00000000    0.00000000    0.00000000
     atom   38 type  2   force =     0.00000000    0.00000000    0.00000000
     atom   39 type  2   force =     0.00000000    0.00000000    0.00000000
     atom   40 type  2   force =     0.00000000    0.00000000    0.00000000
     atom   41 type  2   force =     0.00000000    0.00000000    0.00000000
     atom   42 type  2   force =     0.00000000    0.00000000    0.00000000
     atom   43 type  2   force =     0.00000000    0.00000000    0.00000000
     atom   44 type  2   force =     0.00000000    0.00000000    0.00000000
     atom   45 type  2   force =     0.00000000    0.00000000    0.00000000
     atom   46 type  2   force =     0.00000000    0.00000000    0.00000000
     atom   47 type  2   force =     0.00000000    0.00000000    0.00000000
     atom   48 type  2   force =     0.00000000    0.00000000    0.00000000
     atom   49 type  2   force =     0.00000000    0.00000000    0.00000000
     atom   50 type  2   force =     0.00000000    0.00000000    0.00000000
     atom   51 type  2   force =     0.00000000    0.00000000    0.00000000
     atom   52 type  2   force =     0.00000000    0.00000000    0.00000000
     atom   53 type  2   force =     0.00000000    0.00000000    0.00000000
     atom   54 type  2   force =     0.00000000    0.00000000    0.00000000
     atom   55 type  2   force =     0.00000000    0.00000000    0.00000000
     atom   56 type  2   force =     0.00000000    0.00000000    0.00000000
     atom   57 type  2   force =     0.00000000    0.00000000    0.00000000
     atom   58 type  2   force =     0.00000000    0.00000000    0.00000000
     atom   59 type  2   force =     0.00000000    0.00000000    0.00000000
     atom   60 type  2   force =     0.00000000    0.00000000    0.00000000
     atom   61 type  2   force =     0.00000000    0.00000000    0.00000000
     atom   62 type  2   force =     0.00000000    0.00000000    0.00000000
     atom   63 type  2   force =     0.00000000    0.00000000    0.00000000
     The SCF correction term to forces
     atom    1 type  1   force =     0.00000117   -0.00001837   -0.00002492
     atom    2 type  2   force =    -0.00000056    0.00001676   -0.00000961
     atom    3 type  2   force =    -0.00000809    0.00002305    0.00000749
     atom    4 type  2   force =    -0.00001981   -0.00001733   -0.00000846
     atom    5 type  2   force =    -0.00000467    0.00001369    0.00001367
     atom    6 type  2   force =    -0.00001742    0.00002128   -0.00002046
     atom    7 type  2   force =    -0.00000834    0.00002567   -0.00001986
     atom    8 type  2   force =    -0.00000532   -0.00001797    0.00001795
     atom    9 type  2   force =    -0.00001036    0.00000381    0.00002305
     atom   10 type  2   force =     0.00000157    0.00002012    0.00000995
     atom   11 type  2   force =    -0.00000605    0.00001726   -0.00000793
     atom   12 type  2   force =    -0.00001319   -0.00001474    0.00000877
     atom   13 type  2   force =    -0.00001401    0.00000628   -0.00000929
     atom   14 type  2   force =    -0.00001343    0.00002495    0.00002123
     atom   15 type  2   force =    -0.00000969    0.00002672    0.00001619
     atom   16 type  2   force =    -0.00000011    0.00000773   -0.00002137
     atom   17 type  2   force =    -0.00000587   -0.00000216   -0.00001692
     atom   18 type  2   force =    -0.00000509   -0.00001673   -0.00000081
     atom   19 type  2   force =    -0.00002034   -0.00003033    0.00001258
     atom   20 type  2   force =    -0.00000658    0.00001228   -0.00000545
     atom   21 type  2   force =    -0.00000400   -0.00000933    0.00000928
     atom   22 type  2   force =    -0.00000920   -0.00001963   -0.00002208
     atom   23 type  2   force =    -0.00000675   -0.00003312   -0.00002676
     atom   24 type  2   force =     0.00000003    0.00001638    0.00001950
     atom   25 type  2   force =    -0.00000824   -0.00000238    0.00001737
     atom   26 type  2   force =     0.00000124   -0.00001738    0.00000264
     atom   27 type  2   force =    -0.00000213   -0.00002560   -0.00001473
     atom   28 type  2   force =    -0.00001339    0.00001227    0.00000701
     atom   29 type  2   force =    -0.00000711   -0.00000178   -0.00000814
     atom   30 type  2   force =    -0.00001428   -0.00002324    0.00002173
     atom   31 type  2   force =    -0.00000781   -0.00002712    0.00002419
     atom   32 type  2   force =     0.00000072   -0.00001507   -0.00002422
     atom   33 type  2   force =     0.00001570    0.00000830   -0.00001801
     atom   34 type  2   force =     0.00000471    0.00002917   -0.00000775
     atom   35 type  2   force =     0.00000575    0.00002788    0.00000571
     atom   36 type  2   force =     0.00001803   -0.00001466   -0.00000399
     atom   37 type  2   force =     0.00000809    0.00000105    0.00000429
     atom   38 type  2   force =     0.00001401    0.00002112   -0.00001750
     atom   39 type  2   force =     0.00000648    0.00001746   -0.00001810
     atom   40 type  2   force =     0.00000670   -0.00001697    0.00002495
     atom   41 type  2   force =     0.00001070    0.00000173    0.00001914
     atom   42 type  2   force =    -0.00000070    0.00001899    0.00000872
     atom   43 type  2   force =     0.00001168    0.00002519   -0.00000603
     atom   44 type  2   force =     0.00001267   -0.00001483    0.00000488
     atom   45 type  2   force =     0.00000608    0.00000995   -0.00001161
     atom   46 type  2   force =     0.00001247    0.00001841    0.00001632
     atom   47 type  2   force =     0.00000889    0.00002449    0.00002173
     atom   48 type  2   force =     0.00000082    0.00001410   -0.00001491
     atom   49 type  2   force =     0.00000622   -0.00000625   -0.00001543
     atom   50 type  2   force =     0.00000487   -0.00002869   -0.00000645
     atom   51 type  2   force =     0.00001878   -0.00002968    0.00001158
     atom   52 type  2   force =     0.00000693    0.00001460   -0.00000615
     atom   53 type  2   force =     0.00000489    0.00000343    0.00001063
     atom   54 type  2   force =     0.00000920   -0.00002007   -0.00001658
     atom   55 type  2   force =     0.00000368   -0.00002558   -0.00000889
     atom   56 type  2   force =     0.00000027    0.00001687    0.00001460
     atom   57 type  2   force =     0.00000888   -0.00000124    0.00001492
     atom   58 type  2   force =     0.00000006   -0.00001919    0.00000575
     atom   59 type  2   force =     0.00000693   -0.00002588   -0.00001152
     atom   60 type  2   force =     0.00001186    0.00001422    0.00000686
     atom   61 type  2   force =     0.00000574   -0.00000532   -0.00001171
     atom   62 type  2   force =     0.00001327   -0.00001839    0.00001607
     atom   63 type  2   force =     0.00000751   -0.00002557    0.00001275

     Total force =     0.020698     Total SCF correction =     0.000205

     Writing all to output data dir ./pwscf.save/ :
     XML data file, charge density, pseudopotentials, collected wavefunctions
 
     init_run     :      0.65s CPU      0.74s WALL (       1 calls)
     electrons    :     14.03s CPU     14.28s WALL (       1 calls)
     forces       :      0.15s CPU      0.15s WALL (       1 calls)

     Called by init_run:
     wfcinit      :      0.11s CPU      0.13s WALL (       1 calls)
     wfcinit:wfcr :      0.10s CPU      0.11s WALL (       1 calls)
     potinit      :      0.40s CPU      0.44s WALL (       1 calls)
     hinit0       :      0.06s CPU      0.09s WALL (       1 calls)

     Called by electrons:
     c_bands      :     10.20s CPU     10.39s WALL (      14 calls)
     sum_band     :      1.62s CPU      1.64s WALL (      14 calls)
     v_of_rho     :      0.33s CPU      0.37s WALL (      15 calls)
     v_h          :      0.01s CPU      0.01s WALL (      15 calls)
     v_xc         :      0.33s CPU      0.35s WALL (      15 calls)
     mix_rho      :      0.19s CPU      0.20s WALL (      14 calls)

     Called by c_bands:
     init_us_2    :      0.02s CPU      0.03s WALL (      30 calls)
     regterg      :      6.42s CPU      6.57s WALL (      14 calls)

     Called by sum_band:
     sum_band:wei :      0.02s CPU      0.02s WALL (      14 calls)
     sum_band:loo :      0.18s CPU      0.19s WALL (      14 calls)
     sum_band:buf :      0.00s CPU      0.00s WALL (      14 calls)
     sum_band:ini :      0.01s CPU      0.01s WALL (      14 calls)

     Called by *egterg:
     rdiaghg      :      4.07s CPU      4.18s WALL (     272 calls)
     regterg:over :      0.21s CPU      0.22s WALL (     258 calls)
     regterg:upda :      0.13s CPU      0.14s WALL (     258 calls)
     regterg:last :      0.19s CPU      0.20s WALL (      54 calls)
     rdiaghg:chol :      0.14s CPU      0.15s WALL (     272 calls)
     rdiaghg:inve :      0.03s CPU      0.03s WALL (     272 calls)
     rdiaghg:para :      0.39s CPU      0.42s WALL (     544 calls)
     h_psi        :      1.81s CPU      1.85s WALL (     273 calls)
     g_psi        :      0.00s CPU      0.00s WALL (     258 calls)

     Called by h_psi:
     h_psi:calbec :      0.28s CPU      0.28s WALL (     273 calls)
     vloc_psi     :      1.42s CPU      1.45s WALL (     273 calls)
                                        0.00s GPU  (     273 calls)
     add_vuspsi   :      0.10s CPU      0.11s WALL (     273 calls)

     General routines
     calbec       :      0.40s CPU      0.40s WALL (     277 calls)
     fft          :      0.17s CPU      0.20s WALL (     196 calls)
     ffts         :      0.05s CPU      0.05s WALL (      14 calls)
     fftw         :      1.49s CPU      1.52s WALL (   10232 calls)
 
     Parallel routines
 
     PWSCF        :     18.50s CPU     19.10s WALL

 
   This run was terminated on:  13:57: 6  19Nov2025            

=------------------------------------------------------------------------------=
   JOB DONE.
=------------------------------------------------------------------------------=
