
     Program PWSCF v.7.5 starts on 19Nov2025 at 13:43:29 

     This program is part of the open-source Quantum ESPRESSO suite
     for quantum simulation of materials; please cite
         "P. Giannozzi et al., J. Phys.:Condens. Matter 21 395502 (2009);
         "P. Giannozzi et al., J. Phys.:Condens. Matter 29 465901 (2017);
         "P. Giannozzi et al., J. Chem. Phys. 152 154105 (2020);
          URL http://www.quantum-espresso.org", 
     in publications or presentations arising from this work. More details at
     http://www.quantum-espresso.org/quote

     Parallel version (MPI), running on    96 processors

     MPI processes distributed on     2 nodes
     144361 MiB available memory on the printing compute node when the environment starts
 
     Reading input from supercell-015.in

     Current dimensions of program PWSCF are:
     Max number of different atomic species (ntypx) = 10
     Max number of k-points (npk) =  40000
     Max angular momentum in pseudopotentials (lmaxx) =  4

     gamma-point specific algorithms are used
 
     K-points division:     npool     =       2
     R & G space division:  proc/nbgrp/npool/nimage =      48
     Subspace diagonalization in iterative solution of the eigenvalue problem:
     one sub-group per band group will be used
     scalapack distributed-memory algorithm (size of sub-group:  2*  2 procs)

 
     Parallelization info
     --------------------
     sticks:   dense  smooth     PW     G-vecs:    dense   smooth      PW
     Min          59      59     14                 2432     2432     302
     Max          62      62     16                 2442     2442     316
     Sum        2885    2885    725               116921   116921   14771
 
     Using Slab Decomposition
 


     bravais-lattice index     =            0
     lattice parameter (alat)  =      13.4813  a.u.
     unit-cell volume          =    2450.1683 (a.u.)^3
     number of atoms/cell      =           63
     number of atomic types    =            2
     number of electrons       =       254.00 (up: 128.00, down: 126.00)
     number of Kohn-Sham states=          152
     kinetic-energy cutoff     =      50.0000  Ry
     charge density cutoff     =     200.0000  Ry
     scf convergence threshold =      1.0E-08
     mixing beta               =       0.7000
     number of iterations used =            8  plain     mixing
     Exchange-correlation= PBE
                           (   1   4   3   4   0   0   0)

     celldm(1)=  13.481306  celldm(2)=   0.000000  celldm(3)=   0.000000
     celldm(4)=   0.000000  celldm(5)=   0.000000  celldm(6)=   0.000000

     crystal axes: (cart. coord. in units of alat)
               a(1) = (   1.000000   0.000000   0.000000 )  
               a(2) = (   0.000000   1.000000   0.000000 )  
               a(3) = (   0.000000   0.000000   1.000000 )  

     reciprocal axes: (cart. coord. in units 2 pi/alat)
               b(1) = (  1.000000  0.000000  0.000000 )  
               b(2) = (  0.000000  1.000000  0.000000 )  
               b(3) = (  0.000000  0.000000  1.000000 )  


     PseudoPot. # 1 for N  read from file:
     ./N_ONCV_PBE-1.2.upf
     MD5 check sum: 5312fdf34e96954e02a33bdc911c617a
     Pseudo is Norm-conserving, Zval =  5.0
     Generated using ONCVPSP code by D. R. Hamann
     Using radial grid of  602 points,  4 beta functions with: 
                l(1) =   0
                l(2) =   0
                l(3) =   1
                l(4) =   1

     PseudoPot. # 2 for C  read from file:
     ./C_ONCV_PBE-1.2.upf
     MD5 check sum: d60b57d9bdca4133f5fde4b584ee909d
     Pseudo is Norm-conserving, Zval =  4.0
     Generated using ONCVPSP code by D. R. Hamann
     Using radial grid of  602 points,  4 beta functions with: 
                l(1) =   0
                l(2) =   0
                l(3) =   1
                l(4) =   1

     atomic species   valence    mass     pseudopotential
     N                 5.00    14.00670     N ( 1.00)
     C                 4.00    12.01070     C ( 1.00)

     Starting magnetic structure 
     atomic species   magnetization
     N               0.000
     C               0.000

     No symmetry found


                                    s                        frac. trans.

      isym =  1     identity                                     

 cryst.   s( 1) = (     1          0          0      )
                  (     0          1          0      )
                  (     0          0          1      )

 cart.    s( 1) = (  1.0000000  0.0000000  0.0000000 )
                  (  0.0000000  1.0000000  0.0000000 )
                  (  0.0000000  0.0000000  1.0000000 )


   Cartesian axes

     site n.     atom                  positions (alat units)
         1        N      tau(   1) = (   0.9869283   0.9869283   0.9869283  )
         2        C      tau(   2) = (   0.9921390   0.2607625   0.2607625  )
         3        C      tau(   3) = (   0.1236981   0.3746848   0.3746848  )
         4        C      tau(   4) = (   0.2607625   0.9921390   0.2607625  )
         5        C      tau(   5) = (   0.3746848   0.1236981   0.3746848  )
         6        C      tau(   6) = (   0.2607625   0.2607625   0.9921390  )
         7        C      tau(   7) = (   0.3746848   0.3746848   0.1236981  )
         8        C      tau(   8) = (   0.0007517   0.0007517   0.4988587  )
         9        C      tau(   9) = (   0.1266126   0.1251291   0.6250516  )
        10        C      tau(  10) = (   0.0014372   0.2476607   0.7521916  )
        11        C      tau(  11) = (   0.1266329   0.3730745   0.8775065  )
        12        C      tau(  12) = (   0.2476607   0.0014372   0.7521916  )
        13        C      tau(  13) = (   0.3730745   0.1266329   0.8775065  )
        14        C      tau(  14) = (   0.2498467   0.2498467   0.4996267  )
        15        C      tau(  15) = (   0.3749463   0.3749463   0.6249280  )
        16        C      tau(  16) = (   0.0007517   0.4988587   0.0007517  )
        17        C      tau(  17) = (   0.1251291   0.6250516   0.1251291  )
        18        C      tau(  18) = (   0.0014372   0.7521916   0.2476607  )
        19        C      tau(  19) = (   0.1266329   0.8775065   0.3730745  )
        20        C      tau(  20) = (   0.2498467   0.4996267   0.2498467  )
        21        C      tau(  21) = (   0.3749463   0.6249280   0.3749463  )
        22        C      tau(  22) = (   0.2476607   0.7521916   0.0014372  )
        23        C      tau(  23) = (   0.3730745   0.8775065   0.1266329  )
        24        C      tau(  24) = (   0.0010116   0.5014264   0.5014264  )
        25        C      tau(  25) = (   0.1250381   0.6250852   0.6250852  )
        26        C      tau(  26) = (   0.9996941   0.7483805   0.7483805  )
        27        C      tau(  27) = (   0.1189720   0.8751585   0.8751585  )
        28        C      tau(  28) = (   0.2496290   0.5009902   0.7494822  )
        29        C      tau(  29) = (   0.3740517   0.6261334   0.8754230  )
        30        C      tau(  30) = (   0.2496290   0.7494822   0.5009902  )
        31        C      tau(  31) = (   0.3740517   0.8754230   0.6261334  )
        32        C      tau(  32) = (   0.4988587   0.0007517   0.0007517  )
        33        C      tau(  33) = (   0.6250516   0.1251291   0.1251291  )
        34        C      tau(  34) = (   0.4996267   0.2498467   0.2498467  )
        35        C      tau(  35) = (   0.6249280   0.3749463   0.3749463  )
        36        C      tau(  36) = (   0.7521916   0.0014372   0.2476607  )
        37        C      tau(  37) = (   0.8775065   0.1266329   0.3730745  )
        38        C      tau(  38) = (   0.7521916   0.2476607   0.0014372  )
        39        C      tau(  39) = (   0.8775065   0.3730745   0.1266329  )
        40        C      tau(  40) = (   0.5014264   0.0010116   0.5014264  )
        41        C      tau(  41) = (   0.6250852   0.1250381   0.6250852  )
        42        C      tau(  42) = (   0.5009902   0.2496290   0.7494822  )
        43        C      tau(  43) = (   0.6261334   0.3740517   0.8754230  )
        44        C      tau(  44) = (   0.7483805   0.9996941   0.7483805  )
        45        C      tau(  45) = (   0.8751585   0.1189720   0.8751585  )
        46        C      tau(  46) = (   0.7494822   0.2496290   0.5009902  )
        47        C      tau(  47) = (   0.8754230   0.3740517   0.6261334  )
        48        C      tau(  48) = (   0.5014264   0.5014264   0.0010116  )
        49        C      tau(  49) = (   0.6250852   0.6250852   0.1250381  )
        50        C      tau(  50) = (   0.5009902   0.7494822   0.2496290  )
        51        C      tau(  51) = (   0.6261334   0.8754230   0.3740517  )
        52        C      tau(  52) = (   0.7494822   0.5009902   0.2496290  )
        53        C      tau(  53) = (   0.8754230   0.6261334   0.3740517  )
        54        C      tau(  54) = (   0.7483805   0.7483805   0.9996941  )
        55        C      tau(  55) = (   0.8751585   0.8751585   0.1189720  )
        56        C      tau(  56) = (   0.4999757   0.4999757   0.4999757  )
        57        C      tau(  57) = (   0.6249536   0.6249536   0.6249536  )
        58        C      tau(  58) = (   0.4990957   0.7503802   0.7503802  )
        59        C      tau(  59) = (   0.6235333   0.8749829   0.8749829  )
        60        C      tau(  60) = (   0.7503802   0.4990957   0.7503802  )
        61        C      tau(  61) = (   0.8749829   0.6235333   0.8749829  )
        62        C      tau(  62) = (   0.7503802   0.7503802   0.4990957  )
        63        C      tau(  63) = (   0.8749829   0.8749829   0.6235333  )

   Crystallographic axes

     site n.     atom                  positions (cryst. coord.)
         1        N      tau(   1) = (  0.9869283  0.9869283  0.9869283  )
         2        C      tau(   2) = (  0.9921390  0.2607625  0.2607625  )
         3        C      tau(   3) = (  0.1236981  0.3746848  0.3746848  )
         4        C      tau(   4) = (  0.2607625  0.9921390  0.2607625  )
         5        C      tau(   5) = (  0.3746848  0.1236981  0.3746848  )
         6        C      tau(   6) = (  0.2607625  0.2607625  0.9921390  )
         7        C      tau(   7) = (  0.3746848  0.3746848  0.1236981  )
         8        C      tau(   8) = (  0.0007517  0.0007517  0.4988587  )
         9        C      tau(   9) = (  0.1266126  0.1251291  0.6250516  )
        10        C      tau(  10) = (  0.0014372  0.2476607  0.7521916  )
        11        C      tau(  11) = (  0.1266329  0.3730745  0.8775065  )
        12        C      tau(  12) = (  0.2476607  0.0014372  0.7521916  )
        13        C      tau(  13) = (  0.3730745  0.1266329  0.8775065  )
        14        C      tau(  14) = (  0.2498467  0.2498467  0.4996267  )
        15        C      tau(  15) = (  0.3749463  0.3749463  0.6249280  )
        16        C      tau(  16) = (  0.0007517  0.4988587  0.0007517  )
        17        C      tau(  17) = (  0.1251291  0.6250516  0.1251291  )
        18        C      tau(  18) = (  0.0014372  0.7521916  0.2476607  )
        19        C      tau(  19) = (  0.1266329  0.8775065  0.3730745  )
        20        C      tau(  20) = (  0.2498467  0.4996267  0.2498467  )
        21        C      tau(  21) = (  0.3749463  0.6249280  0.3749463  )
        22        C      tau(  22) = (  0.2476607  0.7521916  0.0014372  )
        23        C      tau(  23) = (  0.3730745  0.8775065  0.1266329  )
        24        C      tau(  24) = (  0.0010116  0.5014264  0.5014264  )
        25        C      tau(  25) = (  0.1250381  0.6250852  0.6250852  )
        26        C      tau(  26) = (  0.9996941  0.7483805  0.7483805  )
        27        C      tau(  27) = (  0.1189720  0.8751585  0.8751585  )
        28        C      tau(  28) = (  0.2496290  0.5009902  0.7494822  )
        29        C      tau(  29) = (  0.3740517  0.6261334  0.8754230  )
        30        C      tau(  30) = (  0.2496290  0.7494822  0.5009902  )
        31        C      tau(  31) = (  0.3740517  0.8754230  0.6261334  )
        32        C      tau(  32) = (  0.4988587  0.0007517  0.0007517  )
        33        C      tau(  33) = (  0.6250516  0.1251291  0.1251291  )
        34        C      tau(  34) = (  0.4996267  0.2498467  0.2498467  )
        35        C      tau(  35) = (  0.6249280  0.3749463  0.3749463  )
        36        C      tau(  36) = (  0.7521916  0.0014372  0.2476607  )
        37        C      tau(  37) = (  0.8775065  0.1266329  0.3730745  )
        38        C      tau(  38) = (  0.7521916  0.2476607  0.0014372  )
        39        C      tau(  39) = (  0.8775065  0.3730745  0.1266329  )
        40        C      tau(  40) = (  0.5014264  0.0010116  0.5014264  )
        41        C      tau(  41) = (  0.6250852  0.1250381  0.6250852  )
        42        C      tau(  42) = (  0.5009902  0.2496290  0.7494822  )
        43        C      tau(  43) = (  0.6261334  0.3740517  0.8754230  )
        44        C      tau(  44) = (  0.7483805  0.9996941  0.7483805  )
        45        C      tau(  45) = (  0.8751585  0.1189720  0.8751585  )
        46        C      tau(  46) = (  0.7494822  0.2496290  0.5009902  )
        47        C      tau(  47) = (  0.8754230  0.3740517  0.6261334  )
        48        C      tau(  48) = (  0.5014264  0.5014264  0.0010116  )
        49        C      tau(  49) = (  0.6250852  0.6250852  0.1250381  )
        50        C      tau(  50) = (  0.5009902  0.7494822  0.2496290  )
        51        C      tau(  51) = (  0.6261334  0.8754230  0.3740517  )
        52        C      tau(  52) = (  0.7494822  0.5009902  0.2496290  )
        53        C      tau(  53) = (  0.8754230  0.6261334  0.3740517  )
        54        C      tau(  54) = (  0.7483805  0.7483805  0.9996941  )
        55        C      tau(  55) = (  0.8751585  0.8751585  0.1189720  )
        56        C      tau(  56) = (  0.4999757  0.4999757  0.4999757  )
        57        C      tau(  57) = (  0.6249536  0.6249536  0.6249536  )
        58        C      tau(  58) = (  0.4990957  0.7503802  0.7503802  )
        59        C      tau(  59) = (  0.6235333  0.8749829  0.8749829  )
        60        C      tau(  60) = (  0.7503802  0.4990957  0.7503802  )
        61        C      tau(  61) = (  0.8749829  0.6235333  0.8749829  )
        62        C      tau(  62) = (  0.7503802  0.7503802  0.4990957  )
        63        C      tau(  63) = (  0.8749829  0.8749829  0.6235333  )

     number of k points=     1
                       cart. coord. in units 2pi/alat
        k(    1) = (   0.0000000   0.0000000   0.0000000), wk =   1.0000000

                       cryst. coord.
        k(    1) = (   0.0000000   0.0000000   0.0000000), wk =   1.0000000

     Dense  grid:    58461 G-vectors     FFT dimensions: (  64,  64,  64)

     Dynamical RAM for                 wfc:       0.35 MB

     Dynamical RAM for     wfc (w. buffer):       0.35 MB

     Dynamical RAM for           str. fact:       0.04 MB

     Dynamical RAM for           local pot:       0.00 MB

     Dynamical RAM for          nlocal pot:       1.17 MB

     Dynamical RAM for                qrad:       0.65 MB

     Dynamical RAM for          rho,v,vnew:       0.49 MB

     Dynamical RAM for               rhoin:       0.16 MB

     Dynamical RAM for            rho*nmix:       0.60 MB

     Dynamical RAM for           G-vectors:       0.08 MB

     Dynamical RAM for          h,s,v(r/c):       0.53 MB

     Dynamical RAM for          <psi|beta>:       0.58 MB

     Dynamical RAM for                 psi:       0.71 MB

     Dynamical RAM for                hpsi:       0.71 MB

     Dynamical RAM for      wfcinit/wfcrot:       1.24 MB

     Estimated static dynamical RAM per process >       3.37 MB

     Estimated max dynamical RAM per process >       6.49 MB

     Estimated total dynamical RAM >     594.05 MB
     Generating pointlists ...
     new r_m :   0.0850 (alat units)  1.1454 (a.u.) for type    1
     new r_m :   0.0850 (alat units)  1.1454 (a.u.) for type    2

     Initial potential from superposition of free atoms

     starting charge     252.5655, renormalised to     254.0000
     Starting wfcs are random

     total cpu time spent up to now is        1.5 secs

     Self-consistent Calculation

     iteration #  1     ecut=    50.00 Ry     beta= 0.70
     Davidson diagonalization with overlap

---- Real-time Memory Report at c_bands before calling an iterative solver
           157 MiB given to the printing process from OS
             0 MiB allocation reported by mallinfo(arena+hblkhd)
        143401 MiB available memory on the node where the printing process lives
------------------
     ethr =  1.00E-02,  avg # of iterations = 14.0

     total cpu time spent up to now is        2.2 secs

     total energy              =    -723.29760029 Ry
     estimated scf accuracy    <       3.68967926 Ry

     total magnetization       =     2.00 Bohr mag/cell
     absolute magnetization    =     2.00 Bohr mag/cell

     iteration #  2     ecut=    50.00 Ry     beta= 0.70
     Davidson diagonalization with overlap

---- Real-time Memory Report at c_bands before calling an iterative solver
           163 MiB given to the printing process from OS
             0 MiB allocation reported by mallinfo(arena+hblkhd)
        143336 MiB available memory on the node where the printing process lives
------------------
     ethr =  1.45E-03,  avg # of iterations = 11.5

     total cpu time spent up to now is        3.4 secs

     total energy              =    -723.67766634 Ry
     estimated scf accuracy    <       0.44088205 Ry

     total magnetization       =     2.00 Bohr mag/cell
     absolute magnetization    =     2.07 Bohr mag/cell

     iteration #  3     ecut=    50.00 Ry     beta= 0.70
     Davidson diagonalization with overlap

---- Real-time Memory Report at c_bands before calling an iterative solver
           164 MiB given to the printing process from OS
             0 MiB allocation reported by mallinfo(arena+hblkhd)
        143342 MiB available memory on the node where the printing process lives
------------------
     c_bands:  2 eigenvalues not converged
     ethr =  1.74E-04,  avg # of iterations = 20.0

     total cpu time spent up to now is        6.3 secs

     total energy              =    -723.73877832 Ry
     estimated scf accuracy    <       0.86080274 Ry

     total magnetization       =     2.00 Bohr mag/cell
     absolute magnetization    =     2.12 Bohr mag/cell

     iteration #  4     ecut=    50.00 Ry     beta= 0.70
     Davidson diagonalization with overlap

---- Real-time Memory Report at c_bands before calling an iterative solver
           164 MiB given to the printing process from OS
             0 MiB allocation reported by mallinfo(arena+hblkhd)
        143349 MiB available memory on the node where the printing process lives
------------------
     c_bands:  1 eigenvalues not converged
     ethr =  1.74E-04,  avg # of iterations = 20.0

     total cpu time spent up to now is        8.5 secs

     total energy              =    -723.91144043 Ry
     estimated scf accuracy    <       0.00830024 Ry

     total magnetization       =     2.00 Bohr mag/cell
     absolute magnetization    =     2.19 Bohr mag/cell

     iteration #  5     ecut=    50.00 Ry     beta= 0.70
     Davidson diagonalization with overlap

---- Real-time Memory Report at c_bands before calling an iterative solver
           164 MiB given to the printing process from OS
             0 MiB allocation reported by mallinfo(arena+hblkhd)
        143349 MiB available memory on the node where the printing process lives
------------------
     c_bands:  4 eigenvalues not converged
     ethr =  3.27E-06,  avg # of iterations = 20.0

     total cpu time spent up to now is        8.9 secs

     total energy              =    -723.91589350 Ry
     estimated scf accuracy    <       0.00394349 Ry

     total magnetization       =     2.00 Bohr mag/cell
     absolute magnetization    =     2.22 Bohr mag/cell

     iteration #  6     ecut=    50.00 Ry     beta= 0.70
     Davidson diagonalization with overlap

---- Real-time Memory Report at c_bands before calling an iterative solver
           165 MiB given to the printing process from OS
             0 MiB allocation reported by mallinfo(arena+hblkhd)
        143340 MiB available memory on the node where the printing process lives
------------------
     c_bands:  2 eigenvalues not converged
     ethr =  1.55E-06,  avg # of iterations = 20.0

     total cpu time spent up to now is       13.8 secs

     total energy              =    -723.91662005 Ry
     estimated scf accuracy    <       0.00067848 Ry

     total magnetization       =     2.00 Bohr mag/cell
     absolute magnetization    =     2.25 Bohr mag/cell

     iteration #  7     ecut=    50.00 Ry     beta= 0.70
     Davidson diagonalization with overlap

---- Real-time Memory Report at c_bands before calling an iterative solver
           165 MiB given to the printing process from OS
             0 MiB allocation reported by mallinfo(arena+hblkhd)
        143344 MiB available memory on the node where the printing process lives
------------------
     c_bands:  3 eigenvalues not converged
     ethr =  2.67E-07,  avg # of iterations = 20.0

     total cpu time spent up to now is       16.7 secs

     total energy              =    -723.91681580 Ry
     estimated scf accuracy    <       0.00006881 Ry

     total magnetization       =     2.00 Bohr mag/cell
     absolute magnetization    =     2.26 Bohr mag/cell

     iteration #  8     ecut=    50.00 Ry     beta= 0.70
     Davidson diagonalization with overlap

---- Real-time Memory Report at c_bands before calling an iterative solver
           165 MiB given to the printing process from OS
             0 MiB allocation reported by mallinfo(arena+hblkhd)
        143344 MiB available memory on the node where the printing process lives
------------------
     ethr =  2.71E-08,  avg # of iterations = 19.0

     total cpu time spent up to now is       17.3 secs

     total energy              =    -723.91684328 Ry
     estimated scf accuracy    <       0.00002052 Ry

     total magnetization       =     2.00 Bohr mag/cell
     absolute magnetization    =     2.27 Bohr mag/cell

     iteration #  9     ecut=    50.00 Ry     beta= 0.70
     Davidson diagonalization with overlap

---- Real-time Memory Report at c_bands before calling an iterative solver
           165 MiB given to the printing process from OS
             0 MiB allocation reported by mallinfo(arena+hblkhd)
        143334 MiB available memory on the node where the printing process lives
------------------
     ethr =  8.08E-09,  avg # of iterations = 19.5

     total cpu time spent up to now is       17.9 secs

     total energy              =    -723.91685046 Ry
     estimated scf accuracy    <       0.00000703 Ry

     total magnetization       =     2.00 Bohr mag/cell
     absolute magnetization    =     2.28 Bohr mag/cell

     iteration # 10     ecut=    50.00 Ry     beta= 0.70
     Davidson diagonalization with overlap

---- Real-time Memory Report at c_bands before calling an iterative solver
           165 MiB given to the printing process from OS
             0 MiB allocation reported by mallinfo(arena+hblkhd)
        143337 MiB available memory on the node where the printing process lives
------------------
     c_bands:  1 eigenvalues not converged
     ethr =  2.77E-09,  avg # of iterations = 20.0

     total cpu time spent up to now is       18.5 secs

     total energy              =    -723.91685337 Ry
     estimated scf accuracy    <       0.00000090 Ry

     total magnetization       =     2.00 Bohr mag/cell
     absolute magnetization    =     2.28 Bohr mag/cell

     iteration # 11     ecut=    50.00 Ry     beta= 0.70
     Davidson diagonalization with overlap

---- Real-time Memory Report at c_bands before calling an iterative solver
           166 MiB given to the printing process from OS
             0 MiB allocation reported by mallinfo(arena+hblkhd)
        143345 MiB available memory on the node where the printing process lives
------------------
     c_bands:  1 eigenvalues not converged
     ethr =  3.54E-10,  avg # of iterations = 19.0

     total cpu time spent up to now is       19.1 secs

     total energy              =    -723.91685392 Ry
     estimated scf accuracy    <       0.00000018 Ry

     total magnetization       =     2.00 Bohr mag/cell
     absolute magnetization    =     2.29 Bohr mag/cell

     iteration # 12     ecut=    50.00 Ry     beta= 0.70
     Davidson diagonalization with overlap

---- Real-time Memory Report at c_bands before calling an iterative solver
           166 MiB given to the printing process from OS
             0 MiB allocation reported by mallinfo(arena+hblkhd)
        143343 MiB available memory on the node where the printing process lives
------------------
     c_bands:  1 eigenvalues not converged
     ethr =  7.17E-11,  avg # of iterations = 19.5

     total cpu time spent up to now is       19.8 secs

     total energy              =    -723.91685402 Ry
     estimated scf accuracy    <       0.00000005 Ry

     total magnetization       =     2.00 Bohr mag/cell
     absolute magnetization    =     2.29 Bohr mag/cell

     iteration # 13     ecut=    50.00 Ry     beta= 0.70
     Davidson diagonalization with overlap

---- Real-time Memory Report at c_bands before calling an iterative solver
           166 MiB given to the printing process from OS
             0 MiB allocation reported by mallinfo(arena+hblkhd)
        143344 MiB available memory on the node where the printing process lives
------------------
     c_bands:  1 eigenvalues not converged
     ethr =  1.91E-11,  avg # of iterations = 20.0

     total cpu time spent up to now is       20.3 secs

     total energy              =    -723.91685406 Ry
     estimated scf accuracy    <       0.00000001 Ry

     total magnetization       =     2.00 Bohr mag/cell
     absolute magnetization    =     2.29 Bohr mag/cell

     iteration # 14     ecut=    50.00 Ry     beta= 0.70
     Davidson diagonalization with overlap

---- Real-time Memory Report at c_bands before calling an iterative solver
           166 MiB given to the printing process from OS
             0 MiB allocation reported by mallinfo(arena+hblkhd)
        143342 MiB available memory on the node where the printing process lives
------------------
     c_bands:  2 eigenvalues not converged
     ethr =  4.88E-12,  avg # of iterations = 18.5
 
     Magnetic moment per site  (integrated on atomic sphere of radius R)
     atom   1 (R=0.085)  charge=  2.8976  magn=  0.0040
     atom   2 (R=0.085)  charge=  1.8130  magn=  0.2494
     atom   3 (R=0.085)  charge=  1.8112  magn= -0.0087
     atom   4 (R=0.085)  charge=  1.8130  magn=  0.2494
     atom   5 (R=0.085)  charge=  1.8114  magn= -0.0087
     atom   6 (R=0.085)  charge=  1.8130  magn=  0.2493
     atom   7 (R=0.085)  charge=  1.8113  magn= -0.0087
     atom   8 (R=0.085)  charge=  1.7997  magn=  0.0085
     atom   9 (R=0.085)  charge=  1.8080  magn= -0.0018
     atom  10 (R=0.085)  charge=  1.7926  magn=  0.0055
     atom  11 (R=0.085)  charge=  1.8031  magn= -0.0034
     atom  12 (R=0.085)  charge=  1.7965  magn=  0.0054
     atom  13 (R=0.085)  charge=  1.8031  magn= -0.0034
     atom  14 (R=0.085)  charge=  1.8020  magn=  0.0086
     atom  15 (R=0.085)  charge=  1.8014  magn= -0.0019
     atom  16 (R=0.085)  charge=  1.8016  magn=  0.0085
     atom  17 (R=0.085)  charge=  1.8085  magn= -0.0018
     atom  18 (R=0.085)  charge=  1.7946  magn=  0.0054
     atom  19 (R=0.085)  charge=  1.8031  magn= -0.0034
     atom  20 (R=0.085)  charge=  1.8001  magn=  0.0086
     atom  21 (R=0.085)  charge=  1.8013  magn= -0.0019
     atom  22 (R=0.085)  charge=  1.7946  magn=  0.0054
     atom  23 (R=0.085)  charge=  1.8030  magn= -0.0034
     atom  24 (R=0.085)  charge=  1.8004  magn=  0.0181
     atom  25 (R=0.085)  charge=  1.8200  magn=  0.0089
     atom  26 (R=0.085)  charge=  1.8119  magn=  0.0032
     atom  27 (R=0.085)  charge=  1.7812  magn= -0.0000
     atom  28 (R=0.085)  charge=  1.8008  magn=  0.0212
     atom  29 (R=0.085)  charge=  1.7953  magn= -0.0013
     atom  30 (R=0.085)  charge=  1.8008  magn=  0.0212
     atom  31 (R=0.085)  charge=  1.7954  magn= -0.0013
     atom  32 (R=0.085)  charge=  1.8016  magn=  0.0085
     atom  33 (R=0.085)  charge=  1.8085  magn= -0.0018
     atom  34 (R=0.085)  charge=  1.8001  magn=  0.0086
     atom  35 (R=0.085)  charge=  1.8013  magn= -0.0019
     atom  36 (R=0.085)  charge=  1.7946  magn=  0.0054
     atom  37 (R=0.085)  charge=  1.8029  magn= -0.0034
     atom  38 (R=0.085)  charge=  1.7946  magn=  0.0054
     atom  39 (R=0.085)  charge=  1.8030  magn= -0.0034
     atom  40 (R=0.085)  charge=  1.8004  magn=  0.0181
     atom  41 (R=0.085)  charge=  1.8200  magn=  0.0089
     atom  42 (R=0.085)  charge=  1.8008  magn=  0.0212
     atom  43 (R=0.085)  charge=  1.7953  magn= -0.0013
     atom  44 (R=0.085)  charge=  1.8119  magn=  0.0032
     atom  45 (R=0.085)  charge=  1.7812  magn= -0.0000
     atom  46 (R=0.085)  charge=  1.8008  magn=  0.0212
     atom  47 (R=0.085)  charge=  1.7952  magn= -0.0013
     atom  48 (R=0.085)  charge=  1.8004  magn=  0.0181
     atom  49 (R=0.085)  charge=  1.8200  magn=  0.0089
     atom  50 (R=0.085)  charge=  1.8008  magn=  0.0212
     atom  51 (R=0.085)  charge=  1.7953  magn= -0.0013
     atom  52 (R=0.085)  charge=  1.8008  magn=  0.0212
     atom  53 (R=0.085)  charge=  1.7953  magn= -0.0013
     atom  54 (R=0.085)  charge=  1.8120  magn=  0.0032
     atom  55 (R=0.085)  charge=  1.7813  magn= -0.0000
     atom  56 (R=0.085)  charge=  1.8051  magn=  0.0010
     atom  57 (R=0.085)  charge=  1.7981  magn=  0.0010
     atom  58 (R=0.085)  charge=  1.8061  magn=  0.0018
     atom  59 (R=0.085)  charge=  1.8021  magn= -0.0009
     atom  60 (R=0.085)  charge=  1.8061  magn=  0.0018
     atom  61 (R=0.085)  charge=  1.8021  magn= -0.0009
     atom  62 (R=0.085)  charge=  1.8061  magn=  0.0018
     atom  63 (R=0.085)  charge=  1.8020  magn= -0.0009

     total cpu time spent up to now is       20.9 secs

     End of self-consistent calculation

 ------ SPIN UP ------------


          k = 0.0000 0.0000 0.0000 (  7386 PWs)   bands (ev):

    -8.5684  -7.0167  -6.2652  -6.2638  -6.1589  -6.1577  -5.8793  -4.9401
    -4.1233  -4.1198  -4.0927  -4.0882  -4.0306  -4.0302  -3.9793  -3.9103
    -3.8618  -3.8599  -3.3549  -2.9508  -2.6681  -2.6656  -2.1124  -0.3588
    -0.3583  -0.3153  -0.2894  -0.0855   0.1896   0.1898   0.2947   0.2955
     0.3699   0.6076   0.8239   0.8260   0.9834   0.9872   1.0246   1.0515
     1.0536   1.0768   1.3035   1.3042   3.0575   3.8864   3.8888   4.0416
     4.2364   4.2407   4.2473   4.2544   4.2887   4.2910   4.4340   4.4366
     4.4973   4.5006   4.6008   4.6805   4.6866   4.6912   4.6927   4.7782
     4.7800   4.9118   4.9666   4.9693   5.0584   5.2270   5.2283   5.2982
     5.3704   5.3722   5.4087   5.4227   5.4257   6.0474   6.0497   6.0794
     6.6441   6.6444   6.7635   7.0080   7.0279   7.0288   7.5181   8.3329
     8.3352   8.4164   8.4962   8.5003   8.6736   8.6789   8.8277   8.8344
     8.8525   8.8536   8.8909   8.8954   8.9428   9.3018   9.3071   9.3163
     9.7209   9.7219   9.9336   9.9438   9.9445   9.9537   9.9827  10.0056
    10.0069  10.0073  10.0341  10.0345  10.1344  10.1345  10.2846  10.2862
    10.3561  10.9867  12.2283  12.4628  12.4730  13.8194  14.7974  14.7976
    17.3743  17.3882  17.3887  17.5585  17.5595  17.5624  17.8949  17.9276
    17.9288  18.0156  18.0178  18.3727  18.9860  18.9964  19.0187  20.7144
    20.8216  20.8225  20.8695  20.9569  20.9578  21.0286  21.0298  21.0820

     occupation numbers 
     1.0000   1.0000   1.0000   1.0000   1.0000   1.0000   1.0000   1.0000
     1.0000   1.0000   1.0000   1.0000   1.0000   1.0000   1.0000   1.0000
     1.0000   1.0000   1.0000   1.0000   1.0000   1.0000   1.0000   1.0000
     1.0000   1.0000   1.0000   1.0000   1.0000   1.0000   1.0000   1.0000
     1.0000   1.0000   1.0000   1.0000   1.0000   1.0000   1.0000   1.0000
     1.0000   1.0000   1.0000   1.0000   1.0000   1.0000   1.0000   1.0000
     1.0000   1.0000   1.0000   1.0000   1.0000   1.0000   1.0000   1.0000
     1.0000   1.0000   1.0000   1.0000   1.0000   1.0000   1.0000   1.0000
     1.0000   1.0000   1.0000   1.0000   1.0000   1.0000   1.0000   1.0000
     1.0000   1.0000   1.0000   1.0000   1.0000   1.0000   1.0000   1.0000
     1.0000   1.0000   1.0000   1.0000   1.0000   1.0000   1.0000   1.0000
     1.0000   1.0000   1.0000   1.0000   1.0000   1.0000   1.0000   1.0000
     1.0000   1.0000   1.0000   1.0000   1.0000   1.0000   1.0000   1.0000
     1.0000   1.0000   1.0000   1.0000   1.0000   1.0000   1.0000   1.0000
     1.0000   1.0000   1.0000   1.0000   1.0000   1.0000   1.0000   1.0000
     1.0000   1.0000   1.0000   1.0000   1.0000   1.0000   1.0000   1.0000
     0.0000   0.0000   0.0000   0.0000   0.0000   0.0000   0.0000   0.0000
     0.0000   0.0000   0.0000   0.0000   0.0000   0.0000   0.0000   0.0000
     0.0000   0.0000   0.0000   0.0000   0.0000   0.0000   0.0000   0.0000

 ------ SPIN DOWN ----------


          k = 0.0000 0.0000 0.0000 (  7386 PWs)   bands (ev):

    -8.5451  -7.0022  -6.2457  -6.2444  -6.1170  -6.1160  -5.8426  -4.9242
    -4.1033  -4.1002  -4.0770  -4.0724  -3.9742  -3.9734  -3.9540  -3.8985
    -3.8161  -3.8146  -3.3114  -2.9330  -2.6141  -2.6114  -1.9717  -0.3419
    -0.3414  -0.2961  -0.2688  -0.0193   0.2052   0.2055   0.3302   0.3306
     0.3954   0.6400   0.8365   0.8384   1.0088   1.0119   1.0571   1.0668
     1.0686   1.0950   1.4745   1.4755   3.1720   3.9069   3.9092   4.0641
     4.2723   4.2726   4.2773   4.2868   4.3084   4.3110   4.4833   4.4861
     4.5178   4.5209   4.6276   4.7028   4.7038   4.7079   4.7100   4.8151
     4.8168   4.9236   4.9983   5.0019   5.1427   5.2610   5.2621   5.3220
     5.3820   5.3834   5.4212   5.4823   5.4849   6.1072   6.1091   6.1203
     6.6705   6.6707   6.7979   7.0511   7.1209   7.1213   7.6969   8.3710
     8.3731   8.4526   8.5285   8.5330   8.7041   8.7093   8.8652   8.8690
     8.8705   8.8810   8.9437   8.9481   8.9666   9.3369   9.3383   9.3506
     9.7500   9.7509   9.9490   9.9581   9.9594   9.9814  10.0085  10.0201
    10.0249  10.0268  10.0676  10.0680  10.1667  10.1668  10.3398  10.3416
    10.4174  11.3854  12.5347  12.6100  12.6201  14.2854  16.1583  16.1595
    17.4040  17.4065  17.4068  17.5825  17.6137  17.6151  17.9192  17.9483
    17.9492  18.0536  18.0556  18.4847  19.0613  19.0753  19.0845  20.7638
    20.8347  20.8357  20.8835  20.9739  20.9747  21.0534  21.0551  21.0943

     occupation numbers 
     1.0000   1.0000   1.0000   1.0000   1.0000   1.0000   1.0000   1.0000
     1.0000   1.0000   1.0000   1.0000   1.0000   1.0000   1.0000   1.0000
     1.0000   1.0000   1.0000   1.0000   1.0000   1.0000   1.0000   1.0000
     1.0000   1.0000   1.0000   1.0000   1.0000   1.0000   1.0000   1.0000
     1.0000   1.0000   1.0000   1.0000   1.0000   1.0000   1.0000   1.0000
     1.0000   1.0000   1.0000   1.0000   1.0000   1.0000   1.0000   1.0000
     1.0000   1.0000   1.0000   1.0000   1.0000   1.0000   1.0000   1.0000
     1.0000   1.0000   1.0000   1.0000   1.0000   1.0000   1.0000   1.0000
     1.0000   1.0000   1.0000   1.0000   1.0000   1.0000   1.0000   1.0000
     1.0000   1.0000   1.0000   1.0000   1.0000   1.0000   1.0000   1.0000
     1.0000   1.0000   1.0000   1.0000   1.0000   1.0000   1.0000   1.0000
     1.0000   1.0000   1.0000   1.0000   1.0000   1.0000   1.0000   1.0000
     1.0000   1.0000   1.0000   1.0000   1.0000   1.0000   1.0000   1.0000
     1.0000   1.0000   1.0000   1.0000   1.0000   1.0000   1.0000   1.0000
     1.0000   1.0000   1.0000   1.0000   1.0000   1.0000   1.0000   1.0000
     1.0000   1.0000   1.0000   1.0000   1.0000   1.0000   0.0000   0.0000
     0.0000   0.0000   0.0000   0.0000   0.0000   0.0000   0.0000   0.0000
     0.0000   0.0000   0.0000   0.0000   0.0000   0.0000   0.0000   0.0000
     0.0000   0.0000   0.0000   0.0000   0.0000   0.0000   0.0000   0.0000

     highest occupied, lowest unoccupied level (ev):    14.7976   16.1583

!    total energy              =    -723.91685406 Ry
     estimated scf accuracy    <          3.3E-09 Ry

     The total energy is the sum of the following terms:
     one-electron contribution =     232.80601676 Ry
     hartree contribution      =      70.09200746 Ry
     xc contribution           =    -226.74476084 Ry
     ewald contribution        =    -800.07011744 Ry

     total magnetization       =     2.00 Bohr mag/cell
     absolute magnetization    =     2.29 Bohr mag/cell

     convergence has been achieved in  14 iterations

     Forces acting on atoms (cartesian axes, Ry/au):

     atom    1 type  1   force =     0.00229221    0.00228316    0.00241892
     atom    2 type  2   force =    -0.00034373    0.00021876    0.00012025
     atom    3 type  2   force =     0.00017992    0.00053410    0.00120668
     atom    4 type  2   force =     0.00013553   -0.00023910    0.00025664
     atom    5 type  2   force =     0.00145762    0.00111635    0.00021413
     atom    6 type  2   force =     0.00014119    0.00015749   -0.00034620
     atom    7 type  2   force =     0.00088047    0.00084186    0.00080893
     atom    8 type  2   force =     0.00424460    0.00115971    0.00026308
     atom    9 type  2   force =    -0.01782135    0.00029962   -0.00010263
     atom   10 type  2   force =     0.00414884   -0.00118947   -0.00059075
     atom   11 type  2   force =    -0.00143218    0.00081720   -0.00022234
     atom   12 type  2   force =     0.00380908   -0.00088266    0.00144491
     atom   13 type  2   force =     0.00105881   -0.00108876    0.00012248
     atom   14 type  2   force =     0.00394361    0.00084301   -0.00118058
     atom   15 type  2   force =     0.00035216    0.00040527   -0.00032016
     atom   16 type  2   force =     0.00044079   -0.00048698    0.00040283
     atom   17 type  2   force =    -0.00016798   -0.00019397    0.00003223
     atom   18 type  2   force =     0.00023161    0.00030867   -0.00037612
     atom   19 type  2   force =    -0.00142703   -0.00087584    0.00016908
     atom   20 type  2   force =     0.00004771   -0.00034133   -0.00000237
     atom   21 type  2   force =    -0.00022208    0.00002866   -0.00020401
     atom   22 type  2   force =    -0.00016651    0.00047091    0.00002503
     atom   23 type  2   force =     0.00050258   -0.00051103   -0.00077620
     atom   24 type  2   force =     0.00010297    0.00004472    0.00001994
     atom   25 type  2   force =     0.00003622   -0.00002146   -0.00002184
     atom   26 type  2   force =    -0.00013063   -0.00027172   -0.00025245
     atom   27 type  2   force =     0.00027701   -0.00120329   -0.00188372
     atom   28 type  2   force =    -0.00037519   -0.00001799    0.00002948
     atom   29 type  2   force =    -0.00056758    0.00031561    0.00032198
     atom   30 type  2   force =    -0.00037779    0.00005566    0.00000756
     atom   31 type  2   force =     0.00000650   -0.00030574    0.00067874
     atom   32 type  2   force =    -0.00050358    0.00040685    0.00040216
     atom   33 type  2   force =    -0.00017790    0.00003105    0.00002947
     atom   34 type  2   force =    -0.00020259   -0.00016872   -0.00016893
     atom   35 type  2   force =    -0.00004640   -0.00024448   -0.00021524
     atom   36 type  2   force =     0.00044578    0.00002517   -0.00020693
     atom   37 type  2   force =     0.00001258   -0.00048902    0.00114789
     atom   38 type  2   force =     0.00044673   -0.00020716    0.00003289
     atom   39 type  2   force =    -0.00053872    0.00052681   -0.00079626
     atom   40 type  2   force =    -0.00002463    0.00024040    0.00005886
     atom   41 type  2   force =     0.00002159    0.00002252   -0.00002002
     atom   42 type  2   force =    -0.00000688   -0.00034020   -0.00004426
     atom   43 type  2   force =     0.00027168   -0.00056319    0.00036274
     atom   44 type  2   force =    -0.00026894   -0.00009441   -0.00017491
     atom   45 type  2   force =    -0.00097552    0.00064165   -0.00224261
     atom   46 type  2   force =    -0.00001729   -0.00024664   -0.00003359
     atom   47 type  2   force =     0.00092652   -0.00121311   -0.00000575
     atom   48 type  2   force =    -0.00002172    0.00002425    0.00020753
     atom   49 type  2   force =    -0.00002191   -0.00002126    0.00002648
     atom   50 type  2   force =    -0.00000747   -0.00000914   -0.00032089
     atom   51 type  2   force =     0.00027147    0.00033590   -0.00058868
     atom   52 type  2   force =    -0.00001727    0.00000267   -0.00027219
     atom   53 type  2   force =     0.00035718    0.00034599   -0.00059964
     atom   54 type  2   force =    -0.00025765   -0.00020687   -0.00007427
     atom   55 type  2   force =    -0.00155479   -0.00159637    0.00096045
     atom   56 type  2   force =    -0.00004147   -0.00001573    0.00000357
     atom   57 type  2   force =     0.00002951    0.00000724    0.00000949
     atom   58 type  2   force =    -0.00023158    0.00000066   -0.00001660
     atom   59 type  2   force =    -0.00039701    0.00024406    0.00021845
     atom   60 type  2   force =     0.00011920   -0.00035091    0.00015905
     atom   61 type  2   force =     0.00023740   -0.00034874    0.00025797
     atom   62 type  2   force =     0.00011644    0.00013959   -0.00037168
     atom   63 type  2   force =     0.00079983    0.00084974    0.00001194
     The non-local contrib.  to forces
     atom    1 type  1   force =    -0.73717577   -0.73759838   -0.73734750
     atom    2 type  2   force =    -0.22478689    0.21122483    0.21111627
     atom    3 type  2   force =     0.07036857    0.06829740    0.07043417
     atom    4 type  2   force =     0.21115889   -0.22469522    0.21088568
     atom    5 type  2   force =     0.06994247    0.06998629    0.06880972
     atom    6 type  2   force =     0.21110598    0.21072510   -0.22477574
     atom    7 type  2   force =     0.06932313    0.06943049    0.07000749
     atom    8 type  2   force =    -0.00451764   -0.00768704    0.05285310
     atom    9 type  2   force =    -0.02616663   -0.00456149    0.01562401
     atom   10 type  2   force =    -0.04030207   -0.01365906   -0.02020450
     atom   11 type  2   force =    -0.07107251    0.06114687   -0.08176621
     atom   12 type  2   force =    -0.00920879   -0.04482200   -0.01850969
     atom   13 type  2   force =     0.06072483   -0.07151075   -0.08226884
     atom   14 type  2   force =     0.00216151   -0.00106031    0.05058002
     atom   15 type  2   force =     0.01435012    0.01418778    0.00039705
     atom   16 type  2   force =    -0.00850704    0.05259139   -0.00781225
     atom   17 type  2   force =    -0.00449001    0.01555646   -0.00488368
     atom   18 type  2   force =    -0.04435036   -0.01983700   -0.01346777
     atom   19 type  2   force =    -0.07105209   -0.08383973    0.05906176
     atom   20 type  2   force =    -0.00198551    0.05097653   -0.00130659
     atom   21 type  2   force =     0.01363901    0.00035900    0.01359411
     atom   22 type  2   force =    -0.01321436   -0.01895942   -0.04453734
     atom   23 type  2   force =     0.06006966   -0.08289622   -0.07153171
     atom   24 type  2   force =    -0.07365337    0.02803635    0.02797474
     atom   25 type  2   force =    -0.01146642    0.01683489    0.01682766
     atom   26 type  2   force =    -0.06027199   -0.02482252   -0.02477889
     atom   27 type  2   force =    -0.11745522    0.13638958    0.13429734
     atom   28 type  2   force =     0.06251503    0.02827709   -0.01942602
     atom   29 type  2   force =     0.00160837    0.01873500    0.00558027
     atom   30 type  2   force =     0.06250098   -0.01935398    0.02831902
     atom   31 type  2   force =     0.00235775    0.00494808    0.01866334
     atom   32 type  2   force =     0.05231978   -0.00832353   -0.00795459
     atom   33 type  2   force =     0.01586766   -0.00487451   -0.00488842
     atom   34 type  2   force =     0.05159274   -0.00169994   -0.00207369
     atom   35 type  2   force =     0.00028224    0.01370694    0.01364617
     atom   36 type  2   force =    -0.01922251   -0.04406999   -0.01269154
     atom   37 type  2   force =    -0.08227784   -0.07144660    0.06065727
     atom   38 type  2   force =    -0.01923794   -0.01303693   -0.04439936
     atom   39 type  2   force =    -0.08290150    0.06006552   -0.07143301
     atom   40 type  2   force =     0.02803028   -0.07380991    0.02823403
     atom   41 type  2   force =     0.01669893   -0.01146621    0.01682991
     atom   42 type  2   force =     0.02806802    0.06235309   -0.01936464
     atom   43 type  2   force =     0.01855580    0.00160417    0.00548109
     atom   44 type  2   force =    -0.02506686   -0.06043213   -0.02484580
     atom   45 type  2   force =     0.13589454   -0.11789224    0.13476171
     atom   46 type  2   force =    -0.01938284    0.06235068    0.02806796
     atom   47 type  2   force =     0.00618459    0.00111457    0.01868303
     atom   48 type  2   force =     0.02813319    0.02811660   -0.07379435
     atom   49 type  2   force =     0.01679386    0.01683214   -0.01145985
     atom   50 type  2   force =     0.02815797   -0.01925051    0.06234782
     atom   51 type  2   force =     0.01855150    0.00553221    0.00167010
     atom   52 type  2   force =    -0.01928018    0.02817450    0.06235757
     atom   53 type  2   force =     0.00545447    0.01862445    0.00172679
     atom   54 type  2   force =    -0.02493822   -0.02493411   -0.06042614
     atom   55 type  2   force =     0.13530501    0.13542838   -0.11794032
     atom   56 type  2   force =     0.01626481    0.01635738    0.01611761
     atom   57 type  2   force =     0.00789210    0.00757682    0.00757671
     atom   58 type  2   force =     0.01372850   -0.01306021   -0.01280521
     atom   59 type  2   force =     0.01050105   -0.01056999   -0.01052124
     atom   60 type  2   force =    -0.01270703    0.01334316   -0.01284305
     atom   61 type  2   force =    -0.01058099    0.01069605   -0.01062628
     atom   62 type  2   force =    -0.01269552   -0.01259415    0.01358063
     atom   63 type  2   force =    -0.00986631   -0.01001969    0.01063950
     The ionic contribution  to forces
     atom    1 type  1   force =     3.03745647    3.04133227    3.03632899
     atom    2 type  2   force =     2.25542924   -2.16121394   -2.15734642
     atom    3 type  2   force =     0.42632915   -0.74872595   -0.74857977
     atom    4 type  2   force =    -2.16202754    2.25626802   -2.16278896
     atom    5 type  2   force =    -0.74438538    0.43162936   -0.75693137
     atom    6 type  2   force =    -2.16199637   -2.15890929    2.26005900
     atom    7 type  2   force =    -0.74852789   -0.74797271    0.43169136
     atom    8 type  2   force =     0.24444830    0.26865644   -0.67501526
     atom    9 type  2   force =     0.04206463    0.11168379   -0.22416057
     atom   10 type  2   force =     0.21130073    0.04043286    0.50120796
     atom   11 type  2   force =    -0.29658993   -0.72447511    0.72916449
     atom   12 type  2   force =     0.06576283    0.18486647    0.55358819
     atom   13 type  2   force =    -0.72038499   -0.29120695    0.73738727
     atom   14 type  2   force =    -0.19850064   -0.17366052   -0.69774121
     atom   15 type  2   force =    -0.15427397   -0.15028317   -0.04828039
     atom   16 type  2   force =     0.24230717   -0.70116885    0.24287285
     atom   17 type  2   force =     0.11110741   -0.22534181    0.11227732
     atom   18 type  2   force =     0.20922800    0.52794634    0.06621810
     atom   19 type  2   force =    -0.29661688    0.72911325   -0.72452633
     atom   20 type  2   force =    -0.20039135   -0.67144274   -0.19981316
     atom   21 type  2   force =    -0.15845082   -0.04827417   -0.15925787
     atom   22 type  2   force =     0.06457405    0.52689878    0.21084394
     atom   23 type  2   force =    -0.72439152    0.72845578   -0.29127335
     atom   24 type  2   force =     0.03114840   -0.19467530   -0.19130469
     atom   25 type  2   force =     0.09335469   -0.07256236   -0.07256235
     atom   26 type  2   force =     0.11319024   -0.17446215   -0.17783475
     atom   27 type  2   force =     1.33683835    0.24295769    0.24249458
     atom   28 type  2   force =    -0.08819334   -0.22466027    0.15765015
     atom   29 type  2   force =    -0.15874210   -0.00243400    0.23054361
     atom   30 type  2   force =    -0.08819687    0.15427313   -0.22802839
     atom   31 type  2   force =    -0.15456942    0.22151221   -0.00238695
     atom   32 type  2   force =    -0.69846974    0.24287003    0.24459248
     atom   33 type  2   force =    -0.22311566    0.11227732    0.11227732
     atom   34 type  2   force =    -0.66978994   -0.19875799   -0.20047608
     atom   35 type  2   force =    -0.04526828   -0.15856881   -0.15858781
     atom   36 type  2   force =     0.52958081    0.21084603    0.06686606
     atom   37 type  2   force =     0.73330735   -0.29130721   -0.71628807
     atom   38 type  2   force =     0.52959545    0.06517554    0.20914161
     atom   39 type  2   force =     0.72926015   -0.72518228   -0.29124100
     atom   40 type  2   force =    -0.18459940    0.03087821   -0.19467933
     atom   41 type  2   force =    -0.06361042    0.09618928   -0.07256234
     atom   42 type  2   force =    -0.21943493   -0.08356982    0.15912856
     atom   43 type  2   force =     0.00059039   -0.15886228    0.22986089
     atom   44 type  2   force =    -0.16928534    0.11770742   -0.17923257
     atom   45 type  2   force =     0.24704630    1.34237777    0.23454487
     atom   46 type  2   force =     0.16431415   -0.08841322   -0.22467250
     atom   47 type  2   force =     0.23424816   -0.16712759   -0.00246054
     atom   48 type  2   force =    -0.19116819   -0.19188511    0.03368229
     atom   49 type  2   force =    -0.07146822   -0.07256235    0.09618929
     atom   50 type  2   force =    -0.22597832    0.15631453   -0.08638541
     atom   51 type  2   force =     0.00057617    0.22986618   -0.15885699
     atom   52 type  2   force =     0.15779078   -0.22744409   -0.08563283
     atom   53 type  2   force =     0.23000525   -0.00241381   -0.15818186
     atom   54 type  2   force =    -0.17577678   -0.17651089    0.11494402
     atom   55 type  2   force =     0.24287194    0.24340551    1.34211095
     atom   56 type  2   force =    -0.10660919   -0.10760535   -0.10932308
     atom   57 type  2   force =    -0.01990409   -0.02213022   -0.02213023
     atom   58 type  2   force =    -0.13155585    0.00920571    0.01093707
     atom   59 type  2   force =    -0.30873669    0.12378552    0.12383260
     atom   60 type  2   force =     0.01260139   -0.13491264    0.00987212
     atom   61 type  2   force =     0.12395643   -0.31175901    0.12313075
     atom   62 type  2   force =     0.01259093    0.01157190   -0.13320395
     atom   63 type  2   force =     0.12813476    0.13198464   -0.31169229
     The local contribution  to forces
     atom    1 type  1   force =    -2.29796842   -2.30142235   -2.29651610
     atom    2 type  2   force =    -2.03096208    1.95022175    1.94635826
     atom    3 type  2   force =    -0.49648450    0.68096674    0.67934320
     atom    4 type  2   force =     1.95105105   -2.03178390    1.95216740
     atom    5 type  2   force =     0.67593990   -0.50048501    0.68832445
     atom    6 type  2   force =     1.95107635    1.94835096   -2.03558952
     atom    7 type  2   force =     0.68012237    0.67938307   -0.50086414
     atom    8 type  2   force =    -0.23566039   -0.25978186    0.62241675
     atom    9 type  2   force =    -0.03368543   -0.10680460    0.20843103
     atom   10 type  2   force =    -0.16682586   -0.02795691   -0.48157765
     atom   11 type  2   force =     0.36626547    0.66415118   -0.64758325
     atom   12 type  2   force =    -0.05270540   -0.14089987   -0.53361603
     atom   13 type  2   force =     0.66076152    0.36164928   -0.65495942
     atom   14 type  2   force =     0.20032370    0.17557018    0.64596861
     atom   15 type  2   force =     0.14031688    0.13650061    0.04756543
     atom   16 type  2   force =    -0.23333259    0.64809581   -0.23461522
     atom   17 type  2   force =    -0.10675489    0.20959563   -0.10733512
     atom   18 type  2   force =    -0.16462115   -0.50778506   -0.05312295
     atom   19 type  2   force =     0.36628012   -0.64612054    0.66562470
     atom   20 type  2   force =     0.20245934    0.62012597    0.20112253
     atom   21 type  2   force =     0.14462714    0.04795532    0.14545149
     atom   22 type  2   force =    -0.05148922   -0.50745122   -0.16624221
     atom   23 type  2   force =     0.66486545   -0.64603824    0.36206071
     atom   24 type  2   force =     0.04263165    0.16668417    0.16333649
     atom   25 type  2   force =    -0.08181839    0.05571398    0.05571292
     atom   26 type  2   force =    -0.05302598    0.19903233    0.20238197
     atom   27 type  2   force =    -1.21908017   -0.38052117   -0.37863678
     atom   28 type  2   force =     0.02534527    0.19636722   -0.13817486
     atom   29 type  2   force =     0.15660395   -0.01598069   -0.23576818
     atom   30 type  2   force =     0.02535989   -0.13484312    0.19970517
     atom   31 type  2   force =     0.15225809   -0.22673813   -0.01560216
     atom   32 type  2   force =     0.64567988   -0.23411137   -0.23619376
     atom   33 type  2   force =     0.20708798   -0.10735690   -0.10733238
     atom   34 type  2   force =     0.61802385    0.20029162    0.20238777
     atom   35 type  2   force =     0.04496541    0.14461704    0.14472050
     atom   36 type  2   force =    -0.50990036   -0.16672653   -0.05437591
     atom   37 type  2   force =    -0.65100095    0.36228439    0.65677495
     atom   38 type  2   force =    -0.50989569   -0.05233927   -0.16467154
     atom   39 type  2   force =    -0.64687715    0.66565139    0.36190620
     atom   40 type  2   force =     0.15657504    0.04319889    0.16648942
     atom   41 type  2   force =     0.04695610   -0.08468089    0.05571126
     atom   42 type  2   force =     0.19139234    0.02088642   -0.13979017
     atom   43 type  2   force =    -0.01885624    0.15669452   -0.23494669
     atom   44 type  2   force =     0.19410090   -0.05734404    0.20392233
     atom   45 type  2   force =    -0.38389596   -1.22383312   -0.37151191
     atom   46 type  2   force =    -0.14493215    0.02582524    0.19656213
     atom   47 type  2   force =    -0.23949019    0.16480032   -0.01623295
     atom   48 type  2   force =     0.16304318    0.16379229    0.04035481
     atom   49 type  2   force =     0.05467860    0.05571989   -0.08467563
     atom   50 type  2   force =     0.19784533   -0.13704802    0.02372518
     atom   51 type  2   force =    -0.01883838   -0.23503297    0.15658765
     atom   52 type  2   force =    -0.13850601    0.19927483    0.02301086
     atom   53 type  2   force =    -0.23508345   -0.01586087    0.15584432
     atom   54 type  2   force =     0.20047745    0.20125946   -0.05455366
     atom   55 type  2   force =    -0.37971131   -0.38040212   -1.22319011
     atom   56 type  2   force =     0.09033591    0.09123201    0.09320062
     atom   57 type  2   force =     0.01206424    0.01456777    0.01456315
     atom   58 type  2   force =     0.11762833    0.00387403    0.00186965
     atom   59 type  2   force =     0.29786474   -0.11294275   -0.11305662
     atom   60 type  2   force =     0.00024080    0.12121978    0.00314676
     atom   61 type  2   force =    -0.11311778    0.30072577   -0.11220894
     atom   62 type  2   force =     0.00023732    0.00118122    0.11924083
     atom   63 type  2   force =    -0.11745109   -0.12108668    0.30106762
     The core correction contribution to forces
     atom    1 type  1   force =     0.00000000    0.00000000    0.00000000
     atom    2 type  2   force =     0.00000000    0.00000000    0.00000000
     atom    3 type  2   force =     0.00000000    0.00000000    0.00000000
     atom    4 type  2   force =     0.00000000    0.00000000    0.00000000
     atom    5 type  2   force =     0.00000000    0.00000000    0.00000000
     atom    6 type  2   force =     0.00000000    0.00000000    0.00000000
     atom    7 type  2   force =     0.00000000    0.00000000    0.00000000
     atom    8 type  2   force =     0.00000000    0.00000000    0.00000000
     atom    9 type  2   force =     0.00000000    0.00000000    0.00000000
     atom   10 type  2   force =     0.00000000    0.00000000    0.00000000
     atom   11 type  2   force =     0.00000000    0.00000000    0.00000000
     atom   12 type  2   force =     0.00000000    0.00000000    0.00000000
     atom   13 type  2   force =     0.00000000    0.00000000    0.00000000
     atom   14 type  2   force =     0.00000000    0.00000000    0.00000000
     atom   15 type  2   force =     0.00000000    0.00000000    0.00000000
     atom   16 type  2   force =     0.00000000    0.00000000    0.00000000
     atom   17 type  2   force =     0.00000000    0.00000000    0.00000000
     atom   18 type  2   force =     0.00000000    0.00000000    0.00000000
     atom   19 type  2   force =     0.00000000    0.00000000    0.00000000
     atom   20 type  2   force =     0.00000000    0.00000000    0.00000000
     atom   21 type  2   force =     0.00000000    0.00000000    0.00000000
     atom   22 type  2   force =     0.00000000    0.00000000    0.00000000
     atom   23 type  2   force =     0.00000000    0.00000000    0.00000000
     atom   24 type  2   force =     0.00000000    0.00000000    0.00000000
     atom   25 type  2   force =     0.00000000    0.00000000    0.00000000
     atom   26 type  2   force =     0.00000000    0.00000000    0.00000000
     atom   27 type  2   force =     0.00000000    0.00000000    0.00000000
     atom   28 type  2   force =     0.00000000    0.00000000    0.00000000
     atom   29 type  2   force =     0.00000000    0.00000000    0.00000000
     atom   30 type  2   force =     0.00000000    0.00000000    0.00000000
     atom   31 type  2   force =     0.00000000    0.00000000    0.00000000
     atom   32 type  2   force =     0.00000000    0.00000000    0.00000000
     atom   33 type  2   force =     0.00000000    0.00000000    0.00000000
     atom   34 type  2   force =     0.00000000    0.00000000    0.00000000
     atom   35 type  2   force =     0.00000000    0.00000000    0.00000000
     atom   36 type  2   force =     0.00000000    0.00000000    0.00000000
     atom   37 type  2   force =     0.00000000    0.00000000    0.00000000
     atom   38 type  2   force =     0.00000000    0.00000000    0.00000000
     atom   39 type  2   force =     0.00000000    0.00000000    0.00000000
     atom   40 type  2   force =     0.00000000    0.00000000    0.00000000
     atom   41 type  2   force =     0.00000000    0.00000000    0.00000000
     atom   42 type  2   force =     0.00000000    0.00000000    0.00000000
     atom   43 type  2   force =     0.00000000    0.00000000    0.00000000
     atom   44 type  2   force =     0.00000000    0.00000000    0.00000000
     atom   45 type  2   force =     0.00000000    0.00000000    0.00000000
     atom   46 type  2   force =     0.00000000    0.00000000    0.00000000
     atom   47 type  2   force =     0.00000000    0.00000000    0.00000000
     atom   48 type  2   force =     0.00000000    0.00000000    0.00000000
     atom   49 type  2   force =     0.00000000    0.00000000    0.00000000
     atom   50 type  2   force =     0.00000000    0.00000000    0.00000000
     atom   51 type  2   force =     0.00000000    0.00000000    0.00000000
     atom   52 type  2   force =     0.00000000    0.00000000    0.00000000
     atom   53 type  2   force =     0.00000000    0.00000000    0.00000000
     atom   54 type  2   force =     0.00000000    0.00000000    0.00000000
     atom   55 type  2   force =     0.00000000    0.00000000    0.00000000
     atom   56 type  2   force =     0.00000000    0.00000000    0.00000000
     atom   57 type  2   force =     0.00000000    0.00000000    0.00000000
     atom   58 type  2   force =     0.00000000    0.00000000    0.00000000
     atom   59 type  2   force =     0.00000000    0.00000000    0.00000000
     atom   60 type  2   force =     0.00000000    0.00000000    0.00000000
     atom   61 type  2   force =     0.00000000    0.00000000    0.00000000
     atom   62 type  2   force =     0.00000000    0.00000000    0.00000000
     atom   63 type  2   force =     0.00000000    0.00000000    0.00000000
     The Hubbard contrib.    to forces
     atom    1 type  1   force =     0.00000000    0.00000000    0.00000000
     atom    2 type  2   force =     0.00000000    0.00000000    0.00000000
     atom    3 type  2   force =     0.00000000    0.00000000    0.00000000
     atom    4 type  2   force =     0.00000000    0.00000000    0.00000000
     atom    5 type  2   force =     0.00000000    0.00000000    0.00000000
     atom    6 type  2   force =     0.00000000    0.00000000    0.00000000
     atom    7 type  2   force =     0.00000000    0.00000000    0.00000000
     atom    8 type  2   force =     0.00000000    0.00000000    0.00000000
     atom    9 type  2   force =     0.00000000    0.00000000    0.00000000
     atom   10 type  2   force =     0.00000000    0.00000000    0.00000000
     atom   11 type  2   force =     0.00000000    0.00000000    0.00000000
     atom   12 type  2   force =     0.00000000    0.00000000    0.00000000
     atom   13 type  2   force =     0.00000000    0.00000000    0.00000000
     atom   14 type  2   force =     0.00000000    0.00000000    0.00000000
     atom   15 type  2   force =     0.00000000    0.00000000    0.00000000
     atom   16 type  2   force =     0.00000000    0.00000000    0.00000000
     atom   17 type  2   force =     0.00000000    0.00000000    0.00000000
     atom   18 type  2   force =     0.00000000    0.00000000    0.00000000
     atom   19 type  2   force =     0.00000000    0.00000000    0.00000000
     atom   20 type  2   force =     0.00000000    0.00000000    0.00000000
     atom   21 type  2   force =     0.00000000    0.00000000    0.00000000
     atom   22 type  2   force =     0.00000000    0.00000000    0.00000000
     atom   23 type  2   force =     0.00000000    0.00000000    0.00000000
     atom   24 type  2   force =     0.00000000    0.00000000    0.00000000
     atom   25 type  2   force =     0.00000000    0.00000000    0.00000000
     atom   26 type  2   force =     0.00000000    0.00000000    0.00000000
     atom   27 type  2   force =     0.00000000    0.00000000    0.00000000
     atom   28 type  2   force =     0.00000000    0.00000000    0.00000000
     atom   29 type  2   force =     0.00000000    0.00000000    0.00000000
     atom   30 type  2   force =     0.00000000    0.00000000    0.00000000
     atom   31 type  2   force =     0.00000000    0.00000000    0.00000000
     atom   32 type  2   force =     0.00000000    0.00000000    0.00000000
     atom   33 type  2   force =     0.00000000    0.00000000    0.00000000
     atom   34 type  2   force =     0.00000000    0.00000000    0.00000000
     atom   35 type  2   force =     0.00000000    0.00000000    0.00000000
     atom   36 type  2   force =     0.00000000    0.00000000    0.00000000
     atom   37 type  2   force =     0.00000000    0.00000000    0.00000000
     atom   38 type  2   force =     0.00000000    0.00000000    0.00000000
     atom   39 type  2   force =     0.00000000    0.00000000    0.00000000
     atom   40 type  2   force =     0.00000000    0.00000000    0.00000000
     atom   41 type  2   force =     0.00000000    0.00000000    0.00000000
     atom   42 type  2   force =     0.00000000    0.00000000    0.00000000
     atom   43 type  2   force =     0.00000000    0.00000000    0.00000000
     atom   44 type  2   force =     0.00000000    0.00000000    0.00000000
     atom   45 type  2   force =     0.00000000    0.00000000    0.00000000
     atom   46 type  2   force =     0.00000000    0.00000000    0.00000000
     atom   47 type  2   force =     0.00000000    0.00000000    0.00000000
     atom   48 type  2   force =     0.00000000    0.00000000    0.00000000
     atom   49 type  2   force =     0.00000000    0.00000000    0.00000000
     atom   50 type  2   force =     0.00000000    0.00000000    0.00000000
     atom   51 type  2   force =     0.00000000    0.00000000    0.00000000
     atom   52 type  2   force =     0.00000000    0.00000000    0.00000000
     atom   53 type  2   force =     0.00000000    0.00000000    0.00000000
     atom   54 type  2   force =     0.00000000    0.00000000    0.00000000
     atom   55 type  2   force =     0.00000000    0.00000000    0.00000000
     atom   56 type  2   force =     0.00000000    0.00000000    0.00000000
     atom   57 type  2   force =     0.00000000    0.00000000    0.00000000
     atom   58 type  2   force =     0.00000000    0.00000000    0.00000000
     atom   59 type  2   force =     0.00000000    0.00000000    0.00000000
     atom   60 type  2   force =     0.00000000    0.00000000    0.00000000
     atom   61 type  2   force =     0.00000000    0.00000000    0.00000000
     atom   62 type  2   force =     0.00000000    0.00000000    0.00000000
     atom   63 type  2   force =     0.00000000    0.00000000    0.00000000
     The SCF correction term to forces
     atom    1 type  1   force =     0.00000837   -0.00001459   -0.00003326
     atom    2 type  2   force =     0.00000445   -0.00000008    0.00000536
     atom    3 type  2   force =    -0.00000484    0.00000970    0.00002230
     atom    4 type  2   force =    -0.00001841   -0.00001421    0.00000573
     atom    5 type  2   force =    -0.00001091   -0.00000049    0.00002454
     atom    6 type  2   force =    -0.00001632    0.00000450   -0.00002672
     atom    7 type  2   force =    -0.00000868    0.00001480   -0.00001256
     atom    8 type  2   force =     0.00000279   -0.00001404    0.00002170
     atom    9 type  2   force =    -0.00000547   -0.00000430    0.00001611
     atom   10 type  2   force =     0.00000449    0.00000743   -0.00000334
     atom   11 type  2   force =    -0.00000677    0.00000805   -0.00002415
     atom   12 type  2   force =    -0.00001110   -0.00001346   -0.00000436
     atom   13 type  2   force =    -0.00001410   -0.00000655   -0.00002332
     atom   14 type  2   force =    -0.00001251    0.00000745    0.00002522
     atom   15 type  2   force =    -0.00001242    0.00001384    0.00001097
     atom   16 type  2   force =     0.00000170    0.00000847   -0.00002934
     atom   17 type  2   force =    -0.00000204    0.00000954   -0.00001308
     atom   18 type  2   force =     0.00000358   -0.00000182    0.00000972
     atom   19 type  2   force =    -0.00000974   -0.00001502    0.00002216
     atom   20 type  2   force =    -0.00000632    0.00001270    0.00000807
     atom   21 type  2   force =    -0.00000896    0.00000230    0.00002147
     atom   22 type  2   force =    -0.00000853   -0.00000343   -0.00002615
     atom   23 type  2   force =    -0.00001255   -0.00001856   -0.00001864
     atom   24 type  2   force =     0.00000474    0.00001329    0.00002662
     atom   25 type  2   force =    -0.00000521    0.00000583    0.00001313
     atom   26 type  2   force =     0.00000555   -0.00000559   -0.00000757
     atom   27 type  2   force =     0.00000250   -0.00001560   -0.00002564
     atom   28 type  2   force =    -0.00001370    0.00001176   -0.00000657
     atom   29 type  2   force =    -0.00000935    0.00000910   -0.00002051
     atom   30 type  2   force =    -0.00001334   -0.00000658    0.00002497
     atom   31 type  2   force =    -0.00001147   -0.00001410    0.00001772
     atom   32 type  2   force =    -0.00000504   -0.00001448   -0.00002874
     atom   33 type  2   force =     0.00001057   -0.00000107   -0.00001384
     atom   34 type  2   force =    -0.00000078    0.00001139    0.00000628
     atom   35 type  2   force =     0.00000269    0.00001414    0.00001911
     atom   36 type  2   force =     0.00001629   -0.00001055    0.00000768
     atom   37 type  2   force =     0.00001248   -0.00000581    0.00001696
     atom   38 type  2   force =     0.00001336    0.00000729   -0.00002461
     atom   39 type  2   force =     0.00000824    0.00000597   -0.00001523
     atom   40 type  2   force =    -0.00000211   -0.00001300    0.00002796
     atom   41 type  2   force =     0.00000544   -0.00000586    0.00001436
     atom   42 type  2   force =    -0.00000384    0.00000391   -0.00000480
     atom   43 type  2   force =     0.00001019    0.00001420   -0.00001934
     atom   44 type  2   force =     0.00001081   -0.00001187   -0.00000566
     atom   45 type  2   force =     0.00000806    0.00000303   -0.00002406
     atom   46 type  2   force =     0.00001200    0.00000446    0.00002203
     atom   47 type  2   force =     0.00001242    0.00001339    0.00001792
     atom   48 type  2   force =    -0.00000144    0.00001426   -0.00002200
     atom   49 type  2   force =     0.00000231    0.00000285   -0.00001411
     atom   50 type  2   force =    -0.00000401   -0.00001134    0.00000473
     atom   51 type  2   force =     0.00001064   -0.00001574    0.00002378
     atom   52 type  2   force =     0.00000659    0.00001122    0.00000542
     atom   53 type  2   force =     0.00000936    0.00001001    0.00002431
     atom   54 type  2   force =     0.00000836   -0.00000753   -0.00002528
     atom   55 type  2   force =     0.00000802   -0.00001435   -0.00000685
     atom   56 type  2   force =    -0.00000454    0.00001403    0.00002162
     atom   57 type  2   force =     0.00000571    0.00000667    0.00001308
     atom   58 type  2   force =    -0.00000412   -0.00000507   -0.00000489
     atom   59 type  2   force =     0.00000234   -0.00001493   -0.00002307
     atom   60 type  2   force =     0.00001249    0.00001258   -0.00000356
     atom   61 type  2   force =     0.00000820    0.00000225   -0.00002434
     atom   62 type  2   force =     0.00001216   -0.00000558    0.00002402
     atom   63 type  2   force =     0.00001093   -0.00001474    0.00001032

     Total force =     0.021355     Total SCF correction =     0.000186

     Writing all to output data dir ./pwscf.save/ :
     XML data file, charge density, pseudopotentials, collected wavefunctions
 
     init_run     :      0.39s CPU      0.65s WALL (       1 calls)
     electrons    :     19.38s CPU     19.66s WALL (       1 calls)
     forces       :      0.29s CPU      0.29s WALL (       1 calls)

     Called by init_run:
     wfcinit      :      0.09s CPU      0.10s WALL (       1 calls)
     wfcinit:wfcr :      0.09s CPU      0.09s WALL (       1 calls)
     potinit      :      0.14s CPU      0.30s WALL (       1 calls)
     hinit0       :      0.05s CPU      0.13s WALL (       1 calls)

     Called by electrons:
     c_bands      :     18.02s CPU     18.23s WALL (      14 calls)
     sum_band     :      0.59s CPU      0.61s WALL (      14 calls)
     v_of_rho     :      0.21s CPU      0.21s WALL (      15 calls)
     v_h          :      0.00s CPU      0.00s WALL (      15 calls)
     v_xc         :      0.20s CPU      0.21s WALL (      15 calls)
     mix_rho      :      0.13s CPU      0.13s WALL (      14 calls)

     Called by c_bands:
     init_us_2    :      0.02s CPU      0.03s WALL (      30 calls)
     regterg      :     14.59s CPU     14.78s WALL (      14 calls)

     Called by sum_band:
     sum_band:wei :      0.01s CPU      0.01s WALL (      14 calls)
     sum_band:loo :      0.51s CPU      0.53s WALL (      14 calls)
     sum_band:buf :      0.00s CPU      0.00s WALL (      14 calls)
     sum_band:ini :      0.01s CPU      0.01s WALL (      14 calls)

     Called by *egterg:
     rdiaghg      :      5.72s CPU      5.84s WALL (     277 calls)
     regterg:over :      0.98s CPU      0.99s WALL (     263 calls)
     regterg:upda :      0.60s CPU      0.61s WALL (     263 calls)
     regterg:last :      0.25s CPU      0.25s WALL (      53 calls)
     rdiaghg:chol :      0.22s CPU      0.22s WALL (     277 calls)
     rdiaghg:inve :      0.03s CPU      0.03s WALL (     277 calls)
     rdiaghg:para :      0.41s CPU      0.44s WALL (     554 calls)
     h_psi        :      6.79s CPU      6.84s WALL (     278 calls)
     g_psi        :      0.00s CPU      0.00s WALL (     263 calls)

     Called by h_psi:
     h_psi:calbec :      0.93s CPU      0.94s WALL (     278 calls)
     vloc_psi     :      5.75s CPU      5.78s WALL (     278 calls)
                                        0.00s GPU  (     278 calls)
     add_vuspsi   :      0.10s CPU      0.11s WALL (     278 calls)

     General routines
     calbec       :      1.21s CPU      1.21s WALL (     282 calls)
     fft          :      0.15s CPU      0.22s WALL (     196 calls)
     ffts         :      0.03s CPU      0.03s WALL (      14 calls)
     fftw         :      6.15s CPU      6.19s WALL (   10226 calls)
 
     Parallel routines
 
     PWSCF        :     24.71s CPU     25.47s WALL

 
   This run was terminated on:  13:43:54  19Nov2025            

=------------------------------------------------------------------------------=
   JOB DONE.
=------------------------------------------------------------------------------=
