
     Program PWSCF v.7.5 starts on 19Nov2025 at 14: 0:29 

     This program is part of the open-source Quantum ESPRESSO suite
     for quantum simulation of materials; please cite
         "P. Giannozzi et al., J. Phys.:Condens. Matter 21 395502 (2009);
         "P. Giannozzi et al., J. Phys.:Condens. Matter 29 465901 (2017);
         "P. Giannozzi et al., J. Chem. Phys. 152 154105 (2020);
          URL http://www.quantum-espresso.org", 
     in publications or presentations arising from this work. More details at
     http://www.quantum-espresso.org/quote

     Parallel version (MPI), running on    96 processors

     MPI processes distributed on     2 nodes
     144244 MiB available memory on the printing compute node when the environment starts
 
     Reading input from supercell-066.in

     Current dimensions of program PWSCF are:
     Max number of different atomic species (ntypx) = 10
     Max number of k-points (npk) =  40000
     Max angular momentum in pseudopotentials (lmaxx) =  4

     gamma-point specific algorithms are used
 
     K-points division:     npool     =       2
     R & G space division:  proc/nbgrp/npool/nimage =      48
     Subspace diagonalization in iterative solution of the eigenvalue problem:
     one sub-group per band group will be used
     scalapack distributed-memory algorithm (size of sub-group:  2*  2 procs)

 
     Parallelization info
     --------------------
     sticks:   dense  smooth     PW     G-vecs:    dense   smooth      PW
     Min          59      59     14                 2432     2432     302
     Max          62      62     16                 2442     2442     316
     Sum        2885    2885    725               116921   116921   14771
 
     Using Slab Decomposition
 


     bravais-lattice index     =            0
     lattice parameter (alat)  =      13.4813  a.u.
     unit-cell volume          =    2450.1683 (a.u.)^3
     number of atoms/cell      =           63
     number of atomic types    =            2
     number of electrons       =       254.00 (up: 128.00, down: 126.00)
     number of Kohn-Sham states=          152
     kinetic-energy cutoff     =      50.0000  Ry
     charge density cutoff     =     200.0000  Ry
     scf convergence threshold =      1.0E-08
     mixing beta               =       0.7000
     number of iterations used =            8  plain     mixing
     Exchange-correlation= PBE
                           (   1   4   3   4   0   0   0)

     celldm(1)=  13.481306  celldm(2)=   0.000000  celldm(3)=   0.000000
     celldm(4)=   0.000000  celldm(5)=   0.000000  celldm(6)=   0.000000

     crystal axes: (cart. coord. in units of alat)
               a(1) = (   1.000000   0.000000   0.000000 )  
               a(2) = (   0.000000   1.000000   0.000000 )  
               a(3) = (   0.000000   0.000000   1.000000 )  

     reciprocal axes: (cart. coord. in units 2 pi/alat)
               b(1) = (  1.000000  0.000000  0.000000 )  
               b(2) = (  0.000000  1.000000  0.000000 )  
               b(3) = (  0.000000  0.000000  1.000000 )  


     PseudoPot. # 1 for N  read from file:
     ./N_ONCV_PBE-1.2.upf
     MD5 check sum: 5312fdf34e96954e02a33bdc911c617a
     Pseudo is Norm-conserving, Zval =  5.0
     Generated using ONCVPSP code by D. R. Hamann
     Using radial grid of  602 points,  4 beta functions with: 
                l(1) =   0
                l(2) =   0
                l(3) =   1
                l(4) =   1

     PseudoPot. # 2 for C  read from file:
     ./C_ONCV_PBE-1.2.upf
     MD5 check sum: d60b57d9bdca4133f5fde4b584ee909d
     Pseudo is Norm-conserving, Zval =  4.0
     Generated using ONCVPSP code by D. R. Hamann
     Using radial grid of  602 points,  4 beta functions with: 
                l(1) =   0
                l(2) =   0
                l(3) =   1
                l(4) =   1

     atomic species   valence    mass     pseudopotential
     N                 5.00    14.00670     N ( 1.00)
     C                 4.00    12.01070     C ( 1.00)

     Starting magnetic structure 
     atomic species   magnetization
     N               0.000
     C               0.000

     No symmetry found


                                    s                        frac. trans.

      isym =  1     identity                                     

 cryst.   s( 1) = (     1          0          0      )
                  (     0          1          0      )
                  (     0          0          1      )

 cart.    s( 1) = (  1.0000000  0.0000000  0.0000000 )
                  (  0.0000000  1.0000000  0.0000000 )
                  (  0.0000000  0.0000000  1.0000000 )


   Cartesian axes

     site n.     atom                  positions (alat units)
         1        N      tau(   1) = (   0.9869283   0.9869283   0.9869283  )
         2        C      tau(   2) = (   0.9921390   0.2607625   0.2607625  )
         3        C      tau(   3) = (   0.1236981   0.3746848   0.3746848  )
         4        C      tau(   4) = (   0.2607625   0.9921390   0.2607625  )
         5        C      tau(   5) = (   0.3746848   0.1236981   0.3746848  )
         6        C      tau(   6) = (   0.2607625   0.2607625   0.9921390  )
         7        C      tau(   7) = (   0.3746848   0.3746848   0.1236981  )
         8        C      tau(   8) = (   0.0007517   0.0007517   0.4988587  )
         9        C      tau(   9) = (   0.1251291   0.1251291   0.6250516  )
        10        C      tau(  10) = (   0.0014372   0.2476607   0.7521916  )
        11        C      tau(  11) = (   0.1266329   0.3730745   0.8775065  )
        12        C      tau(  12) = (   0.2476607   0.0014372   0.7521916  )
        13        C      tau(  13) = (   0.3730745   0.1266329   0.8775065  )
        14        C      tau(  14) = (   0.2498467   0.2498467   0.4996267  )
        15        C      tau(  15) = (   0.3749463   0.3749463   0.6249280  )
        16        C      tau(  16) = (   0.0007517   0.4988587   0.0007517  )
        17        C      tau(  17) = (   0.1251291   0.6250516   0.1251291  )
        18        C      tau(  18) = (   0.0014372   0.7521916   0.2476607  )
        19        C      tau(  19) = (   0.1266329   0.8775065   0.3730745  )
        20        C      tau(  20) = (   0.2498467   0.4996267   0.2498467  )
        21        C      tau(  21) = (   0.3749463   0.6249280   0.3749463  )
        22        C      tau(  22) = (   0.2476607   0.7521916   0.0014372  )
        23        C      tau(  23) = (   0.3730745   0.8775065   0.1266329  )
        24        C      tau(  24) = (   0.0010116   0.5014264   0.5014264  )
        25        C      tau(  25) = (   0.1250381   0.6250852   0.6250852  )
        26        C      tau(  26) = (   0.9996941   0.7483805   0.7483805  )
        27        C      tau(  27) = (   0.1189720   0.8751585   0.8751585  )
        28        C      tau(  28) = (   0.2496290   0.5009902   0.7494822  )
        29        C      tau(  29) = (   0.3740517   0.6261334   0.8739394  )
        30        C      tau(  30) = (   0.2496290   0.7494822   0.5009902  )
        31        C      tau(  31) = (   0.3740517   0.8754230   0.6261334  )
        32        C      tau(  32) = (   0.4988587   0.0007517   0.0007517  )
        33        C      tau(  33) = (   0.6250516   0.1251291   0.1251291  )
        34        C      tau(  34) = (   0.4996267   0.2498467   0.2498467  )
        35        C      tau(  35) = (   0.6249280   0.3749463   0.3749463  )
        36        C      tau(  36) = (   0.7521916   0.0014372   0.2476607  )
        37        C      tau(  37) = (   0.8775065   0.1266329   0.3730745  )
        38        C      tau(  38) = (   0.7521916   0.2476607   0.0014372  )
        39        C      tau(  39) = (   0.8775065   0.3730745   0.1266329  )
        40        C      tau(  40) = (   0.5014264   0.0010116   0.5014264  )
        41        C      tau(  41) = (   0.6250852   0.1250381   0.6250852  )
        42        C      tau(  42) = (   0.5009902   0.2496290   0.7494822  )
        43        C      tau(  43) = (   0.6261334   0.3740517   0.8754230  )
        44        C      tau(  44) = (   0.7483805   0.9996941   0.7483805  )
        45        C      tau(  45) = (   0.8751585   0.1189720   0.8751585  )
        46        C      tau(  46) = (   0.7494822   0.2496290   0.5009902  )
        47        C      tau(  47) = (   0.8754230   0.3740517   0.6261334  )
        48        C      tau(  48) = (   0.5014264   0.5014264   0.0010116  )
        49        C      tau(  49) = (   0.6250852   0.6250852   0.1250381  )
        50        C      tau(  50) = (   0.5009902   0.7494822   0.2496290  )
        51        C      tau(  51) = (   0.6261334   0.8754230   0.3740517  )
        52        C      tau(  52) = (   0.7494822   0.5009902   0.2496290  )
        53        C      tau(  53) = (   0.8754230   0.6261334   0.3740517  )
        54        C      tau(  54) = (   0.7483805   0.7483805   0.9996941  )
        55        C      tau(  55) = (   0.8751585   0.8751585   0.1189720  )
        56        C      tau(  56) = (   0.4999757   0.4999757   0.4999757  )
        57        C      tau(  57) = (   0.6249536   0.6249536   0.6249536  )
        58        C      tau(  58) = (   0.4990957   0.7503802   0.7503802  )
        59        C      tau(  59) = (   0.6235333   0.8749829   0.8749829  )
        60        C      tau(  60) = (   0.7503802   0.4990957   0.7503802  )
        61        C      tau(  61) = (   0.8749829   0.6235333   0.8749829  )
        62        C      tau(  62) = (   0.7503802   0.7503802   0.4990957  )
        63        C      tau(  63) = (   0.8749829   0.8749829   0.6235333  )

   Crystallographic axes

     site n.     atom                  positions (cryst. coord.)
         1        N      tau(   1) = (  0.9869283  0.9869283  0.9869283  )
         2        C      tau(   2) = (  0.9921390  0.2607625  0.2607625  )
         3        C      tau(   3) = (  0.1236981  0.3746848  0.3746848  )
         4        C      tau(   4) = (  0.2607625  0.9921390  0.2607625  )
         5        C      tau(   5) = (  0.3746848  0.1236981  0.3746848  )
         6        C      tau(   6) = (  0.2607625  0.2607625  0.9921390  )
         7        C      tau(   7) = (  0.3746848  0.3746848  0.1236981  )
         8        C      tau(   8) = (  0.0007517  0.0007517  0.4988587  )
         9        C      tau(   9) = (  0.1251291  0.1251291  0.6250516  )
        10        C      tau(  10) = (  0.0014372  0.2476607  0.7521916  )
        11        C      tau(  11) = (  0.1266329  0.3730745  0.8775065  )
        12        C      tau(  12) = (  0.2476607  0.0014372  0.7521916  )
        13        C      tau(  13) = (  0.3730745  0.1266329  0.8775065  )
        14        C      tau(  14) = (  0.2498467  0.2498467  0.4996267  )
        15        C      tau(  15) = (  0.3749463  0.3749463  0.6249280  )
        16        C      tau(  16) = (  0.0007517  0.4988587  0.0007517  )
        17        C      tau(  17) = (  0.1251291  0.6250516  0.1251291  )
        18        C      tau(  18) = (  0.0014372  0.7521916  0.2476607  )
        19        C      tau(  19) = (  0.1266329  0.8775065  0.3730745  )
        20        C      tau(  20) = (  0.2498467  0.4996267  0.2498467  )
        21        C      tau(  21) = (  0.3749463  0.6249280  0.3749463  )
        22        C      tau(  22) = (  0.2476607  0.7521916  0.0014372  )
        23        C      tau(  23) = (  0.3730745  0.8775065  0.1266329  )
        24        C      tau(  24) = (  0.0010116  0.5014264  0.5014264  )
        25        C      tau(  25) = (  0.1250381  0.6250852  0.6250852  )
        26        C      tau(  26) = (  0.9996941  0.7483805  0.7483805  )
        27        C      tau(  27) = (  0.1189720  0.8751585  0.8751585  )
        28        C      tau(  28) = (  0.2496290  0.5009902  0.7494822  )
        29        C      tau(  29) = (  0.3740517  0.6261334  0.8739394  )
        30        C      tau(  30) = (  0.2496290  0.7494822  0.5009902  )
        31        C      tau(  31) = (  0.3740517  0.8754230  0.6261334  )
        32        C      tau(  32) = (  0.4988587  0.0007517  0.0007517  )
        33        C      tau(  33) = (  0.6250516  0.1251291  0.1251291  )
        34        C      tau(  34) = (  0.4996267  0.2498467  0.2498467  )
        35        C      tau(  35) = (  0.6249280  0.3749463  0.3749463  )
        36        C      tau(  36) = (  0.7521916  0.0014372  0.2476607  )
        37        C      tau(  37) = (  0.8775065  0.1266329  0.3730745  )
        38        C      tau(  38) = (  0.7521916  0.2476607  0.0014372  )
        39        C      tau(  39) = (  0.8775065  0.3730745  0.1266329  )
        40        C      tau(  40) = (  0.5014264  0.0010116  0.5014264  )
        41        C      tau(  41) = (  0.6250852  0.1250381  0.6250852  )
        42        C      tau(  42) = (  0.5009902  0.2496290  0.7494822  )
        43        C      tau(  43) = (  0.6261334  0.3740517  0.8754230  )
        44        C      tau(  44) = (  0.7483805  0.9996941  0.7483805  )
        45        C      tau(  45) = (  0.8751585  0.1189720  0.8751585  )
        46        C      tau(  46) = (  0.7494822  0.2496290  0.5009902  )
        47        C      tau(  47) = (  0.8754230  0.3740517  0.6261334  )
        48        C      tau(  48) = (  0.5014264  0.5014264  0.0010116  )
        49        C      tau(  49) = (  0.6250852  0.6250852  0.1250381  )
        50        C      tau(  50) = (  0.5009902  0.7494822  0.2496290  )
        51        C      tau(  51) = (  0.6261334  0.8754230  0.3740517  )
        52        C      tau(  52) = (  0.7494822  0.5009902  0.2496290  )
        53        C      tau(  53) = (  0.8754230  0.6261334  0.3740517  )
        54        C      tau(  54) = (  0.7483805  0.7483805  0.9996941  )
        55        C      tau(  55) = (  0.8751585  0.8751585  0.1189720  )
        56        C      tau(  56) = (  0.4999757  0.4999757  0.4999757  )
        57        C      tau(  57) = (  0.6249536  0.6249536  0.6249536  )
        58        C      tau(  58) = (  0.4990957  0.7503802  0.7503802  )
        59        C      tau(  59) = (  0.6235333  0.8749829  0.8749829  )
        60        C      tau(  60) = (  0.7503802  0.4990957  0.7503802  )
        61        C      tau(  61) = (  0.8749829  0.6235333  0.8749829  )
        62        C      tau(  62) = (  0.7503802  0.7503802  0.4990957  )
        63        C      tau(  63) = (  0.8749829  0.8749829  0.6235333  )

     number of k points=     1
                       cart. coord. in units 2pi/alat
        k(    1) = (   0.0000000   0.0000000   0.0000000), wk =   1.0000000

                       cryst. coord.
        k(    1) = (   0.0000000   0.0000000   0.0000000), wk =   1.0000000

     Dense  grid:    58461 G-vectors     FFT dimensions: (  64,  64,  64)

     Dynamical RAM for                 wfc:       0.35 MB

     Dynamical RAM for     wfc (w. buffer):       0.35 MB

     Dynamical RAM for           str. fact:       0.04 MB

     Dynamical RAM for           local pot:       0.00 MB

     Dynamical RAM for          nlocal pot:       1.17 MB

     Dynamical RAM for                qrad:       0.65 MB

     Dynamical RAM for          rho,v,vnew:       0.49 MB

     Dynamical RAM for               rhoin:       0.16 MB

     Dynamical RAM for            rho*nmix:       0.60 MB

     Dynamical RAM for           G-vectors:       0.08 MB

     Dynamical RAM for          h,s,v(r/c):       0.53 MB

     Dynamical RAM for          <psi|beta>:       0.58 MB

     Dynamical RAM for                 psi:       0.71 MB

     Dynamical RAM for                hpsi:       0.71 MB

     Dynamical RAM for      wfcinit/wfcrot:       1.24 MB

     Estimated static dynamical RAM per process >       3.37 MB

     Estimated max dynamical RAM per process >       6.49 MB

     Estimated total dynamical RAM >     594.05 MB
     Generating pointlists ...
     new r_m :   0.0850 (alat units)  1.1454 (a.u.) for type    1
     new r_m :   0.0850 (alat units)  1.1454 (a.u.) for type    2

     Initial potential from superposition of free atoms

     starting charge     252.5655, renormalised to     254.0000
     Starting wfcs are random

     total cpu time spent up to now is        1.3 secs

     Self-consistent Calculation

     iteration #  1     ecut=    50.00 Ry     beta= 0.70
     Davidson diagonalization with overlap

---- Real-time Memory Report at c_bands before calling an iterative solver
           158 MiB given to the printing process from OS
             0 MiB allocation reported by mallinfo(arena+hblkhd)
        143283 MiB available memory on the node where the printing process lives
------------------
     ethr =  1.00E-02,  avg # of iterations = 14.0

     total cpu time spent up to now is        2.0 secs

     total energy              =    -723.31066699 Ry
     estimated scf accuracy    <       3.69517278 Ry

     total magnetization       =     2.00 Bohr mag/cell
     absolute magnetization    =     2.00 Bohr mag/cell

     iteration #  2     ecut=    50.00 Ry     beta= 0.70
     Davidson diagonalization with overlap

---- Real-time Memory Report at c_bands before calling an iterative solver
           164 MiB given to the printing process from OS
             0 MiB allocation reported by mallinfo(arena+hblkhd)
        143198 MiB available memory on the node where the printing process lives
------------------
     ethr =  1.45E-03,  avg # of iterations = 11.5

     total cpu time spent up to now is        3.2 secs

     total energy              =    -723.68091843 Ry
     estimated scf accuracy    <       0.43972046 Ry

     total magnetization       =     2.00 Bohr mag/cell
     absolute magnetization    =     2.07 Bohr mag/cell

     iteration #  3     ecut=    50.00 Ry     beta= 0.70
     Davidson diagonalization with overlap

---- Real-time Memory Report at c_bands before calling an iterative solver
           165 MiB given to the printing process from OS
             0 MiB allocation reported by mallinfo(arena+hblkhd)
        143209 MiB available memory on the node where the printing process lives
------------------
     c_bands:  2 eigenvalues not converged
     ethr =  1.73E-04,  avg # of iterations = 17.5

     total cpu time spent up to now is        3.7 secs

     total energy              =    -723.73923465 Ry
     estimated scf accuracy    <       0.86081446 Ry

     total magnetization       =     2.00 Bohr mag/cell
     absolute magnetization    =     2.12 Bohr mag/cell

     iteration #  4     ecut=    50.00 Ry     beta= 0.70
     Davidson diagonalization with overlap

---- Real-time Memory Report at c_bands before calling an iterative solver
           165 MiB given to the printing process from OS
             0 MiB allocation reported by mallinfo(arena+hblkhd)
        143211 MiB available memory on the node where the printing process lives
------------------
     c_bands:  1 eigenvalues not converged
     ethr =  1.73E-04,  avg # of iterations = 20.0

     total cpu time spent up to now is        4.4 secs

     total energy              =    -723.91137674 Ry
     estimated scf accuracy    <       0.00831305 Ry

     total magnetization       =     2.00 Bohr mag/cell
     absolute magnetization    =     2.19 Bohr mag/cell

     iteration #  5     ecut=    50.00 Ry     beta= 0.70
     Davidson diagonalization with overlap

---- Real-time Memory Report at c_bands before calling an iterative solver
           165 MiB given to the printing process from OS
             0 MiB allocation reported by mallinfo(arena+hblkhd)
        143204 MiB available memory on the node where the printing process lives
------------------
     c_bands:  5 eigenvalues not converged
     ethr =  3.27E-06,  avg # of iterations = 20.0

     total cpu time spent up to now is        4.8 secs

     total energy              =    -723.91589229 Ry
     estimated scf accuracy    <       0.00394480 Ry

     total magnetization       =     2.00 Bohr mag/cell
     absolute magnetization    =     2.22 Bohr mag/cell

     iteration #  6     ecut=    50.00 Ry     beta= 0.70
     Davidson diagonalization with overlap

---- Real-time Memory Report at c_bands before calling an iterative solver
           165 MiB given to the printing process from OS
             0 MiB allocation reported by mallinfo(arena+hblkhd)
        143206 MiB available memory on the node where the printing process lives
------------------
     ethr =  1.55E-06,  avg # of iterations = 19.5

     total cpu time spent up to now is        5.4 secs

     total energy              =    -723.91661407 Ry
     estimated scf accuracy    <       0.00068564 Ry

     total magnetization       =     2.00 Bohr mag/cell
     absolute magnetization    =     2.25 Bohr mag/cell

     iteration #  7     ecut=    50.00 Ry     beta= 0.70
     Davidson diagonalization with overlap

---- Real-time Memory Report at c_bands before calling an iterative solver
           165 MiB given to the printing process from OS
             0 MiB allocation reported by mallinfo(arena+hblkhd)
        143211 MiB available memory on the node where the printing process lives
------------------
     c_bands:  3 eigenvalues not converged
     ethr =  2.70E-07,  avg # of iterations = 20.0

     total cpu time spent up to now is        6.6 secs

     total energy              =    -723.91680996 Ry
     estimated scf accuracy    <       0.00006979 Ry

     total magnetization       =     2.00 Bohr mag/cell
     absolute magnetization    =     2.26 Bohr mag/cell

     iteration #  8     ecut=    50.00 Ry     beta= 0.70
     Davidson diagonalization with overlap

---- Real-time Memory Report at c_bands before calling an iterative solver
           165 MiB given to the printing process from OS
             0 MiB allocation reported by mallinfo(arena+hblkhd)
        143208 MiB available memory on the node where the printing process lives
------------------
     c_bands:  1 eigenvalues not converged
     ethr =  2.75E-08,  avg # of iterations = 20.0

     total cpu time spent up to now is        7.3 secs

     total energy              =    -723.91683820 Ry
     estimated scf accuracy    <       0.00001951 Ry

     total magnetization       =     2.00 Bohr mag/cell
     absolute magnetization    =     2.27 Bohr mag/cell

     iteration #  9     ecut=    50.00 Ry     beta= 0.70
     Davidson diagonalization with overlap

---- Real-time Memory Report at c_bands before calling an iterative solver
           165 MiB given to the printing process from OS
             0 MiB allocation reported by mallinfo(arena+hblkhd)
        143200 MiB available memory on the node where the printing process lives
------------------
     c_bands:  2 eigenvalues not converged
     ethr =  7.68E-09,  avg # of iterations = 20.0

     total cpu time spent up to now is        7.8 secs

     total energy              =    -723.91684519 Ry
     estimated scf accuracy    <       0.00000695 Ry

     total magnetization       =     2.00 Bohr mag/cell
     absolute magnetization    =     2.28 Bohr mag/cell

     iteration # 10     ecut=    50.00 Ry     beta= 0.70
     Davidson diagonalization with overlap

---- Real-time Memory Report at c_bands before calling an iterative solver
           166 MiB given to the printing process from OS
             0 MiB allocation reported by mallinfo(arena+hblkhd)
        143205 MiB available memory on the node where the printing process lives
------------------
     c_bands:  2 eigenvalues not converged
     ethr =  2.74E-09,  avg # of iterations = 20.0

     total cpu time spent up to now is        8.4 secs

     total energy              =    -723.91684808 Ry
     estimated scf accuracy    <       0.00000092 Ry

     total magnetization       =     2.00 Bohr mag/cell
     absolute magnetization    =     2.28 Bohr mag/cell

     iteration # 11     ecut=    50.00 Ry     beta= 0.70
     Davidson diagonalization with overlap

---- Real-time Memory Report at c_bands before calling an iterative solver
           166 MiB given to the printing process from OS
             0 MiB allocation reported by mallinfo(arena+hblkhd)
        143212 MiB available memory on the node where the printing process lives
------------------
     ethr =  3.61E-10,  avg # of iterations = 18.0

     total cpu time spent up to now is        9.1 secs

     total energy              =    -723.91684864 Ry
     estimated scf accuracy    <       0.00000017 Ry

     total magnetization       =     2.00 Bohr mag/cell
     absolute magnetization    =     2.29 Bohr mag/cell

     iteration # 12     ecut=    50.00 Ry     beta= 0.70
     Davidson diagonalization with overlap

---- Real-time Memory Report at c_bands before calling an iterative solver
           166 MiB given to the printing process from OS
             0 MiB allocation reported by mallinfo(arena+hblkhd)
        143210 MiB available memory on the node where the printing process lives
------------------
     c_bands:  1 eigenvalues not converged
     ethr =  6.87E-11,  avg # of iterations = 20.0

     total cpu time spent up to now is        9.8 secs

     total energy              =    -723.91684873 Ry
     estimated scf accuracy    <       0.00000005 Ry

     total magnetization       =     2.00 Bohr mag/cell
     absolute magnetization    =     2.29 Bohr mag/cell

     iteration # 13     ecut=    50.00 Ry     beta= 0.70
     Davidson diagonalization with overlap

---- Real-time Memory Report at c_bands before calling an iterative solver
           166 MiB given to the printing process from OS
             0 MiB allocation reported by mallinfo(arena+hblkhd)
        143210 MiB available memory on the node where the printing process lives
------------------
     c_bands:  1 eigenvalues not converged
     ethr =  1.86E-11,  avg # of iterations = 20.0

     total cpu time spent up to now is       10.4 secs

     total energy              =    -723.91684877 Ry
     estimated scf accuracy    <       0.00000001 Ry

     total magnetization       =     2.00 Bohr mag/cell
     absolute magnetization    =     2.29 Bohr mag/cell

     iteration # 14     ecut=    50.00 Ry     beta= 0.70
     Davidson diagonalization with overlap

---- Real-time Memory Report at c_bands before calling an iterative solver
           166 MiB given to the printing process from OS
             0 MiB allocation reported by mallinfo(arena+hblkhd)
        143209 MiB available memory on the node where the printing process lives
------------------
     c_bands:  1 eigenvalues not converged
     ethr =  4.54E-12,  avg # of iterations = 17.5
 
     Magnetic moment per site  (integrated on atomic sphere of radius R)
     atom   1 (R=0.085)  charge=  2.8976  magn=  0.0040
     atom   2 (R=0.085)  charge=  1.8130  magn=  0.2494
     atom   3 (R=0.085)  charge=  1.8113  magn= -0.0087
     atom   4 (R=0.085)  charge=  1.8130  magn=  0.2494
     atom   5 (R=0.085)  charge=  1.8113  magn= -0.0087
     atom   6 (R=0.085)  charge=  1.8130  magn=  0.2494
     atom   7 (R=0.085)  charge=  1.8112  magn= -0.0087
     atom   8 (R=0.085)  charge=  1.8016  magn=  0.0085
     atom   9 (R=0.085)  charge=  1.8085  magn= -0.0018
     atom  10 (R=0.085)  charge=  1.7945  magn=  0.0054
     atom  11 (R=0.085)  charge=  1.8029  magn= -0.0034
     atom  12 (R=0.085)  charge=  1.7946  magn=  0.0054
     atom  13 (R=0.085)  charge=  1.8030  magn= -0.0034
     atom  14 (R=0.085)  charge=  1.8001  magn=  0.0086
     atom  15 (R=0.085)  charge=  1.8014  magn= -0.0019
     atom  16 (R=0.085)  charge=  1.8016  magn=  0.0085
     atom  17 (R=0.085)  charge=  1.8084  magn= -0.0018
     atom  18 (R=0.085)  charge=  1.7946  magn=  0.0054
     atom  19 (R=0.085)  charge=  1.8030  magn= -0.0034
     atom  20 (R=0.085)  charge=  1.8001  magn=  0.0086
     atom  21 (R=0.085)  charge=  1.8013  magn= -0.0019
     atom  22 (R=0.085)  charge=  1.7927  magn=  0.0054
     atom  23 (R=0.085)  charge=  1.8029  magn= -0.0034
     atom  24 (R=0.085)  charge=  1.8004  magn=  0.0181
     atom  25 (R=0.085)  charge=  1.8201  magn=  0.0089
     atom  26 (R=0.085)  charge=  1.8120  magn=  0.0032
     atom  27 (R=0.085)  charge=  1.7814  magn= -0.0000
     atom  28 (R=0.085)  charge=  1.8027  magn=  0.0212
     atom  29 (R=0.085)  charge=  1.7951  magn= -0.0013
     atom  30 (R=0.085)  charge=  1.8008  magn=  0.0212
     atom  31 (R=0.085)  charge=  1.7954  magn= -0.0013
     atom  32 (R=0.085)  charge=  1.8015  magn=  0.0085
     atom  33 (R=0.085)  charge=  1.8085  magn= -0.0018
     atom  34 (R=0.085)  charge=  1.8001  magn=  0.0086
     atom  35 (R=0.085)  charge=  1.8013  magn= -0.0019
     atom  36 (R=0.085)  charge=  1.7946  magn=  0.0054
     atom  37 (R=0.085)  charge=  1.8030  magn= -0.0034
     atom  38 (R=0.085)  charge=  1.7946  magn=  0.0054
     atom  39 (R=0.085)  charge=  1.8030  magn= -0.0034
     atom  40 (R=0.085)  charge=  1.8004  magn=  0.0181
     atom  41 (R=0.085)  charge=  1.8200  magn=  0.0089
     atom  42 (R=0.085)  charge=  1.8008  magn=  0.0212
     atom  43 (R=0.085)  charge=  1.7954  magn= -0.0013
     atom  44 (R=0.085)  charge=  1.8119  magn=  0.0032
     atom  45 (R=0.085)  charge=  1.7813  magn= -0.0000
     atom  46 (R=0.085)  charge=  1.8008  magn=  0.0212
     atom  47 (R=0.085)  charge=  1.7953  magn= -0.0013
     atom  48 (R=0.085)  charge=  1.7985  magn=  0.0181
     atom  49 (R=0.085)  charge=  1.8199  magn=  0.0089
     atom  50 (R=0.085)  charge=  1.8008  magn=  0.0212
     atom  51 (R=0.085)  charge=  1.7953  magn= -0.0013
     atom  52 (R=0.085)  charge=  1.8008  magn=  0.0212
     atom  53 (R=0.085)  charge=  1.7953  magn= -0.0013
     atom  54 (R=0.085)  charge=  1.8119  magn=  0.0032
     atom  55 (R=0.085)  charge=  1.7813  magn= -0.0000
     atom  56 (R=0.085)  charge=  1.8051  magn=  0.0010
     atom  57 (R=0.085)  charge=  1.7982  magn=  0.0010
     atom  58 (R=0.085)  charge=  1.8080  magn=  0.0018
     atom  59 (R=0.085)  charge=  1.8020  magn= -0.0009
     atom  60 (R=0.085)  charge=  1.8061  magn=  0.0018
     atom  61 (R=0.085)  charge=  1.8021  magn= -0.0009
     atom  62 (R=0.085)  charge=  1.8061  magn=  0.0018
     atom  63 (R=0.085)  charge=  1.8021  magn= -0.0009

     total cpu time spent up to now is       11.0 secs

     End of self-consistent calculation

 ------ SPIN UP ------------


          k = 0.0000 0.0000 0.0000 (  7386 PWs)   bands (ev):

    -8.5687  -7.0161  -6.2659  -6.2620  -6.1592  -6.1579  -5.8797  -4.9413
    -4.1228  -4.1213  -4.0897  -4.0881  -4.0321  -4.0288  -3.9774  -3.9108
    -3.8660  -3.8604  -3.3566  -2.9493  -2.6680  -2.6652  -2.1108  -0.3577
    -0.3538  -0.3158  -0.2911  -0.0885   0.1880   0.1892   0.2912   0.2956
     0.3697   0.6089   0.8232   0.8246   0.9867   0.9882   1.0257   1.0508
     1.0548   1.0752   1.3006   1.3059   3.0565   3.8873   3.8899   4.0424
     4.2342   4.2354   4.2487   4.2549   4.2889   4.2937   4.4334   4.4351
     4.5005   4.5024   4.6014   4.6816   4.6881   4.6900   4.6941   4.7747
     4.7794   4.9095   4.9647   4.9702   5.0564   5.2271   5.2278   5.2997
     5.3720   5.3732   5.4092   5.4215   5.4243   6.0478   6.0497   6.0816
     6.6437   6.6453   6.7635   7.0065   7.0266   7.0282   7.5204   8.3325
     8.3352   8.4200   8.4928   8.4983   8.6724   8.6763   8.8270   8.8358
     8.8509   8.8538   8.8925   8.8967   8.9445   9.3068   9.3097   9.3102
     9.7204   9.7225   9.9276   9.9438   9.9448   9.9551   9.9854  10.0050
    10.0052  10.0071  10.0321  10.0370  10.1324  10.1361  10.2840  10.2865
    10.3573  10.9868  12.2219  12.4687  12.4749  13.8181  14.7971  14.7979
    17.3729  17.3858  17.3915  17.5517  17.5596  17.5663  17.8954  17.9281
    17.9325  18.0149  18.0167  18.3731  18.9871  18.9904  19.0256  20.7155
    20.8185  20.8242  20.8703  20.9509  20.9570  21.0290  21.0296  21.0789

     occupation numbers 
     1.0000   1.0000   1.0000   1.0000   1.0000   1.0000   1.0000   1.0000
     1.0000   1.0000   1.0000   1.0000   1.0000   1.0000   1.0000   1.0000
     1.0000   1.0000   1.0000   1.0000   1.0000   1.0000   1.0000   1.0000
     1.0000   1.0000   1.0000   1.0000   1.0000   1.0000   1.0000   1.0000
     1.0000   1.0000   1.0000   1.0000   1.0000   1.0000   1.0000   1.0000
     1.0000   1.0000   1.0000   1.0000   1.0000   1.0000   1.0000   1.0000
     1.0000   1.0000   1.0000   1.0000   1.0000   1.0000   1.0000   1.0000
     1.0000   1.0000   1.0000   1.0000   1.0000   1.0000   1.0000   1.0000
     1.0000   1.0000   1.0000   1.0000   1.0000   1.0000   1.0000   1.0000
     1.0000   1.0000   1.0000   1.0000   1.0000   1.0000   1.0000   1.0000
     1.0000   1.0000   1.0000   1.0000   1.0000   1.0000   1.0000   1.0000
     1.0000   1.0000   1.0000   1.0000   1.0000   1.0000   1.0000   1.0000
     1.0000   1.0000   1.0000   1.0000   1.0000   1.0000   1.0000   1.0000
     1.0000   1.0000   1.0000   1.0000   1.0000   1.0000   1.0000   1.0000
     1.0000   1.0000   1.0000   1.0000   1.0000   1.0000   1.0000   1.0000
     1.0000   1.0000   1.0000   1.0000   1.0000   1.0000   1.0000   1.0000
     0.0000   0.0000   0.0000   0.0000   0.0000   0.0000   0.0000   0.0000
     0.0000   0.0000   0.0000   0.0000   0.0000   0.0000   0.0000   0.0000
     0.0000   0.0000   0.0000   0.0000   0.0000   0.0000   0.0000   0.0000

 ------ SPIN DOWN ----------


          k = 0.0000 0.0000 0.0000 (  7386 PWs)   bands (ev):

    -8.5454  -7.0017  -6.2464  -6.2425  -6.1174  -6.1162  -5.8429  -4.9254
    -4.1029  -4.1013  -4.0736  -4.0723  -3.9751  -3.9726  -3.9520  -3.8989
    -3.8215  -3.8153  -3.3130  -2.9315  -2.6137  -2.6109  -1.9702  -0.3408
    -0.3369  -0.2975  -0.2697  -0.0222   0.2036   0.2048   0.3260   0.3308
     0.3954   0.6411   0.8358   0.8372   1.0114   1.0128   1.0562   1.0663
     1.0706   1.0949   1.4720   1.4771   3.1712   3.9077   3.9105   4.0650
     4.2693   4.2709   4.2746   4.2874   4.3093   4.3137   4.4834   4.4851
     4.5208   4.5215   4.6285   4.7047   4.7052   4.7077   4.7097   4.8115
     4.8163   4.9213   4.9966   5.0022   5.1408   5.2611   5.2618   5.3233
     5.3830   5.3846   5.4216   5.4812   5.4840   6.1074   6.1094   6.1225
     6.6700   6.6716   6.7980   7.0494   7.1194   7.1208   7.6995   8.3706
     8.3732   8.4562   8.5253   8.5309   8.7028   8.7066   8.8664   8.8690
     8.8711   8.8808   8.9434   8.9496   8.9680   9.3342   9.3460   9.3466
     9.7496   9.7512   9.9456   9.9579   9.9588   9.9804  10.0100  10.0193
    10.0256  10.0275  10.0644  10.0694  10.1658  10.1684  10.3395  10.3417
    10.4186  11.3848  12.5282  12.6156  12.6221  14.2850  16.1591  16.1594
    17.4002  17.4070  17.4097  17.5760  17.6121  17.6189  17.9197  17.9487
    17.9528  18.0528  18.0551  18.4850  19.0693  19.0755  19.0785  20.7651
    20.8316  20.8373  20.8844  20.9688  20.9745  21.0533  21.0543  21.0913

     occupation numbers 
     1.0000   1.0000   1.0000   1.0000   1.0000   1.0000   1.0000   1.0000
     1.0000   1.0000   1.0000   1.0000   1.0000   1.0000   1.0000   1.0000
     1.0000   1.0000   1.0000   1.0000   1.0000   1.0000   1.0000   1.0000
     1.0000   1.0000   1.0000   1.0000   1.0000   1.0000   1.0000   1.0000
     1.0000   1.0000   1.0000   1.0000   1.0000   1.0000   1.0000   1.0000
     1.0000   1.0000   1.0000   1.0000   1.0000   1.0000   1.0000   1.0000
     1.0000   1.0000   1.0000   1.0000   1.0000   1.0000   1.0000   1.0000
     1.0000   1.0000   1.0000   1.0000   1.0000   1.0000   1.0000   1.0000
     1.0000   1.0000   1.0000   1.0000   1.0000   1.0000   1.0000   1.0000
     1.0000   1.0000   1.0000   1.0000   1.0000   1.0000   1.0000   1.0000
     1.0000   1.0000   1.0000   1.0000   1.0000   1.0000   1.0000   1.0000
     1.0000   1.0000   1.0000   1.0000   1.0000   1.0000   1.0000   1.0000
     1.0000   1.0000   1.0000   1.0000   1.0000   1.0000   1.0000   1.0000
     1.0000   1.0000   1.0000   1.0000   1.0000   1.0000   1.0000   1.0000
     1.0000   1.0000   1.0000   1.0000   1.0000   1.0000   1.0000   1.0000
     1.0000   1.0000   1.0000   1.0000   1.0000   1.0000   0.0000   0.0000
     0.0000   0.0000   0.0000   0.0000   0.0000   0.0000   0.0000   0.0000
     0.0000   0.0000   0.0000   0.0000   0.0000   0.0000   0.0000   0.0000
     0.0000   0.0000   0.0000   0.0000   0.0000   0.0000   0.0000   0.0000

     highest occupied, lowest unoccupied level (ev):    14.7979   16.1591

!    total energy              =    -723.91684877 Ry
     estimated scf accuracy    <          3.0E-09 Ry

     The total energy is the sum of the following terms:
     one-electron contribution =     232.79360165 Ry
     hartree contribution      =      70.09784177 Ry
     xc contribution           =    -226.74500022 Ry
     ewald contribution        =    -800.06329198 Ry

     total magnetization       =     2.00 Bohr mag/cell
     absolute magnetization    =     2.29 Bohr mag/cell

     convergence has been achieved in  14 iterations

     Forces acting on atoms (cartesian axes, Ry/au):

     atom    1 type  1   force =     0.00217498    0.00250129    0.00222459
     atom    2 type  2   force =    -0.00026401    0.00021303    0.00022115
     atom    3 type  2   force =     0.00084340    0.00088728    0.00093213
     atom    4 type  2   force =     0.00008771   -0.00035199    0.00015462
     atom    5 type  2   force =     0.00087287    0.00082957    0.00084137
     atom    6 type  2   force =     0.00014934    0.00011697   -0.00023731
     atom    7 type  2   force =     0.00059681    0.00155383    0.00027846
     atom    8 type  2   force =     0.00029323    0.00034561   -0.00053919
     atom    9 type  2   force =     0.00005695    0.00002072   -0.00019723
     atom   10 type  2   force =     0.00020782   -0.00019200    0.00026286
     atom   11 type  2   force =    -0.00042344    0.00081360    0.00005861
     atom   12 type  2   force =    -0.00029961    0.00007182    0.00048255
     atom   13 type  2   force =     0.00048136   -0.00078534   -0.00056270
     atom   14 type  2   force =     0.00001453   -0.00014487   -0.00030760
     atom   15 type  2   force =    -0.00056294   -0.00086130   -0.00054671
     atom   16 type  2   force =     0.00026075   -0.00054769    0.00041467
     atom   17 type  2   force =     0.00067285   -0.00053231   -0.00054866
     atom   18 type  2   force =     0.00020411    0.00048135   -0.00034394
     atom   19 type  2   force =    -0.00079925   -0.00051839    0.00053981
     atom   20 type  2   force =    -0.00013066   -0.00032051   -0.00004872
     atom   21 type  2   force =    -0.00022869    0.00002104   -0.00024475
     atom   22 type  2   force =     0.00032066   -0.00022618   -0.00363937
     atom   23 type  2   force =     0.00084687   -0.00115087   -0.00135359
     atom   24 type  2   force =     0.00010030    0.00009285   -0.00004641
     atom   25 type  2   force =    -0.00058844   -0.00035522   -0.00059864
     atom   26 type  2   force =    -0.00001357   -0.00021580   -0.00014340
     atom   27 type  2   force =     0.00072040   -0.00132355   -0.00093862
     atom   28 type  2   force =    -0.00123405   -0.00084635   -0.00402077
     atom   29 type  2   force =    -0.00052298    0.00001351    0.01788483
     atom   30 type  2   force =    -0.00025301   -0.00005063    0.00007011
     atom   31 type  2   force =    -0.00021913    0.00100709   -0.00025656
     atom   32 type  2   force =    -0.00057591    0.00036376    0.00040460
     atom   33 type  2   force =    -0.00015860    0.00004703    0.00002031
     atom   34 type  2   force =    -0.00017759    0.00000353   -0.00012273
     atom   35 type  2   force =     0.00002723   -0.00024057   -0.00016714
     atom   36 type  2   force =     0.00036002    0.00009064   -0.00026719
     atom   37 type  2   force =    -0.00053933   -0.00077657    0.00048393
     atom   38 type  2   force =     0.00046704   -0.00037391   -0.00001841
     atom   39 type  2   force =    -0.00055729    0.00047252   -0.00080106
     atom   40 type  2   force =    -0.00008822    0.00026410   -0.00005998
     atom   41 type  2   force =    -0.00005377    0.00004603   -0.00003225
     atom   42 type  2   force =     0.00004205   -0.00024607    0.00010375
     atom   43 type  2   force =     0.00066433   -0.00089755    0.00093125
     atom   44 type  2   force =    -0.00032286   -0.00012806   -0.00036904
     atom   45 type  2   force =    -0.00158019    0.00093345   -0.00134926
     atom   46 type  2   force =     0.00002927   -0.00031797    0.00005166
     atom   47 type  2   force =     0.00033410   -0.00054703    0.00032067
     atom   48 type  2   force =    -0.00074550    0.00064792   -0.00355192
     atom   49 type  2   force =    -0.00064462    0.00033109   -0.00053379
     atom   50 type  2   force =     0.00007182    0.00006155   -0.00026320
     atom   51 type  2   force =     0.00032009    0.00033924   -0.00051518
     atom   52 type  2   force =    -0.00004930   -0.00007728   -0.00033341
     atom   53 type  2   force =     0.00034180    0.00033440   -0.00060042
     atom   54 type  2   force =    -0.00018778   -0.00024345    0.00003226
     atom   55 type  2   force =    -0.00153264   -0.00150572    0.00092143
     atom   56 type  2   force =    -0.00014031   -0.00003376   -0.00005087
     atom   57 type  2   force =     0.00063788    0.00034582   -0.00055363
     atom   58 type  2   force =     0.00073748    0.00110308   -0.00402686
     atom   59 type  2   force =    -0.00068463   -0.00011621    0.00085431
     atom   60 type  2   force =     0.00002523   -0.00028814    0.00016420
     atom   61 type  2   force =     0.00022904   -0.00033112    0.00020609
     atom   62 type  2   force =     0.00014125   -0.00001557   -0.00032913
     atom   63 type  2   force =     0.00024476    0.00020822   -0.00034058
     The non-local contrib.  to forces
     atom    1 type  1   force =    -0.73820957   -0.73679059   -0.73709578
     atom    2 type  2   force =    -0.22494465    0.21099573    0.21101292
     atom    3 type  2   force =     0.06992394    0.06933157    0.06950677
     atom    4 type  2   force =     0.21101460   -0.22518531    0.21076505
     atom    5 type  2   force =     0.06936433    0.06995070    0.06903504
     atom    6 type  2   force =     0.21079264    0.21105752   -0.22502430
     atom    7 type  2   force =     0.06936623    0.06986043    0.06927423
     atom    8 type  2   force =    -0.00828283   -0.00825933    0.05214803
     atom    9 type  2   force =    -0.00495660   -0.00482804    0.01558856
     atom   10 type  2   force =    -0.04361094   -0.01249789   -0.01912943
     atom   11 type  2   force =    -0.07044889    0.06117539   -0.08327199
     atom   12 type  2   force =    -0.01281814   -0.04399973   -0.01952304
     atom   13 type  2   force =     0.06012710   -0.07147857   -0.08281609
     atom   14 type  2   force =    -0.00175261   -0.00199500    0.05125682
     atom   15 type  2   force =     0.01363939    0.01317894   -0.00021680
     atom   16 type  2   force =    -0.00818472    0.05199785   -0.00838854
     atom   17 type  2   force =    -0.00440471    0.01548735   -0.00551804
     atom   18 type  2   force =    -0.04385726   -0.01943491   -0.01317376
     atom   19 type  2   force =    -0.07146299   -0.08288771    0.06025891
     atom   20 type  2   force =    -0.00178294    0.05135392   -0.00157050
     atom   21 type  2   force =     0.01368047    0.00041520    0.01383717
     atom   22 type  2   force =    -0.01253932   -0.01981746   -0.04755339
     atom   23 type  2   force =     0.06021718   -0.08333730   -0.07211911
     atom   24 type  2   force =    -0.07408332    0.02809444    0.02797877
     atom   25 type  2   force =    -0.01196545    0.01677087    0.01615297
     atom   26 type  2   force =    -0.06052914   -0.02508351   -0.02505319
     atom   27 type  2   force =    -0.11881195    0.13627382    0.13451410
     atom   28 type  2   force =     0.06164957    0.02736453   -0.02315938
     atom   29 type  2   force =     0.00181907    0.01825934    0.02639511
     atom   30 type  2   force =     0.06239918   -0.01931823    0.02833951
     atom   31 type  2   force =     0.00167648    0.00602005    0.01794049
     atom   32 type  2   force =     0.05232670   -0.00839598   -0.00840902
     atom   33 type  2   force =     0.01548238   -0.00494636   -0.00484462
     atom   34 type  2   force =     0.05141176   -0.00148266   -0.00190757
     atom   35 type  2   force =     0.00038870    0.01371512    0.01381277
     atom   36 type  2   force =    -0.01939729   -0.04409924   -0.01302081
     atom   37 type  2   force =    -0.08285166   -0.07148775    0.06015698
     atom   38 type  2   force =    -0.01894273   -0.01342828   -0.04387318
     atom   39 type  2   force =    -0.08280181    0.06020352   -0.07144049
     atom   40 type  2   force =     0.02817057   -0.07353338    0.02796021
     atom   41 type  2   force =     0.01689823   -0.01151461    0.01685794
     atom   42 type  2   force =     0.02799840    0.06226168   -0.01940742
     atom   43 type  2   force =     0.01968483    0.00062540    0.00505549
     atom   44 type  2   force =    -0.02541935   -0.06090823   -0.02466220
     atom   45 type  2   force =     0.13531589   -0.11783394    0.13490164
     atom   46 type  2   force =    -0.01927733    0.06235579    0.02816262
     atom   47 type  2   force =     0.00555068    0.00157837    0.01871063
     atom   48 type  2   force =     0.02767876    0.02867687   -0.07729164
     atom   49 type  2   force =     0.01633249    0.01684899   -0.01210436
     atom   50 type  2   force =     0.02821973   -0.01923380    0.06251593
     atom   51 type  2   force =     0.01871611    0.00552474    0.00177961
     atom   52 type  2   force =    -0.01954122    0.02820096    0.06222272
     atom   53 type  2   force =     0.00547691    0.01867622    0.00131786
     atom   54 type  2   force =    -0.02507898   -0.02480109   -0.06055557
     atom   55 type  2   force =     0.13530648    0.13530072   -0.11782881
     atom   56 type  2   force =     0.01608498    0.01617183    0.01631232
     atom   57 type  2   force =     0.00808414    0.00761095    0.00692966
     atom   58 type  2   force =     0.01434758   -0.01199360   -0.01656090
     atom   59 type  2   force =     0.00955741   -0.01161217   -0.01096395
     atom   60 type  2   force =    -0.01273557    0.01371815   -0.01297446
     atom   61 type  2   force =    -0.01055735    0.01063097   -0.01052672
     atom   62 type  2   force =    -0.01258867   -0.01282605    0.01341818
     atom   63 type  2   force =    -0.01060772   -0.01046657    0.01066685
     The ionic contribution  to forces
     atom    1 type  1   force =     3.04040520    3.03917084    3.04130793
     atom    2 type  2   force =     2.25777705   -2.15968527   -2.16120831
     atom    3 type  2   force =     0.43167762   -0.74865300   -0.75164202
     atom    4 type  2   force =    -2.15957249    2.25624531   -2.16245337
     atom    5 type  2   force =    -0.74865297    0.43167766   -0.75087938
     atom    6 type  2   force =    -2.15905825   -2.15728296    2.25993184
     atom    7 type  2   force =    -0.74867407   -0.74044628    0.42746501
     atom    8 type  2   force =     0.24301714    0.24378393   -0.70174329
     atom    9 type  2   force =     0.11159723    0.11228750   -0.22547627
     atom   10 type  2   force =     0.20980709    0.06518346    0.52853192
     atom   11 type  2   force =    -0.29116358   -0.72440488    0.73446694
     atom   12 type  2   force =     0.06473073    0.21271884    0.52963351
     atom   13 type  2   force =    -0.72450031   -0.29125687    0.73197279
     atom   14 type  2   force =    -0.19980856   -0.20045416   -0.67414698
     atom   15 type  2   force =    -0.15854855   -0.16675913   -0.05251973
     atom   16 type  2   force =     0.24587452   -0.69963469    0.24554499
     atom   17 type  2   force =     0.12054527   -0.22530514    0.10789272
     atom   18 type  2   force =     0.21154214    0.52687409    0.06350361
     atom   19 type  2   force =    -0.29124100    0.72912239   -0.72751960
     atom   20 type  2   force =    -0.19687592   -0.66951126   -0.20687339
     atom   21 type  2   force =    -0.15857826   -0.04827627   -0.16752990
     atom   22 type  2   force =     0.09050823    0.50267379    0.20909073
     atom   23 type  2   force =    -0.72446845    0.72108826   -0.29553854
     atom   24 type  2   force =     0.03209347   -0.19279910   -0.19445537
     atom   25 type  2   force =     0.08787842   -0.07259805   -0.07692324
     atom   26 type  2   force =     0.11281868   -0.17590708   -0.17473220
     atom   27 type  2   force =     1.34218779    0.24271087    0.24793639
     atom   28 type  2   force =    -0.11160452   -0.25281557    0.15548348
     atom   29 type  2   force =    -0.15812725   -0.00303186    0.29835437
     atom   30 type  2   force =    -0.08849451    0.15915864   -0.23476474
     atom   31 type  2   force =    -0.15885964    0.23821813   -0.00674598
     atom   32 type  2   force =    -0.70161956    0.24093918    0.24554278
     atom   33 type  2   force =    -0.22601958    0.11226727    0.11213563
     atom   34 type  2   force =    -0.67249140   -0.19812839   -0.20146249
     atom   35 type  2   force =    -0.04827355   -0.15858096   -0.16156475
     atom   36 type  2   force =     0.52704340    0.20994538    0.06462282
     atom   37 type  2   force =     0.72913885   -0.29125713   -0.72559463
     atom   38 type  2   force =     0.52691339    0.06620304    0.21138628
     atom   39 type  2   force =     0.72917288   -0.72382536   -0.29141348
     atom   40 type  2   force =    -0.19171813    0.03449474   -0.19442560
     atom   41 type  2   force =    -0.07188392    0.09620027   -0.07269478
     atom   42 type  2   force =    -0.22610324   -0.08838820    0.15882903
     atom   43 type  2   force =    -0.00244794   -0.15883556    0.23507287
     atom   44 type  2   force =    -0.17634275    0.11585453   -0.17579259
     atom   45 type  2   force =     0.24272621    1.34217204    0.24389678
     atom   46 type  2   force =     0.15707313   -0.08638671   -0.22815170
     atom   47 type  2   force =     0.22984985   -0.15953802   -0.00254412
     atom   48 type  2   force =    -0.21743926   -0.16760582    0.03213872
     atom   49 type  2   force =    -0.08071850   -0.07252756    0.09192398
     atom   50 type  2   force =    -0.22954548    0.15428647   -0.09360739
     atom   51 type  2   force =    -0.00243021    0.22985727   -0.16185294
     atom   52 type  2   force =     0.15552042   -0.22654425   -0.08818984
     atom   53 type  2   force =     0.22986362   -0.00242387   -0.16108587
     atom   54 type  2   force =    -0.17936679   -0.17784963    0.11749555
     atom   55 type  2   force =     0.24273751    0.24204231    1.34209627
     atom   56 type  2   force =    -0.10634725   -0.11124095   -0.11634764
     atom   57 type  2   force =    -0.01393224   -0.02216960   -0.02638879
     atom   58 type  2   force =    -0.10778587    0.03618202    0.00940435
     atom   59 type  2   force =    -0.31175326    0.12379879    0.12921252
     atom   60 type  2   force =     0.01277765   -0.13469745    0.01255962
     atom   61 type  2   force =     0.12380913   -0.31174293    0.12664367
     atom   62 type  2   force =     0.01156100    0.01091893   -0.13591418
     atom   63 type  2   force =     0.12379965    0.12448798   -0.31189402
     The local contribution  to forces
     atom    1 type  1   force =    -2.30001840   -2.29984524   -2.30196213
     atom    2 type  2   force =    -2.03308978    1.94891918    1.95040784
     atom    3 type  2   force =    -0.50074738    0.68020758    0.68304527
     atom    4 type  2   force =     1.94867205   -2.03137900    1.95183385
     atom    5 type  2   force =     0.68018877   -0.50077276    0.68266710
     atom    6 type  2   force =     1.94843906    1.94635451   -2.03512626
     atom    7 type  2   force =     0.67992237    0.67213256   -0.49645839
     atom    8 type  2   force =    -0.23443721   -0.23514882    0.64904138
     atom    9 type  2   force =    -0.10657034   -0.10741503    0.20968328
     atom   10 type  2   force =    -0.16597830   -0.05287023   -0.50913351
     atom   11 type  2   force =     0.36120994    0.66404094   -0.65111224
     atom   12 type  2   force =    -0.05219253   -0.16861466   -0.50961920
     atom   13 type  2   force =     0.66487763    0.36197951   -0.64969835
     atom   14 type  2   force =     0.20159733    0.20231506    0.62256557
     atom   15 type  2   force =     0.14437164    0.15271420    0.05218625
     atom   16 type  2   force =    -0.23741655    0.64708151   -0.23671677
     atom   17 type  2   force =    -0.11545862    0.20927411   -0.10291710
     atom   18 type  2   force =    -0.16747922   -0.50695289   -0.05068488
     atom   19 type  2   force =     0.36191393   -0.64673076    0.66778454
     atom   20 type  2   force =     0.19854279    0.61782385    0.20838282
     atom   21 type  2   force =     0.14469371    0.04787699    0.15343085
     atom   22 type  2   force =    -0.07763125   -0.48307685   -0.16515998
     atom   23 type  2   force =     0.66512708   -0.63887496    0.36630988
     atom   24 type  2   force =     0.04209463    0.16478743    0.16640769
     atom   25 type  2   force =    -0.07648825    0.05546680    0.06016506
     atom   26 type  2   force =    -0.05229726    0.20078556    0.19965019
     atom   27 type  2   force =    -1.22264919   -0.38028087   -0.38336785
     atom   28 type  2   force =     0.04874448    0.22459332   -0.13633408
     atom   29 type  2   force =     0.15580551   -0.01522443   -0.30684745
     atom   30 type  2   force =     0.02586405   -0.13988328    0.20648011
     atom   31 type  2   force =     0.15698884   -0.24320669   -0.01145991
     atom   32 type  2   force =     0.64873924   -0.23214673   -0.23670918
     atom   33 type  2   force =     0.21038893   -0.10725422   -0.10726279
     atom   34 type  2   force =     0.62092064    0.19962167    0.20323850
     atom   35 type  2   force =     0.04793017    0.14462211    0.14756948
     atom   36 type  2   force =    -0.50728087   -0.16573028   -0.05187803
     atom   37 type  2   force =    -0.64682390    0.36199310    0.66590633
     atom   38 type  2   force =    -0.50749733   -0.05314105   -0.16751165
     atom   39 type  2   force =    -0.64691803    0.66409647    0.36206578
     atom   40 type  2   force =     0.16348247    0.03933266    0.16638620
     atom   41 type  2   force =     0.05494654   -0.08461464    0.05579551
     atom   42 type  2   force =     0.19816460    0.02589267   -0.13931001
     atom   43 type  2   force =    -0.01656636    0.15730684   -0.23918156
     atom   44 type  2   force =     0.20144804   -0.05504642    0.20009212
     atom   45 type  2   force =    -0.37961310   -1.22338971   -0.38012650
     atom   46 type  2   force =    -0.13775908    0.02372457    0.20002297
     atom   47 type  2   force =    -0.23506375    0.15740859   -0.01586072
     atom   48 type  2   force =     0.18903027    0.13956368    0.04161663
     atom   49 type  2   force =     0.06376032    0.05600799   -0.08034266
     atom   50 type  2   force =     0.20142442   -0.13497891    0.03082215
     atom   51 type  2   force =    -0.01595074   -0.23501874    0.15953773
     atom   52 type  2   force =    -0.13601489    0.19825909    0.02562922
     atom   53 type  2   force =    -0.23499519   -0.01592563    0.15914569
     atom   54 type  2   force =     0.20426940    0.20242047   -0.05688603
     atom   55 type  2   force =    -0.37957069   -0.37882434   -1.22334250
     atom   56 type  2   force =     0.09014504    0.09502391    0.09996844
     atom   57 type  2   force =     0.00650018    0.01489823    0.01889437
     atom   58 type  2   force =     0.09419617   -0.02307597    0.00313588
     atom   59 type  2   force =     0.30152862   -0.11227645   -0.11737407
     atom   60 type  2   force =    -0.00001096    0.12068148    0.00058192
     atom   61 type  2   force =    -0.11301439    0.30078079   -0.11588959
     atom   62 type  2   force =     0.00117722    0.00190103    0.12214551
     atom   63 type  2   force =    -0.11294266   -0.11378810    0.30087941
     The core correction contribution to forces
     atom    1 type  1   force =     0.00000000    0.00000000    0.00000000
     atom    2 type  2   force =     0.00000000    0.00000000    0.00000000
     atom    3 type  2   force =     0.00000000    0.00000000    0.00000000
     atom    4 type  2   force =     0.00000000    0.00000000    0.00000000
     atom    5 type  2   force =     0.00000000    0.00000000    0.00000000
     atom    6 type  2   force =     0.00000000    0.00000000    0.00000000
     atom    7 type  2   force =     0.00000000    0.00000000    0.00000000
     atom    8 type  2   force =     0.00000000    0.00000000    0.00000000
     atom    9 type  2   force =     0.00000000    0.00000000    0.00000000
     atom   10 type  2   force =     0.00000000    0.00000000    0.00000000
     atom   11 type  2   force =     0.00000000    0.00000000    0.00000000
     atom   12 type  2   force =     0.00000000    0.00000000    0.00000000
     atom   13 type  2   force =     0.00000000    0.00000000    0.00000000
     atom   14 type  2   force =     0.00000000    0.00000000    0.00000000
     atom   15 type  2   force =     0.00000000    0.00000000    0.00000000
     atom   16 type  2   force =     0.00000000    0.00000000    0.00000000
     atom   17 type  2   force =     0.00000000    0.00000000    0.00000000
     atom   18 type  2   force =     0.00000000    0.00000000    0.00000000
     atom   19 type  2   force =     0.00000000    0.00000000    0.00000000
     atom   20 type  2   force =     0.00000000    0.00000000    0.00000000
     atom   21 type  2   force =     0.00000000    0.00000000    0.00000000
     atom   22 type  2   force =     0.00000000    0.00000000    0.00000000
     atom   23 type  2   force =     0.00000000    0.00000000    0.00000000
     atom   24 type  2   force =     0.00000000    0.00000000    0.00000000
     atom   25 type  2   force =     0.00000000    0.00000000    0.00000000
     atom   26 type  2   force =     0.00000000    0.00000000    0.00000000
     atom   27 type  2   force =     0.00000000    0.00000000    0.00000000
     atom   28 type  2   force =     0.00000000    0.00000000    0.00000000
     atom   29 type  2   force =     0.00000000    0.00000000    0.00000000
     atom   30 type  2   force =     0.00000000    0.00000000    0.00000000
     atom   31 type  2   force =     0.00000000    0.00000000    0.00000000
     atom   32 type  2   force =     0.00000000    0.00000000    0.00000000
     atom   33 type  2   force =     0.00000000    0.00000000    0.00000000
     atom   34 type  2   force =     0.00000000    0.00000000    0.00000000
     atom   35 type  2   force =     0.00000000    0.00000000    0.00000000
     atom   36 type  2   force =     0.00000000    0.00000000    0.00000000
     atom   37 type  2   force =     0.00000000    0.00000000    0.00000000
     atom   38 type  2   force =     0.00000000    0.00000000    0.00000000
     atom   39 type  2   force =     0.00000000    0.00000000    0.00000000
     atom   40 type  2   force =     0.00000000    0.00000000    0.00000000
     atom   41 type  2   force =     0.00000000    0.00000000    0.00000000
     atom   42 type  2   force =     0.00000000    0.00000000    0.00000000
     atom   43 type  2   force =     0.00000000    0.00000000    0.00000000
     atom   44 type  2   force =     0.00000000    0.00000000    0.00000000
     atom   45 type  2   force =     0.00000000    0.00000000    0.00000000
     atom   46 type  2   force =     0.00000000    0.00000000    0.00000000
     atom   47 type  2   force =     0.00000000    0.00000000    0.00000000
     atom   48 type  2   force =     0.00000000    0.00000000    0.00000000
     atom   49 type  2   force =     0.00000000    0.00000000    0.00000000
     atom   50 type  2   force =     0.00000000    0.00000000    0.00000000
     atom   51 type  2   force =     0.00000000    0.00000000    0.00000000
     atom   52 type  2   force =     0.00000000    0.00000000    0.00000000
     atom   53 type  2   force =     0.00000000    0.00000000    0.00000000
     atom   54 type  2   force =     0.00000000    0.00000000    0.00000000
     atom   55 type  2   force =     0.00000000    0.00000000    0.00000000
     atom   56 type  2   force =     0.00000000    0.00000000    0.00000000
     atom   57 type  2   force =     0.00000000    0.00000000    0.00000000
     atom   58 type  2   force =     0.00000000    0.00000000    0.00000000
     atom   59 type  2   force =     0.00000000    0.00000000    0.00000000
     atom   60 type  2   force =     0.00000000    0.00000000    0.00000000
     atom   61 type  2   force =     0.00000000    0.00000000    0.00000000
     atom   62 type  2   force =     0.00000000    0.00000000    0.00000000
     atom   63 type  2   force =     0.00000000    0.00000000    0.00000000
     The Hubbard contrib.    to forces
     atom    1 type  1   force =     0.00000000    0.00000000    0.00000000
     atom    2 type  2   force =     0.00000000    0.00000000    0.00000000
     atom    3 type  2   force =     0.00000000    0.00000000    0.00000000
     atom    4 type  2   force =     0.00000000    0.00000000    0.00000000
     atom    5 type  2   force =     0.00000000    0.00000000    0.00000000
     atom    6 type  2   force =     0.00000000    0.00000000    0.00000000
     atom    7 type  2   force =     0.00000000    0.00000000    0.00000000
     atom    8 type  2   force =     0.00000000    0.00000000    0.00000000
     atom    9 type  2   force =     0.00000000    0.00000000    0.00000000
     atom   10 type  2   force =     0.00000000    0.00000000    0.00000000
     atom   11 type  2   force =     0.00000000    0.00000000    0.00000000
     atom   12 type  2   force =     0.00000000    0.00000000    0.00000000
     atom   13 type  2   force =     0.00000000    0.00000000    0.00000000
     atom   14 type  2   force =     0.00000000    0.00000000    0.00000000
     atom   15 type  2   force =     0.00000000    0.00000000    0.00000000
     atom   16 type  2   force =     0.00000000    0.00000000    0.00000000
     atom   17 type  2   force =     0.00000000    0.00000000    0.00000000
     atom   18 type  2   force =     0.00000000    0.00000000    0.00000000
     atom   19 type  2   force =     0.00000000    0.00000000    0.00000000
     atom   20 type  2   force =     0.00000000    0.00000000    0.00000000
     atom   21 type  2   force =     0.00000000    0.00000000    0.00000000
     atom   22 type  2   force =     0.00000000    0.00000000    0.00000000
     atom   23 type  2   force =     0.00000000    0.00000000    0.00000000
     atom   24 type  2   force =     0.00000000    0.00000000    0.00000000
     atom   25 type  2   force =     0.00000000    0.00000000    0.00000000
     atom   26 type  2   force =     0.00000000    0.00000000    0.00000000
     atom   27 type  2   force =     0.00000000    0.00000000    0.00000000
     atom   28 type  2   force =     0.00000000    0.00000000    0.00000000
     atom   29 type  2   force =     0.00000000    0.00000000    0.00000000
     atom   30 type  2   force =     0.00000000    0.00000000    0.00000000
     atom   31 type  2   force =     0.00000000    0.00000000    0.00000000
     atom   32 type  2   force =     0.00000000    0.00000000    0.00000000
     atom   33 type  2   force =     0.00000000    0.00000000    0.00000000
     atom   34 type  2   force =     0.00000000    0.00000000    0.00000000
     atom   35 type  2   force =     0.00000000    0.00000000    0.00000000
     atom   36 type  2   force =     0.00000000    0.00000000    0.00000000
     atom   37 type  2   force =     0.00000000    0.00000000    0.00000000
     atom   38 type  2   force =     0.00000000    0.00000000    0.00000000
     atom   39 type  2   force =     0.00000000    0.00000000    0.00000000
     atom   40 type  2   force =     0.00000000    0.00000000    0.00000000
     atom   41 type  2   force =     0.00000000    0.00000000    0.00000000
     atom   42 type  2   force =     0.00000000    0.00000000    0.00000000
     atom   43 type  2   force =     0.00000000    0.00000000    0.00000000
     atom   44 type  2   force =     0.00000000    0.00000000    0.00000000
     atom   45 type  2   force =     0.00000000    0.00000000    0.00000000
     atom   46 type  2   force =     0.00000000    0.00000000    0.00000000
     atom   47 type  2   force =     0.00000000    0.00000000    0.00000000
     atom   48 type  2   force =     0.00000000    0.00000000    0.00000000
     atom   49 type  2   force =     0.00000000    0.00000000    0.00000000
     atom   50 type  2   force =     0.00000000    0.00000000    0.00000000
     atom   51 type  2   force =     0.00000000    0.00000000    0.00000000
     atom   52 type  2   force =     0.00000000    0.00000000    0.00000000
     atom   53 type  2   force =     0.00000000    0.00000000    0.00000000
     atom   54 type  2   force =     0.00000000    0.00000000    0.00000000
     atom   55 type  2   force =     0.00000000    0.00000000    0.00000000
     atom   56 type  2   force =     0.00000000    0.00000000    0.00000000
     atom   57 type  2   force =     0.00000000    0.00000000    0.00000000
     atom   58 type  2   force =     0.00000000    0.00000000    0.00000000
     atom   59 type  2   force =     0.00000000    0.00000000    0.00000000
     atom   60 type  2   force =     0.00000000    0.00000000    0.00000000
     atom   61 type  2   force =     0.00000000    0.00000000    0.00000000
     atom   62 type  2   force =     0.00000000    0.00000000    0.00000000
     atom   63 type  2   force =     0.00000000    0.00000000    0.00000000
     The SCF correction term to forces
     atom    1 type  1   force =     0.00001182   -0.00002386   -0.00002557
     atom    2 type  2   force =     0.00000745   -0.00000676    0.00000855
     atom    3 type  2   force =     0.00000329    0.00001098    0.00002196
     atom    4 type  2   force =    -0.00001238   -0.00002314    0.00000894
     atom    5 type  2   force =    -0.00001318   -0.00001619    0.00001845
     atom    6 type  2   force =    -0.00001003   -0.00000224   -0.00001874
     atom    7 type  2   force =    -0.00000364    0.00001697   -0.00000255
     atom    8 type  2   force =     0.00001021   -0.00002031    0.00001455
     atom    9 type  2   force =     0.00000073   -0.00001386    0.00000705
     atom   10 type  2   force =     0.00000405    0.00000251   -0.00000628
     atom   11 type  2   force =    -0.00000683    0.00001200   -0.00002425
     atom   12 type  2   force =    -0.00000560   -0.00002278   -0.00000887
     atom   13 type  2   force =    -0.00000899   -0.00001956   -0.00002119
     atom   14 type  2   force =    -0.00000755   -0.00000091    0.00001684
     atom   15 type  2   force =    -0.00001134    0.00001454    0.00000341
     atom   16 type  2   force =     0.00000158    0.00001749   -0.00002516
     atom   17 type  2   force =     0.00000497    0.00002123   -0.00000640
     atom   18 type  2   force =     0.00001254    0.00000490    0.00001093
     atom   19 type  2   force =     0.00000489   -0.00001245    0.00001581
     atom   20 type  2   force =    -0.00000050    0.00002283    0.00001220
     atom   21 type  2   force =    -0.00001053    0.00001497    0.00001698
     atom   22 type  2   force =    -0.00000293    0.00000419   -0.00001689
     atom   23 type  2   force =    -0.00001487   -0.00001702   -0.00000596
     atom   24 type  2   force =     0.00000960    0.00001993    0.00002235
     atom   25 type  2   force =     0.00000091    0.00001502    0.00000643
     atom   26 type  2   force =     0.00000823   -0.00000092   -0.00000834
     atom   27 type  2   force =     0.00000783   -0.00001752   -0.00002142
     atom   28 type  2   force =    -0.00000949    0.00002122   -0.00001094
     atom   29 type  2   force =    -0.00000623    0.00002031   -0.00001736
     atom   30 type  2   force =    -0.00000765    0.00000209    0.00001508
     atom   31 type  2   force =    -0.00001073   -0.00001454    0.00000868
     atom   32 type  2   force =    -0.00000821   -0.00002286   -0.00002014
     atom   33 type  2   force =     0.00000374   -0.00000981   -0.00000806
     atom   34 type  2   force =    -0.00000451    0.00000276    0.00000868
     atom   35 type  2   force =    -0.00000401    0.00001300    0.00001521
     atom   36 type  2   force =     0.00000886   -0.00001537    0.00000867
     atom   37 type  2   force =     0.00001144   -0.00001493    0.00001510
     atom   38 type  2   force =     0.00000778    0.00000223   -0.00002002
     atom   39 type  2   force =     0.00000374    0.00000774   -0.00001301
     atom   40 type  2   force =    -0.00000906   -0.00002008    0.00001906
     atom   41 type  2   force =    -0.00000055   -0.00001513    0.00000893
     atom   42 type  2   force =    -0.00000363   -0.00000237   -0.00000800
     atom   43 type  2   force =     0.00000789    0.00001563   -0.00001572
     atom   44 type  2   force =     0.00000528   -0.00001809   -0.00000652
     atom   45 type  2   force =     0.00000489   -0.00000509   -0.00002133
     atom   46 type  2   force =     0.00000663   -0.00000178    0.00001762
     atom   47 type  2   force =     0.00001141    0.00001388    0.00001472
     atom   48 type  2   force =    -0.00000119    0.00002305   -0.00001578
     atom   49 type  2   force =    -0.00000486    0.00001153   -0.00001091
     atom   50 type  2   force =    -0.00001278   -0.00000236    0.00000596
     atom   51 type  2   force =    -0.00000099   -0.00001417    0.00002028
     atom   52 type  2   force =     0.00000047    0.00001677    0.00000435
     atom   53 type  2   force =     0.00001053    0.00001754    0.00002175
     atom   54 type  2   force =     0.00000266   -0.00000335   -0.00002184
     atom   55 type  2   force =     0.00000813   -0.00001457   -0.00000368
     atom   56 type  2   force =    -0.00000900    0.00002131    0.00001587
     atom   57 type  2   force =    -0.00000013    0.00001610    0.00001098
     atom   58 type  2   force =    -0.00000632    0.00000048   -0.00000635
     atom   59 type  2   force =    -0.00000332   -0.00001653   -0.00002035
     atom   60 type  2   force =     0.00000819    0.00001953   -0.00000303
     atom   61 type  2   force =     0.00000573    0.00000990   -0.00002142
     atom   62 type  2   force =     0.00000579    0.00000038    0.00002120
     atom   63 type  2   force =     0.00000957   -0.00001524    0.00000702

     Total force =     0.021134     Total SCF correction =     0.000178

     Writing all to output data dir ./pwscf.save/ :
     XML data file, charge density, pseudopotentials, collected wavefunctions
 
     init_run     :      0.57s CPU      0.66s WALL (       1 calls)
     electrons    :     11.51s CPU     11.74s WALL (       1 calls)
     forces       :      2.12s CPU      2.13s WALL (       1 calls)

     Called by init_run:
     wfcinit      :      0.07s CPU      0.09s WALL (       1 calls)
     wfcinit:wfcr :      0.07s CPU      0.07s WALL (       1 calls)
     potinit      :      0.38s CPU      0.38s WALL (       1 calls)
     hinit0       :      0.03s CPU      0.09s WALL (       1 calls)

     Called by electrons:
     c_bands      :      8.25s CPU      8.42s WALL (      14 calls)
     sum_band     :      0.63s CPU      0.63s WALL (      14 calls)
     v_of_rho     :      0.42s CPU      0.43s WALL (      15 calls)
     v_h          :      0.01s CPU      0.01s WALL (      15 calls)
     v_xc         :      0.42s CPU      0.42s WALL (      15 calls)
     mix_rho      :      0.06s CPU      0.06s WALL (      14 calls)

     Called by c_bands:
     init_us_2    :      0.02s CPU      0.02s WALL (      30 calls)
     regterg      :      6.53s CPU      6.69s WALL (      14 calls)

     Called by sum_band:
     sum_band:wei :      0.04s CPU      0.04s WALL (      14 calls)
     sum_band:loo :      0.39s CPU      0.40s WALL (      14 calls)
     sum_band:buf :      0.00s CPU      0.00s WALL (      14 calls)
     sum_band:ini :      0.01s CPU      0.01s WALL (      14 calls)

     Called by *egterg:
     rdiaghg      :      4.09s CPU      4.19s WALL (     277 calls)
     regterg:over :      0.33s CPU      0.34s WALL (     263 calls)
     regterg:upda :      0.15s CPU      0.15s WALL (     263 calls)
     regterg:last :      0.18s CPU      0.18s WALL (      53 calls)
     rdiaghg:chol :      0.14s CPU      0.14s WALL (     277 calls)
     rdiaghg:inve :      0.03s CPU      0.03s WALL (     277 calls)
     rdiaghg:para :      0.35s CPU      0.37s WALL (     554 calls)
     h_psi        :      1.78s CPU      1.82s WALL (     278 calls)
     g_psi        :      0.00s CPU      0.00s WALL (     263 calls)

     Called by h_psi:
     h_psi:calbec :      0.27s CPU      0.28s WALL (     278 calls)
     vloc_psi     :      1.40s CPU      1.43s WALL (     278 calls)
                                        0.00s GPU  (     278 calls)
     add_vuspsi   :      0.10s CPU      0.11s WALL (     278 calls)

     General routines
     calbec       :      2.39s CPU      2.41s WALL (     282 calls)
     fft          :      0.21s CPU      0.28s WALL (     196 calls)
     ffts         :      0.00s CPU      0.00s WALL (      14 calls)
     fftw         :      1.68s CPU      1.71s WALL (   10260 calls)
 
     Parallel routines
 
     PWSCF        :     15.83s CPU     16.40s WALL

 
   This run was terminated on:  14: 0:45  19Nov2025            

=------------------------------------------------------------------------------=
   JOB DONE.
=------------------------------------------------------------------------------=
