
     Program PWSCF v.7.5 starts on 19Nov2025 at 14: 0:13 

     This program is part of the open-source Quantum ESPRESSO suite
     for quantum simulation of materials; please cite
         "P. Giannozzi et al., J. Phys.:Condens. Matter 21 395502 (2009);
         "P. Giannozzi et al., J. Phys.:Condens. Matter 29 465901 (2017);
         "P. Giannozzi et al., J. Chem. Phys. 152 154105 (2020);
          URL http://www.quantum-espresso.org", 
     in publications or presentations arising from this work. More details at
     http://www.quantum-espresso.org/quote

     Parallel version (MPI), running on    96 processors

     MPI processes distributed on     2 nodes
     144232 MiB available memory on the printing compute node when the environment starts
 
     Reading input from supercell-065.in

     Current dimensions of program PWSCF are:
     Max number of different atomic species (ntypx) = 10
     Max number of k-points (npk) =  40000
     Max angular momentum in pseudopotentials (lmaxx) =  4

     gamma-point specific algorithms are used
 
     K-points division:     npool     =       2
     R & G space division:  proc/nbgrp/npool/nimage =      48
     Subspace diagonalization in iterative solution of the eigenvalue problem:
     one sub-group per band group will be used
     scalapack distributed-memory algorithm (size of sub-group:  2*  2 procs)

 
     Parallelization info
     --------------------
     sticks:   dense  smooth     PW     G-vecs:    dense   smooth      PW
     Min          59      59     14                 2432     2432     302
     Max          62      62     16                 2442     2442     316
     Sum        2885    2885    725               116921   116921   14771
 
     Using Slab Decomposition
 


     bravais-lattice index     =            0
     lattice parameter (alat)  =      13.4813  a.u.
     unit-cell volume          =    2450.1683 (a.u.)^3
     number of atoms/cell      =           63
     number of atomic types    =            2
     number of electrons       =       254.00 (up: 128.00, down: 126.00)
     number of Kohn-Sham states=          152
     kinetic-energy cutoff     =      50.0000  Ry
     charge density cutoff     =     200.0000  Ry
     scf convergence threshold =      1.0E-08
     mixing beta               =       0.7000
     number of iterations used =            8  plain     mixing
     Exchange-correlation= PBE
                           (   1   4   3   4   0   0   0)

     celldm(1)=  13.481306  celldm(2)=   0.000000  celldm(3)=   0.000000
     celldm(4)=   0.000000  celldm(5)=   0.000000  celldm(6)=   0.000000

     crystal axes: (cart. coord. in units of alat)
               a(1) = (   1.000000   0.000000   0.000000 )  
               a(2) = (   0.000000   1.000000   0.000000 )  
               a(3) = (   0.000000   0.000000   1.000000 )  

     reciprocal axes: (cart. coord. in units 2 pi/alat)
               b(1) = (  1.000000  0.000000  0.000000 )  
               b(2) = (  0.000000  1.000000  0.000000 )  
               b(3) = (  0.000000  0.000000  1.000000 )  


     PseudoPot. # 1 for N  read from file:
     ./N_ONCV_PBE-1.2.upf
     MD5 check sum: 5312fdf34e96954e02a33bdc911c617a
     Pseudo is Norm-conserving, Zval =  5.0
     Generated using ONCVPSP code by D. R. Hamann
     Using radial grid of  602 points,  4 beta functions with: 
                l(1) =   0
                l(2) =   0
                l(3) =   1
                l(4) =   1

     PseudoPot. # 2 for C  read from file:
     ./C_ONCV_PBE-1.2.upf
     MD5 check sum: d60b57d9bdca4133f5fde4b584ee909d
     Pseudo is Norm-conserving, Zval =  4.0
     Generated using ONCVPSP code by D. R. Hamann
     Using radial grid of  602 points,  4 beta functions with: 
                l(1) =   0
                l(2) =   0
                l(3) =   1
                l(4) =   1

     atomic species   valence    mass     pseudopotential
     N                 5.00    14.00670     N ( 1.00)
     C                 4.00    12.01070     C ( 1.00)

     Starting magnetic structure 
     atomic species   magnetization
     N               0.000
     C               0.000

     No symmetry found


                                    s                        frac. trans.

      isym =  1     identity                                     

 cryst.   s( 1) = (     1          0          0      )
                  (     0          1          0      )
                  (     0          0          1      )

 cart.    s( 1) = (  1.0000000  0.0000000  0.0000000 )
                  (  0.0000000  1.0000000  0.0000000 )
                  (  0.0000000  0.0000000  1.0000000 )


   Cartesian axes

     site n.     atom                  positions (alat units)
         1        N      tau(   1) = (   0.9869283   0.9869283   0.9869283  )
         2        C      tau(   2) = (   0.9921390   0.2607625   0.2607625  )
         3        C      tau(   3) = (   0.1236981   0.3746848   0.3746848  )
         4        C      tau(   4) = (   0.2607625   0.9921390   0.2607625  )
         5        C      tau(   5) = (   0.3746848   0.1236981   0.3746848  )
         6        C      tau(   6) = (   0.2607625   0.2607625   0.9921390  )
         7        C      tau(   7) = (   0.3746848   0.3746848   0.1236981  )
         8        C      tau(   8) = (   0.0007517   0.0007517   0.4988587  )
         9        C      tau(   9) = (   0.1251291   0.1251291   0.6250516  )
        10        C      tau(  10) = (   0.0014372   0.2476607   0.7521916  )
        11        C      tau(  11) = (   0.1266329   0.3730745   0.8775065  )
        12        C      tau(  12) = (   0.2476607   0.0014372   0.7521916  )
        13        C      tau(  13) = (   0.3730745   0.1266329   0.8775065  )
        14        C      tau(  14) = (   0.2498467   0.2498467   0.4996267  )
        15        C      tau(  15) = (   0.3749463   0.3749463   0.6249280  )
        16        C      tau(  16) = (   0.0007517   0.4988587   0.0007517  )
        17        C      tau(  17) = (   0.1251291   0.6250516   0.1251291  )
        18        C      tau(  18) = (   0.0014372   0.7521916   0.2476607  )
        19        C      tau(  19) = (   0.1266329   0.8775065   0.3730745  )
        20        C      tau(  20) = (   0.2498467   0.4996267   0.2498467  )
        21        C      tau(  21) = (   0.3749463   0.6249280   0.3749463  )
        22        C      tau(  22) = (   0.2476607   0.7521916   0.0014372  )
        23        C      tau(  23) = (   0.3730745   0.8775065   0.1266329  )
        24        C      tau(  24) = (   0.0010116   0.5014264   0.5014264  )
        25        C      tau(  25) = (   0.1250381   0.6250852   0.6250852  )
        26        C      tau(  26) = (   0.9996941   0.7483805   0.7483805  )
        27        C      tau(  27) = (   0.1189720   0.8751585   0.8751585  )
        28        C      tau(  28) = (   0.2496290   0.5009902   0.7494822  )
        29        C      tau(  29) = (   0.3740517   0.6261334   0.8769065  )
        30        C      tau(  30) = (   0.2496290   0.7494822   0.5009902  )
        31        C      tau(  31) = (   0.3740517   0.8754230   0.6261334  )
        32        C      tau(  32) = (   0.4988587   0.0007517   0.0007517  )
        33        C      tau(  33) = (   0.6250516   0.1251291   0.1251291  )
        34        C      tau(  34) = (   0.4996267   0.2498467   0.2498467  )
        35        C      tau(  35) = (   0.6249280   0.3749463   0.3749463  )
        36        C      tau(  36) = (   0.7521916   0.0014372   0.2476607  )
        37        C      tau(  37) = (   0.8775065   0.1266329   0.3730745  )
        38        C      tau(  38) = (   0.7521916   0.2476607   0.0014372  )
        39        C      tau(  39) = (   0.8775065   0.3730745   0.1266329  )
        40        C      tau(  40) = (   0.5014264   0.0010116   0.5014264  )
        41        C      tau(  41) = (   0.6250852   0.1250381   0.6250852  )
        42        C      tau(  42) = (   0.5009902   0.2496290   0.7494822  )
        43        C      tau(  43) = (   0.6261334   0.3740517   0.8754230  )
        44        C      tau(  44) = (   0.7483805   0.9996941   0.7483805  )
        45        C      tau(  45) = (   0.8751585   0.1189720   0.8751585  )
        46        C      tau(  46) = (   0.7494822   0.2496290   0.5009902  )
        47        C      tau(  47) = (   0.8754230   0.3740517   0.6261334  )
        48        C      tau(  48) = (   0.5014264   0.5014264   0.0010116  )
        49        C      tau(  49) = (   0.6250852   0.6250852   0.1250381  )
        50        C      tau(  50) = (   0.5009902   0.7494822   0.2496290  )
        51        C      tau(  51) = (   0.6261334   0.8754230   0.3740517  )
        52        C      tau(  52) = (   0.7494822   0.5009902   0.2496290  )
        53        C      tau(  53) = (   0.8754230   0.6261334   0.3740517  )
        54        C      tau(  54) = (   0.7483805   0.7483805   0.9996941  )
        55        C      tau(  55) = (   0.8751585   0.8751585   0.1189720  )
        56        C      tau(  56) = (   0.4999757   0.4999757   0.4999757  )
        57        C      tau(  57) = (   0.6249536   0.6249536   0.6249536  )
        58        C      tau(  58) = (   0.4990957   0.7503802   0.7503802  )
        59        C      tau(  59) = (   0.6235333   0.8749829   0.8749829  )
        60        C      tau(  60) = (   0.7503802   0.4990957   0.7503802  )
        61        C      tau(  61) = (   0.8749829   0.6235333   0.8749829  )
        62        C      tau(  62) = (   0.7503802   0.7503802   0.4990957  )
        63        C      tau(  63) = (   0.8749829   0.8749829   0.6235333  )

   Crystallographic axes

     site n.     atom                  positions (cryst. coord.)
         1        N      tau(   1) = (  0.9869283  0.9869283  0.9869283  )
         2        C      tau(   2) = (  0.9921390  0.2607625  0.2607625  )
         3        C      tau(   3) = (  0.1236981  0.3746848  0.3746848  )
         4        C      tau(   4) = (  0.2607625  0.9921390  0.2607625  )
         5        C      tau(   5) = (  0.3746848  0.1236981  0.3746848  )
         6        C      tau(   6) = (  0.2607625  0.2607625  0.9921390  )
         7        C      tau(   7) = (  0.3746848  0.3746848  0.1236981  )
         8        C      tau(   8) = (  0.0007517  0.0007517  0.4988587  )
         9        C      tau(   9) = (  0.1251291  0.1251291  0.6250516  )
        10        C      tau(  10) = (  0.0014372  0.2476607  0.7521916  )
        11        C      tau(  11) = (  0.1266329  0.3730745  0.8775065  )
        12        C      tau(  12) = (  0.2476607  0.0014372  0.7521916  )
        13        C      tau(  13) = (  0.3730745  0.1266329  0.8775065  )
        14        C      tau(  14) = (  0.2498467  0.2498467  0.4996267  )
        15        C      tau(  15) = (  0.3749463  0.3749463  0.6249280  )
        16        C      tau(  16) = (  0.0007517  0.4988587  0.0007517  )
        17        C      tau(  17) = (  0.1251291  0.6250516  0.1251291  )
        18        C      tau(  18) = (  0.0014372  0.7521916  0.2476607  )
        19        C      tau(  19) = (  0.1266329  0.8775065  0.3730745  )
        20        C      tau(  20) = (  0.2498467  0.4996267  0.2498467  )
        21        C      tau(  21) = (  0.3749463  0.6249280  0.3749463  )
        22        C      tau(  22) = (  0.2476607  0.7521916  0.0014372  )
        23        C      tau(  23) = (  0.3730745  0.8775065  0.1266329  )
        24        C      tau(  24) = (  0.0010116  0.5014264  0.5014264  )
        25        C      tau(  25) = (  0.1250381  0.6250852  0.6250852  )
        26        C      tau(  26) = (  0.9996941  0.7483805  0.7483805  )
        27        C      tau(  27) = (  0.1189720  0.8751585  0.8751585  )
        28        C      tau(  28) = (  0.2496290  0.5009902  0.7494822  )
        29        C      tau(  29) = (  0.3740517  0.6261334  0.8769065  )
        30        C      tau(  30) = (  0.2496290  0.7494822  0.5009902  )
        31        C      tau(  31) = (  0.3740517  0.8754230  0.6261334  )
        32        C      tau(  32) = (  0.4988587  0.0007517  0.0007517  )
        33        C      tau(  33) = (  0.6250516  0.1251291  0.1251291  )
        34        C      tau(  34) = (  0.4996267  0.2498467  0.2498467  )
        35        C      tau(  35) = (  0.6249280  0.3749463  0.3749463  )
        36        C      tau(  36) = (  0.7521916  0.0014372  0.2476607  )
        37        C      tau(  37) = (  0.8775065  0.1266329  0.3730745  )
        38        C      tau(  38) = (  0.7521916  0.2476607  0.0014372  )
        39        C      tau(  39) = (  0.8775065  0.3730745  0.1266329  )
        40        C      tau(  40) = (  0.5014264  0.0010116  0.5014264  )
        41        C      tau(  41) = (  0.6250852  0.1250381  0.6250852  )
        42        C      tau(  42) = (  0.5009902  0.2496290  0.7494822  )
        43        C      tau(  43) = (  0.6261334  0.3740517  0.8754230  )
        44        C      tau(  44) = (  0.7483805  0.9996941  0.7483805  )
        45        C      tau(  45) = (  0.8751585  0.1189720  0.8751585  )
        46        C      tau(  46) = (  0.7494822  0.2496290  0.5009902  )
        47        C      tau(  47) = (  0.8754230  0.3740517  0.6261334  )
        48        C      tau(  48) = (  0.5014264  0.5014264  0.0010116  )
        49        C      tau(  49) = (  0.6250852  0.6250852  0.1250381  )
        50        C      tau(  50) = (  0.5009902  0.7494822  0.2496290  )
        51        C      tau(  51) = (  0.6261334  0.8754230  0.3740517  )
        52        C      tau(  52) = (  0.7494822  0.5009902  0.2496290  )
        53        C      tau(  53) = (  0.8754230  0.6261334  0.3740517  )
        54        C      tau(  54) = (  0.7483805  0.7483805  0.9996941  )
        55        C      tau(  55) = (  0.8751585  0.8751585  0.1189720  )
        56        C      tau(  56) = (  0.4999757  0.4999757  0.4999757  )
        57        C      tau(  57) = (  0.6249536  0.6249536  0.6249536  )
        58        C      tau(  58) = (  0.4990957  0.7503802  0.7503802  )
        59        C      tau(  59) = (  0.6235333  0.8749829  0.8749829  )
        60        C      tau(  60) = (  0.7503802  0.4990957  0.7503802  )
        61        C      tau(  61) = (  0.8749829  0.6235333  0.8749829  )
        62        C      tau(  62) = (  0.7503802  0.7503802  0.4990957  )
        63        C      tau(  63) = (  0.8749829  0.8749829  0.6235333  )

     number of k points=     1
                       cart. coord. in units 2pi/alat
        k(    1) = (   0.0000000   0.0000000   0.0000000), wk =   1.0000000

                       cryst. coord.
        k(    1) = (   0.0000000   0.0000000   0.0000000), wk =   1.0000000

     Dense  grid:    58461 G-vectors     FFT dimensions: (  64,  64,  64)

     Dynamical RAM for                 wfc:       0.35 MB

     Dynamical RAM for     wfc (w. buffer):       0.35 MB

     Dynamical RAM for           str. fact:       0.04 MB

     Dynamical RAM for           local pot:       0.00 MB

     Dynamical RAM for          nlocal pot:       1.17 MB

     Dynamical RAM for                qrad:       0.65 MB

     Dynamical RAM for          rho,v,vnew:       0.49 MB

     Dynamical RAM for               rhoin:       0.16 MB

     Dynamical RAM for            rho*nmix:       0.60 MB

     Dynamical RAM for           G-vectors:       0.08 MB

     Dynamical RAM for          h,s,v(r/c):       0.53 MB

     Dynamical RAM for          <psi|beta>:       0.58 MB

     Dynamical RAM for                 psi:       0.71 MB

     Dynamical RAM for                hpsi:       0.71 MB

     Dynamical RAM for      wfcinit/wfcrot:       1.24 MB

     Estimated static dynamical RAM per process >       3.37 MB

     Estimated max dynamical RAM per process >       6.49 MB

     Estimated total dynamical RAM >     594.05 MB
     Generating pointlists ...
     new r_m :   0.0850 (alat units)  1.1454 (a.u.) for type    1
     new r_m :   0.0850 (alat units)  1.1454 (a.u.) for type    2

     Initial potential from superposition of free atoms

     starting charge     252.5655, renormalised to     254.0000
     Starting wfcs are random

     total cpu time spent up to now is        1.2 secs

     Self-consistent Calculation

     iteration #  1     ecut=    50.00 Ry     beta= 0.70
     Davidson diagonalization with overlap

---- Real-time Memory Report at c_bands before calling an iterative solver
           158 MiB given to the printing process from OS
             0 MiB allocation reported by mallinfo(arena+hblkhd)
        143263 MiB available memory on the node where the printing process lives
------------------
     ethr =  1.00E-02,  avg # of iterations = 14.0

     total cpu time spent up to now is        2.1 secs

     total energy              =    -723.29752838 Ry
     estimated scf accuracy    <       3.68852091 Ry

     total magnetization       =     2.00 Bohr mag/cell
     absolute magnetization    =     2.00 Bohr mag/cell

     iteration #  2     ecut=    50.00 Ry     beta= 0.70
     Davidson diagonalization with overlap

---- Real-time Memory Report at c_bands before calling an iterative solver
           164 MiB given to the printing process from OS
             0 MiB allocation reported by mallinfo(arena+hblkhd)
        143200 MiB available memory on the node where the printing process lives
------------------
     ethr =  1.45E-03,  avg # of iterations = 12.0

     total cpu time spent up to now is        2.5 secs

     total energy              =    -723.67685084 Ry
     estimated scf accuracy    <       0.44297467 Ry

     total magnetization       =     2.00 Bohr mag/cell
     absolute magnetization    =     2.07 Bohr mag/cell

     iteration #  3     ecut=    50.00 Ry     beta= 0.70
     Davidson diagonalization with overlap

---- Real-time Memory Report at c_bands before calling an iterative solver
           164 MiB given to the printing process from OS
             0 MiB allocation reported by mallinfo(arena+hblkhd)
        143208 MiB available memory on the node where the printing process lives
------------------
     c_bands:  1 eigenvalues not converged
     ethr =  1.74E-04,  avg # of iterations = 20.0

     total cpu time spent up to now is        3.2 secs

     total energy              =    -723.73781468 Ry
     estimated scf accuracy    <       0.86745057 Ry

     total magnetization       =     2.00 Bohr mag/cell
     absolute magnetization    =     2.11 Bohr mag/cell

     iteration #  4     ecut=    50.00 Ry     beta= 0.70
     Davidson diagonalization with overlap

---- Real-time Memory Report at c_bands before calling an iterative solver
           164 MiB given to the printing process from OS
             0 MiB allocation reported by mallinfo(arena+hblkhd)
        143208 MiB available memory on the node where the printing process lives
------------------
     c_bands:  1 eigenvalues not converged
     ethr =  1.74E-04,  avg # of iterations = 20.0

     total cpu time spent up to now is        4.1 secs

     total energy              =    -723.91155159 Ry
     estimated scf accuracy    <       0.00842772 Ry

     total magnetization       =     2.00 Bohr mag/cell
     absolute magnetization    =     2.18 Bohr mag/cell

     iteration #  5     ecut=    50.00 Ry     beta= 0.70
     Davidson diagonalization with overlap

---- Real-time Memory Report at c_bands before calling an iterative solver
           165 MiB given to the printing process from OS
             0 MiB allocation reported by mallinfo(arena+hblkhd)
        143200 MiB available memory on the node where the printing process lives
------------------
     c_bands:  5 eigenvalues not converged
     ethr =  3.32E-06,  avg # of iterations = 20.0

     total cpu time spent up to now is        4.7 secs

     total energy              =    -723.91594279 Ry
     estimated scf accuracy    <       0.00375504 Ry

     total magnetization       =     2.00 Bohr mag/cell
     absolute magnetization    =     2.22 Bohr mag/cell

     iteration #  6     ecut=    50.00 Ry     beta= 0.70
     Davidson diagonalization with overlap

---- Real-time Memory Report at c_bands before calling an iterative solver
           165 MiB given to the printing process from OS
             0 MiB allocation reported by mallinfo(arena+hblkhd)
        143204 MiB available memory on the node where the printing process lives
------------------
     c_bands:  3 eigenvalues not converged
     ethr =  1.48E-06,  avg # of iterations = 20.0

     total cpu time spent up to now is        5.1 secs

     total energy              =    -723.91663379 Ry
     estimated scf accuracy    <       0.00065674 Ry

     total magnetization       =     2.00 Bohr mag/cell
     absolute magnetization    =     2.24 Bohr mag/cell

     iteration #  7     ecut=    50.00 Ry     beta= 0.70
     Davidson diagonalization with overlap

---- Real-time Memory Report at c_bands before calling an iterative solver
           165 MiB given to the printing process from OS
             0 MiB allocation reported by mallinfo(arena+hblkhd)
        143208 MiB available memory on the node where the printing process lives
------------------
     c_bands:  2 eigenvalues not converged
     ethr =  2.59E-07,  avg # of iterations = 20.0

     total cpu time spent up to now is        6.2 secs

     total energy              =    -723.91682051 Ry
     estimated scf accuracy    <       0.00006844 Ry

     total magnetization       =     2.00 Bohr mag/cell
     absolute magnetization    =     2.26 Bohr mag/cell

     iteration #  8     ecut=    50.00 Ry     beta= 0.70
     Davidson diagonalization with overlap

---- Real-time Memory Report at c_bands before calling an iterative solver
           165 MiB given to the printing process from OS
             0 MiB allocation reported by mallinfo(arena+hblkhd)
        143208 MiB available memory on the node where the printing process lives
------------------
     c_bands:  1 eigenvalues not converged
     ethr =  2.69E-08,  avg # of iterations = 20.0

     total cpu time spent up to now is        6.8 secs

     total energy              =    -723.91684831 Ry
     estimated scf accuracy    <       0.00001900 Ry

     total magnetization       =     2.00 Bohr mag/cell
     absolute magnetization    =     2.27 Bohr mag/cell

     iteration #  9     ecut=    50.00 Ry     beta= 0.70
     Davidson diagonalization with overlap

---- Real-time Memory Report at c_bands before calling an iterative solver
           165 MiB given to the printing process from OS
             0 MiB allocation reported by mallinfo(arena+hblkhd)
        143206 MiB available memory on the node where the printing process lives
------------------
     c_bands:  2 eigenvalues not converged
     ethr =  7.48E-09,  avg # of iterations = 20.0

     total cpu time spent up to now is        7.4 secs

     total energy              =    -723.91685524 Ry
     estimated scf accuracy    <       0.00000657 Ry

     total magnetization       =     2.00 Bohr mag/cell
     absolute magnetization    =     2.28 Bohr mag/cell

     iteration # 10     ecut=    50.00 Ry     beta= 0.70
     Davidson diagonalization with overlap

---- Real-time Memory Report at c_bands before calling an iterative solver
           165 MiB given to the printing process from OS
             0 MiB allocation reported by mallinfo(arena+hblkhd)
        143200 MiB available memory on the node where the printing process lives
------------------
     c_bands:  2 eigenvalues not converged
     ethr =  2.59E-09,  avg # of iterations = 20.0

     total cpu time spent up to now is        7.9 secs

     total energy              =    -723.91685799 Ry
     estimated scf accuracy    <       0.00000084 Ry

     total magnetization       =     2.00 Bohr mag/cell
     absolute magnetization    =     2.28 Bohr mag/cell

     iteration # 11     ecut=    50.00 Ry     beta= 0.70
     Davidson diagonalization with overlap

---- Real-time Memory Report at c_bands before calling an iterative solver
           166 MiB given to the printing process from OS
             0 MiB allocation reported by mallinfo(arena+hblkhd)
        143210 MiB available memory on the node where the printing process lives
------------------
     c_bands:  1 eigenvalues not converged
     ethr =  3.30E-10,  avg # of iterations = 19.0

     total cpu time spent up to now is        8.6 secs

     total energy              =    -723.91685853 Ry
     estimated scf accuracy    <       0.00000016 Ry

     total magnetization       =     2.00 Bohr mag/cell
     absolute magnetization    =     2.29 Bohr mag/cell

     iteration # 12     ecut=    50.00 Ry     beta= 0.70
     Davidson diagonalization with overlap

---- Real-time Memory Report at c_bands before calling an iterative solver
           166 MiB given to the printing process from OS
             0 MiB allocation reported by mallinfo(arena+hblkhd)
        143206 MiB available memory on the node where the printing process lives
------------------
     c_bands:  1 eigenvalues not converged
     ethr =  6.39E-11,  avg # of iterations = 20.0

     total cpu time spent up to now is        9.7 secs

     total energy              =    -723.91685863 Ry
     estimated scf accuracy    <       0.00000004 Ry

     total magnetization       =     2.00 Bohr mag/cell
     absolute magnetization    =     2.29 Bohr mag/cell

     iteration # 13     ecut=    50.00 Ry     beta= 0.70
     Davidson diagonalization with overlap

---- Real-time Memory Report at c_bands before calling an iterative solver
           166 MiB given to the printing process from OS
             0 MiB allocation reported by mallinfo(arena+hblkhd)
        143205 MiB available memory on the node where the printing process lives
------------------
     c_bands:  1 eigenvalues not converged
     ethr =  1.74E-11,  avg # of iterations = 20.0

     total cpu time spent up to now is       10.3 secs

     total energy              =    -723.91685866 Ry
     estimated scf accuracy    <       0.00000001 Ry

     total magnetization       =     2.00 Bohr mag/cell
     absolute magnetization    =     2.29 Bohr mag/cell

     iteration # 14     ecut=    50.00 Ry     beta= 0.70
     Davidson diagonalization with overlap

---- Real-time Memory Report at c_bands before calling an iterative solver
           166 MiB given to the printing process from OS
             0 MiB allocation reported by mallinfo(arena+hblkhd)
        143205 MiB available memory on the node where the printing process lives
------------------
     c_bands:  1 eigenvalues not converged
     ethr =  4.84E-12,  avg # of iterations = 18.0
 
     Magnetic moment per site  (integrated on atomic sphere of radius R)
     atom   1 (R=0.085)  charge=  2.8976  magn=  0.0040
     atom   2 (R=0.085)  charge=  1.8130  magn=  0.2494
     atom   3 (R=0.085)  charge=  1.8113  magn= -0.0087
     atom   4 (R=0.085)  charge=  1.8130  magn=  0.2494
     atom   5 (R=0.085)  charge=  1.8113  magn= -0.0087
     atom   6 (R=0.085)  charge=  1.8130  magn=  0.2494
     atom   7 (R=0.085)  charge=  1.8114  magn= -0.0087
     atom   8 (R=0.085)  charge=  1.8016  magn=  0.0085
     atom   9 (R=0.085)  charge=  1.8085  magn= -0.0018
     atom  10 (R=0.085)  charge=  1.7946  magn=  0.0054
     atom  11 (R=0.085)  charge=  1.8031  magn= -0.0034
     atom  12 (R=0.085)  charge=  1.7946  magn=  0.0054
     atom  13 (R=0.085)  charge=  1.8030  magn= -0.0034
     atom  14 (R=0.085)  charge=  1.8001  magn=  0.0086
     atom  15 (R=0.085)  charge=  1.8012  magn= -0.0019
     atom  16 (R=0.085)  charge=  1.8016  magn=  0.0085
     atom  17 (R=0.085)  charge=  1.8086  magn= -0.0018
     atom  18 (R=0.085)  charge=  1.7946  magn=  0.0054
     atom  19 (R=0.085)  charge=  1.8030  magn= -0.0034
     atom  20 (R=0.085)  charge=  1.8001  magn=  0.0086
     atom  21 (R=0.085)  charge=  1.8013  magn= -0.0019
     atom  22 (R=0.085)  charge=  1.7964  magn=  0.0054
     atom  23 (R=0.085)  charge=  1.8031  magn= -0.0034
     atom  24 (R=0.085)  charge=  1.8004  magn=  0.0181
     atom  25 (R=0.085)  charge=  1.8199  magn=  0.0089
     atom  26 (R=0.085)  charge=  1.8119  magn=  0.0032
     atom  27 (R=0.085)  charge=  1.7813  magn= -0.0000
     atom  28 (R=0.085)  charge=  1.7989  magn=  0.0212
     atom  29 (R=0.085)  charge=  1.7941  magn= -0.0013
     atom  30 (R=0.085)  charge=  1.8008  magn=  0.0212
     atom  31 (R=0.085)  charge=  1.7952  magn= -0.0013
     atom  32 (R=0.085)  charge=  1.8016  magn=  0.0085
     atom  33 (R=0.085)  charge=  1.8085  magn= -0.0018
     atom  34 (R=0.085)  charge=  1.8001  magn=  0.0086
     atom  35 (R=0.085)  charge=  1.8013  magn= -0.0019
     atom  36 (R=0.085)  charge=  1.7946  magn=  0.0054
     atom  37 (R=0.085)  charge=  1.8030  magn= -0.0034
     atom  38 (R=0.085)  charge=  1.7945  magn=  0.0054
     atom  39 (R=0.085)  charge=  1.8030  magn= -0.0034
     atom  40 (R=0.085)  charge=  1.8004  magn=  0.0181
     atom  41 (R=0.085)  charge=  1.8200  magn=  0.0089
     atom  42 (R=0.085)  charge=  1.8008  magn=  0.0212
     atom  43 (R=0.085)  charge=  1.7953  magn= -0.0013
     atom  44 (R=0.085)  charge=  1.8120  magn=  0.0032
     atom  45 (R=0.085)  charge=  1.7813  magn= -0.0000
     atom  46 (R=0.085)  charge=  1.8008  magn=  0.0212
     atom  47 (R=0.085)  charge=  1.7953  magn= -0.0013
     atom  48 (R=0.085)  charge=  1.8023  magn=  0.0181
     atom  49 (R=0.085)  charge=  1.8201  magn=  0.0089
     atom  50 (R=0.085)  charge=  1.8008  magn=  0.0212
     atom  51 (R=0.085)  charge=  1.7953  magn= -0.0013
     atom  52 (R=0.085)  charge=  1.8008  magn=  0.0212
     atom  53 (R=0.085)  charge=  1.7953  magn= -0.0013
     atom  54 (R=0.085)  charge=  1.8120  magn=  0.0032
     atom  55 (R=0.085)  charge=  1.7813  magn= -0.0000
     atom  56 (R=0.085)  charge=  1.8051  magn=  0.0010
     atom  57 (R=0.085)  charge=  1.7980  magn=  0.0010
     atom  58 (R=0.085)  charge=  1.8041  magn=  0.0018
     atom  59 (R=0.085)  charge=  1.8021  magn= -0.0009
     atom  60 (R=0.085)  charge=  1.8061  magn=  0.0018
     atom  61 (R=0.085)  charge=  1.8021  magn= -0.0009
     atom  62 (R=0.085)  charge=  1.8060  magn=  0.0018
     atom  63 (R=0.085)  charge=  1.8021  magn= -0.0009

     total cpu time spent up to now is       10.8 secs

     End of self-consistent calculation

 ------ SPIN UP ------------


          k = 0.0000 0.0000 0.0000 (  7386 PWs)   bands (ev):

    -8.5687  -7.0167  -6.2668  -6.2628  -6.1597  -6.1584  -5.8761  -4.9415
    -4.1238  -4.1228  -4.0893  -4.0877  -4.0319  -4.0288  -3.9817  -3.9083
    -3.8632  -3.8573  -3.3528  -2.9548  -2.6670  -2.6641  -2.1126  -0.3611
    -0.3571  -0.3160  -0.2875  -0.0895   0.1895   0.1904   0.2947   0.2989
     0.3701   0.6089   0.8237   0.8252   0.9860   0.9873   1.0225   1.0486
     1.0525   1.0788   1.3023   1.3076   3.0588   3.8866   3.8894   4.0397
     4.2359   4.2390   4.2473   4.2539   4.2862   4.2907   4.4355   4.4371
     4.5002   4.5021   4.6004   4.6826   4.6859   4.6879   4.6905   4.7772
     4.7817   4.9138   4.9645   4.9698   5.0605   5.2276   5.2283   5.3031
     5.3711   5.3725   5.4091   5.4210   5.4241   6.0461   6.0480   6.0799
     6.6429   6.6445   6.7637   7.0069   7.0287   7.0302   7.5159   8.3334
     8.3358   8.4222   8.4951   8.5006   8.6715   8.6756   8.8279   8.8330
     8.8532   8.8560   8.8937   8.8986   8.9420   9.3056   9.3062   9.3068
     9.7191   9.7215   9.9377   9.9416   9.9421   9.9555   9.9761  10.0062
    10.0077  10.0089  10.0327  10.0376  10.1342  10.1390  10.2855  10.2881
    10.3554  10.9864  12.2253  12.4658  12.4720  13.8196  14.7973  14.7980
    17.3760  17.3851  17.3921  17.5561  17.5612  17.5660  17.8909  17.9255
    17.9299  18.0160  18.0177  18.3736  18.9884  18.9917  19.0206  20.7108
    20.8198  20.8249  20.8688  20.9576  20.9629  21.0294  21.0298  21.0814

     occupation numbers 
     1.0000   1.0000   1.0000   1.0000   1.0000   1.0000   1.0000   1.0000
     1.0000   1.0000   1.0000   1.0000   1.0000   1.0000   1.0000   1.0000
     1.0000   1.0000   1.0000   1.0000   1.0000   1.0000   1.0000   1.0000
     1.0000   1.0000   1.0000   1.0000   1.0000   1.0000   1.0000   1.0000
     1.0000   1.0000   1.0000   1.0000   1.0000   1.0000   1.0000   1.0000
     1.0000   1.0000   1.0000   1.0000   1.0000   1.0000   1.0000   1.0000
     1.0000   1.0000   1.0000   1.0000   1.0000   1.0000   1.0000   1.0000
     1.0000   1.0000   1.0000   1.0000   1.0000   1.0000   1.0000   1.0000
     1.0000   1.0000   1.0000   1.0000   1.0000   1.0000   1.0000   1.0000
     1.0000   1.0000   1.0000   1.0000   1.0000   1.0000   1.0000   1.0000
     1.0000   1.0000   1.0000   1.0000   1.0000   1.0000   1.0000   1.0000
     1.0000   1.0000   1.0000   1.0000   1.0000   1.0000   1.0000   1.0000
     1.0000   1.0000   1.0000   1.0000   1.0000   1.0000   1.0000   1.0000
     1.0000   1.0000   1.0000   1.0000   1.0000   1.0000   1.0000   1.0000
     1.0000   1.0000   1.0000   1.0000   1.0000   1.0000   1.0000   1.0000
     1.0000   1.0000   1.0000   1.0000   1.0000   1.0000   1.0000   1.0000
     0.0000   0.0000   0.0000   0.0000   0.0000   0.0000   0.0000   0.0000
     0.0000   0.0000   0.0000   0.0000   0.0000   0.0000   0.0000   0.0000
     0.0000   0.0000   0.0000   0.0000   0.0000   0.0000   0.0000   0.0000

 ------ SPIN DOWN ----------


          k = 0.0000 0.0000 0.0000 (  7386 PWs)   bands (ev):

    -8.5453  -7.0023  -6.2475  -6.2435  -6.1177  -6.1165  -5.8393  -4.9256
    -4.1037  -4.1026  -4.0738  -4.0725  -3.9758  -3.9736  -3.9564  -3.8964
    -3.8170  -3.8105  -3.3093  -2.9370  -2.6131  -2.6102  -1.9720  -0.3443
    -0.3403  -0.2976  -0.2661  -0.0232   0.2051   0.2061   0.3299   0.3344
     0.3955   0.6414   0.8363   0.8378   1.0110   1.0122   1.0562   1.0639
     1.0679   1.0954   1.4735   1.4785   3.1733   3.9069   3.9099   4.0624
     4.2699   4.2740   4.2755   4.2864   4.3065   4.3103   4.4851   4.4869
     4.5210   4.5216   4.6273   4.7015   4.7054   4.7058   4.7075   4.8141
     4.8186   4.9261   4.9963   5.0017   5.1444   5.2615   5.2622   5.3269
     5.3819   5.3836   5.4216   5.4811   5.4841   6.1058   6.1076   6.1208
     6.6693   6.6709   6.7981   7.0498   7.1212   7.1226   7.6946   8.3717
     8.3741   8.4586   8.5271   8.5328   8.7021   8.7061   8.8624   8.8697
     8.8714   8.8825   8.9461   8.9528   8.9661   9.3339   9.3424   9.3429
     9.7486   9.7505   9.9536   9.9559   9.9564   9.9841  10.0013  10.0212
    10.0259  10.0278  10.0665  10.0718  10.1666  10.1702  10.3409  10.3433
    10.4167  11.3842  12.5327  12.6127  12.6192  14.2855  16.1590  16.1592
    17.4028  17.4045  17.4115  17.5867  17.6101  17.6175  17.9151  17.9461
    17.9502  18.0539  18.0561  18.4858  19.0644  19.0766  19.0796  20.7602
    20.8330  20.8380  20.8829  20.9738  20.9791  21.0547  21.0560  21.0934

     occupation numbers 
     1.0000   1.0000   1.0000   1.0000   1.0000   1.0000   1.0000   1.0000
     1.0000   1.0000   1.0000   1.0000   1.0000   1.0000   1.0000   1.0000
     1.0000   1.0000   1.0000   1.0000   1.0000   1.0000   1.0000   1.0000
     1.0000   1.0000   1.0000   1.0000   1.0000   1.0000   1.0000   1.0000
     1.0000   1.0000   1.0000   1.0000   1.0000   1.0000   1.0000   1.0000
     1.0000   1.0000   1.0000   1.0000   1.0000   1.0000   1.0000   1.0000
     1.0000   1.0000   1.0000   1.0000   1.0000   1.0000   1.0000   1.0000
     1.0000   1.0000   1.0000   1.0000   1.0000   1.0000   1.0000   1.0000
     1.0000   1.0000   1.0000   1.0000   1.0000   1.0000   1.0000   1.0000
     1.0000   1.0000   1.0000   1.0000   1.0000   1.0000   1.0000   1.0000
     1.0000   1.0000   1.0000   1.0000   1.0000   1.0000   1.0000   1.0000
     1.0000   1.0000   1.0000   1.0000   1.0000   1.0000   1.0000   1.0000
     1.0000   1.0000   1.0000   1.0000   1.0000   1.0000   1.0000   1.0000
     1.0000   1.0000   1.0000   1.0000   1.0000   1.0000   1.0000   1.0000
     1.0000   1.0000   1.0000   1.0000   1.0000   1.0000   1.0000   1.0000
     1.0000   1.0000   1.0000   1.0000   1.0000   1.0000   0.0000   0.0000
     0.0000   0.0000   0.0000   0.0000   0.0000   0.0000   0.0000   0.0000
     0.0000   0.0000   0.0000   0.0000   0.0000   0.0000   0.0000   0.0000
     0.0000   0.0000   0.0000   0.0000   0.0000   0.0000   0.0000   0.0000

     highest occupied, lowest unoccupied level (ev):    14.7980   16.1590

!    total energy              =    -723.91685867 Ry
     estimated scf accuracy    <          3.4E-09 Ry

     The total energy is the sum of the following terms:
     one-electron contribution =     232.80987578 Ry
     hartree contribution      =      70.09032928 Ry
     xc contribution           =    -226.74457739 Ry
     ewald contribution        =    -800.07248633 Ry

     total magnetization       =     2.00 Bohr mag/cell
     absolute magnetization    =     2.29 Bohr mag/cell

     convergence has been achieved in  14 iterations

     Forces acting on atoms (cartesian axes, Ry/au):

     atom    1 type  1   force =     0.00247314    0.00216806    0.00244805
     atom    2 type  2   force =    -0.00029261    0.00018841    0.00017786
     atom    3 type  2   force =     0.00077828    0.00087960    0.00083250
     atom    4 type  2   force =     0.00029968   -0.00017984    0.00024533
     atom    5 type  2   force =     0.00087798    0.00081019    0.00092137
     atom    6 type  2   force =     0.00023589    0.00028413   -0.00029711
     atom    7 type  2   force =     0.00115281    0.00019876    0.00136558
     atom    8 type  2   force =     0.00033350    0.00030124   -0.00057719
     atom    9 type  2   force =    -0.00000206    0.00005242   -0.00016905
     atom   10 type  2   force =     0.00000672   -0.00037817    0.00052156
     atom   11 type  2   force =    -0.00114884    0.00018730   -0.00112433
     atom   12 type  2   force =    -0.00028683    0.00016240    0.00030637
     atom   13 type  2   force =     0.00049840   -0.00077393   -0.00050912
     atom   14 type  2   force =    -0.00017833   -0.00000630   -0.00021401
     atom   15 type  2   force =     0.00009911    0.00040432    0.00058121
     atom   16 type  2   force =     0.00036735   -0.00056817    0.00023068
     atom   17 type  2   force =    -0.00062864    0.00016691    0.00062783
     atom   18 type  2   force =     0.00000747    0.00030510   -0.00022615
     atom   19 type  2   force =    -0.00078131   -0.00055452    0.00045582
     atom   20 type  2   force =    -0.00003570   -0.00019993   -0.00010176
     atom   21 type  2   force =    -0.00023267    0.00002227   -0.00020057
     atom   22 type  2   force =    -0.00099506    0.00110185    0.00396859
     atom   23 type  2   force =     0.00013366    0.00008946   -0.00019938
     atom   24 type  2   force =     0.00026358   -0.00007112    0.00006425
     atom   25 type  2   force =     0.00062249    0.00032808    0.00056615
     atom   26 type  2   force =    -0.00009323   -0.00023320   -0.00030498
     atom   27 type  2   force =     0.00117647   -0.00178797   -0.00217234
     atom   28 type  2   force =     0.00054717    0.00080776    0.00395373
     atom   29 type  2   force =    -0.00014443    0.00004222   -0.01774241
     atom   30 type  2   force =    -0.00034394    0.00008667   -0.00001554
     atom   31 type  2   force =    -0.00093293   -0.00028481    0.00092454
     atom   32 type  2   force =    -0.00055617    0.00028250    0.00024014
     atom   33 type  2   force =    -0.00022574    0.00002573    0.00005242
     atom   34 type  2   force =    -0.00035891   -0.00015393   -0.00002511
     atom   35 type  2   force =    -0.00000172   -0.00020428   -0.00027881
     atom   36 type  2   force =     0.00040756    0.00014194   -0.00030380
     atom   37 type  2   force =    -0.00055482   -0.00078456    0.00051331
     atom   38 type  2   force =     0.00030125   -0.00019639    0.00025319
     atom   39 type  2   force =    -0.00053625    0.00052593   -0.00075971
     atom   40 type  2   force =     0.00009218    0.00012392    0.00007725
     atom   41 type  2   force =     0.00001167    0.00001796    0.00000755
     atom   42 type  2   force =    -0.00000230   -0.00033187   -0.00006759
     atom   43 type  2   force =    -0.00001180   -0.00023583   -0.00022405
     atom   44 type  2   force =    -0.00014511    0.00003968   -0.00008308
     atom   45 type  2   force =    -0.00154171    0.00097310   -0.00175413
     atom   46 type  2   force =    -0.00001232   -0.00026131    0.00000292
     atom   47 type  2   force =     0.00035685   -0.00059131    0.00035424
     atom   48 type  2   force =     0.00084353   -0.00071872    0.00403126
     atom   49 type  2   force =     0.00061266   -0.00035725    0.00060364
     atom   50 type  2   force =    -0.00003081   -0.00002496   -0.00031667
     atom   51 type  2   force =     0.00033875    0.00037172   -0.00062455
     atom   52 type  2   force =     0.00006826    0.00013402   -0.00024453
     atom   53 type  2   force =     0.00034958    0.00034147   -0.00053955
     atom   54 type  2   force =    -0.00028027   -0.00020500   -0.00012086
     atom   55 type  2   force =    -0.00158974   -0.00159813    0.00098440
     atom   56 type  2   force =    -0.00003498   -0.00012566   -0.00010816
     atom   57 type  2   force =    -0.00061616   -0.00031450    0.00057281
     atom   58 type  2   force =    -0.00120862   -0.00085150    0.00408191
     atom   59 type  2   force =     0.00000216    0.00058230   -0.00037709
     atom   60 type  2   force =     0.00011250   -0.00026451   -0.00000693
     atom   61 type  2   force =     0.00022483   -0.00032626    0.00026679
     atom   62 type  2   force =    -0.00000005    0.00017212   -0.00022667
     atom   63 type  2   force =     0.00020854    0.00026440   -0.00031795
     The non-local contrib.  to forces
     atom    1 type  1   force =    -0.73629121   -0.73769486   -0.73738217
     atom    2 type  2   force =    -0.22488676    0.21097662    0.21095607
     atom    3 type  2   force =     0.06997892    0.06941278    0.06923150
     atom    4 type  2   force =     0.21096401   -0.22462710    0.21120022
     atom    5 type  2   force =     0.06939296    0.06995606    0.06970251
     atom    6 type  2   force =     0.21118953    0.21091604   -0.22479397
     atom    7 type  2   force =     0.06938006    0.06887243    0.07063989
     atom    8 type  2   force =    -0.00827043   -0.00828008    0.05214342
     atom    9 type  2   force =    -0.00481659   -0.00494291    0.01551020
     atom   10 type  2   force =    -0.04462174   -0.01350468   -0.01964083
     atom   11 type  2   force =    -0.07251905    0.05907764   -0.08240662
     atom   12 type  2   force =    -0.01317877   -0.04422142   -0.01924258
     atom   13 type  2   force =     0.06012910   -0.07149474   -0.08286543
     atom   14 type  2   force =    -0.00174317   -0.00151070    0.05156020
     atom   15 type  2   force =     0.01373102    0.01416079    0.00104211
     atom   16 type  2   force =    -0.00836453    0.05229686   -0.00814750
     atom   17 type  2   force =    -0.00537249    0.01560796   -0.00424860
     atom   18 type  2   force =    -0.04437788   -0.01933995   -0.01283314
     atom   19 type  2   force =    -0.07151687   -0.08279904    0.05998132
     atom   20 type  2   force =    -0.00171326    0.05147122   -0.00193400
     atom   21 type  2   force =     0.01368109    0.00041575    0.01350751
     atom   22 type  2   force =    -0.01351730   -0.01889830   -0.04058223
     atom   23 type  2   force =     0.06004380   -0.08234390   -0.07085355
     atom   24 type  2   force =    -0.07355477    0.02818497    0.02829517
     atom   25 type  2   force =    -0.01097093    0.01689824    0.01750390
     atom   26 type  2   force =    -0.06031152   -0.02477153   -0.02479998
     atom   27 type  2   force =    -0.11694734    0.13444403    0.13622973
     atom   28 type  2   force =     0.06297744    0.02887699   -0.01548412
     atom   29 type  2   force =     0.00223134    0.01816439   -0.01626370
     atom   30 type  2   force =     0.06231091   -0.01921271    0.02798216
     atom   31 type  2   force =     0.00162143    0.00498995    0.01941237
     atom   32 type  2   force =     0.05197595   -0.00814577   -0.00813014
     atom   33 type  2   force =     0.01562061   -0.00482536   -0.00492474
     atom   34 type  2   force =     0.05142586   -0.00202168   -0.00159276
     atom   35 type  2   force =     0.00044783    0.01363474    0.01353515
     atom   36 type  2   force =    -0.01937853   -0.04412260   -0.01298529
     atom   37 type  2   force =    -0.08285026   -0.07148763    0.06008353
     atom   38 type  2   force =    -0.01983146   -0.01257691   -0.04434189
     atom   39 type  2   force =    -0.08289705    0.06004207   -0.07153582
     atom   40 type  2   force =     0.02812556   -0.07408477    0.02831205
     atom   41 type  2   force =     0.01676966   -0.01140689    0.01680754
     atom   42 type  2   force =     0.02834070    0.06244285   -0.01912431
     atom   43 type  2   force =     0.01767073    0.00267703    0.00594484
     atom   44 type  2   force =    -0.02444051   -0.05992271   -0.02519548
     atom   45 type  2   force =     0.13540710   -0.11794033    0.13583724
     atom   46 type  2   force =    -0.01926051    0.06234934    0.02816403
     atom   47 type  2   force =     0.00543537    0.00171458    0.01864981
     atom   48 type  2   force =     0.02868527    0.02752610   -0.07022912
     atom   49 type  2   force =     0.01734242    0.01682210   -0.01081176
     atom   50 type  2   force =     0.02812090   -0.01929847    0.06219219
     atom   51 type  2   force =     0.01865133    0.00547481    0.00150972
     atom   52 type  2   force =    -0.01899279    0.02812668    0.06248658
     atom   53 type  2   force =     0.00551081    0.01868662    0.00197077
     atom   54 type  2   force =    -0.02478109   -0.02505269   -0.06027416
     atom   55 type  2   force =     0.13541614    0.13543569   -0.11794191
     atom   56 type  2   force =     0.01619124    0.01609444    0.01594854
     atom   57 type  2   force =     0.00709273    0.00754579    0.00822488
     atom   58 type  2   force =     0.01287592   -0.01358967   -0.00920545
     atom   59 type  2   force =     0.01169289   -0.00948485   -0.01011753
     atom   60 type  2   force =    -0.01293362    0.01341171   -0.01268730
     atom   61 type  2   force =    -0.01053858    0.01062663   -0.01055519
     atom   62 type  2   force =    -0.01307514   -0.01283682    0.01370208
     atom   63 type  2   force =    -0.01048988   -0.01061973    0.01059212
     The ionic contribution  to forces
     atom    1 type  1   force =     3.03920336    3.04042590    3.03828022
     atom    2 type  2   force =     2.25707742   -2.16041331   -2.15889352
     atom    3 type  2   force =     0.43166287   -0.74866781   -0.74566396
     atom    4 type  2   force =    -2.16052803    2.25862972   -2.15765027
     atom    5 type  2   force =    -0.74865294    0.43167796   -0.74642662
     atom    6 type  2   force =    -2.16102908   -2.16279310    2.25488825
     atom    7 type  2   force =    -0.74863166   -0.75694117    0.43585614
     atom    8 type  2   force =     0.24378095    0.24302253   -0.69952613
     atom    9 type  2   force =     0.11295621    0.11226717   -0.22519118
     atom   10 type  2   force =     0.21084766    0.06621326    0.52632139
     atom   11 type  2   force =    -0.29130159   -0.72454580    0.72380918
     atom   12 type  2   force =     0.06666804    0.20791755    0.52524209
     atom   13 type  2   force =    -0.72450048   -0.29125728    0.72630422
     atom   14 type  2   force =    -0.19877461   -0.19813739   -0.66977856
     atom   15 type  2   force =    -0.15860777   -0.15047871   -0.04400005
     atom   16 type  2   force =     0.24094155   -0.70163682    0.24122199
     atom   17 type  2   force =     0.10392568   -0.22537884    0.11662935
     atom   18 type  2   force =     0.20909343    0.52797326    0.06787811
     atom   19 type  2   force =    -0.29128821    0.72917020   -0.72148138
     atom   20 type  2   force =    -0.20174183   -0.67446635   -0.19167615
     atom   21 type  2   force =    -0.15857809   -0.04827649   -0.14962643
     atom   22 type  2   force =     0.04068708    0.55236393    0.21116312
     atom   23 type  2   force =    -0.72453271    0.73727010   -0.28700796
     atom   24 type  2   force =     0.03450733   -0.19172561   -0.19005229
     atom   25 type  2   force =     0.10441673   -0.07252700   -0.06816928
     atom   26 type  2   force =     0.11782642   -0.17786007   -0.17899359
     atom   27 type  2   force =     1.34220515    0.24269390    0.23751616
     atom   28 type  2   force =    -0.06061907   -0.20153521    0.15830639
     atom   29 type  2   force =    -0.15959298   -0.00181816    0.16134652
     atom   30 type  2   force =    -0.08356131    0.15426757   -0.21940398
     atom   31 type  2   force =    -0.15885964    0.22159240    0.00193119
     atom   32 type  2   force =    -0.69966394    0.24584938    0.24122430
     atom   33 type  2   force =    -0.22466286    0.11228741    0.11240291
     atom   34 type  2   force =    -0.67143846   -0.20046311   -0.19712518
     atom   35 type  2   force =    -0.04826402   -0.15859050   -0.15559189
     atom   36 type  2   force =     0.52780152    0.21070920    0.06676142
     atom   37 type  2   force =     0.72913854   -0.29125718   -0.72340636
     atom   38 type  2   force =     0.52792367    0.06519344    0.20925200
     atom   39 type  2   force =     0.72910452   -0.72517671   -0.29111679
     atom   40 type  2   force =    -0.19279388    0.03213567   -0.19008204
     atom   41 type  2   force =    -0.07323958    0.09617834   -0.07241384
     atom   42 type  2   force =    -0.22804293   -0.08361288    0.15459055
     atom   43 type  2   force =    -0.00244794   -0.15883556    0.22465423
     atom   44 type  2   force =    -0.17742277    0.11477315   -0.17795614
     atom   45 type  2   force =     0.24272622    1.34217194    0.24155563
     atom   46 type  2   force =     0.15631603   -0.08563170   -0.22598039
     atom   47 type  2   force =     0.22987722   -0.15818241   -0.00228755
     atom   48 type  2   force =    -0.16687955   -0.21710789    0.03407633
     atom   49 type  2   force =    -0.06432460   -0.07259747    0.10042142
     atom   50 type  2   force =    -0.22455302    0.15913927   -0.07837934
     atom   51 type  2   force =    -0.00240259    0.22988464   -0.15586641
     atom   52 type  2   force =     0.15787933   -0.22760232   -0.08383521
     atom   53 type  2   force =     0.22986331   -0.00242387   -0.15663352
     atom   54 type  2   force =    -0.17440885   -0.17591782    0.11310072
     atom   55 type  2   force =     0.24271485    0.24341101    1.34223162
     atom   56 type  2   force =    -0.11119575   -0.10638355   -0.10126286
     atom   57 type  2   force =    -0.03024671   -0.02209125   -0.01783909
     atom   58 type  2   force =    -0.15946879   -0.01517176    0.01181018
     atom   59 type  2   force =    -0.31178330    0.12376882    0.11840592
     atom   60 type  2   force =     0.00801099   -0.13276067    0.00827702
     atom   61 type  2   force =     0.12380929   -0.31174283    0.12097458
     atom   62 type  2   force =     0.00925573    0.00988944   -0.13153941
     atom   63 type  2   force =     0.12381846    0.12313142   -0.31157579
     The local contribution  to forces
     atom    1 type  1   force =    -2.30042835   -2.30053783   -2.29840454
     atom    2 type  2   force =    -2.03247380    1.94962950    1.94812449
     atom    3 type  2   force =    -0.50084401    0.68012664    0.67725921
     atom    4 type  2   force =     1.94990189   -2.03415917    1.94670279
     atom    5 type  2   force =     0.68017224   -0.50081314    0.67763936
     atom    6 type  2   force =     1.95011072    1.95216059   -2.03035395
     atom    7 type  2   force =     0.68043340    0.68825359   -0.50510642
     atom    8 type  2   force =    -0.23516424   -0.23441777    0.64680218
     atom    9 type  2   force =    -0.10811769   -0.10725975    0.20951585
     atom   10 type  2   force =    -0.16620403   -0.05308965   -0.50613967
     atom   11 type  2   force =     0.36269872    0.66564733   -0.64248879
     atom   12 type  2   force =    -0.05374614   -0.16351110   -0.50567060
     atom   13 type  2   force =     0.66490213    0.36199247   -0.64391102
     atom   14 type  2   force =     0.20037146    0.19963965    0.61799958
     atom   15 type  2   force =     0.14500677    0.13670795    0.04354728
     atom   16 type  2   force =    -0.23219349    0.64876310   -0.23280117
     atom   17 type  2   force =    -0.09916179    0.20993032   -0.11172754
     atom   18 type  2   force =    -0.16469557   -0.50832266   -0.05526627
     atom   19 type  2   force =     0.36204809   -0.64690528    0.66195181
     atom   20 type  2   force =     0.20344467    0.62278307    0.19351435
     atom   21 type  2   force =     0.14469260    0.04788149    0.13591266
     atom   22 type  2   force =    -0.02813712   -0.53235503   -0.16657568
     atom   23 type  2   force =     0.66465663   -0.65481185    0.35768941
     atom   24 type  2   force =     0.03932296    0.16345599    0.16181170
     atom   25 type  2   force =    -0.09280058    0.05595243    0.05123642
     atom   26 type  2   force =    -0.05759389    0.20240894    0.20351210
     atom   27 type  2   force =    -1.22406305   -0.37890278   -0.37587951
     atom   28 type  2   force =    -0.00177907    0.17345371   -0.13884522
     atom   29 type  2   force =     0.15724400   -0.01631052   -0.16278971
     atom   30 type  2   force =     0.02093738   -0.13495847    0.19140082
     atom   31 type  2   force =     0.15633504   -0.22684414   -0.02041622
     atom   32 type  2   force =     0.64715577   -0.23739761   -0.23281320
     atom   33 type  2   force =     0.20882581   -0.10742663   -0.10739775
     atom   34 type  2   force =     0.61967727    0.20232475    0.19870110
     atom   35 type  2   force =     0.04783306    0.14473667    0.14177334
     atom   36 type  2   force =    -0.50801344   -0.16642292   -0.05407272
     atom   37 type  2   force =    -0.64683957    0.36197628    0.66383378
     atom   38 type  2   force =    -0.50778656   -0.05281574   -0.16461650
     atom   39 type  2   force =    -0.64673490    0.66565379    0.36192417
     atom   40 type  2   force =     0.16478316    0.04209700    0.16183735
     atom   41 type  2   force =     0.05649369   -0.08473908    0.05561583
     atom   42 type  2   force =     0.19972074    0.02083792   -0.13551228
     atom   43 type  2   force =    -0.01522746    0.15590821   -0.23078842
     atom   44 type  2   force =     0.20172510   -0.05478957    0.20309027
     atom   45 type  2   force =    -0.37966469   -1.22325282   -0.37910803
     atom   46 type  2   force =    -0.13706104    0.02302130    0.19781083
     atom   47 type  2   force =    -0.23494916    0.15586456   -0.01601107
     atom   48 type  2   force =     0.13905739    0.18884810    0.04021977
     atom   49 type  2   force =     0.04761133    0.05541656   -0.08897814
     atom   50 type  2   force =     0.19642570   -0.13985031    0.01587891
     atom   51 type  2   force =    -0.01590034   -0.23496282    0.15372366
     atom   52 type  2   force =    -0.13880616    0.19959585    0.02111445
     atom   53 type  2   force =    -0.23501569   -0.01593119    0.15411521
     atom   54 type  2   force =     0.19891917    0.20077821   -0.05290802
     atom   55 type  2   force =    -0.37971191   -0.38042262   -1.22328416
     atom   56 type  2   force =     0.09499369    0.09014803    0.08520121
     atom   57 type  2   force =     0.02255142    0.01422572    0.01019101
     atom   58 type  2   force =     0.14540589    0.02792085    0.00149986
     atom   59 type  2   force =     0.30010706   -0.11367816   -0.10862656
     atom   60 type  2   force =     0.00504163    0.11907186    0.00442254
     atom   61 type  2   force =    -0.11303513    0.30078950   -0.11011369
     atom   62 type  2   force =     0.00382686    0.00312970    0.11760300
     atom   63 type  2   force =    -0.11311164   -0.11222487    0.30067193
     The core correction contribution to forces
     atom    1 type  1   force =     0.00000000    0.00000000    0.00000000
     atom    2 type  2   force =     0.00000000    0.00000000    0.00000000
     atom    3 type  2   force =     0.00000000    0.00000000    0.00000000
     atom    4 type  2   force =     0.00000000    0.00000000    0.00000000
     atom    5 type  2   force =     0.00000000    0.00000000    0.00000000
     atom    6 type  2   force =     0.00000000    0.00000000    0.00000000
     atom    7 type  2   force =     0.00000000    0.00000000    0.00000000
     atom    8 type  2   force =     0.00000000    0.00000000    0.00000000
     atom    9 type  2   force =     0.00000000    0.00000000    0.00000000
     atom   10 type  2   force =     0.00000000    0.00000000    0.00000000
     atom   11 type  2   force =     0.00000000    0.00000000    0.00000000
     atom   12 type  2   force =     0.00000000    0.00000000    0.00000000
     atom   13 type  2   force =     0.00000000    0.00000000    0.00000000
     atom   14 type  2   force =     0.00000000    0.00000000    0.00000000
     atom   15 type  2   force =     0.00000000    0.00000000    0.00000000
     atom   16 type  2   force =     0.00000000    0.00000000    0.00000000
     atom   17 type  2   force =     0.00000000    0.00000000    0.00000000
     atom   18 type  2   force =     0.00000000    0.00000000    0.00000000
     atom   19 type  2   force =     0.00000000    0.00000000    0.00000000
     atom   20 type  2   force =     0.00000000    0.00000000    0.00000000
     atom   21 type  2   force =     0.00000000    0.00000000    0.00000000
     atom   22 type  2   force =     0.00000000    0.00000000    0.00000000
     atom   23 type  2   force =     0.00000000    0.00000000    0.00000000
     atom   24 type  2   force =     0.00000000    0.00000000    0.00000000
     atom   25 type  2   force =     0.00000000    0.00000000    0.00000000
     atom   26 type  2   force =     0.00000000    0.00000000    0.00000000
     atom   27 type  2   force =     0.00000000    0.00000000    0.00000000
     atom   28 type  2   force =     0.00000000    0.00000000    0.00000000
     atom   29 type  2   force =     0.00000000    0.00000000    0.00000000
     atom   30 type  2   force =     0.00000000    0.00000000    0.00000000
     atom   31 type  2   force =     0.00000000    0.00000000    0.00000000
     atom   32 type  2   force =     0.00000000    0.00000000    0.00000000
     atom   33 type  2   force =     0.00000000    0.00000000    0.00000000
     atom   34 type  2   force =     0.00000000    0.00000000    0.00000000
     atom   35 type  2   force =     0.00000000    0.00000000    0.00000000
     atom   36 type  2   force =     0.00000000    0.00000000    0.00000000
     atom   37 type  2   force =     0.00000000    0.00000000    0.00000000
     atom   38 type  2   force =     0.00000000    0.00000000    0.00000000
     atom   39 type  2   force =     0.00000000    0.00000000    0.00000000
     atom   40 type  2   force =     0.00000000    0.00000000    0.00000000
     atom   41 type  2   force =     0.00000000    0.00000000    0.00000000
     atom   42 type  2   force =     0.00000000    0.00000000    0.00000000
     atom   43 type  2   force =     0.00000000    0.00000000    0.00000000
     atom   44 type  2   force =     0.00000000    0.00000000    0.00000000
     atom   45 type  2   force =     0.00000000    0.00000000    0.00000000
     atom   46 type  2   force =     0.00000000    0.00000000    0.00000000
     atom   47 type  2   force =     0.00000000    0.00000000    0.00000000
     atom   48 type  2   force =     0.00000000    0.00000000    0.00000000
     atom   49 type  2   force =     0.00000000    0.00000000    0.00000000
     atom   50 type  2   force =     0.00000000    0.00000000    0.00000000
     atom   51 type  2   force =     0.00000000    0.00000000    0.00000000
     atom   52 type  2   force =     0.00000000    0.00000000    0.00000000
     atom   53 type  2   force =     0.00000000    0.00000000    0.00000000
     atom   54 type  2   force =     0.00000000    0.00000000    0.00000000
     atom   55 type  2   force =     0.00000000    0.00000000    0.00000000
     atom   56 type  2   force =     0.00000000    0.00000000    0.00000000
     atom   57 type  2   force =     0.00000000    0.00000000    0.00000000
     atom   58 type  2   force =     0.00000000    0.00000000    0.00000000
     atom   59 type  2   force =     0.00000000    0.00000000    0.00000000
     atom   60 type  2   force =     0.00000000    0.00000000    0.00000000
     atom   61 type  2   force =     0.00000000    0.00000000    0.00000000
     atom   62 type  2   force =     0.00000000    0.00000000    0.00000000
     atom   63 type  2   force =     0.00000000    0.00000000    0.00000000
     The Hubbard contrib.    to forces
     atom    1 type  1   force =     0.00000000    0.00000000    0.00000000
     atom    2 type  2   force =     0.00000000    0.00000000    0.00000000
     atom    3 type  2   force =     0.00000000    0.00000000    0.00000000
     atom    4 type  2   force =     0.00000000    0.00000000    0.00000000
     atom    5 type  2   force =     0.00000000    0.00000000    0.00000000
     atom    6 type  2   force =     0.00000000    0.00000000    0.00000000
     atom    7 type  2   force =     0.00000000    0.00000000    0.00000000
     atom    8 type  2   force =     0.00000000    0.00000000    0.00000000
     atom    9 type  2   force =     0.00000000    0.00000000    0.00000000
     atom   10 type  2   force =     0.00000000    0.00000000    0.00000000
     atom   11 type  2   force =     0.00000000    0.00000000    0.00000000
     atom   12 type  2   force =     0.00000000    0.00000000    0.00000000
     atom   13 type  2   force =     0.00000000    0.00000000    0.00000000
     atom   14 type  2   force =     0.00000000    0.00000000    0.00000000
     atom   15 type  2   force =     0.00000000    0.00000000    0.00000000
     atom   16 type  2   force =     0.00000000    0.00000000    0.00000000
     atom   17 type  2   force =     0.00000000    0.00000000    0.00000000
     atom   18 type  2   force =     0.00000000    0.00000000    0.00000000
     atom   19 type  2   force =     0.00000000    0.00000000    0.00000000
     atom   20 type  2   force =     0.00000000    0.00000000    0.00000000
     atom   21 type  2   force =     0.00000000    0.00000000    0.00000000
     atom   22 type  2   force =     0.00000000    0.00000000    0.00000000
     atom   23 type  2   force =     0.00000000    0.00000000    0.00000000
     atom   24 type  2   force =     0.00000000    0.00000000    0.00000000
     atom   25 type  2   force =     0.00000000    0.00000000    0.00000000
     atom   26 type  2   force =     0.00000000    0.00000000    0.00000000
     atom   27 type  2   force =     0.00000000    0.00000000    0.00000000
     atom   28 type  2   force =     0.00000000    0.00000000    0.00000000
     atom   29 type  2   force =     0.00000000    0.00000000    0.00000000
     atom   30 type  2   force =     0.00000000    0.00000000    0.00000000
     atom   31 type  2   force =     0.00000000    0.00000000    0.00000000
     atom   32 type  2   force =     0.00000000    0.00000000    0.00000000
     atom   33 type  2   force =     0.00000000    0.00000000    0.00000000
     atom   34 type  2   force =     0.00000000    0.00000000    0.00000000
     atom   35 type  2   force =     0.00000000    0.00000000    0.00000000
     atom   36 type  2   force =     0.00000000    0.00000000    0.00000000
     atom   37 type  2   force =     0.00000000    0.00000000    0.00000000
     atom   38 type  2   force =     0.00000000    0.00000000    0.00000000
     atom   39 type  2   force =     0.00000000    0.00000000    0.00000000
     atom   40 type  2   force =     0.00000000    0.00000000    0.00000000
     atom   41 type  2   force =     0.00000000    0.00000000    0.00000000
     atom   42 type  2   force =     0.00000000    0.00000000    0.00000000
     atom   43 type  2   force =     0.00000000    0.00000000    0.00000000
     atom   44 type  2   force =     0.00000000    0.00000000    0.00000000
     atom   45 type  2   force =     0.00000000    0.00000000    0.00000000
     atom   46 type  2   force =     0.00000000    0.00000000    0.00000000
     atom   47 type  2   force =     0.00000000    0.00000000    0.00000000
     atom   48 type  2   force =     0.00000000    0.00000000    0.00000000
     atom   49 type  2   force =     0.00000000    0.00000000    0.00000000
     atom   50 type  2   force =     0.00000000    0.00000000    0.00000000
     atom   51 type  2   force =     0.00000000    0.00000000    0.00000000
     atom   52 type  2   force =     0.00000000    0.00000000    0.00000000
     atom   53 type  2   force =     0.00000000    0.00000000    0.00000000
     atom   54 type  2   force =     0.00000000    0.00000000    0.00000000
     atom   55 type  2   force =     0.00000000    0.00000000    0.00000000
     atom   56 type  2   force =     0.00000000    0.00000000    0.00000000
     atom   57 type  2   force =     0.00000000    0.00000000    0.00000000
     atom   58 type  2   force =     0.00000000    0.00000000    0.00000000
     atom   59 type  2   force =     0.00000000    0.00000000    0.00000000
     atom   60 type  2   force =     0.00000000    0.00000000    0.00000000
     atom   61 type  2   force =     0.00000000    0.00000000    0.00000000
     atom   62 type  2   force =     0.00000000    0.00000000    0.00000000
     atom   63 type  2   force =     0.00000000    0.00000000    0.00000000
     The SCF correction term to forces
     atom    1 type  1   force =     0.00000782   -0.00002055   -0.00003016
     atom    2 type  2   force =     0.00000902    0.00000020    0.00000613
     atom    3 type  2   force =    -0.00000100    0.00001259    0.00002106
     atom    4 type  2   force =    -0.00001969   -0.00001869    0.00000789
     atom    5 type  2   force =    -0.00001578   -0.00000609    0.00002143
     atom    6 type  2   force =    -0.00001679    0.00000520   -0.00002213
     atom    7 type  2   force =    -0.00001050    0.00001851   -0.00000871
     atom    8 type  2   force =     0.00000571   -0.00001884    0.00001866
     atom    9 type  2   force =    -0.00000549   -0.00000749    0.00001140
     atom   10 type  2   force =     0.00000333    0.00000751   -0.00000403
     atom   11 type  2   force =    -0.00000843    0.00001274   -0.00002280
     atom   12 type  2   force =    -0.00001147   -0.00001803   -0.00000724
     atom   13 type  2   force =    -0.00001386   -0.00000977   -0.00002159
     atom   14 type  2   force =    -0.00001352    0.00000674    0.00002008
     atom   15 type  2   force =    -0.00001240    0.00001889    0.00000718
     atom   16 type  2   force =     0.00000232    0.00001330   -0.00002733
     atom   17 type  2   force =    -0.00000154    0.00001207   -0.00001007
     atom   18 type  2   force =     0.00000598   -0.00000095    0.00001046
     atom   19 type  2   force =    -0.00000583   -0.00001580    0.00001938
     atom   20 type  2   force =    -0.00000678    0.00001672    0.00000935
     atom   21 type  2   force =    -0.00000978    0.00000613    0.00002100
     atom   22 type  2   force =    -0.00000923   -0.00000415   -0.00002131
     atom   23 type  2   force =    -0.00001556   -0.00002030   -0.00001197
     atom   24 type  2   force =     0.00000655    0.00001814    0.00002498
     atom   25 type  2   force =    -0.00000424    0.00000902    0.00001042
     atom   26 type  2   force =     0.00000425   -0.00000594   -0.00000820
     atom   27 type  2   force =     0.00000020   -0.00001852   -0.00002340
     atom   28 type  2   force =    -0.00001364    0.00001687   -0.00000801
     atom   29 type  2   force =    -0.00000831    0.00001112   -0.00002021
     atom   30 type  2   force =    -0.00001244   -0.00000511    0.00002078
     atom   31 type  2   force =    -0.00001126   -0.00001841    0.00001251
     atom   32 type  2   force =    -0.00000546   -0.00001890   -0.00002551
     atom   33 type  2   force =     0.00000919   -0.00000509   -0.00001270
     atom   34 type  2   force =    -0.00000508    0.00001072    0.00000704
     atom   35 type  2   force =    -0.00000009    0.00001941    0.00001989
     atom   36 type  2   force =     0.00001650   -0.00001713    0.00000810
     atom   37 type  2   force =     0.00001496   -0.00001143    0.00001767
     atom   38 type  2   force =     0.00001408    0.00000742   -0.00002512
     atom   39 type  2   force =     0.00000967    0.00001138   -0.00001597
     atom   40 type  2   force =    -0.00000415   -0.00001938    0.00002519
     atom   41 type  2   force =     0.00000639   -0.00000980    0.00001333
     atom   42 type  2   force =    -0.00000232    0.00000485   -0.00000625
     atom   43 type  2   force =     0.00001136    0.00001910   -0.00001939
     atom   44 type  2   force =     0.00001157   -0.00001658   -0.00000643
     atom   45 type  2   force =     0.00000815   -0.00000108   -0.00002365
     atom   46 type  2   force =     0.00001169    0.00000435    0.00002376
     atom   47 type  2   force =     0.00001191    0.00001657    0.00001835
     atom   48 type  2   force =    -0.00000109    0.00001957   -0.00002040
     atom   49 type  2   force =     0.00000201    0.00000617   -0.00001257
     atom   50 type  2   force =    -0.00000590   -0.00001084    0.00000688
     atom   51 type  2   force =     0.00000886   -0.00002030    0.00002379
     atom   52 type  2   force =     0.00000638    0.00001842    0.00000497
     atom   53 type  2   force =     0.00000964    0.00001452    0.00002330
     atom   54 type  2   force =     0.00000900   -0.00000810   -0.00002410
     atom   55 type  2   force =     0.00000968   -0.00001761   -0.00000584
     atom   56 type  2   force =    -0.00000566    0.00002002    0.00002027
     atom   57 type  2   force =     0.00000489    0.00000984    0.00001133
     atom   58 type  2   force =    -0.00000315   -0.00000632   -0.00000736
     atom   59 type  2   force =     0.00000401   -0.00001889   -0.00002360
     atom   60 type  2   force =     0.00001199    0.00001720   -0.00000388
     atom   61 type  2   force =     0.00000775    0.00000504   -0.00002360
     atom   62 type  2   force =     0.00001099   -0.00000560    0.00002296
     atom   63 type  2   force =     0.00001010   -0.00001783    0.00000910

     Total force =     0.021272     Total SCF correction =     0.000192

     Writing all to output data dir ./pwscf.save/ :
     XML data file, charge density, pseudopotentials, collected wavefunctions
 
     init_run     :      0.71s CPU      0.75s WALL (       1 calls)
     electrons    :      9.55s CPU      9.75s WALL (       1 calls)
     forces       :      2.11s CPU      2.12s WALL (       1 calls)

     Called by init_run:
     wfcinit      :      0.14s CPU      0.16s WALL (       1 calls)
     wfcinit:wfcr :      0.13s CPU      0.15s WALL (       1 calls)
     potinit      :      0.46s CPU      0.47s WALL (       1 calls)
     hinit0       :      0.02s CPU      0.03s WALL (       1 calls)

     Called by electrons:
     c_bands      :      8.18s CPU      8.34s WALL (      14 calls)
     sum_band     :      0.77s CPU      0.78s WALL (      14 calls)
     v_of_rho     :      0.19s CPU      0.19s WALL (      15 calls)
     v_h          :      0.00s CPU      0.00s WALL (      15 calls)
     v_xc         :      0.18s CPU      0.19s WALL (      15 calls)
     mix_rho      :      0.10s CPU      0.11s WALL (      14 calls)

     Called by c_bands:
     init_us_2    :      0.02s CPU      0.02s WALL (      30 calls)
     regterg      :      6.57s CPU      6.72s WALL (      14 calls)

     Called by sum_band:
     sum_band:wei :      0.03s CPU      0.03s WALL (      14 calls)
     sum_band:loo :      0.66s CPU      0.67s WALL (      14 calls)
     sum_band:buf :      0.00s CPU      0.00s WALL (      14 calls)
     sum_band:ini :      0.01s CPU      0.01s WALL (      14 calls)

     Called by *egterg:
     rdiaghg      :      3.78s CPU      3.88s WALL (     280 calls)
     regterg:over :      0.33s CPU      0.34s WALL (     266 calls)
     regterg:upda :      0.14s CPU      0.14s WALL (     266 calls)
     regterg:last :      0.22s CPU      0.22s WALL (      53 calls)
     rdiaghg:chol :      0.13s CPU      0.14s WALL (     280 calls)
     rdiaghg:inve :      0.03s CPU      0.03s WALL (     280 calls)
     rdiaghg:para :      0.35s CPU      0.37s WALL (     560 calls)
     h_psi        :      2.13s CPU      2.17s WALL (     281 calls)
     g_psi        :      0.00s CPU      0.00s WALL (     266 calls)

     Called by h_psi:
     h_psi:calbec :      0.33s CPU      0.33s WALL (     281 calls)
     vloc_psi     :      1.68s CPU      1.71s WALL (     281 calls)
                                        0.00s GPU  (     281 calls)
     add_vuspsi   :      0.11s CPU      0.12s WALL (     281 calls)

     General routines
     calbec       :      1.49s CPU      1.49s WALL (     285 calls)
     fft          :      0.20s CPU      0.21s WALL (     196 calls)
     ffts         :      0.01s CPU      0.01s WALL (      14 calls)
     fftw         :      2.23s CPU      2.27s WALL (   10248 calls)
 
     Parallel routines
 
     PWSCF        :     14.21s CPU     14.62s WALL

 
   This run was terminated on:  14: 0:27  19Nov2025            

=------------------------------------------------------------------------------=
   JOB DONE.
=------------------------------------------------------------------------------=
