
     Program PWSCF v.7.5 starts on 19Nov2025 at 13:49:58 

     This program is part of the open-source Quantum ESPRESSO suite
     for quantum simulation of materials; please cite
         "P. Giannozzi et al., J. Phys.:Condens. Matter 21 395502 (2009);
         "P. Giannozzi et al., J. Phys.:Condens. Matter 29 465901 (2017);
         "P. Giannozzi et al., J. Chem. Phys. 152 154105 (2020);
          URL http://www.quantum-espresso.org", 
     in publications or presentations arising from this work. More details at
     http://www.quantum-espresso.org/quote

     Parallel version (MPI), running on    96 processors

     MPI processes distributed on     2 nodes
     144329 MiB available memory on the printing compute node when the environment starts
 
     Reading input from supercell-036.in

     Current dimensions of program PWSCF are:
     Max number of different atomic species (ntypx) = 10
     Max number of k-points (npk) =  40000
     Max angular momentum in pseudopotentials (lmaxx) =  4

     gamma-point specific algorithms are used
 
     K-points division:     npool     =       2
     R & G space division:  proc/nbgrp/npool/nimage =      48
     Subspace diagonalization in iterative solution of the eigenvalue problem:
     one sub-group per band group will be used
     scalapack distributed-memory algorithm (size of sub-group:  2*  2 procs)

 
     Parallelization info
     --------------------
     sticks:   dense  smooth     PW     G-vecs:    dense   smooth      PW
     Min          59      59     14                 2432     2432     302
     Max          62      62     16                 2442     2442     316
     Sum        2885    2885    725               116921   116921   14771
 
     Using Slab Decomposition
 


     bravais-lattice index     =            0
     lattice parameter (alat)  =      13.4813  a.u.
     unit-cell volume          =    2450.1683 (a.u.)^3
     number of atoms/cell      =           63
     number of atomic types    =            2
     number of electrons       =       254.00 (up: 128.00, down: 126.00)
     number of Kohn-Sham states=          152
     kinetic-energy cutoff     =      50.0000  Ry
     charge density cutoff     =     200.0000  Ry
     scf convergence threshold =      1.0E-08
     mixing beta               =       0.7000
     number of iterations used =            8  plain     mixing
     Exchange-correlation= PBE
                           (   1   4   3   4   0   0   0)

     celldm(1)=  13.481306  celldm(2)=   0.000000  celldm(3)=   0.000000
     celldm(4)=   0.000000  celldm(5)=   0.000000  celldm(6)=   0.000000

     crystal axes: (cart. coord. in units of alat)
               a(1) = (   1.000000   0.000000   0.000000 )  
               a(2) = (   0.000000   1.000000   0.000000 )  
               a(3) = (   0.000000   0.000000   1.000000 )  

     reciprocal axes: (cart. coord. in units 2 pi/alat)
               b(1) = (  1.000000  0.000000  0.000000 )  
               b(2) = (  0.000000  1.000000  0.000000 )  
               b(3) = (  0.000000  0.000000  1.000000 )  


     PseudoPot. # 1 for N  read from file:
     ./N_ONCV_PBE-1.2.upf
     MD5 check sum: 5312fdf34e96954e02a33bdc911c617a
     Pseudo is Norm-conserving, Zval =  5.0
     Generated using ONCVPSP code by D. R. Hamann
     Using radial grid of  602 points,  4 beta functions with: 
                l(1) =   0
                l(2) =   0
                l(3) =   1
                l(4) =   1

     PseudoPot. # 2 for C  read from file:
     ./C_ONCV_PBE-1.2.upf
     MD5 check sum: d60b57d9bdca4133f5fde4b584ee909d
     Pseudo is Norm-conserving, Zval =  4.0
     Generated using ONCVPSP code by D. R. Hamann
     Using radial grid of  602 points,  4 beta functions with: 
                l(1) =   0
                l(2) =   0
                l(3) =   1
                l(4) =   1

     atomic species   valence    mass     pseudopotential
     N                 5.00    14.00670     N ( 1.00)
     C                 4.00    12.01070     C ( 1.00)

     Starting magnetic structure 
     atomic species   magnetization
     N               0.000
     C               0.000

     No symmetry found


                                    s                        frac. trans.

      isym =  1     identity                                     

 cryst.   s( 1) = (     1          0          0      )
                  (     0          1          0      )
                  (     0          0          1      )

 cart.    s( 1) = (  1.0000000  0.0000000  0.0000000 )
                  (  0.0000000  1.0000000  0.0000000 )
                  (  0.0000000  0.0000000  1.0000000 )


   Cartesian axes

     site n.     atom                  positions (alat units)
         1        N      tau(   1) = (   0.9869283   0.9869283   0.9869283  )
         2        C      tau(   2) = (   0.9921390   0.2607625   0.2607625  )
         3        C      tau(   3) = (   0.1236981   0.3746848   0.3746848  )
         4        C      tau(   4) = (   0.2607625   0.9921390   0.2607625  )
         5        C      tau(   5) = (   0.3746848   0.1236981   0.3746848  )
         6        C      tau(   6) = (   0.2607625   0.2607625   0.9921390  )
         7        C      tau(   7) = (   0.3746848   0.3746848   0.1236981  )
         8        C      tau(   8) = (   0.0007517   0.0007517   0.4988587  )
         9        C      tau(   9) = (   0.1251291   0.1251291   0.6250516  )
        10        C      tau(  10) = (   0.0014372   0.2476607   0.7521916  )
        11        C      tau(  11) = (   0.1266329   0.3730745   0.8775065  )
        12        C      tau(  12) = (   0.2476607   0.0014372   0.7521916  )
        13        C      tau(  13) = (   0.3730745   0.1266329   0.8775065  )
        14        C      tau(  14) = (   0.2498467   0.2498467   0.4996267  )
        15        C      tau(  15) = (   0.3734628   0.3749463   0.6249280  )
        16        C      tau(  16) = (   0.0007517   0.4988587   0.0007517  )
        17        C      tau(  17) = (   0.1251291   0.6250516   0.1251291  )
        18        C      tau(  18) = (   0.0014372   0.7521916   0.2476607  )
        19        C      tau(  19) = (   0.1266329   0.8775065   0.3730745  )
        20        C      tau(  20) = (   0.2498467   0.4996267   0.2498467  )
        21        C      tau(  21) = (   0.3749463   0.6249280   0.3749463  )
        22        C      tau(  22) = (   0.2476607   0.7521916   0.0014372  )
        23        C      tau(  23) = (   0.3730745   0.8775065   0.1266329  )
        24        C      tau(  24) = (   0.0010116   0.5014264   0.5014264  )
        25        C      tau(  25) = (   0.1250381   0.6250852   0.6250852  )
        26        C      tau(  26) = (   0.9996941   0.7483805   0.7483805  )
        27        C      tau(  27) = (   0.1189720   0.8751585   0.8751585  )
        28        C      tau(  28) = (   0.2496290   0.5009902   0.7494822  )
        29        C      tau(  29) = (   0.3740517   0.6261334   0.8754230  )
        30        C      tau(  30) = (   0.2496290   0.7494822   0.5009902  )
        31        C      tau(  31) = (   0.3740517   0.8754230   0.6261334  )
        32        C      tau(  32) = (   0.4988587   0.0007517   0.0007517  )
        33        C      tau(  33) = (   0.6250516   0.1251291   0.1251291  )
        34        C      tau(  34) = (   0.4996267   0.2498467   0.2498467  )
        35        C      tau(  35) = (   0.6249280   0.3749463   0.3749463  )
        36        C      tau(  36) = (   0.7521916   0.0014372   0.2476607  )
        37        C      tau(  37) = (   0.8775065   0.1266329   0.3730745  )
        38        C      tau(  38) = (   0.7521916   0.2476607   0.0014372  )
        39        C      tau(  39) = (   0.8775065   0.3730745   0.1266329  )
        40        C      tau(  40) = (   0.5014264   0.0010116   0.5014264  )
        41        C      tau(  41) = (   0.6250852   0.1250381   0.6250852  )
        42        C      tau(  42) = (   0.5009902   0.2496290   0.7494822  )
        43        C      tau(  43) = (   0.6261334   0.3740517   0.8754230  )
        44        C      tau(  44) = (   0.7483805   0.9996941   0.7483805  )
        45        C      tau(  45) = (   0.8751585   0.1189720   0.8751585  )
        46        C      tau(  46) = (   0.7494822   0.2496290   0.5009902  )
        47        C      tau(  47) = (   0.8754230   0.3740517   0.6261334  )
        48        C      tau(  48) = (   0.5014264   0.5014264   0.0010116  )
        49        C      tau(  49) = (   0.6250852   0.6250852   0.1250381  )
        50        C      tau(  50) = (   0.5009902   0.7494822   0.2496290  )
        51        C      tau(  51) = (   0.6261334   0.8754230   0.3740517  )
        52        C      tau(  52) = (   0.7494822   0.5009902   0.2496290  )
        53        C      tau(  53) = (   0.8754230   0.6261334   0.3740517  )
        54        C      tau(  54) = (   0.7483805   0.7483805   0.9996941  )
        55        C      tau(  55) = (   0.8751585   0.8751585   0.1189720  )
        56        C      tau(  56) = (   0.4999757   0.4999757   0.4999757  )
        57        C      tau(  57) = (   0.6249536   0.6249536   0.6249536  )
        58        C      tau(  58) = (   0.4990957   0.7503802   0.7503802  )
        59        C      tau(  59) = (   0.6235333   0.8749829   0.8749829  )
        60        C      tau(  60) = (   0.7503802   0.4990957   0.7503802  )
        61        C      tau(  61) = (   0.8749829   0.6235333   0.8749829  )
        62        C      tau(  62) = (   0.7503802   0.7503802   0.4990957  )
        63        C      tau(  63) = (   0.8749829   0.8749829   0.6235333  )

   Crystallographic axes

     site n.     atom                  positions (cryst. coord.)
         1        N      tau(   1) = (  0.9869283  0.9869283  0.9869283  )
         2        C      tau(   2) = (  0.9921390  0.2607625  0.2607625  )
         3        C      tau(   3) = (  0.1236981  0.3746848  0.3746848  )
         4        C      tau(   4) = (  0.2607625  0.9921390  0.2607625  )
         5        C      tau(   5) = (  0.3746848  0.1236981  0.3746848  )
         6        C      tau(   6) = (  0.2607625  0.2607625  0.9921390  )
         7        C      tau(   7) = (  0.3746848  0.3746848  0.1236981  )
         8        C      tau(   8) = (  0.0007517  0.0007517  0.4988587  )
         9        C      tau(   9) = (  0.1251291  0.1251291  0.6250516  )
        10        C      tau(  10) = (  0.0014372  0.2476607  0.7521916  )
        11        C      tau(  11) = (  0.1266329  0.3730745  0.8775065  )
        12        C      tau(  12) = (  0.2476607  0.0014372  0.7521916  )
        13        C      tau(  13) = (  0.3730745  0.1266329  0.8775065  )
        14        C      tau(  14) = (  0.2498467  0.2498467  0.4996267  )
        15        C      tau(  15) = (  0.3734628  0.3749463  0.6249280  )
        16        C      tau(  16) = (  0.0007517  0.4988587  0.0007517  )
        17        C      tau(  17) = (  0.1251291  0.6250516  0.1251291  )
        18        C      tau(  18) = (  0.0014372  0.7521916  0.2476607  )
        19        C      tau(  19) = (  0.1266329  0.8775065  0.3730745  )
        20        C      tau(  20) = (  0.2498467  0.4996267  0.2498467  )
        21        C      tau(  21) = (  0.3749463  0.6249280  0.3749463  )
        22        C      tau(  22) = (  0.2476607  0.7521916  0.0014372  )
        23        C      tau(  23) = (  0.3730745  0.8775065  0.1266329  )
        24        C      tau(  24) = (  0.0010116  0.5014264  0.5014264  )
        25        C      tau(  25) = (  0.1250381  0.6250852  0.6250852  )
        26        C      tau(  26) = (  0.9996941  0.7483805  0.7483805  )
        27        C      tau(  27) = (  0.1189720  0.8751585  0.8751585  )
        28        C      tau(  28) = (  0.2496290  0.5009902  0.7494822  )
        29        C      tau(  29) = (  0.3740517  0.6261334  0.8754230  )
        30        C      tau(  30) = (  0.2496290  0.7494822  0.5009902  )
        31        C      tau(  31) = (  0.3740517  0.8754230  0.6261334  )
        32        C      tau(  32) = (  0.4988587  0.0007517  0.0007517  )
        33        C      tau(  33) = (  0.6250516  0.1251291  0.1251291  )
        34        C      tau(  34) = (  0.4996267  0.2498467  0.2498467  )
        35        C      tau(  35) = (  0.6249280  0.3749463  0.3749463  )
        36        C      tau(  36) = (  0.7521916  0.0014372  0.2476607  )
        37        C      tau(  37) = (  0.8775065  0.1266329  0.3730745  )
        38        C      tau(  38) = (  0.7521916  0.2476607  0.0014372  )
        39        C      tau(  39) = (  0.8775065  0.3730745  0.1266329  )
        40        C      tau(  40) = (  0.5014264  0.0010116  0.5014264  )
        41        C      tau(  41) = (  0.6250852  0.1250381  0.6250852  )
        42        C      tau(  42) = (  0.5009902  0.2496290  0.7494822  )
        43        C      tau(  43) = (  0.6261334  0.3740517  0.8754230  )
        44        C      tau(  44) = (  0.7483805  0.9996941  0.7483805  )
        45        C      tau(  45) = (  0.8751585  0.1189720  0.8751585  )
        46        C      tau(  46) = (  0.7494822  0.2496290  0.5009902  )
        47        C      tau(  47) = (  0.8754230  0.3740517  0.6261334  )
        48        C      tau(  48) = (  0.5014264  0.5014264  0.0010116  )
        49        C      tau(  49) = (  0.6250852  0.6250852  0.1250381  )
        50        C      tau(  50) = (  0.5009902  0.7494822  0.2496290  )
        51        C      tau(  51) = (  0.6261334  0.8754230  0.3740517  )
        52        C      tau(  52) = (  0.7494822  0.5009902  0.2496290  )
        53        C      tau(  53) = (  0.8754230  0.6261334  0.3740517  )
        54        C      tau(  54) = (  0.7483805  0.7483805  0.9996941  )
        55        C      tau(  55) = (  0.8751585  0.8751585  0.1189720  )
        56        C      tau(  56) = (  0.4999757  0.4999757  0.4999757  )
        57        C      tau(  57) = (  0.6249536  0.6249536  0.6249536  )
        58        C      tau(  58) = (  0.4990957  0.7503802  0.7503802  )
        59        C      tau(  59) = (  0.6235333  0.8749829  0.8749829  )
        60        C      tau(  60) = (  0.7503802  0.4990957  0.7503802  )
        61        C      tau(  61) = (  0.8749829  0.6235333  0.8749829  )
        62        C      tau(  62) = (  0.7503802  0.7503802  0.4990957  )
        63        C      tau(  63) = (  0.8749829  0.8749829  0.6235333  )

     number of k points=     1
                       cart. coord. in units 2pi/alat
        k(    1) = (   0.0000000   0.0000000   0.0000000), wk =   1.0000000

                       cryst. coord.
        k(    1) = (   0.0000000   0.0000000   0.0000000), wk =   1.0000000

     Dense  grid:    58461 G-vectors     FFT dimensions: (  64,  64,  64)

     Dynamical RAM for                 wfc:       0.35 MB

     Dynamical RAM for     wfc (w. buffer):       0.35 MB

     Dynamical RAM for           str. fact:       0.04 MB

     Dynamical RAM for           local pot:       0.00 MB

     Dynamical RAM for          nlocal pot:       1.17 MB

     Dynamical RAM for                qrad:       0.65 MB

     Dynamical RAM for          rho,v,vnew:       0.49 MB

     Dynamical RAM for               rhoin:       0.16 MB

     Dynamical RAM for            rho*nmix:       0.60 MB

     Dynamical RAM for           G-vectors:       0.08 MB

     Dynamical RAM for          h,s,v(r/c):       0.53 MB

     Dynamical RAM for          <psi|beta>:       0.58 MB

     Dynamical RAM for                 psi:       0.71 MB

     Dynamical RAM for                hpsi:       0.71 MB

     Dynamical RAM for      wfcinit/wfcrot:       1.24 MB

     Estimated static dynamical RAM per process >       3.37 MB

     Estimated max dynamical RAM per process >       6.49 MB

     Estimated total dynamical RAM >     594.05 MB
     Generating pointlists ...
     new r_m :   0.0850 (alat units)  1.1454 (a.u.) for type    1
     new r_m :   0.0850 (alat units)  1.1454 (a.u.) for type    2

     Initial potential from superposition of free atoms

     starting charge     252.5655, renormalised to     254.0000
     Starting wfcs are random

     total cpu time spent up to now is        1.1 secs

     Self-consistent Calculation

     iteration #  1     ecut=    50.00 Ry     beta= 0.70
     Davidson diagonalization with overlap

---- Real-time Memory Report at c_bands before calling an iterative solver
           158 MiB given to the printing process from OS
             0 MiB allocation reported by mallinfo(arena+hblkhd)
        143327 MiB available memory on the node where the printing process lives
------------------
     ethr =  1.00E-02,  avg # of iterations = 14.0

     total cpu time spent up to now is        1.9 secs

     total energy              =    -723.30013832 Ry
     estimated scf accuracy    <       3.69053351 Ry

     total magnetization       =     2.00 Bohr mag/cell
     absolute magnetization    =     2.00 Bohr mag/cell

     iteration #  2     ecut=    50.00 Ry     beta= 0.70
     Davidson diagonalization with overlap

---- Real-time Memory Report at c_bands before calling an iterative solver
           164 MiB given to the printing process from OS
             0 MiB allocation reported by mallinfo(arena+hblkhd)
        143261 MiB available memory on the node where the printing process lives
------------------
     ethr =  1.45E-03,  avg # of iterations = 11.5

     total cpu time spent up to now is        3.3 secs

     total energy              =    -723.67658926 Ry
     estimated scf accuracy    <       0.44361127 Ry

     total magnetization       =     2.00 Bohr mag/cell
     absolute magnetization    =     2.07 Bohr mag/cell

     iteration #  3     ecut=    50.00 Ry     beta= 0.70
     Davidson diagonalization with overlap

---- Real-time Memory Report at c_bands before calling an iterative solver
           164 MiB given to the printing process from OS
             0 MiB allocation reported by mallinfo(arena+hblkhd)
        143260 MiB available memory on the node where the printing process lives
------------------
     c_bands:  2 eigenvalues not converged
     ethr =  1.75E-04,  avg # of iterations = 18.5

     total cpu time spent up to now is        4.2 secs

     total energy              =    -723.73790228 Ry
     estimated scf accuracy    <       0.86766967 Ry

     total magnetization       =     2.00 Bohr mag/cell
     absolute magnetization    =     2.12 Bohr mag/cell

     iteration #  4     ecut=    50.00 Ry     beta= 0.70
     Davidson diagonalization with overlap

---- Real-time Memory Report at c_bands before calling an iterative solver
           164 MiB given to the printing process from OS
             0 MiB allocation reported by mallinfo(arena+hblkhd)
        143275 MiB available memory on the node where the printing process lives
------------------
     ethr =  1.75E-04,  avg # of iterations = 16.5

     total cpu time spent up to now is        5.4 secs

     total energy              =    -723.91128709 Ry
     estimated scf accuracy    <       0.00813038 Ry

     total magnetization       =     2.00 Bohr mag/cell
     absolute magnetization    =     2.19 Bohr mag/cell

     iteration #  5     ecut=    50.00 Ry     beta= 0.70
     Davidson diagonalization with overlap

---- Real-time Memory Report at c_bands before calling an iterative solver
           165 MiB given to the printing process from OS
             0 MiB allocation reported by mallinfo(arena+hblkhd)
        143273 MiB available memory on the node where the printing process lives
------------------
     c_bands:  5 eigenvalues not converged
     ethr =  3.20E-06,  avg # of iterations = 20.0

     total cpu time spent up to now is        6.0 secs

     total energy              =    -723.91589603 Ry
     estimated scf accuracy    <       0.00410760 Ry

     total magnetization       =     2.00 Bohr mag/cell
     absolute magnetization    =     2.22 Bohr mag/cell

     iteration #  6     ecut=    50.00 Ry     beta= 0.70
     Davidson diagonalization with overlap

---- Real-time Memory Report at c_bands before calling an iterative solver
           165 MiB given to the printing process from OS
             0 MiB allocation reported by mallinfo(arena+hblkhd)
        143262 MiB available memory on the node where the printing process lives
------------------
     c_bands:  2 eigenvalues not converged
     ethr =  1.62E-06,  avg # of iterations = 20.0

     total cpu time spent up to now is        6.5 secs

     total energy              =    -723.91661927 Ry
     estimated scf accuracy    <       0.00070040 Ry

     total magnetization       =     2.00 Bohr mag/cell
     absolute magnetization    =     2.25 Bohr mag/cell

     iteration #  7     ecut=    50.00 Ry     beta= 0.70
     Davidson diagonalization with overlap

---- Real-time Memory Report at c_bands before calling an iterative solver
           165 MiB given to the printing process from OS
             0 MiB allocation reported by mallinfo(arena+hblkhd)
        143268 MiB available memory on the node where the printing process lives
------------------
     c_bands:  3 eigenvalues not converged
     ethr =  2.76E-07,  avg # of iterations = 20.0

     total cpu time spent up to now is        6.9 secs

     total energy              =    -723.91681999 Ry
     estimated scf accuracy    <       0.00007304 Ry

     total magnetization       =     2.00 Bohr mag/cell
     absolute magnetization    =     2.26 Bohr mag/cell

     iteration #  8     ecut=    50.00 Ry     beta= 0.70
     Davidson diagonalization with overlap

---- Real-time Memory Report at c_bands before calling an iterative solver
           165 MiB given to the printing process from OS
             0 MiB allocation reported by mallinfo(arena+hblkhd)
        143258 MiB available memory on the node where the printing process lives
------------------
     c_bands:  1 eigenvalues not converged
     ethr =  2.88E-08,  avg # of iterations = 20.0

     total cpu time spent up to now is        7.5 secs

     total energy              =    -723.91684859 Ry
     estimated scf accuracy    <       0.00002104 Ry

     total magnetization       =     2.00 Bohr mag/cell
     absolute magnetization    =     2.27 Bohr mag/cell

     iteration #  9     ecut=    50.00 Ry     beta= 0.70
     Davidson diagonalization with overlap

---- Real-time Memory Report at c_bands before calling an iterative solver
           165 MiB given to the printing process from OS
             0 MiB allocation reported by mallinfo(arena+hblkhd)
        143265 MiB available memory on the node where the printing process lives
------------------
     c_bands:  3 eigenvalues not converged
     ethr =  8.28E-09,  avg # of iterations = 20.0

     total cpu time spent up to now is       10.3 secs

     total energy              =    -723.91685577 Ry
     estimated scf accuracy    <       0.00000722 Ry

     total magnetization       =     2.00 Bohr mag/cell
     absolute magnetization    =     2.28 Bohr mag/cell

     iteration # 10     ecut=    50.00 Ry     beta= 0.70
     Davidson diagonalization with overlap

---- Real-time Memory Report at c_bands before calling an iterative solver
           165 MiB given to the printing process from OS
             0 MiB allocation reported by mallinfo(arena+hblkhd)
        143260 MiB available memory on the node where the printing process lives
------------------
     c_bands:  2 eigenvalues not converged
     ethr =  2.84E-09,  avg # of iterations = 20.0

     total cpu time spent up to now is       10.9 secs

     total energy              =    -723.91685876 Ry
     estimated scf accuracy    <       0.00000090 Ry

     total magnetization       =     2.00 Bohr mag/cell
     absolute magnetization    =     2.28 Bohr mag/cell

     iteration # 11     ecut=    50.00 Ry     beta= 0.70
     Davidson diagonalization with overlap

---- Real-time Memory Report at c_bands before calling an iterative solver
           166 MiB given to the printing process from OS
             0 MiB allocation reported by mallinfo(arena+hblkhd)
        143263 MiB available memory on the node where the printing process lives
------------------
     c_bands:  1 eigenvalues not converged
     ethr =  3.55E-10,  avg # of iterations = 18.5

     total cpu time spent up to now is       12.0 secs

     total energy              =    -723.91685932 Ry
     estimated scf accuracy    <       0.00000019 Ry

     total magnetization       =     2.00 Bohr mag/cell
     absolute magnetization    =     2.29 Bohr mag/cell

     iteration # 12     ecut=    50.00 Ry     beta= 0.70
     Davidson diagonalization with overlap

---- Real-time Memory Report at c_bands before calling an iterative solver
           166 MiB given to the printing process from OS
             0 MiB allocation reported by mallinfo(arena+hblkhd)
        143267 MiB available memory on the node where the printing process lives
------------------
     c_bands:  1 eigenvalues not converged
     ethr =  7.53E-11,  avg # of iterations = 19.0

     total cpu time spent up to now is       13.3 secs

     total energy              =    -723.91685942 Ry
     estimated scf accuracy    <       0.00000005 Ry

     total magnetization       =     2.00 Bohr mag/cell
     absolute magnetization    =     2.29 Bohr mag/cell

     iteration # 13     ecut=    50.00 Ry     beta= 0.70
     Davidson diagonalization with overlap

---- Real-time Memory Report at c_bands before calling an iterative solver
           166 MiB given to the printing process from OS
             0 MiB allocation reported by mallinfo(arena+hblkhd)
        143267 MiB available memory on the node where the printing process lives
------------------
     ethr =  2.15E-11,  avg # of iterations = 18.5

     total cpu time spent up to now is       14.1 secs

     total energy              =    -723.91685945 Ry
     estimated scf accuracy    <       0.00000001 Ry

     total magnetization       =     2.00 Bohr mag/cell
     absolute magnetization    =     2.29 Bohr mag/cell

     iteration # 14     ecut=    50.00 Ry     beta= 0.70
     Davidson diagonalization with overlap

---- Real-time Memory Report at c_bands before calling an iterative solver
           166 MiB given to the printing process from OS
             0 MiB allocation reported by mallinfo(arena+hblkhd)
        143264 MiB available memory on the node where the printing process lives
------------------
     c_bands:  3 eigenvalues not converged
     ethr =  4.86E-12,  avg # of iterations = 20.0
 
     Magnetic moment per site  (integrated on atomic sphere of radius R)
     atom   1 (R=0.085)  charge=  2.8976  magn=  0.0040
     atom   2 (R=0.085)  charge=  1.8130  magn=  0.2494
     atom   3 (R=0.085)  charge=  1.8114  magn= -0.0087
     atom   4 (R=0.085)  charge=  1.8130  magn=  0.2493
     atom   5 (R=0.085)  charge=  1.8112  magn= -0.0087
     atom   6 (R=0.085)  charge=  1.8130  magn=  0.2494
     atom   7 (R=0.085)  charge=  1.8113  magn= -0.0087
     atom   8 (R=0.085)  charge=  1.8016  magn=  0.0085
     atom   9 (R=0.085)  charge=  1.8086  magn= -0.0018
     atom  10 (R=0.085)  charge=  1.7946  magn=  0.0054
     atom  11 (R=0.085)  charge=  1.8031  magn= -0.0034
     atom  12 (R=0.085)  charge=  1.7946  magn=  0.0054
     atom  13 (R=0.085)  charge=  1.8031  magn= -0.0034
     atom  14 (R=0.085)  charge=  1.8020  magn=  0.0086
     atom  15 (R=0.085)  charge=  1.8008  magn= -0.0019
     atom  16 (R=0.085)  charge=  1.8016  magn=  0.0085
     atom  17 (R=0.085)  charge=  1.8085  magn= -0.0018
     atom  18 (R=0.085)  charge=  1.7946  magn=  0.0054
     atom  19 (R=0.085)  charge=  1.8030  magn= -0.0034
     atom  20 (R=0.085)  charge=  1.8001  magn=  0.0086
     atom  21 (R=0.085)  charge=  1.8014  magn= -0.0019
     atom  22 (R=0.085)  charge=  1.7945  magn=  0.0054
     atom  23 (R=0.085)  charge=  1.8030  magn= -0.0034
     atom  24 (R=0.085)  charge=  1.8004  magn=  0.0181
     atom  25 (R=0.085)  charge=  1.8201  magn=  0.0089
     atom  26 (R=0.085)  charge=  1.8120  magn=  0.0032
     atom  27 (R=0.085)  charge=  1.7813  magn= -0.0000
     atom  28 (R=0.085)  charge=  1.8027  magn=  0.0212
     atom  29 (R=0.085)  charge=  1.7953  magn= -0.0013
     atom  30 (R=0.085)  charge=  1.8008  magn=  0.0212
     atom  31 (R=0.085)  charge=  1.7953  magn= -0.0013
     atom  32 (R=0.085)  charge=  1.8016  magn=  0.0085
     atom  33 (R=0.085)  charge=  1.8085  magn= -0.0018
     atom  34 (R=0.085)  charge=  1.8001  magn=  0.0086
     atom  35 (R=0.085)  charge=  1.8012  magn= -0.0019
     atom  36 (R=0.085)  charge=  1.7946  magn=  0.0054
     atom  37 (R=0.085)  charge=  1.8030  magn= -0.0034
     atom  38 (R=0.085)  charge=  1.7946  magn=  0.0054
     atom  39 (R=0.085)  charge=  1.8030  magn= -0.0034
     atom  40 (R=0.085)  charge=  1.8004  magn=  0.0181
     atom  41 (R=0.085)  charge=  1.8199  magn=  0.0089
     atom  42 (R=0.085)  charge=  1.7989  magn=  0.0212
     atom  43 (R=0.085)  charge=  1.7952  magn= -0.0013
     atom  44 (R=0.085)  charge=  1.8119  magn=  0.0032
     atom  45 (R=0.085)  charge=  1.7813  magn= -0.0000
     atom  46 (R=0.085)  charge=  1.8008  magn=  0.0212
     atom  47 (R=0.085)  charge=  1.7953  magn= -0.0013
     atom  48 (R=0.085)  charge=  1.8004  magn=  0.0181
     atom  49 (R=0.085)  charge=  1.8200  magn=  0.0089
     atom  50 (R=0.085)  charge=  1.8008  magn=  0.0212
     atom  51 (R=0.085)  charge=  1.7953  magn= -0.0013
     atom  52 (R=0.085)  charge=  1.8008  magn=  0.0212
     atom  53 (R=0.085)  charge=  1.7953  magn= -0.0013
     atom  54 (R=0.085)  charge=  1.8120  magn=  0.0032
     atom  55 (R=0.085)  charge=  1.7813  magn= -0.0000
     atom  56 (R=0.085)  charge=  1.8032  magn=  0.0010
     atom  57 (R=0.085)  charge=  1.7980  magn=  0.0010
     atom  58 (R=0.085)  charge=  1.8061  magn=  0.0018
     atom  59 (R=0.085)  charge=  1.8021  magn= -0.0009
     atom  60 (R=0.085)  charge=  1.8060  magn=  0.0018
     atom  61 (R=0.085)  charge=  1.8021  magn= -0.0009
     atom  62 (R=0.085)  charge=  1.8060  magn=  0.0018
     atom  63 (R=0.085)  charge=  1.8021  magn= -0.0009

     total cpu time spent up to now is       14.6 secs

     End of self-consistent calculation

 ------ SPIN UP ------------


          k = 0.0000 0.0000 0.0000 (  7386 PWs)   bands (ev):

    -8.5686  -7.0156  -6.2674  -6.2631  -6.1589  -6.1585  -5.8788  -4.9354
    -4.1246  -4.1206  -4.0936  -4.0885  -4.0308  -4.0304  -3.9799  -3.9103
    -3.8618  -3.8605  -3.3546  -2.9480  -2.6687  -2.6655  -2.1126  -0.3583
    -0.3556  -0.3159  -0.2913  -0.0887   0.1891   0.1907   0.2935   0.2963
     0.3701   0.6137   0.8223   0.8247   0.9853   0.9869   1.0234   1.0505
     1.0531   1.0768   1.3024   1.3042   3.0598   3.8886   3.8901   4.0418
     4.2346   4.2372   4.2472   4.2517   4.2886   4.2916   4.4363   4.4368
     4.4998   4.5028   4.6007   4.6811   4.6862   4.6881   4.6900   4.7780
     4.7801   4.9139   4.9660   4.9682   5.0597   5.2285   5.2301   5.3009
     5.3698   5.3724   5.4092   5.4212   5.4241   6.0456   6.0485   6.0784
     6.6434   6.6441   6.7636   7.0070   7.0284   7.0292   7.5170   8.3340
     8.3434   8.4220   8.4923   8.5005   8.6729   8.6748   8.8281   8.8345
     8.8497   8.8544   8.8944   8.8952   8.9427   9.3036   9.3064   9.3086
     9.7203   9.7248   9.9327   9.9414   9.9444   9.9554   9.9803  10.0027
    10.0065  10.0080  10.0347  10.0355  10.1344  10.1364  10.2840  10.2887
    10.3579  10.9862  12.2211  12.4686  12.4750  13.8177  14.7974  14.7979
    17.3761  17.3856  17.3898  17.5536  17.5608  17.5669  17.8955  17.9283
    17.9292  18.0146  18.0175  18.3726  18.9873  18.9884  19.0250  20.7136
    20.8210  20.8237  20.8675  20.9513  20.9575  21.0301  21.0341  21.0802

     occupation numbers 
     1.0000   1.0000   1.0000   1.0000   1.0000   1.0000   1.0000   1.0000
     1.0000   1.0000   1.0000   1.0000   1.0000   1.0000   1.0000   1.0000
     1.0000   1.0000   1.0000   1.0000   1.0000   1.0000   1.0000   1.0000
     1.0000   1.0000   1.0000   1.0000   1.0000   1.0000   1.0000   1.0000
     1.0000   1.0000   1.0000   1.0000   1.0000   1.0000   1.0000   1.0000
     1.0000   1.0000   1.0000   1.0000   1.0000   1.0000   1.0000   1.0000
     1.0000   1.0000   1.0000   1.0000   1.0000   1.0000   1.0000   1.0000
     1.0000   1.0000   1.0000   1.0000   1.0000   1.0000   1.0000   1.0000
     1.0000   1.0000   1.0000   1.0000   1.0000   1.0000   1.0000   1.0000
     1.0000   1.0000   1.0000   1.0000   1.0000   1.0000   1.0000   1.0000
     1.0000   1.0000   1.0000   1.0000   1.0000   1.0000   1.0000   1.0000
     1.0000   1.0000   1.0000   1.0000   1.0000   1.0000   1.0000   1.0000
     1.0000   1.0000   1.0000   1.0000   1.0000   1.0000   1.0000   1.0000
     1.0000   1.0000   1.0000   1.0000   1.0000   1.0000   1.0000   1.0000
     1.0000   1.0000   1.0000   1.0000   1.0000   1.0000   1.0000   1.0000
     1.0000   1.0000   1.0000   1.0000   1.0000   1.0000   1.0000   1.0000
     0.0000   0.0000   0.0000   0.0000   0.0000   0.0000   0.0000   0.0000
     0.0000   0.0000   0.0000   0.0000   0.0000   0.0000   0.0000   0.0000
     0.0000   0.0000   0.0000   0.0000   0.0000   0.0000   0.0000   0.0000

 ------ SPIN DOWN ----------


          k = 0.0000 0.0000 0.0000 (  7386 PWs)   bands (ev):

    -8.5452  -7.0011  -6.2480  -6.2437  -6.1170  -6.1167  -5.8422  -4.9194
    -4.1046  -4.1007  -4.0779  -4.0729  -3.9745  -3.9739  -3.9545  -3.8985
    -3.8160  -3.8154  -3.3111  -2.9301  -2.6145  -2.6115  -1.9719  -0.3415
    -0.3388  -0.2975  -0.2700  -0.0222   0.2047   0.2065   0.3287   0.3316
     0.3958   0.6457   0.8350   0.8372   1.0104   1.0117   1.0553   1.0660
     1.0688   1.0946   1.4735   1.4752   3.1744   3.9091   3.9105   4.0643
     4.2690   4.2722   4.2740   4.2847   4.3095   4.3113   4.4864   4.4886
     4.5200   4.5206   4.6277   4.7003   4.7051   4.7058   4.7074   4.8150
     4.8169   4.9257   4.9980   5.0000   5.1441   5.2623   5.2638   5.3246
     5.3810   5.3835   5.4217   5.4810   5.4841   6.1052   6.1081   6.1193
     6.6697   6.6704   6.7981   7.0498   7.1210   7.1220   7.6962   8.3721
     8.3811   8.4581   8.5245   8.5330   8.7034   8.7053   8.8642   8.8670
     8.8711   8.8825   8.9473   8.9477   8.9665   9.3308   9.3429   9.3451
     9.7495   9.7536   9.9490   9.9564   9.9586   9.9821  10.0071  10.0189
    10.0242  10.0277  10.0674  10.0683  10.1669  10.1690  10.3395  10.3431
    10.4191  11.3836  12.5278  12.6156  12.6226  14.2844  16.1584  16.1592
    17.4036  17.4060  17.4079  17.5791  17.6131  17.6198  17.9197  17.9484
    17.9499  18.0524  18.0560  18.4846  19.0684  19.0758  19.0767  20.7631
    20.8342  20.8368  20.8816  20.9683  20.9748  21.0552  21.0586  21.0924

     occupation numbers 
     1.0000   1.0000   1.0000   1.0000   1.0000   1.0000   1.0000   1.0000
     1.0000   1.0000   1.0000   1.0000   1.0000   1.0000   1.0000   1.0000
     1.0000   1.0000   1.0000   1.0000   1.0000   1.0000   1.0000   1.0000
     1.0000   1.0000   1.0000   1.0000   1.0000   1.0000   1.0000   1.0000
     1.0000   1.0000   1.0000   1.0000   1.0000   1.0000   1.0000   1.0000
     1.0000   1.0000   1.0000   1.0000   1.0000   1.0000   1.0000   1.0000
     1.0000   1.0000   1.0000   1.0000   1.0000   1.0000   1.0000   1.0000
     1.0000   1.0000   1.0000   1.0000   1.0000   1.0000   1.0000   1.0000
     1.0000   1.0000   1.0000   1.0000   1.0000   1.0000   1.0000   1.0000
     1.0000   1.0000   1.0000   1.0000   1.0000   1.0000   1.0000   1.0000
     1.0000   1.0000   1.0000   1.0000   1.0000   1.0000   1.0000   1.0000
     1.0000   1.0000   1.0000   1.0000   1.0000   1.0000   1.0000   1.0000
     1.0000   1.0000   1.0000   1.0000   1.0000   1.0000   1.0000   1.0000
     1.0000   1.0000   1.0000   1.0000   1.0000   1.0000   1.0000   1.0000
     1.0000   1.0000   1.0000   1.0000   1.0000   1.0000   1.0000   1.0000
     1.0000   1.0000   1.0000   1.0000   1.0000   1.0000   0.0000   0.0000
     0.0000   0.0000   0.0000   0.0000   0.0000   0.0000   0.0000   0.0000
     0.0000   0.0000   0.0000   0.0000   0.0000   0.0000   0.0000   0.0000
     0.0000   0.0000   0.0000   0.0000   0.0000   0.0000   0.0000   0.0000

     highest occupied, lowest unoccupied level (ev):    14.7979   16.1584

!    total energy              =    -723.91685946 Ry
     estimated scf accuracy    <          4.0E-09 Ry

     The total energy is the sum of the following terms:
     one-electron contribution =     232.80773132 Ry
     hartree contribution      =      70.09118967 Ry
     xc contribution           =    -226.74472620 Ry
     ewald contribution        =    -800.07105426 Ry

     total magnetization       =     2.00 Bohr mag/cell
     absolute magnetization    =     2.29 Bohr mag/cell

     convergence has been achieved in  14 iterations

     Forces acting on atoms (cartesian axes, Ry/au):

     atom    1 type  1   force =     0.00235663    0.00231353    0.00234769
     atom    2 type  2   force =    -0.00031192    0.00030357    0.00012352
     atom    3 type  2   force =     0.00022925    0.00052129    0.00024729
     atom    4 type  2   force =     0.00006685   -0.00022098    0.00027837
     atom    5 type  2   force =     0.00149242    0.00117438    0.00121760
     atom    6 type  2   force =     0.00024407    0.00023742   -0.00036363
     atom    7 type  2   force =     0.00085670    0.00088057    0.00081609
     atom    8 type  2   force =     0.00027056    0.00023194   -0.00046754
     atom    9 type  2   force =    -0.00054703   -0.00060249   -0.00053810
     atom   10 type  2   force =     0.00014727   -0.00024134    0.00033552
     atom   11 type  2   force =    -0.00132007    0.00076105    0.00014587
     atom   12 type  2   force =    -0.00019171    0.00016496    0.00040104
     atom   13 type  2   force =     0.00108341   -0.00114019   -0.00022311
     atom   14 type  2   force =    -0.00412039   -0.00101032   -0.00118953
     atom   15 type  2   force =     0.01727505   -0.00013329   -0.00012058
     atom   16 type  2   force =     0.00027541   -0.00064741    0.00040361
     atom   17 type  2   force =     0.00002688   -0.00021602    0.00004845
     atom   18 type  2   force =     0.00013925    0.00041196   -0.00030814
     atom   19 type  2   force =    -0.00078531   -0.00054748    0.00052506
     atom   20 type  2   force =     0.00001041   -0.00025035   -0.00003781
     atom   21 type  2   force =     0.00038779    0.00036081   -0.00057198
     atom   22 type  2   force =    -0.00040963    0.00029378    0.00002327
     atom   23 type  2   force =     0.00065774   -0.00049554   -0.00075463
     atom   24 type  2   force =     0.00022183   -0.00004976    0.00005408
     atom   25 type  2   force =    -0.00053060    0.00061162    0.00032612
     atom   26 type  2   force =    -0.00009013   -0.00015987   -0.00032000
     atom   27 type  2   force =     0.00093840   -0.00153928   -0.00159152
     atom   28 type  2   force =    -0.00423169    0.00096634    0.00086315
     atom   29 type  2   force =     0.00002969   -0.00000451    0.00001429
     atom   30 type  2   force =    -0.00020793   -0.00003189    0.00001480
     atom   31 type  2   force =    -0.00059245    0.00035120    0.00033136
     atom   32 type  2   force =    -0.00067606    0.00022740    0.00040481
     atom   33 type  2   force =    -0.00019660    0.00000771    0.00001993
     atom   34 type  2   force =    -0.00017145   -0.00006790   -0.00013098
     atom   35 type  2   force =    -0.00054694   -0.00057725    0.00039738
     atom   36 type  2   force =     0.00041481    0.00013524   -0.00026216
     atom   37 type  2   force =    -0.00049284   -0.00077606    0.00051735
     atom   38 type  2   force =     0.00035302   -0.00038537    0.00004619
     atom   39 type  2   force =    -0.00056687    0.00050068   -0.00078499
     atom   40 type  2   force =     0.00008755    0.00013951    0.00001699
     atom   41 type  2   force =    -0.00058027    0.00064391   -0.00033458
     atom   42 type  2   force =    -0.00386209    0.00053145   -0.00075909
     atom   43 type  2   force =    -0.00022863   -0.00023245   -0.00027476
     atom   44 type  2   force =    -0.00026808    0.00002171   -0.00013762
     atom   45 type  2   force =    -0.00149695    0.00092873   -0.00154293
     atom   46 type  2   force =     0.00005956   -0.00033366   -0.00003706
     atom   47 type  2   force =     0.00033651   -0.00057435    0.00033492
     atom   48 type  2   force =     0.00010128   -0.00001273    0.00023167
     atom   49 type  2   force =    -0.00002689    0.00001420    0.00004029
     atom   50 type  2   force =    -0.00009546    0.00008563   -0.00036460
     atom   51 type  2   force =     0.00032823    0.00033603   -0.00059789
     atom   52 type  2   force =    -0.00004016    0.00010506   -0.00021347
     atom   53 type  2   force =     0.00041431    0.00034717   -0.00058806
     atom   54 type  2   force =    -0.00020118   -0.00025221   -0.00007349
     atom   55 type  2   force =    -0.00156019   -0.00155845    0.00095314
     atom   56 type  2   force =    -0.00402786   -0.00096385    0.00079689
     atom   57 type  2   force =    -0.00055122   -0.00061854    0.00034866
     atom   58 type  2   force =    -0.00018788    0.00012038    0.00006526
     atom   59 type  2   force =    -0.00033872    0.00024665    0.00025908
     atom   60 type  2   force =     0.00011093   -0.00023134    0.00012471
     atom   61 type  2   force =     0.00029615   -0.00034427    0.00021775
     atom   62 type  2   force =     0.00003081    0.00000212   -0.00037080
     atom   63 type  2   force =     0.00021248    0.00024114   -0.00033318
     The non-local contrib.  to forces
     atom    1 type  1   force =    -0.73724752   -0.73725070   -0.73723214
     atom    2 type  2   force =    -0.22507887    0.21090810    0.21067493
     atom    3 type  2   force =     0.06928298    0.06930387    0.06883351
     atom    4 type  2   force =     0.21126277   -0.22443736    0.21139538
     atom    5 type  2   force =     0.06899017    0.07100695    0.07043062
     atom    6 type  2   force =     0.21085761    0.21114293   -0.22482397
     atom    7 type  2   force =     0.06939524    0.06937140    0.06994835
     atom    8 type  2   force =    -0.00845499   -0.00851365    0.05210604
     atom    9 type  2   force =    -0.00555132   -0.00539757    0.01554692
     atom   10 type  2   force =    -0.04394701   -0.01295787   -0.01941579
     atom   11 type  2   force =    -0.07215926    0.06010546   -0.08233411
     atom   12 type  2   force =    -0.01310365   -0.04419229   -0.01953864
     atom   13 type  2   force =     0.05973801   -0.07248897   -0.08180425
     atom   14 type  2   force =    -0.00567537   -0.00256954    0.05055572
     atom   15 type  2   force =     0.03452001    0.01378834    0.00029069
     atom   16 type  2   force =    -0.00844005    0.05214507   -0.00799819
     atom   17 type  2   force =    -0.00484687    0.01562543   -0.00495100
     atom   18 type  2   force =    -0.04413827   -0.01938931   -0.01299369
     atom   19 type  2   force =    -0.07146222   -0.08280296    0.06006607
     atom   20 type  2   force =    -0.00187944    0.05123452   -0.00186996
     atom   21 type  2   force =     0.01327288    0.00146012    0.01263616
     atom   22 type  2   force =    -0.01278830   -0.01986332   -0.04457698
     atom   23 type  2   force =     0.05971525   -0.08280845   -0.07147132
     atom   24 type  2   force =    -0.07366308    0.02810978    0.02819642
     atom   25 type  2   force =    -0.01212257    0.01729845    0.01685041
     atom   26 type  2   force =    -0.06058031   -0.02466525   -0.02488499
     atom   27 type  2   force =    -0.11784736    0.13531895    0.13546366
     atom   28 type  2   force =     0.05863719    0.02887952   -0.01849610
     atom   29 type  2   force =     0.00122589    0.01765105    0.00444317
     atom   30 type  2   force =     0.06223114   -0.01914764    0.02829145
     atom   31 type  2   force =     0.00167668    0.00550600    0.01869021
     atom   32 type  2   force =     0.05241436   -0.00875887   -0.00778853
     atom   33 type  2   force =     0.01558906   -0.00480827   -0.00482166
     atom   34 type  2   force =     0.05129138   -0.00193239   -0.00166548
     atom   35 type  2   force =    -0.00025970    0.01363825    0.01418713
     atom   36 type  2   force =    -0.01939617   -0.04410308   -0.01299379
     atom   37 type  2   force =    -0.08272258   -0.07150692    0.06008000
     atom   38 type  2   force =    -0.01953050   -0.01300392   -0.04437043
     atom   39 type  2   force =    -0.08316510    0.06012252   -0.07149194
     atom   40 type  2   force =     0.02803893   -0.07372748    0.02798873
     atom   41 type  2   force =     0.01622373   -0.01096578    0.01679865
     atom   42 type  2   force =     0.02445951    0.06294710   -0.01993842
     atom   43 type  2   force =     0.01801004    0.00163961    0.00496688
     atom   44 type  2   force =    -0.02508841   -0.06016515   -0.02496136
     atom   45 type  2   force =     0.13547705   -0.11784699    0.13531926
     atom   46 type  2   force =    -0.01909411    0.06230278    0.02811540
     atom   47 type  2   force =     0.00565004    0.00164442    0.01867802
     atom   48 type  2   force =     0.02802318    0.02831050   -0.07391126
     atom   49 type  2   force =     0.01686808    0.01675269   -0.01152068
     atom   50 type  2   force =     0.02848950   -0.01877891    0.06186077
     atom   51 type  2   force =     0.01871997    0.00556191    0.00173354
     atom   52 type  2   force =    -0.01942163    0.02813731    0.06263475
     atom   53 type  2   force =     0.00562411    0.01864694    0.00167427
     atom   54 type  2   force =    -0.02494141   -0.02492710   -0.06041444
     atom   55 type  2   force =     0.13539244    0.13537426   -0.11788562
     atom   56 type  2   force =     0.01262534    0.01551290    0.01684033
     atom   57 type  2   force =     0.00689563    0.00705333    0.00757659
     atom   58 type  2   force =     0.01343507   -0.01294620   -0.01267675
     atom   59 type  2   force =     0.01066934   -0.01059821   -0.01061721
     atom   60 type  2   force =    -0.01265672    0.01361844   -0.01278435
     atom   61 type  2   force =    -0.01041784    0.01065731   -0.01051399
     atom   62 type  2   force =    -0.01297927   -0.01307488    0.01357406
     atom   63 type  2   force =    -0.01088249   -0.01053502    0.01062995
     The ionic contribution  to forces
     atom    1 type  1   force =     3.03835135    3.03938497    3.04024644
     atom    2 type  2   force =     2.25503225   -2.16054745   -2.16129038
     atom    3 type  2   force =     0.42736539   -0.74866171   -0.75684471
     atom    4 type  2   force =    -2.15884897    2.25693451   -2.16055683
     atom    5 type  2   force =    -0.74335590    0.43169363   -0.74863705
     atom    6 type  2   force =    -2.15746863   -2.16100176    2.26007780
     atom    7 type  2   force =    -0.74581818   -0.74865296    0.43167754
     atom    8 type  2   force =     0.24122092    0.24220497   -0.70117773
     atom    9 type  2   force =     0.10797298    0.10398219   -0.22533761
     atom   10 type  2   force =     0.20280312    0.06319694    0.52991940
     atom   11 type  2   force =    -0.29537441   -0.72456267    0.73736002
     atom   12 type  2   force =     0.06782701    0.20785330    0.52842425
     atom   13 type  2   force =    -0.71918416   -0.29129455    0.72917674
     atom   14 type  2   force =    -0.20014853   -0.22485412   -0.69757485
     atom   15 type  2   force =    -0.08942732   -0.15931281   -0.04875260
     atom   16 type  2   force =     0.24122799   -0.70011133    0.24458818
     atom   17 type  2   force =     0.11214984   -0.22466224    0.11227529
     atom   18 type  2   force =     0.20925588    0.52779711    0.06531969
     atom   19 type  2   force =    -0.29136700    0.72911309   -0.72517984
     atom   20 type  2   force =    -0.19711008   -0.67099927   -0.20172303
     atom   21 type  2   force =    -0.15323022   -0.04830115   -0.15855336
     atom   22 type  2   force =     0.06676655    0.52793696    0.21084250
     atom   23 type  2   force =    -0.72333041    0.72913867   -0.29125720
     atom   24 type  2   force =     0.02566617   -0.18974009   -0.19471958
     atom   25 type  2   force =     0.09190086   -0.06429038   -0.07255704
     atom   26 type  2   force =     0.11310925   -0.17567872   -0.17635106
     atom   27 type  2   force =     1.34197812    0.24272408    0.24340040
     atom   28 type  2   force =    -0.08690049   -0.20141112    0.18204867
     atom   29 type  2   force =    -0.15356883   -0.00241880    0.22986861
     atom   30 type  2   force =    -0.08382578    0.15915170   -0.22804226
     atom   31 type  2   force =    -0.15602499    0.22986354   -0.00242386
     atom   32 type  2   force =    -0.69954252    0.24392756    0.24287620
     atom   33 type  2   force =    -0.22548879    0.11295570    0.11227935
     atom   34 type  2   force =    -0.66981644   -0.19831376   -0.19684824
     atom   35 type  2   force =    -0.05260770   -0.15857831   -0.15038415
     atom   36 type  2   force =     0.52631211    0.21069787    0.06606536
     atom   37 type  2   force =     0.72613358   -0.29129020   -0.72453385
     atom   38 type  2   force =     0.52523594    0.06621161    0.20920034
     atom   39 type  2   force =     0.72691282   -0.72450058   -0.29125762
     atom   40 type  2   force =    -0.19013379    0.03581268   -0.19127237
     atom   41 type  2   force =    -0.07690133    0.10437875   -0.07256761
     atom   42 type  2   force =    -0.22866818   -0.06055510    0.13139528
     atom   43 type  2   force =    -0.00675280   -0.15883009    0.22176420
     atom   44 type  2   force =    -0.17906672    0.11650301   -0.17740577
     atom   45 type  2   force =     0.23978114    1.34216264    0.24273551
     atom   46 type  2   force =     0.14906936   -0.08356169   -0.22465130
     atom   47 type  2   force =     0.22091168   -0.15885985   -0.00242358
     atom   48 type  2   force =    -0.19016431   -0.19323643    0.03089285
     atom   49 type  2   force =    -0.07270943   -0.07324045    0.09619040
     atom   50 type  2   force =    -0.22599146    0.15615998   -0.08547531
     atom   51 type  2   force =    -0.00258169    0.22986831   -0.15818301
     atom   52 type  2   force =     0.15451003   -0.22759757   -0.08483998
     atom   53 type  2   force =     0.22687713   -0.00241168   -0.15887182
     atom   54 type  2   force =    -0.17797530   -0.17726872    0.11492913
     atom   55 type  2   force =     0.24163173    0.24272619    1.34217224
     atom   56 type  2   force =    -0.11010008   -0.13429165   -0.08330777
     atom   57 type  2   force =    -0.02646087   -0.03032154   -0.02213109
     atom   58 type  2   force =    -0.13157259    0.00797898    0.00943060
     atom   59 type  2   force =    -0.31187324    0.12380944    0.12312966
     atom   60 type  2   force =     0.00280411   -0.13612699    0.00798128
     atom   61 type  2   force =     0.12078823   -0.31173510    0.12381697
     atom   62 type  2   force =     0.00821263    0.00924336   -0.13320945
     atom   63 type  2   force =     0.12158294    0.12380907   -0.31174299
     The local contribution  to forces
     atom    1 type  1   force =    -2.29875868   -2.29978221   -2.30063020
     atom    2 type  2   force =    -2.03027185    1.94994606    1.95075390
     atom    3 type  2   force =    -0.49641727    0.67986581    0.68825568
     atom    4 type  2   force =     1.94767130   -2.03267917    1.94945406
     atom    5 type  2   force =     0.67586453   -0.50151377    0.67942091
     atom    6 type  2   force =     1.94687084    1.95009460   -2.03558494
     atom    7 type  2   force =     0.67728471    0.68014746   -0.50078464
     atom    8 type  2   force =    -0.23249942   -0.23342033    0.64859851
     atom    9 type  2   force =    -0.10296251   -0.09916919    0.20924357
     atom   10 type  2   force =    -0.15871550   -0.05048347   -0.51016276
     atom   11 type  2   force =     0.36621890    0.66521207   -0.65485443
     atom   12 type  2   force =    -0.05490190   -0.16346304   -0.50847713
     atom   13 type  2   force =     0.66054273    0.36265946   -0.64757183
     atom   14 type  2   force =     0.20171377    0.22640781    0.64581965
     atom   15 type  2   force =     0.07219051    0.14537620    0.04834068
     atom   16 type  2   force =    -0.23251758    0.64731506   -0.23615068
     atom   17 type  2   force =    -0.10727551    0.20882116   -0.10725264
     atom   18 type  2   force =    -0.16498376   -0.50797620   -0.05262884
     atom   19 type  2   force =     0.36205470   -0.64681581    0.66563705
     atom   20 type  2   force =     0.19900313    0.61950337    0.20356468
     atom   21 type  2   force =     0.14035009    0.04721066    0.14534458
     atom   22 type  2   force =    -0.05437932   -0.50775764   -0.16621312
     atom   23 type  2   force =     0.66428338   -0.64678271    0.36200207
     atom   24 type  2   force =     0.04821228    0.16156669    0.16656615
     atom   25 type  2   force =    -0.08030337    0.04760781    0.05603155
     atom   26 type  2   force =    -0.05262707    0.20020821    0.20093058
     atom   27 type  2   force =    -1.22319407   -0.37954549   -0.38042813
     atom   28 type  2   force =     0.02404516    0.17349075   -0.16267885
     atom   29 type  2   force =     0.15237946   -0.01523246   -0.23427529
     atom   30 type  2   force =     0.02140113   -0.14000923    0.19975950
     atom   31 type  2   force =     0.15376544   -0.23497944   -0.01594086
     atom   32 type  2   force =     0.64645145   -0.23490767   -0.23465054
     atom   33 type  2   force =     0.20968463   -0.10812685   -0.10741238
     atom   34 type  2   force =     0.61834779    0.20016852    0.19839548
     atom   35 type  2   force =     0.05231248    0.14434612    0.13659534
     atom   36 type  2   force =    -0.50652472   -0.16642548   -0.05332374
     atom   37 type  2   force =    -0.64391895    0.36204361    0.66497350
     atom   38 type  2   force =    -0.50537239   -0.05359648   -0.16475255
     atom   39 type  2   force =    -0.64432597    0.66487198    0.36199399
     atom   40 type  2   force =     0.16217680    0.03808932    0.16329022
     atom   41 type  2   force =     0.06008256   -0.09275227    0.05542973
     atom   42 type  2   force =     0.20034358   -0.00186251   -0.11220749
     atom   43 type  2   force =    -0.01150417    0.15694475   -0.22698404
     atom   44 type  2   force =     0.20386690   -0.05628465    0.20224013
     atom   45 type  2   force =    -0.37676930   -1.22337752   -0.37957111
     atom   46 type  2   force =    -0.12993299    0.02092373    0.19649116
     atom   47 type  2   force =    -0.22624086    0.15662682   -0.01592956
     atom   48 type  2   force =     0.16223808    0.16490426    0.04327546
     atom   49 type  2   force =     0.05580513    0.05651053   -0.08460746
     atom   50 type  2   force =     0.19740362   -0.13726340    0.02326192
     atom   51 type  2   force =    -0.01583067   -0.23505208    0.15584901
     atom   52 type  2   force =    -0.13513954    0.19955453    0.02200360
     atom   53 type  2   force =    -0.23210006   -0.01589083    0.15660412
     atom   54 type  2   force =     0.20269955    0.20196985   -0.05456072
     atom   55 type  2   force =    -0.37859771   -0.37962150   -1.22331752
     atom   56 type  2   force =     0.09344479    0.11780392    0.06726133
     atom   57 type  2   force =     0.01899935    0.02265550    0.01490334
     atom   58 type  2   force =     0.11794762    0.00511322    0.00332219
     atom   59 type  2   force =     0.30085375   -0.11292714   -0.11222844
     atom   60 type  2   force =     0.00994381    0.12226990    0.00493711
     atom   61 type  2   force =    -0.11008794    0.30074334   -0.11305737
     atom   62 type  2   force =     0.00477649    0.00385893    0.11926013
     atom   63 type  2   force =    -0.11050488   -0.11299401    0.30078229
     The core correction contribution to forces
     atom    1 type  1   force =     0.00000000    0.00000000    0.00000000
     atom    2 type  2   force =     0.00000000    0.00000000    0.00000000
     atom    3 type  2   force =     0.00000000    0.00000000    0.00000000
     atom    4 type  2   force =     0.00000000    0.00000000    0.00000000
     atom    5 type  2   force =     0.00000000    0.00000000    0.00000000
     atom    6 type  2   force =     0.00000000    0.00000000    0.00000000
     atom    7 type  2   force =     0.00000000    0.00000000    0.00000000
     atom    8 type  2   force =     0.00000000    0.00000000    0.00000000
     atom    9 type  2   force =     0.00000000    0.00000000    0.00000000
     atom   10 type  2   force =     0.00000000    0.00000000    0.00000000
     atom   11 type  2   force =     0.00000000    0.00000000    0.00000000
     atom   12 type  2   force =     0.00000000    0.00000000    0.00000000
     atom   13 type  2   force =     0.00000000    0.00000000    0.00000000
     atom   14 type  2   force =     0.00000000    0.00000000    0.00000000
     atom   15 type  2   force =     0.00000000    0.00000000    0.00000000
     atom   16 type  2   force =     0.00000000    0.00000000    0.00000000
     atom   17 type  2   force =     0.00000000    0.00000000    0.00000000
     atom   18 type  2   force =     0.00000000    0.00000000    0.00000000
     atom   19 type  2   force =     0.00000000    0.00000000    0.00000000
     atom   20 type  2   force =     0.00000000    0.00000000    0.00000000
     atom   21 type  2   force =     0.00000000    0.00000000    0.00000000
     atom   22 type  2   force =     0.00000000    0.00000000    0.00000000
     atom   23 type  2   force =     0.00000000    0.00000000    0.00000000
     atom   24 type  2   force =     0.00000000    0.00000000    0.00000000
     atom   25 type  2   force =     0.00000000    0.00000000    0.00000000
     atom   26 type  2   force =     0.00000000    0.00000000    0.00000000
     atom   27 type  2   force =     0.00000000    0.00000000    0.00000000
     atom   28 type  2   force =     0.00000000    0.00000000    0.00000000
     atom   29 type  2   force =     0.00000000    0.00000000    0.00000000
     atom   30 type  2   force =     0.00000000    0.00000000    0.00000000
     atom   31 type  2   force =     0.00000000    0.00000000    0.00000000
     atom   32 type  2   force =     0.00000000    0.00000000    0.00000000
     atom   33 type  2   force =     0.00000000    0.00000000    0.00000000
     atom   34 type  2   force =     0.00000000    0.00000000    0.00000000
     atom   35 type  2   force =     0.00000000    0.00000000    0.00000000
     atom   36 type  2   force =     0.00000000    0.00000000    0.00000000
     atom   37 type  2   force =     0.00000000    0.00000000    0.00000000
     atom   38 type  2   force =     0.00000000    0.00000000    0.00000000
     atom   39 type  2   force =     0.00000000    0.00000000    0.00000000
     atom   40 type  2   force =     0.00000000    0.00000000    0.00000000
     atom   41 type  2   force =     0.00000000    0.00000000    0.00000000
     atom   42 type  2   force =     0.00000000    0.00000000    0.00000000
     atom   43 type  2   force =     0.00000000    0.00000000    0.00000000
     atom   44 type  2   force =     0.00000000    0.00000000    0.00000000
     atom   45 type  2   force =     0.00000000    0.00000000    0.00000000
     atom   46 type  2   force =     0.00000000    0.00000000    0.00000000
     atom   47 type  2   force =     0.00000000    0.00000000    0.00000000
     atom   48 type  2   force =     0.00000000    0.00000000    0.00000000
     atom   49 type  2   force =     0.00000000    0.00000000    0.00000000
     atom   50 type  2   force =     0.00000000    0.00000000    0.00000000
     atom   51 type  2   force =     0.00000000    0.00000000    0.00000000
     atom   52 type  2   force =     0.00000000    0.00000000    0.00000000
     atom   53 type  2   force =     0.00000000    0.00000000    0.00000000
     atom   54 type  2   force =     0.00000000    0.00000000    0.00000000
     atom   55 type  2   force =     0.00000000    0.00000000    0.00000000
     atom   56 type  2   force =     0.00000000    0.00000000    0.00000000
     atom   57 type  2   force =     0.00000000    0.00000000    0.00000000
     atom   58 type  2   force =     0.00000000    0.00000000    0.00000000
     atom   59 type  2   force =     0.00000000    0.00000000    0.00000000
     atom   60 type  2   force =     0.00000000    0.00000000    0.00000000
     atom   61 type  2   force =     0.00000000    0.00000000    0.00000000
     atom   62 type  2   force =     0.00000000    0.00000000    0.00000000
     atom   63 type  2   force =     0.00000000    0.00000000    0.00000000
     The Hubbard contrib.    to forces
     atom    1 type  1   force =     0.00000000    0.00000000    0.00000000
     atom    2 type  2   force =     0.00000000    0.00000000    0.00000000
     atom    3 type  2   force =     0.00000000    0.00000000    0.00000000
     atom    4 type  2   force =     0.00000000    0.00000000    0.00000000
     atom    5 type  2   force =     0.00000000    0.00000000    0.00000000
     atom    6 type  2   force =     0.00000000    0.00000000    0.00000000
     atom    7 type  2   force =     0.00000000    0.00000000    0.00000000
     atom    8 type  2   force =     0.00000000    0.00000000    0.00000000
     atom    9 type  2   force =     0.00000000    0.00000000    0.00000000
     atom   10 type  2   force =     0.00000000    0.00000000    0.00000000
     atom   11 type  2   force =     0.00000000    0.00000000    0.00000000
     atom   12 type  2   force =     0.00000000    0.00000000    0.00000000
     atom   13 type  2   force =     0.00000000    0.00000000    0.00000000
     atom   14 type  2   force =     0.00000000    0.00000000    0.00000000
     atom   15 type  2   force =     0.00000000    0.00000000    0.00000000
     atom   16 type  2   force =     0.00000000    0.00000000    0.00000000
     atom   17 type  2   force =     0.00000000    0.00000000    0.00000000
     atom   18 type  2   force =     0.00000000    0.00000000    0.00000000
     atom   19 type  2   force =     0.00000000    0.00000000    0.00000000
     atom   20 type  2   force =     0.00000000    0.00000000    0.00000000
     atom   21 type  2   force =     0.00000000    0.00000000    0.00000000
     atom   22 type  2   force =     0.00000000    0.00000000    0.00000000
     atom   23 type  2   force =     0.00000000    0.00000000    0.00000000
     atom   24 type  2   force =     0.00000000    0.00000000    0.00000000
     atom   25 type  2   force =     0.00000000    0.00000000    0.00000000
     atom   26 type  2   force =     0.00000000    0.00000000    0.00000000
     atom   27 type  2   force =     0.00000000    0.00000000    0.00000000
     atom   28 type  2   force =     0.00000000    0.00000000    0.00000000
     atom   29 type  2   force =     0.00000000    0.00000000    0.00000000
     atom   30 type  2   force =     0.00000000    0.00000000    0.00000000
     atom   31 type  2   force =     0.00000000    0.00000000    0.00000000
     atom   32 type  2   force =     0.00000000    0.00000000    0.00000000
     atom   33 type  2   force =     0.00000000    0.00000000    0.00000000
     atom   34 type  2   force =     0.00000000    0.00000000    0.00000000
     atom   35 type  2   force =     0.00000000    0.00000000    0.00000000
     atom   36 type  2   force =     0.00000000    0.00000000    0.00000000
     atom   37 type  2   force =     0.00000000    0.00000000    0.00000000
     atom   38 type  2   force =     0.00000000    0.00000000    0.00000000
     atom   39 type  2   force =     0.00000000    0.00000000    0.00000000
     atom   40 type  2   force =     0.00000000    0.00000000    0.00000000
     atom   41 type  2   force =     0.00000000    0.00000000    0.00000000
     atom   42 type  2   force =     0.00000000    0.00000000    0.00000000
     atom   43 type  2   force =     0.00000000    0.00000000    0.00000000
     atom   44 type  2   force =     0.00000000    0.00000000    0.00000000
     atom   45 type  2   force =     0.00000000    0.00000000    0.00000000
     atom   46 type  2   force =     0.00000000    0.00000000    0.00000000
     atom   47 type  2   force =     0.00000000    0.00000000    0.00000000
     atom   48 type  2   force =     0.00000000    0.00000000    0.00000000
     atom   49 type  2   force =     0.00000000    0.00000000    0.00000000
     atom   50 type  2   force =     0.00000000    0.00000000    0.00000000
     atom   51 type  2   force =     0.00000000    0.00000000    0.00000000
     atom   52 type  2   force =     0.00000000    0.00000000    0.00000000
     atom   53 type  2   force =     0.00000000    0.00000000    0.00000000
     atom   54 type  2   force =     0.00000000    0.00000000    0.00000000
     atom   55 type  2   force =     0.00000000    0.00000000    0.00000000
     atom   56 type  2   force =     0.00000000    0.00000000    0.00000000
     atom   57 type  2   force =     0.00000000    0.00000000    0.00000000
     atom   58 type  2   force =     0.00000000    0.00000000    0.00000000
     atom   59 type  2   force =     0.00000000    0.00000000    0.00000000
     atom   60 type  2   force =     0.00000000    0.00000000    0.00000000
     atom   61 type  2   force =     0.00000000    0.00000000    0.00000000
     atom   62 type  2   force =     0.00000000    0.00000000    0.00000000
     atom   63 type  2   force =     0.00000000    0.00000000    0.00000000
     The SCF correction term to forces
     atom    1 type  1   force =     0.00000742   -0.00002677   -0.00002538
     atom    2 type  2   force =     0.00000249    0.00000862   -0.00000389
     atom    3 type  2   force =    -0.00000591    0.00002508    0.00001384
     atom    4 type  2   force =    -0.00002231   -0.00002719   -0.00000320
     atom    5 type  2   force =    -0.00001044   -0.00000068    0.00001417
     atom    6 type  2   force =    -0.00001981    0.00001342   -0.00002148
     atom    7 type  2   force =    -0.00000914    0.00002643   -0.00001413
     atom    8 type  2   force =    -0.00000001   -0.00002729    0.00001667
     atom    9 type  2   force =    -0.00001024   -0.00000616    0.00002006
     atom   10 type  2   force =     0.00000259    0.00001482    0.00000571
     atom   11 type  2   force =    -0.00000936    0.00001795   -0.00001457
     atom   12 type  2   force =    -0.00001723   -0.00002125    0.00000360
     atom   13 type  2   force =    -0.00001722   -0.00000437   -0.00001274
     atom   14 type  2   force =    -0.00001433    0.00001730    0.00002099
     atom   15 type  2   force =    -0.00001222    0.00002674    0.00001169
     atom   16 type  2   force =     0.00000099    0.00001555   -0.00002467
     atom   17 type  2   force =    -0.00000464    0.00001139   -0.00001217
     atom   18 type  2   force =     0.00000133   -0.00000787    0.00000574
     atom   19 type  2   force =    -0.00001485   -0.00003004    0.00001283
     atom   20 type  2   force =    -0.00000726    0.00002279    0.00000154
     atom   21 type  2   force =    -0.00000903    0.00000294    0.00001167
     atom   22 type  2   force =    -0.00001261   -0.00001047   -0.00001810
     atom   23 type  2   force =    -0.00001454   -0.00003129   -0.00001714
     atom   24 type  2   force =     0.00000240    0.00002562    0.00002212
     atom   25 type  2   force =    -0.00000958    0.00000751    0.00001225
     atom   26 type  2   force =     0.00000394   -0.00001235   -0.00000349
     atom   27 type  2   force =    -0.00000236   -0.00002506   -0.00001641
     atom   28 type  2   force =    -0.00001761    0.00001894    0.00000047
     atom   29 type  2   force =    -0.00001089    0.00000747   -0.00001117
     atom   30 type  2   force =    -0.00001849   -0.00001496    0.00001715
     atom   31 type  2   force =    -0.00001364   -0.00002714    0.00001691
     atom   32 type  2   force =    -0.00000341   -0.00002186   -0.00002128
     atom   33 type  2   force =     0.00001444   -0.00000112   -0.00001434
     atom   34 type  2   force =     0.00000175    0.00002150   -0.00000170
     atom   35 type  2   force =     0.00000391    0.00002845    0.00001010
     atom   36 type  2   force =     0.00001953   -0.00002231    0.00000105
     atom   37 type  2   force =     0.00001104   -0.00001078    0.00000874
     atom   38 type  2   force =     0.00001591    0.00001517   -0.00002013
     atom   39 type  2   force =     0.00000732    0.00001852   -0.00001838
     atom   40 type  2   force =     0.00000155   -0.00002326    0.00002144
     atom   41 type  2   force =     0.00001069   -0.00000503    0.00001568
     atom   42 type  2   force =    -0.00000107    0.00001374    0.00000258
     atom   43 type  2   force =     0.00001425    0.00002505   -0.00001077
     atom   44 type  2   force =     0.00001608   -0.00001975    0.00000042
     atom   45 type  2   force =     0.00001011    0.00000235   -0.00001555
     atom   46 type  2   force =     0.00001325    0.00001327    0.00001872
     atom   47 type  2   force =     0.00001159    0.00002603    0.00002107
     atom   48 type  2   force =     0.00000027    0.00002070   -0.00001434
     atom   49 type  2   force =     0.00000526    0.00000319   -0.00001093
     atom   50 type  2   force =    -0.00000117   -0.00002028   -0.00000093
     atom   51 type  2   force =     0.00001655   -0.00003035    0.00001361
     atom   52 type  2   force =     0.00000691    0.00002256   -0.00000081
     atom   53 type  2   force =     0.00000907    0.00001451    0.00001641
     atom   54 type  2   force =     0.00001193   -0.00001447   -0.00001643
     atom   55 type  2   force =     0.00000928   -0.00002564   -0.00000492
     atom   56 type  2   force =    -0.00000196    0.00002274    0.00001405
     atom   57 type  2   force =     0.00001060    0.00000593    0.00001086
     atom   58 type  2   force =    -0.00000205   -0.00001385    0.00000025
     atom   59 type  2   force =     0.00000736   -0.00002567   -0.00001389
     atom   60 type  2   force =     0.00001568    0.00001908    0.00000171
     atom   61 type  2   force =     0.00000963    0.00000194   -0.00001682
     atom   62 type  2   force =     0.00001690   -0.00001353    0.00001550
     atom   63 type  2   force =     0.00001284   -0.00002715    0.00000860

     Total force =     0.020853     Total SCF correction =     0.000209

     Writing all to output data dir ./pwscf.save/ :
     XML data file, charge density, pseudopotentials, collected wavefunctions
 
     init_run     :      0.52s CPU      0.59s WALL (       1 calls)
     electrons    :     14.29s CPU     14.50s WALL (       1 calls)
     forces       :      0.86s CPU      0.87s WALL (       1 calls)

     Called by init_run:
     wfcinit      :      0.06s CPU      0.10s WALL (       1 calls)
     wfcinit:wfcr :      0.06s CPU      0.06s WALL (       1 calls)
     potinit      :      0.32s CPU      0.32s WALL (       1 calls)
     hinit0       :      0.08s CPU      0.09s WALL (       1 calls)

     Called by electrons:
     c_bands      :      9.50s CPU      9.65s WALL (      14 calls)
     sum_band     :      1.84s CPU      1.86s WALL (      14 calls)
     v_of_rho     :      0.87s CPU      0.88s WALL (      15 calls)
     v_h          :      0.14s CPU      0.14s WALL (      15 calls)
     v_xc         :      0.73s CPU      0.74s WALL (      15 calls)
     mix_rho      :      0.62s CPU      0.62s WALL (      14 calls)

     Called by c_bands:
     init_us_2    :      0.02s CPU      0.03s WALL (      30 calls)
     regterg      :      6.90s CPU      7.03s WALL (      14 calls)

     Called by sum_band:
     sum_band:wei :      0.02s CPU      0.02s WALL (      14 calls)
     sum_band:loo :      1.46s CPU      1.47s WALL (      14 calls)
     sum_band:buf :      0.00s CPU      0.00s WALL (      14 calls)
     sum_band:ini :      0.01s CPU      0.01s WALL (      14 calls)

     Called by *egterg:
     rdiaghg      :      3.99s CPU      4.08s WALL (     269 calls)
     regterg:over :      0.27s CPU      0.28s WALL (     255 calls)
     regterg:upda :      0.23s CPU      0.23s WALL (     255 calls)
     regterg:last :      0.14s CPU      0.14s WALL (      53 calls)
     rdiaghg:chol :      0.14s CPU      0.14s WALL (     269 calls)
     rdiaghg:inve :      0.03s CPU      0.03s WALL (     269 calls)
     rdiaghg:para :      0.38s CPU      0.40s WALL (     538 calls)
     h_psi        :      2.24s CPU      2.28s WALL (     270 calls)
     g_psi        :      0.00s CPU      0.00s WALL (     255 calls)

     Called by h_psi:
     h_psi:calbec :      0.30s CPU      0.30s WALL (     270 calls)
     vloc_psi     :      1.83s CPU      1.86s WALL (     270 calls)
                                        0.00s GPU  (     270 calls)
     add_vuspsi   :      0.11s CPU      0.11s WALL (     270 calls)

     General routines
     calbec       :      0.41s CPU      0.41s WALL (     274 calls)
     fft          :      0.54s CPU      0.56s WALL (     196 calls)
     ffts         :      0.02s CPU      0.02s WALL (      14 calls)
     fftw         :      3.17s CPU      3.21s WALL (   10256 calls)
 
     Parallel routines
 
     PWSCF        :     18.26s CPU     18.73s WALL

 
   This run was terminated on:  13:50:17  19Nov2025            

=------------------------------------------------------------------------------=
   JOB DONE.
=------------------------------------------------------------------------------=
