
     Program PWSCF v.7.5 starts on 19Nov2025 at 13:47:17 

     This program is part of the open-source Quantum ESPRESSO suite
     for quantum simulation of materials; please cite
         "P. Giannozzi et al., J. Phys.:Condens. Matter 21 395502 (2009);
         "P. Giannozzi et al., J. Phys.:Condens. Matter 29 465901 (2017);
         "P. Giannozzi et al., J. Chem. Phys. 152 154105 (2020);
          URL http://www.quantum-espresso.org", 
     in publications or presentations arising from this work. More details at
     http://www.quantum-espresso.org/quote

     Parallel version (MPI), running on    96 processors

     MPI processes distributed on     2 nodes
     144336 MiB available memory on the printing compute node when the environment starts
 
     Reading input from supercell-027.in

     Current dimensions of program PWSCF are:
     Max number of different atomic species (ntypx) = 10
     Max number of k-points (npk) =  40000
     Max angular momentum in pseudopotentials (lmaxx) =  4

     gamma-point specific algorithms are used
 
     K-points division:     npool     =       2
     R & G space division:  proc/nbgrp/npool/nimage =      48
     Subspace diagonalization in iterative solution of the eigenvalue problem:
     one sub-group per band group will be used
     scalapack distributed-memory algorithm (size of sub-group:  2*  2 procs)

 
     Parallelization info
     --------------------
     sticks:   dense  smooth     PW     G-vecs:    dense   smooth      PW
     Min          59      59     14                 2432     2432     302
     Max          62      62     16                 2442     2442     316
     Sum        2885    2885    725               116921   116921   14771
 
     Using Slab Decomposition
 


     bravais-lattice index     =            0
     lattice parameter (alat)  =      13.4813  a.u.
     unit-cell volume          =    2450.1683 (a.u.)^3
     number of atoms/cell      =           63
     number of atomic types    =            2
     number of electrons       =       254.00 (up: 128.00, down: 126.00)
     number of Kohn-Sham states=          152
     kinetic-energy cutoff     =      50.0000  Ry
     charge density cutoff     =     200.0000  Ry
     scf convergence threshold =      1.0E-08
     mixing beta               =       0.7000
     number of iterations used =            8  plain     mixing
     Exchange-correlation= PBE
                           (   1   4   3   4   0   0   0)

     celldm(1)=  13.481306  celldm(2)=   0.000000  celldm(3)=   0.000000
     celldm(4)=   0.000000  celldm(5)=   0.000000  celldm(6)=   0.000000

     crystal axes: (cart. coord. in units of alat)
               a(1) = (   1.000000   0.000000   0.000000 )  
               a(2) = (   0.000000   1.000000   0.000000 )  
               a(3) = (   0.000000   0.000000   1.000000 )  

     reciprocal axes: (cart. coord. in units 2 pi/alat)
               b(1) = (  1.000000  0.000000  0.000000 )  
               b(2) = (  0.000000  1.000000  0.000000 )  
               b(3) = (  0.000000  0.000000  1.000000 )  


     PseudoPot. # 1 for N  read from file:
     ./N_ONCV_PBE-1.2.upf
     MD5 check sum: 5312fdf34e96954e02a33bdc911c617a
     Pseudo is Norm-conserving, Zval =  5.0
     Generated using ONCVPSP code by D. R. Hamann
     Using radial grid of  602 points,  4 beta functions with: 
                l(1) =   0
                l(2) =   0
                l(3) =   1
                l(4) =   1

     PseudoPot. # 2 for C  read from file:
     ./C_ONCV_PBE-1.2.upf
     MD5 check sum: d60b57d9bdca4133f5fde4b584ee909d
     Pseudo is Norm-conserving, Zval =  4.0
     Generated using ONCVPSP code by D. R. Hamann
     Using radial grid of  602 points,  4 beta functions with: 
                l(1) =   0
                l(2) =   0
                l(3) =   1
                l(4) =   1

     atomic species   valence    mass     pseudopotential
     N                 5.00    14.00670     N ( 1.00)
     C                 4.00    12.01070     C ( 1.00)

     Starting magnetic structure 
     atomic species   magnetization
     N               0.000
     C               0.000

     No symmetry found


                                    s                        frac. trans.

      isym =  1     identity                                     

 cryst.   s( 1) = (     1          0          0      )
                  (     0          1          0      )
                  (     0          0          1      )

 cart.    s( 1) = (  1.0000000  0.0000000  0.0000000 )
                  (  0.0000000  1.0000000  0.0000000 )
                  (  0.0000000  0.0000000  1.0000000 )


   Cartesian axes

     site n.     atom                  positions (alat units)
         1        N      tau(   1) = (   0.9869283   0.9869283   0.9869283  )
         2        C      tau(   2) = (   0.9921390   0.2607625   0.2607625  )
         3        C      tau(   3) = (   0.1236981   0.3746848   0.3746848  )
         4        C      tau(   4) = (   0.2607625   0.9921390   0.2607625  )
         5        C      tau(   5) = (   0.3746848   0.1236981   0.3746848  )
         6        C      tau(   6) = (   0.2607625   0.2607625   0.9921390  )
         7        C      tau(   7) = (   0.3746848   0.3746848   0.1236981  )
         8        C      tau(   8) = (   0.0007517   0.0007517   0.4988587  )
         9        C      tau(   9) = (   0.1251291   0.1251291   0.6250516  )
        10        C      tau(  10) = (   0.0014372   0.2476607   0.7521916  )
        11        C      tau(  11) = (   0.1266329   0.3745580   0.8775065  )
        12        C      tau(  12) = (   0.2476607   0.0014372   0.7521916  )
        13        C      tau(  13) = (   0.3730745   0.1266329   0.8775065  )
        14        C      tau(  14) = (   0.2498467   0.2498467   0.4996267  )
        15        C      tau(  15) = (   0.3749463   0.3749463   0.6249280  )
        16        C      tau(  16) = (   0.0007517   0.4988587   0.0007517  )
        17        C      tau(  17) = (   0.1251291   0.6250516   0.1251291  )
        18        C      tau(  18) = (   0.0014372   0.7521916   0.2476607  )
        19        C      tau(  19) = (   0.1266329   0.8775065   0.3730745  )
        20        C      tau(  20) = (   0.2498467   0.4996267   0.2498467  )
        21        C      tau(  21) = (   0.3749463   0.6249280   0.3749463  )
        22        C      tau(  22) = (   0.2476607   0.7521916   0.0014372  )
        23        C      tau(  23) = (   0.3730745   0.8775065   0.1266329  )
        24        C      tau(  24) = (   0.0010116   0.5014264   0.5014264  )
        25        C      tau(  25) = (   0.1250381   0.6250852   0.6250852  )
        26        C      tau(  26) = (   0.9996941   0.7483805   0.7483805  )
        27        C      tau(  27) = (   0.1189720   0.8751585   0.8751585  )
        28        C      tau(  28) = (   0.2496290   0.5009902   0.7494822  )
        29        C      tau(  29) = (   0.3740517   0.6261334   0.8754230  )
        30        C      tau(  30) = (   0.2496290   0.7494822   0.5009902  )
        31        C      tau(  31) = (   0.3740517   0.8754230   0.6261334  )
        32        C      tau(  32) = (   0.4988587   0.0007517   0.0007517  )
        33        C      tau(  33) = (   0.6250516   0.1251291   0.1251291  )
        34        C      tau(  34) = (   0.4996267   0.2498467   0.2498467  )
        35        C      tau(  35) = (   0.6249280   0.3749463   0.3749463  )
        36        C      tau(  36) = (   0.7521916   0.0014372   0.2476607  )
        37        C      tau(  37) = (   0.8775065   0.1266329   0.3730745  )
        38        C      tau(  38) = (   0.7521916   0.2476607   0.0014372  )
        39        C      tau(  39) = (   0.8775065   0.3730745   0.1266329  )
        40        C      tau(  40) = (   0.5014264   0.0010116   0.5014264  )
        41        C      tau(  41) = (   0.6250852   0.1250381   0.6250852  )
        42        C      tau(  42) = (   0.5009902   0.2496290   0.7494822  )
        43        C      tau(  43) = (   0.6261334   0.3740517   0.8754230  )
        44        C      tau(  44) = (   0.7483805   0.9996941   0.7483805  )
        45        C      tau(  45) = (   0.8751585   0.1189720   0.8751585  )
        46        C      tau(  46) = (   0.7494822   0.2496290   0.5009902  )
        47        C      tau(  47) = (   0.8754230   0.3740517   0.6261334  )
        48        C      tau(  48) = (   0.5014264   0.5014264   0.0010116  )
        49        C      tau(  49) = (   0.6250852   0.6250852   0.1250381  )
        50        C      tau(  50) = (   0.5009902   0.7494822   0.2496290  )
        51        C      tau(  51) = (   0.6261334   0.8754230   0.3740517  )
        52        C      tau(  52) = (   0.7494822   0.5009902   0.2496290  )
        53        C      tau(  53) = (   0.8754230   0.6261334   0.3740517  )
        54        C      tau(  54) = (   0.7483805   0.7483805   0.9996941  )
        55        C      tau(  55) = (   0.8751585   0.8751585   0.1189720  )
        56        C      tau(  56) = (   0.4999757   0.4999757   0.4999757  )
        57        C      tau(  57) = (   0.6249536   0.6249536   0.6249536  )
        58        C      tau(  58) = (   0.4990957   0.7503802   0.7503802  )
        59        C      tau(  59) = (   0.6235333   0.8749829   0.8749829  )
        60        C      tau(  60) = (   0.7503802   0.4990957   0.7503802  )
        61        C      tau(  61) = (   0.8749829   0.6235333   0.8749829  )
        62        C      tau(  62) = (   0.7503802   0.7503802   0.4990957  )
        63        C      tau(  63) = (   0.8749829   0.8749829   0.6235333  )

   Crystallographic axes

     site n.     atom                  positions (cryst. coord.)
         1        N      tau(   1) = (  0.9869283  0.9869283  0.9869283  )
         2        C      tau(   2) = (  0.9921390  0.2607625  0.2607625  )
         3        C      tau(   3) = (  0.1236981  0.3746848  0.3746848  )
         4        C      tau(   4) = (  0.2607625  0.9921390  0.2607625  )
         5        C      tau(   5) = (  0.3746848  0.1236981  0.3746848  )
         6        C      tau(   6) = (  0.2607625  0.2607625  0.9921390  )
         7        C      tau(   7) = (  0.3746848  0.3746848  0.1236981  )
         8        C      tau(   8) = (  0.0007517  0.0007517  0.4988587  )
         9        C      tau(   9) = (  0.1251291  0.1251291  0.6250516  )
        10        C      tau(  10) = (  0.0014372  0.2476607  0.7521916  )
        11        C      tau(  11) = (  0.1266329  0.3745580  0.8775065  )
        12        C      tau(  12) = (  0.2476607  0.0014372  0.7521916  )
        13        C      tau(  13) = (  0.3730745  0.1266329  0.8775065  )
        14        C      tau(  14) = (  0.2498467  0.2498467  0.4996267  )
        15        C      tau(  15) = (  0.3749463  0.3749463  0.6249280  )
        16        C      tau(  16) = (  0.0007517  0.4988587  0.0007517  )
        17        C      tau(  17) = (  0.1251291  0.6250516  0.1251291  )
        18        C      tau(  18) = (  0.0014372  0.7521916  0.2476607  )
        19        C      tau(  19) = (  0.1266329  0.8775065  0.3730745  )
        20        C      tau(  20) = (  0.2498467  0.4996267  0.2498467  )
        21        C      tau(  21) = (  0.3749463  0.6249280  0.3749463  )
        22        C      tau(  22) = (  0.2476607  0.7521916  0.0014372  )
        23        C      tau(  23) = (  0.3730745  0.8775065  0.1266329  )
        24        C      tau(  24) = (  0.0010116  0.5014264  0.5014264  )
        25        C      tau(  25) = (  0.1250381  0.6250852  0.6250852  )
        26        C      tau(  26) = (  0.9996941  0.7483805  0.7483805  )
        27        C      tau(  27) = (  0.1189720  0.8751585  0.8751585  )
        28        C      tau(  28) = (  0.2496290  0.5009902  0.7494822  )
        29        C      tau(  29) = (  0.3740517  0.6261334  0.8754230  )
        30        C      tau(  30) = (  0.2496290  0.7494822  0.5009902  )
        31        C      tau(  31) = (  0.3740517  0.8754230  0.6261334  )
        32        C      tau(  32) = (  0.4988587  0.0007517  0.0007517  )
        33        C      tau(  33) = (  0.6250516  0.1251291  0.1251291  )
        34        C      tau(  34) = (  0.4996267  0.2498467  0.2498467  )
        35        C      tau(  35) = (  0.6249280  0.3749463  0.3749463  )
        36        C      tau(  36) = (  0.7521916  0.0014372  0.2476607  )
        37        C      tau(  37) = (  0.8775065  0.1266329  0.3730745  )
        38        C      tau(  38) = (  0.7521916  0.2476607  0.0014372  )
        39        C      tau(  39) = (  0.8775065  0.3730745  0.1266329  )
        40        C      tau(  40) = (  0.5014264  0.0010116  0.5014264  )
        41        C      tau(  41) = (  0.6250852  0.1250381  0.6250852  )
        42        C      tau(  42) = (  0.5009902  0.2496290  0.7494822  )
        43        C      tau(  43) = (  0.6261334  0.3740517  0.8754230  )
        44        C      tau(  44) = (  0.7483805  0.9996941  0.7483805  )
        45        C      tau(  45) = (  0.8751585  0.1189720  0.8751585  )
        46        C      tau(  46) = (  0.7494822  0.2496290  0.5009902  )
        47        C      tau(  47) = (  0.8754230  0.3740517  0.6261334  )
        48        C      tau(  48) = (  0.5014264  0.5014264  0.0010116  )
        49        C      tau(  49) = (  0.6250852  0.6250852  0.1250381  )
        50        C      tau(  50) = (  0.5009902  0.7494822  0.2496290  )
        51        C      tau(  51) = (  0.6261334  0.8754230  0.3740517  )
        52        C      tau(  52) = (  0.7494822  0.5009902  0.2496290  )
        53        C      tau(  53) = (  0.8754230  0.6261334  0.3740517  )
        54        C      tau(  54) = (  0.7483805  0.7483805  0.9996941  )
        55        C      tau(  55) = (  0.8751585  0.8751585  0.1189720  )
        56        C      tau(  56) = (  0.4999757  0.4999757  0.4999757  )
        57        C      tau(  57) = (  0.6249536  0.6249536  0.6249536  )
        58        C      tau(  58) = (  0.4990957  0.7503802  0.7503802  )
        59        C      tau(  59) = (  0.6235333  0.8749829  0.8749829  )
        60        C      tau(  60) = (  0.7503802  0.4990957  0.7503802  )
        61        C      tau(  61) = (  0.8749829  0.6235333  0.8749829  )
        62        C      tau(  62) = (  0.7503802  0.7503802  0.4990957  )
        63        C      tau(  63) = (  0.8749829  0.8749829  0.6235333  )

     number of k points=     1
                       cart. coord. in units 2pi/alat
        k(    1) = (   0.0000000   0.0000000   0.0000000), wk =   1.0000000

                       cryst. coord.
        k(    1) = (   0.0000000   0.0000000   0.0000000), wk =   1.0000000

     Dense  grid:    58461 G-vectors     FFT dimensions: (  64,  64,  64)

     Dynamical RAM for                 wfc:       0.35 MB

     Dynamical RAM for     wfc (w. buffer):       0.35 MB

     Dynamical RAM for           str. fact:       0.04 MB

     Dynamical RAM for           local pot:       0.00 MB

     Dynamical RAM for          nlocal pot:       1.17 MB

     Dynamical RAM for                qrad:       0.65 MB

     Dynamical RAM for          rho,v,vnew:       0.49 MB

     Dynamical RAM for               rhoin:       0.16 MB

     Dynamical RAM for            rho*nmix:       0.60 MB

     Dynamical RAM for           G-vectors:       0.08 MB

     Dynamical RAM for          h,s,v(r/c):       0.53 MB

     Dynamical RAM for          <psi|beta>:       0.58 MB

     Dynamical RAM for                 psi:       0.71 MB

     Dynamical RAM for                hpsi:       0.71 MB

     Dynamical RAM for      wfcinit/wfcrot:       1.24 MB

     Estimated static dynamical RAM per process >       3.37 MB

     Estimated max dynamical RAM per process >       6.49 MB

     Estimated total dynamical RAM >     594.05 MB
     Generating pointlists ...
     new r_m :   0.0850 (alat units)  1.1454 (a.u.) for type    1
     new r_m :   0.0850 (alat units)  1.1454 (a.u.) for type    2

     Initial potential from superposition of free atoms

     starting charge     252.5655, renormalised to     254.0000
     Starting wfcs are random

     total cpu time spent up to now is        1.6 secs

     Self-consistent Calculation

     iteration #  1     ecut=    50.00 Ry     beta= 0.70
     Davidson diagonalization with overlap

---- Real-time Memory Report at c_bands before calling an iterative solver
           158 MiB given to the printing process from OS
             0 MiB allocation reported by mallinfo(arena+hblkhd)
        143380 MiB available memory on the node where the printing process lives
------------------
     ethr =  1.00E-02,  avg # of iterations = 14.0

     total cpu time spent up to now is        2.4 secs

     total energy              =    -723.30857404 Ry
     estimated scf accuracy    <       3.69405703 Ry

     total magnetization       =     2.00 Bohr mag/cell
     absolute magnetization    =     2.00 Bohr mag/cell

     iteration #  2     ecut=    50.00 Ry     beta= 0.70
     Davidson diagonalization with overlap

---- Real-time Memory Report at c_bands before calling an iterative solver
           164 MiB given to the printing process from OS
             0 MiB allocation reported by mallinfo(arena+hblkhd)
        143314 MiB available memory on the node where the printing process lives
------------------
     ethr =  1.45E-03,  avg # of iterations = 11.5

     total cpu time spent up to now is        3.1 secs

     total energy              =    -723.68242814 Ry
     estimated scf accuracy    <       0.43675143 Ry

     total magnetization       =     2.00 Bohr mag/cell
     absolute magnetization    =     2.07 Bohr mag/cell

     iteration #  3     ecut=    50.00 Ry     beta= 0.70
     Davidson diagonalization with overlap

---- Real-time Memory Report at c_bands before calling an iterative solver
           165 MiB given to the printing process from OS
             0 MiB allocation reported by mallinfo(arena+hblkhd)
        143321 MiB available memory on the node where the printing process lives
------------------
     ethr =  1.72E-04,  avg # of iterations = 14.5

     total cpu time spent up to now is        3.5 secs

     total energy              =    -723.74160752 Ry
     estimated scf accuracy    <       0.84859174 Ry

     total magnetization       =     2.00 Bohr mag/cell
     absolute magnetization    =     2.12 Bohr mag/cell

     iteration #  4     ecut=    50.00 Ry     beta= 0.70
     Davidson diagonalization with overlap

---- Real-time Memory Report at c_bands before calling an iterative solver
           165 MiB given to the printing process from OS
             0 MiB allocation reported by mallinfo(arena+hblkhd)
        143319 MiB available memory on the node where the printing process lives
------------------
     c_bands:  1 eigenvalues not converged
     ethr =  1.72E-04,  avg # of iterations = 20.0

     total cpu time spent up to now is        5.2 secs

     total energy              =    -723.91137396 Ry
     estimated scf accuracy    <       0.00808840 Ry

     total magnetization       =     2.00 Bohr mag/cell
     absolute magnetization    =     2.18 Bohr mag/cell

     iteration #  5     ecut=    50.00 Ry     beta= 0.70
     Davidson diagonalization with overlap

---- Real-time Memory Report at c_bands before calling an iterative solver
           165 MiB given to the printing process from OS
             0 MiB allocation reported by mallinfo(arena+hblkhd)
        143318 MiB available memory on the node where the printing process lives
------------------
     c_bands:  4 eigenvalues not converged
     ethr =  3.18E-06,  avg # of iterations = 20.0

     total cpu time spent up to now is        6.0 secs

     total energy              =    -723.91592678 Ry
     estimated scf accuracy    <       0.00410540 Ry

     total magnetization       =     2.00 Bohr mag/cell
     absolute magnetization    =     2.22 Bohr mag/cell

     iteration #  6     ecut=    50.00 Ry     beta= 0.70
     Davidson diagonalization with overlap

---- Real-time Memory Report at c_bands before calling an iterative solver
           166 MiB given to the printing process from OS
             0 MiB allocation reported by mallinfo(arena+hblkhd)
        143315 MiB available memory on the node where the printing process lives
------------------
     c_bands:  4 eigenvalues not converged
     ethr =  1.62E-06,  avg # of iterations = 20.0

     total cpu time spent up to now is        7.1 secs

     total energy              =    -723.91662182 Ry
     estimated scf accuracy    <       0.00071179 Ry

     total magnetization       =     2.00 Bohr mag/cell
     absolute magnetization    =     2.24 Bohr mag/cell

     iteration #  7     ecut=    50.00 Ry     beta= 0.70
     Davidson diagonalization with overlap

---- Real-time Memory Report at c_bands before calling an iterative solver
           166 MiB given to the printing process from OS
             0 MiB allocation reported by mallinfo(arena+hblkhd)
        143316 MiB available memory on the node where the printing process lives
------------------
     c_bands:  2 eigenvalues not converged
     ethr =  2.80E-07,  avg # of iterations = 20.0

     total cpu time spent up to now is        7.7 secs

     total energy              =    -723.91682404 Ry
     estimated scf accuracy    <       0.00007221 Ry

     total magnetization       =     2.00 Bohr mag/cell
     absolute magnetization    =     2.26 Bohr mag/cell

     iteration #  8     ecut=    50.00 Ry     beta= 0.70
     Davidson diagonalization with overlap

---- Real-time Memory Report at c_bands before calling an iterative solver
           166 MiB given to the printing process from OS
             0 MiB allocation reported by mallinfo(arena+hblkhd)
        143310 MiB available memory on the node where the printing process lives
------------------
     c_bands:  1 eigenvalues not converged
     ethr =  2.84E-08,  avg # of iterations = 20.0

     total cpu time spent up to now is        8.4 secs

     total energy              =    -723.91685272 Ry
     estimated scf accuracy    <       0.00002087 Ry

     total magnetization       =     2.00 Bohr mag/cell
     absolute magnetization    =     2.27 Bohr mag/cell

     iteration #  9     ecut=    50.00 Ry     beta= 0.70
     Davidson diagonalization with overlap

---- Real-time Memory Report at c_bands before calling an iterative solver
           166 MiB given to the printing process from OS
             0 MiB allocation reported by mallinfo(arena+hblkhd)
        143316 MiB available memory on the node where the printing process lives
------------------
     c_bands:  1 eigenvalues not converged
     ethr =  8.21E-09,  avg # of iterations = 19.5

     total cpu time spent up to now is        9.8 secs

     total energy              =    -723.91685975 Ry
     estimated scf accuracy    <       0.00000706 Ry

     total magnetization       =     2.00 Bohr mag/cell
     absolute magnetization    =     2.28 Bohr mag/cell

     iteration # 10     ecut=    50.00 Ry     beta= 0.70
     Davidson diagonalization with overlap

---- Real-time Memory Report at c_bands before calling an iterative solver
           166 MiB given to the printing process from OS
             0 MiB allocation reported by mallinfo(arena+hblkhd)
        143310 MiB available memory on the node where the printing process lives
------------------
     ethr =  2.78E-09,  avg # of iterations = 20.0

     total cpu time spent up to now is       10.4 secs

     total energy              =    -723.91686270 Ry
     estimated scf accuracy    <       0.00000087 Ry

     total magnetization       =     2.00 Bohr mag/cell
     absolute magnetization    =     2.28 Bohr mag/cell

     iteration # 11     ecut=    50.00 Ry     beta= 0.70
     Davidson diagonalization with overlap

---- Real-time Memory Report at c_bands before calling an iterative solver
           166 MiB given to the printing process from OS
             0 MiB allocation reported by mallinfo(arena+hblkhd)
        143318 MiB available memory on the node where the printing process lives
------------------
     c_bands:  1 eigenvalues not converged
     ethr =  3.41E-10,  avg # of iterations = 19.0

     total cpu time spent up to now is       11.2 secs

     total energy              =    -723.91686328 Ry
     estimated scf accuracy    <       0.00000018 Ry

     total magnetization       =     2.00 Bohr mag/cell
     absolute magnetization    =     2.29 Bohr mag/cell

     iteration # 12     ecut=    50.00 Ry     beta= 0.70
     Davidson diagonalization with overlap

---- Real-time Memory Report at c_bands before calling an iterative solver
           166 MiB given to the printing process from OS
             0 MiB allocation reported by mallinfo(arena+hblkhd)
        143316 MiB available memory on the node where the printing process lives
------------------
     c_bands:  1 eigenvalues not converged
     ethr =  7.04E-11,  avg # of iterations = 20.0

     total cpu time spent up to now is       12.1 secs

     total energy              =    -723.91686338 Ry
     estimated scf accuracy    <       0.00000005 Ry

     total magnetization       =     2.00 Bohr mag/cell
     absolute magnetization    =     2.29 Bohr mag/cell

     iteration # 13     ecut=    50.00 Ry     beta= 0.70
     Davidson diagonalization with overlap

---- Real-time Memory Report at c_bands before calling an iterative solver
           166 MiB given to the printing process from OS
             0 MiB allocation reported by mallinfo(arena+hblkhd)
        143313 MiB available memory on the node where the printing process lives
------------------
     c_bands:  1 eigenvalues not converged
     ethr =  2.07E-11,  avg # of iterations = 20.0

     total cpu time spent up to now is       13.9 secs

     total energy              =    -723.91686341 Ry
     estimated scf accuracy    <       0.00000001 Ry

     total magnetization       =     2.00 Bohr mag/cell
     absolute magnetization    =     2.29 Bohr mag/cell

     iteration # 14     ecut=    50.00 Ry     beta= 0.70
     Davidson diagonalization with overlap

---- Real-time Memory Report at c_bands before calling an iterative solver
           166 MiB given to the printing process from OS
             0 MiB allocation reported by mallinfo(arena+hblkhd)
        143317 MiB available memory on the node where the printing process lives
------------------
     c_bands:  5 eigenvalues not converged
     ethr =  4.49E-12,  avg # of iterations = 20.0
 
     Magnetic moment per site  (integrated on atomic sphere of radius R)
     atom   1 (R=0.085)  charge=  2.8976  magn=  0.0039
     atom   2 (R=0.085)  charge=  1.8130  magn=  0.2493
     atom   3 (R=0.085)  charge=  1.8113  magn= -0.0087
     atom   4 (R=0.085)  charge=  1.8130  magn=  0.2495
     atom   5 (R=0.085)  charge=  1.8113  magn= -0.0087
     atom   6 (R=0.085)  charge=  1.8107  magn=  0.2500
     atom   7 (R=0.085)  charge=  1.8114  magn= -0.0087
     atom   8 (R=0.085)  charge=  1.8015  magn=  0.0085
     atom   9 (R=0.085)  charge=  1.8084  magn= -0.0018
     atom  10 (R=0.085)  charge=  1.7927  magn=  0.0054
     atom  11 (R=0.085)  charge=  1.8030  magn= -0.0032
     atom  12 (R=0.085)  charge=  1.7946  magn=  0.0054
     atom  13 (R=0.085)  charge=  1.8029  magn= -0.0034
     atom  14 (R=0.085)  charge=  1.8001  magn=  0.0086
     atom  15 (R=0.085)  charge=  1.8013  magn= -0.0019
     atom  16 (R=0.085)  charge=  1.8035  magn=  0.0083
     atom  17 (R=0.085)  charge=  1.8086  magn= -0.0018
     atom  18 (R=0.085)  charge=  1.7946  magn=  0.0054
     atom  19 (R=0.085)  charge=  1.8030  magn= -0.0034
     atom  20 (R=0.085)  charge=  1.8001  magn=  0.0086
     atom  21 (R=0.085)  charge=  1.8013  magn= -0.0019
     atom  22 (R=0.085)  charge=  1.7946  magn=  0.0054
     atom  23 (R=0.085)  charge=  1.8030  magn= -0.0034
     atom  24 (R=0.085)  charge=  1.8004  magn=  0.0181
     atom  25 (R=0.085)  charge=  1.8201  magn=  0.0089
     atom  26 (R=0.085)  charge=  1.8120  magn=  0.0031
     atom  27 (R=0.085)  charge=  1.7813  magn= -0.0000
     atom  28 (R=0.085)  charge=  1.8025  magn=  0.0205
     atom  29 (R=0.085)  charge=  1.7954  magn= -0.0013
     atom  30 (R=0.085)  charge=  1.8008  magn=  0.0212
     atom  31 (R=0.085)  charge=  1.7953  magn= -0.0013
     atom  32 (R=0.085)  charge=  1.8015  magn=  0.0084
     atom  33 (R=0.085)  charge=  1.8085  magn= -0.0018
     atom  34 (R=0.085)  charge=  1.8001  magn=  0.0086
     atom  35 (R=0.085)  charge=  1.8013  magn= -0.0019
     atom  36 (R=0.085)  charge=  1.7946  magn=  0.0054
     atom  37 (R=0.085)  charge=  1.8030  magn= -0.0034
     atom  38 (R=0.085)  charge=  1.7946  magn=  0.0054
     atom  39 (R=0.085)  charge=  1.8029  magn= -0.0034
     atom  40 (R=0.085)  charge=  1.8004  magn=  0.0181
     atom  41 (R=0.085)  charge=  1.8200  magn=  0.0089
     atom  42 (R=0.085)  charge=  1.8008  magn=  0.0212
     atom  43 (R=0.085)  charge=  1.7953  magn= -0.0013
     atom  44 (R=0.085)  charge=  1.8119  magn=  0.0032
     atom  45 (R=0.085)  charge=  1.7812  magn= -0.0000
     atom  46 (R=0.085)  charge=  1.8008  magn=  0.0212
     atom  47 (R=0.085)  charge=  1.7954  magn= -0.0013
     atom  48 (R=0.085)  charge=  1.8004  magn=  0.0181
     atom  49 (R=0.085)  charge=  1.8200  magn=  0.0089
     atom  50 (R=0.085)  charge=  1.8008  magn=  0.0212
     atom  51 (R=0.085)  charge=  1.7953  magn= -0.0013
     atom  52 (R=0.085)  charge=  1.8008  magn=  0.0211
     atom  53 (R=0.085)  charge=  1.7953  magn= -0.0013
     atom  54 (R=0.085)  charge=  1.8120  magn=  0.0031
     atom  55 (R=0.085)  charge=  1.7813  magn= -0.0000
     atom  56 (R=0.085)  charge=  1.8050  magn=  0.0010
     atom  57 (R=0.085)  charge=  1.7981  magn=  0.0010
     atom  58 (R=0.085)  charge=  1.8061  magn=  0.0018
     atom  59 (R=0.085)  charge=  1.8021  magn= -0.0009
     atom  60 (R=0.085)  charge=  1.8061  magn=  0.0018
     atom  61 (R=0.085)  charge=  1.8022  magn= -0.0009
     atom  62 (R=0.085)  charge=  1.8061  magn=  0.0018
     atom  63 (R=0.085)  charge=  1.8021  magn= -0.0009

     total cpu time spent up to now is       14.5 secs

     End of self-consistent calculation

 ------ SPIN UP ------------


          k = 0.0000 0.0000 0.0000 (  7386 PWs)   bands (ev):

    -8.5689  -7.0161  -6.2670  -6.2630  -6.1604  -6.1588  -5.8770  -4.9428
    -4.1237  -4.1228  -4.0889  -4.0873  -4.0318  -4.0300  -3.9819  -3.9084
    -3.8644  -3.8593  -3.3549  -2.9529  -2.6669  -2.6633  -2.1097  -0.3585
    -0.3572  -0.3155  -0.2876  -0.0910   0.1878   0.1896   0.2941   0.2958
     0.3698   0.6087   0.8241   0.8244   0.9857   0.9869   1.0226   1.0482
     1.0528   1.0780   1.3036   1.3102   3.0578   3.8871   3.8890   4.0412
     4.2352   4.2380   4.2473   4.2550   4.2869   4.2897   4.4311   4.4375
     4.5011   4.5017   4.5998   4.6806   4.6887   4.6893   4.6905   4.7759
     4.7829   4.9101   4.9670   4.9681   5.0601   5.2258   5.2277   5.3034
     5.3711   5.3718   5.4100   5.4209   5.4245   6.0463   6.0491   6.0812
     6.6417   6.6441   6.7633   7.0075   7.0280   7.0310   7.5181   8.3341
     8.3359   8.4215   8.4954   8.4995   8.6733   8.6747   8.8274   8.8327
     8.8530   8.8570   8.8935   8.8986   8.9415   9.3067   9.3071   9.3095
     9.7193   9.7227   9.9376   9.9412   9.9425   9.9547   9.9783  10.0054
    10.0065  10.0070  10.0333  10.0360  10.1352  10.1356  10.2851  10.2865
    10.3545  10.9863  12.2269  12.4678  12.4723  13.8201  14.7935  14.7984
    17.3765  17.3859  17.3887  17.5586  17.5600  17.5619  17.8927  17.9291
    17.9306  18.0112  18.0194  18.3742  18.9885  18.9926  19.0199  20.7122
    20.8210  20.8261  20.8681  20.9580  20.9595  21.0283  21.0320  21.0814

     occupation numbers 
     1.0000   1.0000   1.0000   1.0000   1.0000   1.0000   1.0000   1.0000
     1.0000   1.0000   1.0000   1.0000   1.0000   1.0000   1.0000   1.0000
     1.0000   1.0000   1.0000   1.0000   1.0000   1.0000   1.0000   1.0000
     1.0000   1.0000   1.0000   1.0000   1.0000   1.0000   1.0000   1.0000
     1.0000   1.0000   1.0000   1.0000   1.0000   1.0000   1.0000   1.0000
     1.0000   1.0000   1.0000   1.0000   1.0000   1.0000   1.0000   1.0000
     1.0000   1.0000   1.0000   1.0000   1.0000   1.0000   1.0000   1.0000
     1.0000   1.0000   1.0000   1.0000   1.0000   1.0000   1.0000   1.0000
     1.0000   1.0000   1.0000   1.0000   1.0000   1.0000   1.0000   1.0000
     1.0000   1.0000   1.0000   1.0000   1.0000   1.0000   1.0000   1.0000
     1.0000   1.0000   1.0000   1.0000   1.0000   1.0000   1.0000   1.0000
     1.0000   1.0000   1.0000   1.0000   1.0000   1.0000   1.0000   1.0000
     1.0000   1.0000   1.0000   1.0000   1.0000   1.0000   1.0000   1.0000
     1.0000   1.0000   1.0000   1.0000   1.0000   1.0000   1.0000   1.0000
     1.0000   1.0000   1.0000   1.0000   1.0000   1.0000   1.0000   1.0000
     1.0000   1.0000   1.0000   1.0000   1.0000   1.0000   1.0000   1.0000
     0.0000   0.0000   0.0000   0.0000   0.0000   0.0000   0.0000   0.0000
     0.0000   0.0000   0.0000   0.0000   0.0000   0.0000   0.0000   0.0000
     0.0000   0.0000   0.0000   0.0000   0.0000   0.0000   0.0000   0.0000

 ------ SPIN DOWN ----------


          k = 0.0000 0.0000 0.0000 (  7386 PWs)   bands (ev):

    -8.5456  -7.0017  -6.2477  -6.2437  -6.1185  -6.1170  -5.8403  -4.9270
    -4.1038  -4.1027  -4.0734  -4.0720  -3.9760  -3.9746  -3.9565  -3.8966
    -3.8185  -3.8132  -3.3115  -2.9351  -2.6126  -2.6091  -1.9694  -0.3415
    -0.3403  -0.2971  -0.2664  -0.0245   0.2034   0.2052   0.3291   0.3308
     0.3954   0.6411   0.8366   0.8368   1.0106   1.0118   1.0561   1.0635
     1.0681   1.0946   1.4750   1.4817   3.1725   3.9076   3.9094   4.0638
     4.2701   4.2735   4.2743   4.2878   4.3064   4.3093   4.4808   4.4872
     4.5212   4.5217   4.6268   4.7014   4.7037   4.7078   4.7096   4.8125
     4.8196   4.9220   4.9987   5.0001   5.1441   5.2597   5.2616   5.3271
     5.3817   5.3830   5.4225   5.4805   5.4847   6.1061   6.1087   6.1220
     6.6681   6.6705   6.7978   7.0508   7.1203   7.1235   7.6963   8.3722
     8.3741   8.4580   8.5276   8.5319   8.7038   8.7053   8.8621   8.8695
     8.8718   8.8822   8.9458   8.9528   8.9658   9.3350   9.3434   9.3452
     9.7485   9.7521   9.9529   9.9553   9.9569   9.9825  10.0044  10.0186
    10.0257  10.0262  10.0669  10.0685  10.1675  10.1677  10.3413  10.3418
    10.4159  11.3855  12.5342  12.6139  12.6195  14.2866  16.1584  16.1620
    17.4040  17.4059  17.4067  17.5825  17.6132  17.6152  17.9170  17.9494
    17.9513  18.0495  18.0573  18.4863  19.0629  19.0765  19.0815  20.7617
    20.8341  20.8393  20.8821  20.9747  20.9756  21.0535  21.0577  21.0935

     occupation numbers 
     1.0000   1.0000   1.0000   1.0000   1.0000   1.0000   1.0000   1.0000
     1.0000   1.0000   1.0000   1.0000   1.0000   1.0000   1.0000   1.0000
     1.0000   1.0000   1.0000   1.0000   1.0000   1.0000   1.0000   1.0000
     1.0000   1.0000   1.0000   1.0000   1.0000   1.0000   1.0000   1.0000
     1.0000   1.0000   1.0000   1.0000   1.0000   1.0000   1.0000   1.0000
     1.0000   1.0000   1.0000   1.0000   1.0000   1.0000   1.0000   1.0000
     1.0000   1.0000   1.0000   1.0000   1.0000   1.0000   1.0000   1.0000
     1.0000   1.0000   1.0000   1.0000   1.0000   1.0000   1.0000   1.0000
     1.0000   1.0000   1.0000   1.0000   1.0000   1.0000   1.0000   1.0000
     1.0000   1.0000   1.0000   1.0000   1.0000   1.0000   1.0000   1.0000
     1.0000   1.0000   1.0000   1.0000   1.0000   1.0000   1.0000   1.0000
     1.0000   1.0000   1.0000   1.0000   1.0000   1.0000   1.0000   1.0000
     1.0000   1.0000   1.0000   1.0000   1.0000   1.0000   1.0000   1.0000
     1.0000   1.0000   1.0000   1.0000   1.0000   1.0000   1.0000   1.0000
     1.0000   1.0000   1.0000   1.0000   1.0000   1.0000   1.0000   1.0000
     1.0000   1.0000   1.0000   1.0000   1.0000   1.0000   0.0000   0.0000
     0.0000   0.0000   0.0000   0.0000   0.0000   0.0000   0.0000   0.0000
     0.0000   0.0000   0.0000   0.0000   0.0000   0.0000   0.0000   0.0000
     0.0000   0.0000   0.0000   0.0000   0.0000   0.0000   0.0000   0.0000

     highest occupied, lowest unoccupied level (ev):    14.7984   16.1584

!    total energy              =    -723.91686342 Ry
     estimated scf accuracy    <          3.9E-09 Ry

     The total energy is the sum of the following terms:
     one-electron contribution =     232.77392002 Ry
     hartree contribution      =      70.10755421 Ry
     xc contribution           =    -226.74488818 Ry
     ewald contribution        =    -800.05344947 Ry

     total magnetization       =     2.00 Bohr mag/cell
     absolute magnetization    =     2.29 Bohr mag/cell

     convergence has been achieved in  14 iterations

     Forces acting on atoms (cartesian axes, Ry/au):

     atom    1 type  1   force =     0.00229947    0.00225793    0.00236642
     atom    2 type  2   force =    -0.00016361    0.00013515    0.00016190
     atom    3 type  2   force =     0.00080466    0.00091217    0.00086357
     atom    4 type  2   force =     0.00019897   -0.00024130    0.00015129
     atom    5 type  2   force =     0.00089843    0.00085324    0.00085337
     atom    6 type  2   force =    -0.00201993    0.00447926   -0.00107910
     atom    7 type  2   force =     0.00139105    0.00037259    0.00109863
     atom    8 type  2   force =     0.00023338    0.00037334   -0.00049765
     atom    9 type  2   force =     0.00035635    0.00060387    0.00042906
     atom   10 type  2   force =     0.00090871    0.00361519    0.00134660
     atom   11 type  2   force =     0.00073149   -0.01716838   -0.00145902
     atom   12 type  2   force =    -0.00025658    0.00006479    0.00031281
     atom   13 type  2   force =    -0.00011162   -0.00017151   -0.00104089
     atom   14 type  2   force =    -0.00006868   -0.00013551   -0.00030829
     atom   15 type  2   force =    -0.00049902   -0.00080495    0.00023531
     atom   16 type  2   force =    -0.00066355    0.00334544    0.00133483
     atom   17 type  2   force =    -0.00029837    0.00041776    0.00069367
     atom   18 type  2   force =     0.00018788    0.00044054   -0.00022919
     atom   19 type  2   force =    -0.00075100   -0.00052275    0.00052247
     atom   20 type  2   force =    -0.00008475   -0.00032191   -0.00011601
     atom   21 type  2   force =    -0.00025957    0.00005565   -0.00025293
     atom   22 type  2   force =    -0.00031881    0.00034413    0.00005190
     atom   23 type  2   force =     0.00049030   -0.00056290   -0.00077975
     atom   24 type  2   force =     0.00017568   -0.00007450    0.00003963
     atom   25 type  2   force =     0.00031275    0.00059578   -0.00067568
     atom   26 type  2   force =    -0.00001092   -0.00026933   -0.00019319
     atom   27 type  2   force =     0.00092035   -0.00148011   -0.00153950
     atom   28 type  2   force =     0.00026041    0.00320937   -0.00021433
     atom   29 type  2   force =     0.00010578    0.00098204    0.00002849
     atom   30 type  2   force =    -0.00040050    0.00002246   -0.00001622
     atom   31 type  2   force =    -0.00058796    0.00031663    0.00033246
     atom   32 type  2   force =    -0.00070874    0.00044547    0.00042546
     atom   33 type  2   force =    -0.00018560    0.00005604    0.00006271
     atom   34 type  2   force =    -0.00022240    0.00003589   -0.00001978
     atom   35 type  2   force =     0.00001197   -0.00037482   -0.00023714
     atom   36 type  2   force =     0.00040626    0.00009711   -0.00031642
     atom   37 type  2   force =    -0.00057629   -0.00074454    0.00048879
     atom   38 type  2   force =     0.00032537   -0.00035456    0.00008941
     atom   39 type  2   force =    -0.00025541   -0.00000036   -0.00111532
     atom   40 type  2   force =    -0.00002620    0.00017092    0.00001713
     atom   41 type  2   force =    -0.00000069    0.00006797   -0.00005014
     atom   42 type  2   force =     0.00004685   -0.00039309   -0.00000141
     atom   43 type  2   force =     0.00033577   -0.00054212    0.00035724
     atom   44 type  2   force =    -0.00016637   -0.00002397   -0.00031263
     atom   45 type  2   force =    -0.00091967    0.00154440   -0.00123377
     atom   46 type  2   force =    -0.00006841   -0.00015857   -0.00005531
     atom   47 type  2   force =    -0.00000391   -0.00116982   -0.00002329
     atom   48 type  2   force =    -0.00004842   -0.00003495    0.00022242
     atom   49 type  2   force =    -0.00002543    0.00002985    0.00000745
     atom   50 type  2   force =     0.00004474    0.00000259   -0.00026982
     atom   51 type  2   force =     0.00033541    0.00037358   -0.00058357
     atom   52 type  2   force =     0.00009617    0.00014670   -0.00041695
     atom   53 type  2   force =     0.00037132    0.00036276   -0.00056830
     atom   54 type  2   force =    -0.00028969   -0.00017835   -0.00012466
     atom   55 type  2   force =    -0.00153274   -0.00157941    0.00091329
     atom   56 type  2   force =    -0.00018093    0.00002976   -0.00000059
     atom   57 type  2   force =     0.00003209    0.00003347    0.00003175
     atom   58 type  2   force =    -0.00023424    0.00011965    0.00016153
     atom   59 type  2   force =    -0.00033365    0.00027710    0.00018552
     atom   60 type  2   force =     0.00012122   -0.00036404    0.00006721
     atom   61 type  2   force =    -0.00039013    0.00023492    0.00054168
     atom   62 type  2   force =     0.00004780    0.00005763   -0.00030762
     atom   63 type  2   force =     0.00021320    0.00018858   -0.00035555
     The non-local contrib.  to forces
     atom    1 type  1   force =    -0.73722013   -0.73755392   -0.73728166
     atom    2 type  2   force =    -0.22506366    0.21116797    0.21089266
     atom    3 type  2   force =     0.06998280    0.06937469    0.06942037
     atom    4 type  2   force =     0.21087701   -0.22479508    0.21073839
     atom    5 type  2   force =     0.06931837    0.06992467    0.06942886
     atom    6 type  2   force =     0.21102743    0.21648866   -0.22738360
     atom    7 type  2   force =     0.07061992    0.07005956    0.07122256
     atom    8 type  2   force =    -0.00819123   -0.00813943    0.05240582
     atom    9 type  2   force =    -0.00484676   -0.00423531    0.01607163
     atom   10 type  2   force =    -0.04349212   -0.00951862   -0.01852291
     atom   11 type  2   force =    -0.06923865    0.03808618   -0.08295350
     atom   12 type  2   force =    -0.01301075   -0.04434127   -0.01946995
     atom   13 type  2   force =     0.05936302   -0.07071555   -0.08267278
     atom   14 type  2   force =    -0.00149966   -0.00158504    0.05154271
     atom   15 type  2   force =     0.01283283    0.01415960    0.00127426
     atom   16 type  2   force =    -0.00877977    0.05564753   -0.00768506
     atom   17 type  2   force =    -0.00493000    0.01622366   -0.00439508
     atom   18 type  2   force =    -0.04408135   -0.01925117   -0.01277200
     atom   19 type  2   force =    -0.07147661   -0.08261986    0.06020296
     atom   20 type  2   force =    -0.00199980    0.05169400   -0.00162394
     atom   21 type  2   force =     0.01378506    0.00041154    0.01375199
     atom   22 type  2   force =    -0.01297944   -0.01960222   -0.04416313
     atom   23 type  2   force =     0.06008136   -0.08292129   -0.07156921
     atom   24 type  2   force =    -0.07365046    0.02835038    0.02812848
     atom   25 type  2   force =    -0.01143740    0.01743028    0.01637070
     atom   26 type  2   force =    -0.06033395   -0.02515335   -0.02492995
     atom   27 type  2   force =    -0.11787526    0.13520065    0.13538497
     atom   28 type  2   force =     0.06159046    0.03022545   -0.01874157
     atom   29 type  2   force =     0.00214983    0.01938619    0.00540339
     atom   30 type  2   force =     0.06218363   -0.01916909    0.02794138
     atom   31 type  2   force =     0.00170658    0.00537018    0.01864585
     atom   32 type  2   force =     0.05164438   -0.00795735   -0.00849803
     atom   33 type  2   force =     0.01555767   -0.00495678   -0.00496924
     atom   34 type  2   force =     0.05172976   -0.00190085   -0.00134692
     atom   35 type  2   force =     0.00038301    0.01405556    0.01360055
     atom   36 type  2   force =    -0.01941646   -0.04408966   -0.01303883
     atom   37 type  2   force =    -0.08277996   -0.07155653    0.06007547
     atom   38 type  2   force =    -0.01934129   -0.01287371   -0.04397134
     atom   39 type  2   force =    -0.08192986    0.06060233   -0.07249619
     atom   40 type  2   force =     0.02808359   -0.07378881    0.02812168
     atom   41 type  2   force =     0.01677613   -0.01151268    0.01692456
     atom   42 type  2   force =     0.02801116    0.06243892   -0.01933329
     atom   43 type  2   force =     0.01865570    0.00162214    0.00547818
     atom   44 type  2   force =    -0.02475093   -0.06036218   -0.02495955
     atom   45 type  2   force =     0.13589998   -0.11727344    0.13543137
     atom   46 type  2   force =    -0.01978270    0.06214943    0.02774779
     atom   47 type  2   force =     0.00444791    0.00211430    0.01762047
     atom   48 type  2   force =     0.02833076    0.02832408   -0.07399402
     atom   49 type  2   force =     0.01686905    0.01688603   -0.01139635
     atom   50 type  2   force =     0.02810233   -0.01924442    0.06234839
     atom   51 type  2   force =     0.01866935    0.00546212    0.00164630
     atom   52 type  2   force =    -0.01894956    0.02796357    0.06203848
     atom   53 type  2   force =     0.00544372    0.01867025    0.00160349
     atom   54 type  2   force =    -0.02514161   -0.02476281   -0.06045992
     atom   55 type  2   force =     0.13532413    0.13521491   -0.11784838
     atom   56 type  2   force =     0.01553039    0.01578661    0.01667562
     atom   57 type  2   force =     0.00751818    0.00755445    0.00751460
     atom   58 type  2   force =     0.01371032   -0.01273433   -0.01278641
     atom   59 type  2   force =     0.01057034   -0.01019082   -0.01047789
     atom   60 type  2   force =    -0.01292216    0.01368552   -0.01263009
     atom   61 type  2   force =    -0.01105343    0.01128591   -0.01051227
     atom   62 type  2   force =    -0.01286307   -0.01283372    0.01358259
     atom   63 type  2   force =    -0.01049872   -0.01068645    0.01066481
     The ionic contribution  to forces
     atom    1 type  1   force =     3.04275562    3.04901895    3.03748108
     atom    2 type  2   force =     2.25830570   -2.16235097   -2.16206805
     atom    3 type  2   force =     0.43167755   -0.75148818   -0.74865248
     atom    4 type  2   force =    -2.16054277    2.25954790   -2.16105420
     atom    5 type  2   force =    -0.74933351    0.43181822   -0.74868167
     atom    6 type  2   force =    -2.18931273   -2.16257957    2.23241394
     atom    7 type  2   force =    -0.74862219   -0.75419800    0.43170822
     atom    8 type  2   force =     0.24392635    0.24553584   -0.69948286
     atom    9 type  2   force =     0.11232703    0.11642738   -0.21717386
     atom   10 type  2   force =     0.23562617    0.06703518    0.55274541
     atom   11 type  2   force =    -0.28558682   -0.78798747    0.71981429
     atom   12 type  2   force =     0.06322597    0.21808476    0.52997740
     atom   13 type  2   force =    -0.73309713   -0.28680219    0.72913875
     atom   14 type  2   force =    -0.20022248   -0.20145568   -0.66959950
     atom   15 type  2   force =    -0.15854091   -0.16389457   -0.04831420
     atom   16 type  2   force =     0.21733334   -0.69941317    0.26892368
     atom   17 type  2   force =     0.11222593   -0.22086691    0.12057243
     atom   18 type  2   force =     0.20979640    0.52968025    0.06688520
     atom   19 type  2   force =    -0.29125715    0.73136534   -0.72450180
     atom   20 type  2   force =    -0.19829203   -0.67414331   -0.19674841
     atom   21 type  2   force =    -0.15789881   -0.04812503   -0.15855235
     atom   22 type  2   force =     0.06801665    0.53510215    0.21270070
     atom   23 type  2   force =    -0.72453801    0.73219058   -0.29129506
     atom   24 type  2   force =     0.03233252   -0.19434826   -0.19468625
     atom   25 type  2   force =     0.09613743   -0.06835260   -0.08059265
     atom   26 type  2   force =     0.11288848   -0.16943250   -0.17934945
     atom   27 type  2   force =     1.34217417    0.25167199    0.24272682
     atom   28 type  2   force =    -0.06147262   -0.22553709    0.13115621
     atom   29 type  2   force =    -0.15061533    0.00208486    0.22979273
     atom   30 type  2   force =    -0.08549374    0.15887861   -0.22823145
     atom   31 type  2   force =    -0.15887579    0.23288273   -0.00240751
     atom   32 type  2   force =    -0.70186842    0.24561049    0.24286180
     atom   33 type  2   force =    -0.22535797    0.11240251    0.11159547
     atom   34 type  2   force =    -0.67250938   -0.20040378   -0.19983037
     atom   35 type  2   force =    -0.04827615   -0.15974832   -0.15857823
     atom   36 type  2   force =     0.52781945    0.21141991    0.06529347
     atom   37 type  2   force =     0.72982103   -0.29114942   -0.72454550
     atom   38 type  2   force =     0.52989700    0.06355162    0.20934598
     atom   39 type  2   force =     0.72916406   -0.72990645   -0.29128246
     atom   40 type  2   force =    -0.19264473    0.03438737   -0.19187487
     atom   41 type  2   force =    -0.07257778    0.09631179   -0.07188443
     atom   42 type  2   force =    -0.22948928   -0.08818270    0.15768098
     atom   43 type  2   force =    -0.00242385   -0.16169423    0.22986353
     atom   44 type  2   force =    -0.17574161    0.11744852   -0.17635000
     atom   45 type  2   force =     0.25061405    1.34650766    0.24280147
     atom   46 type  2   force =     0.15720310   -0.08709734   -0.22655900
     atom   47 type  2   force =     0.22985581   -0.16412070   -0.00243161
     atom   48 type  2   force =    -0.18977516   -0.19436759    0.03428750
     atom   49 type  2   force =    -0.07254660   -0.07240885    0.09686913
     atom   50 type  2   force =    -0.22668402    0.15780026   -0.08561902
     atom   51 type  2   force =    -0.00242389    0.23095775   -0.15885975
     atom   52 type  2   force =     0.15615954   -0.22814710   -0.08546958
     atom   53 type  2   force =     0.22918723   -0.00226203   -0.15882521
     atom   54 type  2   force =    -0.17803809   -0.17471622    0.11582601
     atom   55 type  2   force =     0.24274027    0.24580446    1.34215851
     atom   56 type  2   force =    -0.10826338   -0.10987309   -0.10931642
     atom   57 type  2   force =    -0.02211357   -0.02198233   -0.02280618
     atom   58 type  2   force =    -0.13255351    0.01261631    0.00986680
     atom   59 type  2   force =    -0.31174326    0.12603552    0.12380914
     atom   60 type  2   force =     0.00801438   -0.13586819    0.00943065
     atom   61 type  2   force =     0.11565294   -0.30752619    0.12372552
     atom   62 type  2   force =     0.01003396    0.01149107   -0.13409704
     atom   63 type  2   force =     0.12382055    0.12676007   -0.31173140
     The local contribution  to forces
     atom    1 type  1   force =    -2.30322862   -2.30917717   -2.29777968
     atom    2 type  2   force =    -2.03339537    1.95132832    1.95134839
     atom    3 type  2   force =    -0.50083575    0.68302385    0.68008892
     atom    4 type  2   force =     1.94989949   -2.03496382    1.95047554
     atom    5 type  2   force =     0.68093828   -0.50087619    0.68009562
     atom    6 type  2   force =     1.97629827    1.95057601   -2.00606542
     atom    7 type  2   force =     0.67941704    0.68450522   -0.50180456
     atom    8 type  2   force =    -0.23548921   -0.23699295    0.64657234
     atom    9 type  2   force =    -0.10710255   -0.11157081    0.20152911
     atom   10 type  2   force =    -0.19121247   -0.05389836   -0.53285930
     atom   11 type  2   force =     0.35558149    0.73273351   -0.63827930
     atom   12 type  2   force =    -0.05044495   -0.17364903   -0.51017530
     atom   13 type  2   force =     0.67365073    0.35736572   -0.64746627
     atom   14 type  2   force =     0.20168035    0.20290708    0.61773854
     atom   15 type  2   force =     0.14523485    0.14892332    0.04728039
     atom   16 type  2   force =    -0.20920348    0.64711163   -0.25985695
     atom   17 type  2   force =    -0.10757588    0.20506218   -0.11545462
     atom   18 type  2   force =    -0.16551697   -0.50997309   -0.05433690
     atom   19 type  2   force =     0.36200681   -0.64923653    0.66481387
     atom   20 type  2   force =     0.20022935    0.62212254    0.19826194
     atom   21 type  2   force =     0.14387814    0.04777673    0.14453835
     atom   22 type  2   force =    -0.05532979   -0.51513947   -0.16844220
     atom   23 type  2   force =     0.66497563   -0.64979811    0.36211818
     atom   24 type  2   force =     0.04150314    0.16591804    0.16658525
     atom   25 type  2   force =    -0.08436826    0.05152247    0.06354873
     atom   26 type  2   force =    -0.05255627    0.19433491    0.20410844
     atom   27 type  2   force =    -1.22336429   -0.38832223   -0.37960917
     atom   28 type  2   force =     0.00017199    0.19851695   -0.11260539
     atom   29 type  2   force =     0.14859605   -0.02048790   -0.23512797
     atom   30 type  2   force =     0.02293703   -0.13966601    0.20026424
     atom   31 type  2   force =     0.15660631   -0.23790503   -0.01590727
     atom   32 type  2   force =     0.64953392   -0.23717971   -0.23389135
     atom   33 type  2   force =     0.20961691   -0.10737695   -0.10653308
     atom   34 type  2   force =     0.62057144    0.20233936    0.20116540
     atom   35 type  2   force =     0.04791742    0.14531230    0.14473496
     atom   36 type  2   force =    -0.50799907   -0.16720814   -0.05256388
     atom   37 type  2   force =    -0.64761527    0.36197985    0.66495716
     atom   38 type  2   force =    -0.51023099   -0.05102879   -0.16524147
     atom   39 type  2   force =    -0.64748456    0.66930715    0.36269603
     atom   40 type  2   force =     0.16455014    0.03960159    0.16375671
     atom   41 type  2   force =     0.05580867   -0.08471237    0.05490973
     atom   42 type  2   force =     0.20154064    0.02535720   -0.13832808
     atom   43 type  2   force =    -0.01589479    0.15952591   -0.23494695
     atom   44 type  2   force =     0.20032862   -0.05708463    0.20101803
     atom   45 type  2   force =    -0.38742714   -1.22768037   -0.37942586
     atom   46 type  2   force =    -0.13748552    0.02479530    0.19874692
     atom   47 type  2   force =    -0.23430424    0.16083200   -0.01521736
     atom   48 type  2   force =     0.16141053    0.16600421    0.03996839
     atom   49 type  2   force =     0.05566284    0.05556095   -0.08543652
     atom   50 type  2   force =     0.19864517   -0.13852813    0.02300789
     atom   51 type  2   force =    -0.01590593   -0.23601490    0.15661842
     atom   52 type  2   force =    -0.13710660    0.20032761    0.02302367
     atom   53 type  2   force =    -0.23425479   -0.01604512    0.15664370
     atom   54 type  2   force =     0.20289329    0.19932146   -0.05544768
     atom   55 type  2   force =    -0.37959219   -0.38256969   -1.22337259
     atom   56 type  2   force =     0.09257075    0.09410917    0.09263226
     atom   57 type  2   force =     0.01463665    0.01446499    0.01532591
     atom   58 type  2   force =     0.11862658    0.00025672    0.00310547
     atom   59 type  2   force =     0.30084958   -0.11553867   -0.11310348
     atom   60 type  2   force =     0.00503085    0.12181552    0.00328651
     atom   61 type  2   force =    -0.10498433    0.29648444   -0.11263037
     atom   62 type  2   force =     0.00288099    0.00141927    0.12019618
     atom   63 type  2   force =    -0.11310395   -0.11585546    0.30071469
     The core correction contribution to forces
     atom    1 type  1   force =     0.00000000    0.00000000    0.00000000
     atom    2 type  2   force =     0.00000000    0.00000000    0.00000000
     atom    3 type  2   force =     0.00000000    0.00000000    0.00000000
     atom    4 type  2   force =     0.00000000    0.00000000    0.00000000
     atom    5 type  2   force =     0.00000000    0.00000000    0.00000000
     atom    6 type  2   force =     0.00000000    0.00000000    0.00000000
     atom    7 type  2   force =     0.00000000    0.00000000    0.00000000
     atom    8 type  2   force =     0.00000000    0.00000000    0.00000000
     atom    9 type  2   force =     0.00000000    0.00000000    0.00000000
     atom   10 type  2   force =     0.00000000    0.00000000    0.00000000
     atom   11 type  2   force =     0.00000000    0.00000000    0.00000000
     atom   12 type  2   force =     0.00000000    0.00000000    0.00000000
     atom   13 type  2   force =     0.00000000    0.00000000    0.00000000
     atom   14 type  2   force =     0.00000000    0.00000000    0.00000000
     atom   15 type  2   force =     0.00000000    0.00000000    0.00000000
     atom   16 type  2   force =     0.00000000    0.00000000    0.00000000
     atom   17 type  2   force =     0.00000000    0.00000000    0.00000000
     atom   18 type  2   force =     0.00000000    0.00000000    0.00000000
     atom   19 type  2   force =     0.00000000    0.00000000    0.00000000
     atom   20 type  2   force =     0.00000000    0.00000000    0.00000000
     atom   21 type  2   force =     0.00000000    0.00000000    0.00000000
     atom   22 type  2   force =     0.00000000    0.00000000    0.00000000
     atom   23 type  2   force =     0.00000000    0.00000000    0.00000000
     atom   24 type  2   force =     0.00000000    0.00000000    0.00000000
     atom   25 type  2   force =     0.00000000    0.00000000    0.00000000
     atom   26 type  2   force =     0.00000000    0.00000000    0.00000000
     atom   27 type  2   force =     0.00000000    0.00000000    0.00000000
     atom   28 type  2   force =     0.00000000    0.00000000    0.00000000
     atom   29 type  2   force =     0.00000000    0.00000000    0.00000000
     atom   30 type  2   force =     0.00000000    0.00000000    0.00000000
     atom   31 type  2   force =     0.00000000    0.00000000    0.00000000
     atom   32 type  2   force =     0.00000000    0.00000000    0.00000000
     atom   33 type  2   force =     0.00000000    0.00000000    0.00000000
     atom   34 type  2   force =     0.00000000    0.00000000    0.00000000
     atom   35 type  2   force =     0.00000000    0.00000000    0.00000000
     atom   36 type  2   force =     0.00000000    0.00000000    0.00000000
     atom   37 type  2   force =     0.00000000    0.00000000    0.00000000
     atom   38 type  2   force =     0.00000000    0.00000000    0.00000000
     atom   39 type  2   force =     0.00000000    0.00000000    0.00000000
     atom   40 type  2   force =     0.00000000    0.00000000    0.00000000
     atom   41 type  2   force =     0.00000000    0.00000000    0.00000000
     atom   42 type  2   force =     0.00000000    0.00000000    0.00000000
     atom   43 type  2   force =     0.00000000    0.00000000    0.00000000
     atom   44 type  2   force =     0.00000000    0.00000000    0.00000000
     atom   45 type  2   force =     0.00000000    0.00000000    0.00000000
     atom   46 type  2   force =     0.00000000    0.00000000    0.00000000
     atom   47 type  2   force =     0.00000000    0.00000000    0.00000000
     atom   48 type  2   force =     0.00000000    0.00000000    0.00000000
     atom   49 type  2   force =     0.00000000    0.00000000    0.00000000
     atom   50 type  2   force =     0.00000000    0.00000000    0.00000000
     atom   51 type  2   force =     0.00000000    0.00000000    0.00000000
     atom   52 type  2   force =     0.00000000    0.00000000    0.00000000
     atom   53 type  2   force =     0.00000000    0.00000000    0.00000000
     atom   54 type  2   force =     0.00000000    0.00000000    0.00000000
     atom   55 type  2   force =     0.00000000    0.00000000    0.00000000
     atom   56 type  2   force =     0.00000000    0.00000000    0.00000000
     atom   57 type  2   force =     0.00000000    0.00000000    0.00000000
     atom   58 type  2   force =     0.00000000    0.00000000    0.00000000
     atom   59 type  2   force =     0.00000000    0.00000000    0.00000000
     atom   60 type  2   force =     0.00000000    0.00000000    0.00000000
     atom   61 type  2   force =     0.00000000    0.00000000    0.00000000
     atom   62 type  2   force =     0.00000000    0.00000000    0.00000000
     atom   63 type  2   force =     0.00000000    0.00000000    0.00000000
     The Hubbard contrib.    to forces
     atom    1 type  1   force =     0.00000000    0.00000000    0.00000000
     atom    2 type  2   force =     0.00000000    0.00000000    0.00000000
     atom    3 type  2   force =     0.00000000    0.00000000    0.00000000
     atom    4 type  2   force =     0.00000000    0.00000000    0.00000000
     atom    5 type  2   force =     0.00000000    0.00000000    0.00000000
     atom    6 type  2   force =     0.00000000    0.00000000    0.00000000
     atom    7 type  2   force =     0.00000000    0.00000000    0.00000000
     atom    8 type  2   force =     0.00000000    0.00000000    0.00000000
     atom    9 type  2   force =     0.00000000    0.00000000    0.00000000
     atom   10 type  2   force =     0.00000000    0.00000000    0.00000000
     atom   11 type  2   force =     0.00000000    0.00000000    0.00000000
     atom   12 type  2   force =     0.00000000    0.00000000    0.00000000
     atom   13 type  2   force =     0.00000000    0.00000000    0.00000000
     atom   14 type  2   force =     0.00000000    0.00000000    0.00000000
     atom   15 type  2   force =     0.00000000    0.00000000    0.00000000
     atom   16 type  2   force =     0.00000000    0.00000000    0.00000000
     atom   17 type  2   force =     0.00000000    0.00000000    0.00000000
     atom   18 type  2   force =     0.00000000    0.00000000    0.00000000
     atom   19 type  2   force =     0.00000000    0.00000000    0.00000000
     atom   20 type  2   force =     0.00000000    0.00000000    0.00000000
     atom   21 type  2   force =     0.00000000    0.00000000    0.00000000
     atom   22 type  2   force =     0.00000000    0.00000000    0.00000000
     atom   23 type  2   force =     0.00000000    0.00000000    0.00000000
     atom   24 type  2   force =     0.00000000    0.00000000    0.00000000
     atom   25 type  2   force =     0.00000000    0.00000000    0.00000000
     atom   26 type  2   force =     0.00000000    0.00000000    0.00000000
     atom   27 type  2   force =     0.00000000    0.00000000    0.00000000
     atom   28 type  2   force =     0.00000000    0.00000000    0.00000000
     atom   29 type  2   force =     0.00000000    0.00000000    0.00000000
     atom   30 type  2   force =     0.00000000    0.00000000    0.00000000
     atom   31 type  2   force =     0.00000000    0.00000000    0.00000000
     atom   32 type  2   force =     0.00000000    0.00000000    0.00000000
     atom   33 type  2   force =     0.00000000    0.00000000    0.00000000
     atom   34 type  2   force =     0.00000000    0.00000000    0.00000000
     atom   35 type  2   force =     0.00000000    0.00000000    0.00000000
     atom   36 type  2   force =     0.00000000    0.00000000    0.00000000
     atom   37 type  2   force =     0.00000000    0.00000000    0.00000000
     atom   38 type  2   force =     0.00000000    0.00000000    0.00000000
     atom   39 type  2   force =     0.00000000    0.00000000    0.00000000
     atom   40 type  2   force =     0.00000000    0.00000000    0.00000000
     atom   41 type  2   force =     0.00000000    0.00000000    0.00000000
     atom   42 type  2   force =     0.00000000    0.00000000    0.00000000
     atom   43 type  2   force =     0.00000000    0.00000000    0.00000000
     atom   44 type  2   force =     0.00000000    0.00000000    0.00000000
     atom   45 type  2   force =     0.00000000    0.00000000    0.00000000
     atom   46 type  2   force =     0.00000000    0.00000000    0.00000000
     atom   47 type  2   force =     0.00000000    0.00000000    0.00000000
     atom   48 type  2   force =     0.00000000    0.00000000    0.00000000
     atom   49 type  2   force =     0.00000000    0.00000000    0.00000000
     atom   50 type  2   force =     0.00000000    0.00000000    0.00000000
     atom   51 type  2   force =     0.00000000    0.00000000    0.00000000
     atom   52 type  2   force =     0.00000000    0.00000000    0.00000000
     atom   53 type  2   force =     0.00000000    0.00000000    0.00000000
     atom   54 type  2   force =     0.00000000    0.00000000    0.00000000
     atom   55 type  2   force =     0.00000000    0.00000000    0.00000000
     atom   56 type  2   force =     0.00000000    0.00000000    0.00000000
     atom   57 type  2   force =     0.00000000    0.00000000    0.00000000
     atom   58 type  2   force =     0.00000000    0.00000000    0.00000000
     atom   59 type  2   force =     0.00000000    0.00000000    0.00000000
     atom   60 type  2   force =     0.00000000    0.00000000    0.00000000
     atom   61 type  2   force =     0.00000000    0.00000000    0.00000000
     atom   62 type  2   force =     0.00000000    0.00000000    0.00000000
     atom   63 type  2   force =     0.00000000    0.00000000    0.00000000
     The SCF correction term to forces
     atom    1 type  1   force =     0.00000717   -0.00001809   -0.00003771
     atom    2 type  2   force =     0.00000431    0.00000167    0.00000452
     atom    3 type  2   force =    -0.00000535    0.00001365    0.00002239
     atom    4 type  2   force =    -0.00002018   -0.00001846    0.00000718
     atom    5 type  2   force =    -0.00001012   -0.00000161    0.00002618
     atom    6 type  2   force =    -0.00001831    0.00000600   -0.00002840
     atom    7 type  2   force =    -0.00000913    0.00001765   -0.00001196
     atom    8 type  2   force =     0.00000206   -0.00001828    0.00002267
     atom    9 type  2   force =    -0.00000679   -0.00000555    0.00001779
     atom   10 type  2   force =     0.00000172    0.00000883   -0.00000098
     atom   11 type  2   force =    -0.00000993    0.00001123   -0.00002489
     atom   12 type  2   force =    -0.00001227   -0.00001783   -0.00000372
     atom   13 type  2   force =    -0.00001365   -0.00000765   -0.00002496
     atom   14 type  2   force =    -0.00001229    0.00000996    0.00002558
     atom   15 type  2   force =    -0.00001121    0.00001853    0.00001047
     atom   16 type  2   force =     0.00000095    0.00001128   -0.00003123
     atom   17 type  2   force =    -0.00000384    0.00001067   -0.00001344
     atom   18 type  2   force =     0.00000439   -0.00000360    0.00001013
     atom   19 type  2   force =    -0.00000948   -0.00001986    0.00002307
     atom   20 type  2   force =    -0.00000768    0.00001670    0.00001003
     atom   21 type  2   force =    -0.00000938    0.00000425    0.00002470
     atom   22 type  2   force =    -0.00001163   -0.00000449   -0.00002785
     atom   23 type  2   force =    -0.00001410   -0.00002224   -0.00001803
     atom   24 type  2   force =     0.00000507    0.00001718    0.00002777
     atom   25 type  2   force =    -0.00000444    0.00000746    0.00001317
     atom   26 type  2   force =     0.00000539   -0.00000655   -0.00000661
     atom   27 type  2   force =     0.00000031   -0.00001868   -0.00002650
     atom   28 type  2   force =    -0.00001483    0.00001590   -0.00000796
     atom   29 type  2   force =    -0.00001018    0.00001072   -0.00002404
     atom   30 type  2   force =    -0.00001284   -0.00000921    0.00002524
     atom   31 type  2   force =    -0.00001047   -0.00001941    0.00001702
     atom   32 type  2   force =    -0.00000403   -0.00001612   -0.00003134
     atom   33 type  2   force =     0.00001237   -0.00000089   -0.00001481
     atom   34 type  2   force =     0.00000037    0.00001300    0.00000773
     atom   35 type  2   force =     0.00000228    0.00001748    0.00002120
     atom   36 type  2   force =     0.00001692   -0.00001316    0.00000845
     atom   37 type  2   force =     0.00001250   -0.00000660    0.00001728
     atom   38 type  2   force =     0.00001523    0.00000815   -0.00002815
     atom   39 type  2   force =     0.00000954    0.00000845   -0.00001708
     atom   40 type  2   force =    -0.00000062   -0.00001739    0.00002923
     atom   41 type  2   force =     0.00000687   -0.00000693    0.00001562
     atom   42 type  2   force =    -0.00000108    0.00000533   -0.00000540
     atom   43 type  2   force =     0.00001329    0.00001590   -0.00002189
     atom   44 type  2   force =     0.00001213   -0.00001383   -0.00000549
     atom   45 type  2   force =     0.00000803    0.00000239   -0.00002513
     atom   46 type  2   force =     0.00001129    0.00000587    0.00002459
     atom   47 type  2   force =     0.00001120    0.00001642    0.00002083
     atom   48 type  2   force =     0.00000003    0.00001619   -0.00002383
     atom   49 type  2   force =     0.00000386    0.00000356   -0.00001319
     atom   50 type  2   force =    -0.00000415   -0.00001329    0.00000855
     atom   51 type  2   force =     0.00001046   -0.00001956    0.00002708
     atom   52 type  2   force =     0.00000738    0.00001446    0.00000610
     atom   53 type  2   force =     0.00000975    0.00001150    0.00002533
     atom   54 type  2   force =     0.00001131   -0.00000894   -0.00002745
     atom   55 type  2   force =     0.00000964   -0.00001725   -0.00000863
     atom   56 type  2   force =    -0.00000410    0.00001890    0.00002358
     atom   57 type  2   force =     0.00000542    0.00000821    0.00001304
     atom   58 type  2   force =    -0.00000304   -0.00000721   -0.00000871
     atom   59 type  2   force =     0.00000429   -0.00001709   -0.00002663
     atom   60 type  2   force =     0.00001274    0.00001495   -0.00000423
     atom   61 type  2   force =     0.00000928    0.00000260   -0.00002559
     atom   62 type  2   force =     0.00001051   -0.00000715    0.00002627
     atom   63 type  2   force =     0.00000991   -0.00001775    0.00001196

     Total force =     0.020528     Total SCF correction =     0.000206

     Writing all to output data dir ./pwscf.save/ :
     XML data file, charge density, pseudopotentials, collected wavefunctions
 
     init_run     :      0.70s CPU      0.75s WALL (       1 calls)
     electrons    :     12.76s CPU     13.00s WALL (       1 calls)
     forces       :      3.41s CPU      3.43s WALL (       1 calls)

     Called by init_run:
     wfcinit      :      0.08s CPU      0.10s WALL (       1 calls)
     wfcinit:wfcr :      0.07s CPU      0.08s WALL (       1 calls)
     potinit      :      0.47s CPU      0.48s WALL (       1 calls)
     hinit0       :      0.03s CPU      0.05s WALL (       1 calls)

     Called by electrons:
     c_bands      :      9.20s CPU      9.40s WALL (      14 calls)
     sum_band     :      1.51s CPU      1.52s WALL (      14 calls)
     v_of_rho     :      0.25s CPU      0.25s WALL (      15 calls)
     v_h          :      0.00s CPU      0.00s WALL (      15 calls)
     v_xc         :      0.24s CPU      0.25s WALL (      15 calls)
     mix_rho      :      0.11s CPU      0.12s WALL (      14 calls)

     Called by c_bands:
     init_us_2    :      0.02s CPU      0.03s WALL (      30 calls)
     regterg      :      7.70s CPU      7.87s WALL (      14 calls)

     Called by sum_band:
     sum_band:wei :      0.06s CPU      0.07s WALL (      14 calls)
     sum_band:loo :      0.69s CPU      0.69s WALL (      14 calls)
     sum_band:buf :      0.00s CPU      0.00s WALL (      14 calls)
     sum_band:ini :      0.01s CPU      0.01s WALL (      14 calls)

     Called by *egterg:
     rdiaghg      :      4.19s CPU      4.31s WALL (     273 calls)
     regterg:over :      0.46s CPU      0.47s WALL (     259 calls)
     regterg:upda :      0.25s CPU      0.25s WALL (     259 calls)
     regterg:last :      0.38s CPU      0.38s WALL (      53 calls)
     rdiaghg:chol :      0.15s CPU      0.16s WALL (     273 calls)
     rdiaghg:inve :      0.03s CPU      0.03s WALL (     273 calls)
     rdiaghg:para :      0.40s CPU      0.43s WALL (     546 calls)
     h_psi        :      2.30s CPU      2.35s WALL (     274 calls)
     g_psi        :      0.00s CPU      0.00s WALL (     259 calls)

     Called by h_psi:
     h_psi:calbec :      0.47s CPU      0.48s WALL (     274 calls)
     vloc_psi     :      1.72s CPU      1.75s WALL (     274 calls)
                                        0.00s GPU  (     274 calls)
     add_vuspsi   :      0.10s CPU      0.11s WALL (     274 calls)

     General routines
     calbec       :      0.49s CPU      0.50s WALL (     278 calls)
     fft          :      0.19s CPU      0.21s WALL (     196 calls)
     ffts         :      0.04s CPU      0.04s WALL (      14 calls)
     fftw         :      2.30s CPU      2.33s WALL (   10244 calls)
 
     Parallel routines
 
     PWSCF        :     17.88s CPU     18.40s WALL

 
   This run was terminated on:  13:47:36  19Nov2025            

=------------------------------------------------------------------------------=
   JOB DONE.
=------------------------------------------------------------------------------=
