
     Program PWSCF v.7.5 starts on 19Nov2025 at 13:56:10 

     This program is part of the open-source Quantum ESPRESSO suite
     for quantum simulation of materials; please cite
         "P. Giannozzi et al., J. Phys.:Condens. Matter 21 395502 (2009);
         "P. Giannozzi et al., J. Phys.:Condens. Matter 29 465901 (2017);
         "P. Giannozzi et al., J. Chem. Phys. 152 154105 (2020);
          URL http://www.quantum-espresso.org", 
     in publications or presentations arising from this work. More details at
     http://www.quantum-espresso.org/quote

     Parallel version (MPI), running on    96 processors

     MPI processes distributed on     2 nodes
     144279 MiB available memory on the printing compute node when the environment starts
 
     Reading input from supercell-054.in

     Current dimensions of program PWSCF are:
     Max number of different atomic species (ntypx) = 10
     Max number of k-points (npk) =  40000
     Max angular momentum in pseudopotentials (lmaxx) =  4

     gamma-point specific algorithms are used
     Message from routine setup:
     using ibrav=0 with symmetry is DISCOURAGED, use correct ibrav instead
 
     K-points division:     npool     =       2
     R & G space division:  proc/nbgrp/npool/nimage =      48
     Subspace diagonalization in iterative solution of the eigenvalue problem:
     one sub-group per band group will be used
     scalapack distributed-memory algorithm (size of sub-group:  2*  2 procs)

 
     Parallelization info
     --------------------
     sticks:   dense  smooth     PW     G-vecs:    dense   smooth      PW
     Min          59      59     14                 2432     2432     302
     Max          62      62     16                 2442     2442     316
     Sum        2885    2885    725               116921   116921   14771
 
     Using Slab Decomposition
 


     bravais-lattice index     =            0
     lattice parameter (alat)  =      13.4813  a.u.
     unit-cell volume          =    2450.1683 (a.u.)^3
     number of atoms/cell      =           63
     number of atomic types    =            2
     number of electrons       =       254.00 (up: 128.00, down: 126.00)
     number of Kohn-Sham states=          152
     kinetic-energy cutoff     =      50.0000  Ry
     charge density cutoff     =     200.0000  Ry
     scf convergence threshold =      1.0E-08
     mixing beta               =       0.7000
     number of iterations used =            8  plain     mixing
     Exchange-correlation= PBE
                           (   1   4   3   4   0   0   0)

     celldm(1)=  13.481306  celldm(2)=   0.000000  celldm(3)=   0.000000
     celldm(4)=   0.000000  celldm(5)=   0.000000  celldm(6)=   0.000000

     crystal axes: (cart. coord. in units of alat)
               a(1) = (   1.000000   0.000000   0.000000 )  
               a(2) = (   0.000000   1.000000   0.000000 )  
               a(3) = (   0.000000   0.000000   1.000000 )  

     reciprocal axes: (cart. coord. in units 2 pi/alat)
               b(1) = (  1.000000  0.000000  0.000000 )  
               b(2) = (  0.000000  1.000000  0.000000 )  
               b(3) = (  0.000000  0.000000  1.000000 )  


     PseudoPot. # 1 for N  read from file:
     ./N_ONCV_PBE-1.2.upf
     MD5 check sum: 5312fdf34e96954e02a33bdc911c617a
     Pseudo is Norm-conserving, Zval =  5.0
     Generated using ONCVPSP code by D. R. Hamann
     Using radial grid of  602 points,  4 beta functions with: 
                l(1) =   0
                l(2) =   0
                l(3) =   1
                l(4) =   1

     PseudoPot. # 2 for C  read from file:
     ./C_ONCV_PBE-1.2.upf
     MD5 check sum: d60b57d9bdca4133f5fde4b584ee909d
     Pseudo is Norm-conserving, Zval =  4.0
     Generated using ONCVPSP code by D. R. Hamann
     Using radial grid of  602 points,  4 beta functions with: 
                l(1) =   0
                l(2) =   0
                l(3) =   1
                l(4) =   1

     atomic species   valence    mass     pseudopotential
     N                 5.00    14.00670     N ( 1.00)
     C                 4.00    12.01070     C ( 1.00)

     Starting magnetic structure 
     atomic species   magnetization
     N               0.000
     C               0.000

      2 Sym. Ops. (no inversion) found


                                    s                        frac. trans.

      isym =  1     identity                                     

 cryst.   s( 1) = (     1          0          0      )
                  (     0          1          0      )
                  (     0          0          1      )

 cart.    s( 1) = (  1.0000000  0.0000000  0.0000000 )
                  (  0.0000000  1.0000000  0.0000000 )
                  (  0.0000000  0.0000000  1.0000000 )


      isym =  2     inv. 180 deg rotation - cart. axis [0,1,-1]  

 cryst.   s( 2) = (     1          0          0      )
                  (     0          0          1      )
                  (     0          1          0      )

 cart.    s( 2) = (  1.0000000  0.0000000  0.0000000 )
                  (  0.0000000  0.0000000  1.0000000 )
                  (  0.0000000  1.0000000  0.0000000 )


   Cartesian axes

     site n.     atom                  positions (alat units)
         1        N      tau(   1) = (   0.9869283   0.9869283   0.9869283  )
         2        C      tau(   2) = (   0.9921390   0.2607625   0.2607625  )
         3        C      tau(   3) = (   0.1236981   0.3746848   0.3746848  )
         4        C      tau(   4) = (   0.2607625   0.9921390   0.2607625  )
         5        C      tau(   5) = (   0.3746848   0.1236981   0.3746848  )
         6        C      tau(   6) = (   0.2607625   0.2607625   0.9921390  )
         7        C      tau(   7) = (   0.3746848   0.3746848   0.1236981  )
         8        C      tau(   8) = (   0.0007517   0.0007517   0.4988587  )
         9        C      tau(   9) = (   0.1251291   0.1251291   0.6250516  )
        10        C      tau(  10) = (   0.0014372   0.2476607   0.7521916  )
        11        C      tau(  11) = (   0.1266329   0.3730745   0.8775065  )
        12        C      tau(  12) = (   0.2476607   0.0014372   0.7521916  )
        13        C      tau(  13) = (   0.3730745   0.1266329   0.8775065  )
        14        C      tau(  14) = (   0.2498467   0.2498467   0.4996267  )
        15        C      tau(  15) = (   0.3749463   0.3749463   0.6249280  )
        16        C      tau(  16) = (   0.0007517   0.4988587   0.0007517  )
        17        C      tau(  17) = (   0.1251291   0.6250516   0.1251291  )
        18        C      tau(  18) = (   0.0014372   0.7521916   0.2476607  )
        19        C      tau(  19) = (   0.1266329   0.8775065   0.3730745  )
        20        C      tau(  20) = (   0.2498467   0.4996267   0.2498467  )
        21        C      tau(  21) = (   0.3749463   0.6249280   0.3749463  )
        22        C      tau(  22) = (   0.2476607   0.7521916   0.0014372  )
        23        C      tau(  23) = (   0.3730745   0.8775065   0.1266329  )
        24        C      tau(  24) = (   0.0010116   0.5014264   0.5014264  )
        25        C      tau(  25) = (   0.1250381   0.6250852   0.6250852  )
        26        C      tau(  26) = (   0.9996941   0.7483805   0.7483805  )
        27        C      tau(  27) = (   0.1174884   0.8751585   0.8751585  )
        28        C      tau(  28) = (   0.2496290   0.5009902   0.7494822  )
        29        C      tau(  29) = (   0.3740517   0.6261334   0.8754230  )
        30        C      tau(  30) = (   0.2496290   0.7494822   0.5009902  )
        31        C      tau(  31) = (   0.3740517   0.8754230   0.6261334  )
        32        C      tau(  32) = (   0.4988587   0.0007517   0.0007517  )
        33        C      tau(  33) = (   0.6250516   0.1251291   0.1251291  )
        34        C      tau(  34) = (   0.4996267   0.2498467   0.2498467  )
        35        C      tau(  35) = (   0.6249280   0.3749463   0.3749463  )
        36        C      tau(  36) = (   0.7521916   0.0014372   0.2476607  )
        37        C      tau(  37) = (   0.8775065   0.1266329   0.3730745  )
        38        C      tau(  38) = (   0.7521916   0.2476607   0.0014372  )
        39        C      tau(  39) = (   0.8775065   0.3730745   0.1266329  )
        40        C      tau(  40) = (   0.5014264   0.0010116   0.5014264  )
        41        C      tau(  41) = (   0.6250852   0.1250381   0.6250852  )
        42        C      tau(  42) = (   0.5009902   0.2496290   0.7494822  )
        43        C      tau(  43) = (   0.6261334   0.3740517   0.8754230  )
        44        C      tau(  44) = (   0.7483805   0.9996941   0.7483805  )
        45        C      tau(  45) = (   0.8751585   0.1189720   0.8751585  )
        46        C      tau(  46) = (   0.7494822   0.2496290   0.5009902  )
        47        C      tau(  47) = (   0.8754230   0.3740517   0.6261334  )
        48        C      tau(  48) = (   0.5014264   0.5014264   0.0010116  )
        49        C      tau(  49) = (   0.6250852   0.6250852   0.1250381  )
        50        C      tau(  50) = (   0.5009902   0.7494822   0.2496290  )
        51        C      tau(  51) = (   0.6261334   0.8754230   0.3740517  )
        52        C      tau(  52) = (   0.7494822   0.5009902   0.2496290  )
        53        C      tau(  53) = (   0.8754230   0.6261334   0.3740517  )
        54        C      tau(  54) = (   0.7483805   0.7483805   0.9996941  )
        55        C      tau(  55) = (   0.8751585   0.8751585   0.1189720  )
        56        C      tau(  56) = (   0.4999757   0.4999757   0.4999757  )
        57        C      tau(  57) = (   0.6249536   0.6249536   0.6249536  )
        58        C      tau(  58) = (   0.4990957   0.7503802   0.7503802  )
        59        C      tau(  59) = (   0.6235333   0.8749829   0.8749829  )
        60        C      tau(  60) = (   0.7503802   0.4990957   0.7503802  )
        61        C      tau(  61) = (   0.8749829   0.6235333   0.8749829  )
        62        C      tau(  62) = (   0.7503802   0.7503802   0.4990957  )
        63        C      tau(  63) = (   0.8749829   0.8749829   0.6235333  )

   Crystallographic axes

     site n.     atom                  positions (cryst. coord.)
         1        N      tau(   1) = (  0.9869283  0.9869283  0.9869283  )
         2        C      tau(   2) = (  0.9921390  0.2607625  0.2607625  )
         3        C      tau(   3) = (  0.1236981  0.3746848  0.3746848  )
         4        C      tau(   4) = (  0.2607625  0.9921390  0.2607625  )
         5        C      tau(   5) = (  0.3746848  0.1236981  0.3746848  )
         6        C      tau(   6) = (  0.2607625  0.2607625  0.9921390  )
         7        C      tau(   7) = (  0.3746848  0.3746848  0.1236981  )
         8        C      tau(   8) = (  0.0007517  0.0007517  0.4988587  )
         9        C      tau(   9) = (  0.1251291  0.1251291  0.6250516  )
        10        C      tau(  10) = (  0.0014372  0.2476607  0.7521916  )
        11        C      tau(  11) = (  0.1266329  0.3730745  0.8775065  )
        12        C      tau(  12) = (  0.2476607  0.0014372  0.7521916  )
        13        C      tau(  13) = (  0.3730745  0.1266329  0.8775065  )
        14        C      tau(  14) = (  0.2498467  0.2498467  0.4996267  )
        15        C      tau(  15) = (  0.3749463  0.3749463  0.6249280  )
        16        C      tau(  16) = (  0.0007517  0.4988587  0.0007517  )
        17        C      tau(  17) = (  0.1251291  0.6250516  0.1251291  )
        18        C      tau(  18) = (  0.0014372  0.7521916  0.2476607  )
        19        C      tau(  19) = (  0.1266329  0.8775065  0.3730745  )
        20        C      tau(  20) = (  0.2498467  0.4996267  0.2498467  )
        21        C      tau(  21) = (  0.3749463  0.6249280  0.3749463  )
        22        C      tau(  22) = (  0.2476607  0.7521916  0.0014372  )
        23        C      tau(  23) = (  0.3730745  0.8775065  0.1266329  )
        24        C      tau(  24) = (  0.0010116  0.5014264  0.5014264  )
        25        C      tau(  25) = (  0.1250381  0.6250852  0.6250852  )
        26        C      tau(  26) = (  0.9996941  0.7483805  0.7483805  )
        27        C      tau(  27) = (  0.1174884  0.8751585  0.8751585  )
        28        C      tau(  28) = (  0.2496290  0.5009902  0.7494822  )
        29        C      tau(  29) = (  0.3740517  0.6261334  0.8754230  )
        30        C      tau(  30) = (  0.2496290  0.7494822  0.5009902  )
        31        C      tau(  31) = (  0.3740517  0.8754230  0.6261334  )
        32        C      tau(  32) = (  0.4988587  0.0007517  0.0007517  )
        33        C      tau(  33) = (  0.6250516  0.1251291  0.1251291  )
        34        C      tau(  34) = (  0.4996267  0.2498467  0.2498467  )
        35        C      tau(  35) = (  0.6249280  0.3749463  0.3749463  )
        36        C      tau(  36) = (  0.7521916  0.0014372  0.2476607  )
        37        C      tau(  37) = (  0.8775065  0.1266329  0.3730745  )
        38        C      tau(  38) = (  0.7521916  0.2476607  0.0014372  )
        39        C      tau(  39) = (  0.8775065  0.3730745  0.1266329  )
        40        C      tau(  40) = (  0.5014264  0.0010116  0.5014264  )
        41        C      tau(  41) = (  0.6250852  0.1250381  0.6250852  )
        42        C      tau(  42) = (  0.5009902  0.2496290  0.7494822  )
        43        C      tau(  43) = (  0.6261334  0.3740517  0.8754230  )
        44        C      tau(  44) = (  0.7483805  0.9996941  0.7483805  )
        45        C      tau(  45) = (  0.8751585  0.1189720  0.8751585  )
        46        C      tau(  46) = (  0.7494822  0.2496290  0.5009902  )
        47        C      tau(  47) = (  0.8754230  0.3740517  0.6261334  )
        48        C      tau(  48) = (  0.5014264  0.5014264  0.0010116  )
        49        C      tau(  49) = (  0.6250852  0.6250852  0.1250381  )
        50        C      tau(  50) = (  0.5009902  0.7494822  0.2496290  )
        51        C      tau(  51) = (  0.6261334  0.8754230  0.3740517  )
        52        C      tau(  52) = (  0.7494822  0.5009902  0.2496290  )
        53        C      tau(  53) = (  0.8754230  0.6261334  0.3740517  )
        54        C      tau(  54) = (  0.7483805  0.7483805  0.9996941  )
        55        C      tau(  55) = (  0.8751585  0.8751585  0.1189720  )
        56        C      tau(  56) = (  0.4999757  0.4999757  0.4999757  )
        57        C      tau(  57) = (  0.6249536  0.6249536  0.6249536  )
        58        C      tau(  58) = (  0.4990957  0.7503802  0.7503802  )
        59        C      tau(  59) = (  0.6235333  0.8749829  0.8749829  )
        60        C      tau(  60) = (  0.7503802  0.4990957  0.7503802  )
        61        C      tau(  61) = (  0.8749829  0.6235333  0.8749829  )
        62        C      tau(  62) = (  0.7503802  0.7503802  0.4990957  )
        63        C      tau(  63) = (  0.8749829  0.8749829  0.6235333  )

     number of k points=     1
                       cart. coord. in units 2pi/alat
        k(    1) = (   0.0000000   0.0000000   0.0000000), wk =   1.0000000

                       cryst. coord.
        k(    1) = (   0.0000000   0.0000000   0.0000000), wk =   1.0000000

     Dense  grid:    58461 G-vectors     FFT dimensions: (  64,  64,  64)

     Dynamical RAM for                 wfc:       0.35 MB

     Dynamical RAM for     wfc (w. buffer):       0.35 MB

     Dynamical RAM for           str. fact:       0.04 MB

     Dynamical RAM for           local pot:       0.00 MB

     Dynamical RAM for          nlocal pot:       1.17 MB

     Dynamical RAM for                qrad:       0.65 MB

     Dynamical RAM for          rho,v,vnew:       0.49 MB

     Dynamical RAM for               rhoin:       0.16 MB

     Dynamical RAM for            rho*nmix:       0.60 MB

     Dynamical RAM for           G-vectors:       0.08 MB

     Dynamical RAM for          h,s,v(r/c):       0.53 MB

     Dynamical RAM for          <psi|beta>:       0.58 MB

     Dynamical RAM for                 psi:       0.71 MB

     Dynamical RAM for                hpsi:       0.71 MB

     Dynamical RAM for      wfcinit/wfcrot:       1.24 MB

     Estimated static dynamical RAM per process >       3.37 MB

     Estimated max dynamical RAM per process >       6.49 MB

     Estimated total dynamical RAM >     594.05 MB
     Generating pointlists ...
     new r_m :   0.0846 (alat units)  1.1401 (a.u.) for type    1
     new r_m :   0.0846 (alat units)  1.1401 (a.u.) for type    2

     Initial potential from superposition of free atoms

     starting charge     252.5655, renormalised to     254.0000
     Starting wfcs are random

     total cpu time spent up to now is        2.3 secs

     Self-consistent Calculation

     iteration #  1     ecut=    50.00 Ry     beta= 0.70
     Davidson diagonalization with overlap

---- Real-time Memory Report at c_bands before calling an iterative solver
           158 MiB given to the printing process from OS
             0 MiB allocation reported by mallinfo(arena+hblkhd)
        143302 MiB available memory on the node where the printing process lives
------------------
     ethr =  1.00E-02,  avg # of iterations = 14.0

     total cpu time spent up to now is        2.9 secs

     total energy              =    -723.29620281 Ry
     estimated scf accuracy    <       3.68980323 Ry

     total magnetization       =     2.00 Bohr mag/cell
     absolute magnetization    =     2.00 Bohr mag/cell

     iteration #  2     ecut=    50.00 Ry     beta= 0.70
     Davidson diagonalization with overlap

---- Real-time Memory Report at c_bands before calling an iterative solver
           163 MiB given to the printing process from OS
             0 MiB allocation reported by mallinfo(arena+hblkhd)
        143241 MiB available memory on the node where the printing process lives
------------------
     ethr =  1.45E-03,  avg # of iterations = 12.5

     total cpu time spent up to now is        4.4 secs

     total energy              =    -723.67578628 Ry
     estimated scf accuracy    <       0.44528583 Ry

     total magnetization       =     2.00 Bohr mag/cell
     absolute magnetization    =     2.07 Bohr mag/cell

     iteration #  3     ecut=    50.00 Ry     beta= 0.70
     Davidson diagonalization with overlap

---- Real-time Memory Report at c_bands before calling an iterative solver
           165 MiB given to the printing process from OS
             0 MiB allocation reported by mallinfo(arena+hblkhd)
        143256 MiB available memory on the node where the printing process lives
------------------
     c_bands:  2 eigenvalues not converged
     ethr =  1.75E-04,  avg # of iterations = 17.0

     total cpu time spent up to now is        6.0 secs

     total energy              =    -723.73680109 Ry
     estimated scf accuracy    <       0.87340398 Ry

     total magnetization       =     2.00 Bohr mag/cell
     absolute magnetization    =     2.12 Bohr mag/cell

     iteration #  4     ecut=    50.00 Ry     beta= 0.70
     Davidson diagonalization with overlap

---- Real-time Memory Report at c_bands before calling an iterative solver
           165 MiB given to the printing process from OS
             0 MiB allocation reported by mallinfo(arena+hblkhd)
        143252 MiB available memory on the node where the printing process lives
------------------
     c_bands:  1 eigenvalues not converged
     ethr =  1.75E-04,  avg # of iterations = 20.0

     total cpu time spent up to now is       10.4 secs

     total energy              =    -723.91133375 Ry
     estimated scf accuracy    <       0.00817077 Ry

     total magnetization       =     2.00 Bohr mag/cell
     absolute magnetization    =     2.19 Bohr mag/cell

     iteration #  5     ecut=    50.00 Ry     beta= 0.70
     Davidson diagonalization with overlap

---- Real-time Memory Report at c_bands before calling an iterative solver
           166 MiB given to the printing process from OS
             0 MiB allocation reported by mallinfo(arena+hblkhd)
        143247 MiB available memory on the node where the printing process lives
------------------
     c_bands:  4 eigenvalues not converged
     ethr =  3.22E-06,  avg # of iterations = 20.0

     total cpu time spent up to now is       11.0 secs

     total energy              =    -723.91589268 Ry
     estimated scf accuracy    <       0.00402769 Ry

     total magnetization       =     2.00 Bohr mag/cell
     absolute magnetization    =     2.22 Bohr mag/cell

     iteration #  6     ecut=    50.00 Ry     beta= 0.70
     Davidson diagonalization with overlap

---- Real-time Memory Report at c_bands before calling an iterative solver
           166 MiB given to the printing process from OS
             0 MiB allocation reported by mallinfo(arena+hblkhd)
        143247 MiB available memory on the node where the printing process lives
------------------
     c_bands:  1 eigenvalues not converged
     ethr =  1.59E-06,  avg # of iterations = 20.0

     total cpu time spent up to now is       11.8 secs

     total energy              =    -723.91658961 Ry
     estimated scf accuracy    <       0.00070665 Ry

     total magnetization       =     2.00 Bohr mag/cell
     absolute magnetization    =     2.25 Bohr mag/cell

     iteration #  7     ecut=    50.00 Ry     beta= 0.70
     Davidson diagonalization with overlap

---- Real-time Memory Report at c_bands before calling an iterative solver
           166 MiB given to the printing process from OS
             0 MiB allocation reported by mallinfo(arena+hblkhd)
        143245 MiB available memory on the node where the printing process lives
------------------
     c_bands:  2 eigenvalues not converged
     ethr =  2.78E-07,  avg # of iterations = 20.0

     total cpu time spent up to now is       14.1 secs

     total energy              =    -723.91678873 Ry
     estimated scf accuracy    <       0.00007291 Ry

     total magnetization       =     2.00 Bohr mag/cell
     absolute magnetization    =     2.26 Bohr mag/cell

     iteration #  8     ecut=    50.00 Ry     beta= 0.70
     Davidson diagonalization with overlap

---- Real-time Memory Report at c_bands before calling an iterative solver
           166 MiB given to the printing process from OS
             0 MiB allocation reported by mallinfo(arena+hblkhd)
        143244 MiB available memory on the node where the printing process lives
------------------
     c_bands:  1 eigenvalues not converged
     ethr =  2.87E-08,  avg # of iterations = 20.0

     total cpu time spent up to now is       14.9 secs

     total energy              =    -723.91681738 Ry
     estimated scf accuracy    <       0.00002087 Ry

     total magnetization       =     2.00 Bohr mag/cell
     absolute magnetization    =     2.27 Bohr mag/cell

     iteration #  9     ecut=    50.00 Ry     beta= 0.70
     Davidson diagonalization with overlap

---- Real-time Memory Report at c_bands before calling an iterative solver
           166 MiB given to the printing process from OS
             0 MiB allocation reported by mallinfo(arena+hblkhd)
        143242 MiB available memory on the node where the printing process lives
------------------
     c_bands:  2 eigenvalues not converged
     ethr =  8.22E-09,  avg # of iterations = 20.0

     total cpu time spent up to now is       15.6 secs

     total energy              =    -723.91682454 Ry
     estimated scf accuracy    <       0.00000697 Ry

     total magnetization       =     2.00 Bohr mag/cell
     absolute magnetization    =     2.28 Bohr mag/cell

     iteration # 10     ecut=    50.00 Ry     beta= 0.70
     Davidson diagonalization with overlap

---- Real-time Memory Report at c_bands before calling an iterative solver
           166 MiB given to the printing process from OS
             0 MiB allocation reported by mallinfo(arena+hblkhd)
        143241 MiB available memory on the node where the printing process lives
------------------
     c_bands:  1 eigenvalues not converged
     ethr =  2.75E-09,  avg # of iterations = 20.0

     total cpu time spent up to now is       16.6 secs

     total energy              =    -723.91682746 Ry
     estimated scf accuracy    <       0.00000086 Ry

     total magnetization       =     2.00 Bohr mag/cell
     absolute magnetization    =     2.28 Bohr mag/cell

     iteration # 11     ecut=    50.00 Ry     beta= 0.70
     Davidson diagonalization with overlap

---- Real-time Memory Report at c_bands before calling an iterative solver
           166 MiB given to the printing process from OS
             0 MiB allocation reported by mallinfo(arena+hblkhd)
        143249 MiB available memory on the node where the printing process lives
------------------
     ethr =  3.38E-10,  avg # of iterations = 19.0

     total cpu time spent up to now is       17.3 secs

     total energy              =    -723.91682802 Ry
     estimated scf accuracy    <       0.00000018 Ry

     total magnetization       =     2.00 Bohr mag/cell
     absolute magnetization    =     2.29 Bohr mag/cell

     iteration # 12     ecut=    50.00 Ry     beta= 0.70
     Davidson diagonalization with overlap

---- Real-time Memory Report at c_bands before calling an iterative solver
           166 MiB given to the printing process from OS
             0 MiB allocation reported by mallinfo(arena+hblkhd)
        143247 MiB available memory on the node where the printing process lives
------------------
     ethr =  6.91E-11,  avg # of iterations = 19.5

     total cpu time spent up to now is       18.4 secs

     total energy              =    -723.91682812 Ry
     estimated scf accuracy    <       0.00000005 Ry

     total magnetization       =     2.00 Bohr mag/cell
     absolute magnetization    =     2.29 Bohr mag/cell

     iteration # 13     ecut=    50.00 Ry     beta= 0.70
     Davidson diagonalization with overlap

---- Real-time Memory Report at c_bands before calling an iterative solver
           166 MiB given to the printing process from OS
             0 MiB allocation reported by mallinfo(arena+hblkhd)
        143244 MiB available memory on the node where the printing process lives
------------------
     c_bands:  1 eigenvalues not converged
     ethr =  1.93E-11,  avg # of iterations = 20.0

     total cpu time spent up to now is       19.0 secs

     total energy              =    -723.91682816 Ry
     estimated scf accuracy    <       0.00000001 Ry

     total magnetization       =     2.00 Bohr mag/cell
     absolute magnetization    =     2.29 Bohr mag/cell

     iteration # 14     ecut=    50.00 Ry     beta= 0.70
     Davidson diagonalization with overlap

---- Real-time Memory Report at c_bands before calling an iterative solver
           166 MiB given to the printing process from OS
             0 MiB allocation reported by mallinfo(arena+hblkhd)
        143247 MiB available memory on the node where the printing process lives
------------------
     c_bands:  5 eigenvalues not converged
     ethr =  4.44E-12,  avg # of iterations = 20.0
 
     Magnetic moment per site  (integrated on atomic sphere of radius R)
     atom   1 (R=0.085)  charge=  2.8765  magn=  0.0039
     atom   2 (R=0.085)  charge=  1.7938  magn=  0.2471
     atom   3 (R=0.085)  charge=  1.7916  magn= -0.0087
     atom   4 (R=0.085)  charge=  1.7937  magn=  0.2474
     atom   5 (R=0.085)  charge=  1.7916  magn= -0.0087
     atom   6 (R=0.085)  charge=  1.7937  magn=  0.2474
     atom   7 (R=0.085)  charge=  1.7916  magn= -0.0087
     atom   8 (R=0.085)  charge=  1.7822  magn=  0.0084
     atom   9 (R=0.085)  charge=  1.7890  magn= -0.0018
     atom  10 (R=0.085)  charge=  1.7758  magn=  0.0054
     atom  11 (R=0.085)  charge=  1.7838  magn= -0.0034
     atom  12 (R=0.085)  charge=  1.7739  magn=  0.0054
     atom  13 (R=0.085)  charge=  1.7837  magn= -0.0034
     atom  14 (R=0.085)  charge=  1.7809  magn=  0.0085
     atom  15 (R=0.085)  charge=  1.7819  magn= -0.0019
     atom  16 (R=0.085)  charge=  1.7822  magn=  0.0084
     atom  17 (R=0.085)  charge=  1.7890  magn= -0.0018
     atom  18 (R=0.085)  charge=  1.7758  magn=  0.0054
     atom  19 (R=0.085)  charge=  1.7838  magn= -0.0034
     atom  20 (R=0.085)  charge=  1.7809  magn=  0.0085
     atom  21 (R=0.085)  charge=  1.7819  magn= -0.0019
     atom  22 (R=0.085)  charge=  1.7739  magn=  0.0054
     atom  23 (R=0.085)  charge=  1.7837  magn= -0.0034
     atom  24 (R=0.085)  charge=  1.7812  magn=  0.0179
     atom  25 (R=0.085)  charge=  1.8002  magn=  0.0088
     atom  26 (R=0.085)  charge=  1.7951  magn=  0.0031
     atom  27 (R=0.085)  charge=  1.7642  magn= -0.0000
     atom  28 (R=0.085)  charge=  1.7813  magn=  0.0210
     atom  29 (R=0.085)  charge=  1.7759  magn= -0.0013
     atom  30 (R=0.085)  charge=  1.7813  magn=  0.0210
     atom  31 (R=0.085)  charge=  1.7759  magn= -0.0013
     atom  32 (R=0.085)  charge=  1.7821  magn=  0.0084
     atom  33 (R=0.085)  charge=  1.7890  magn= -0.0018
     atom  34 (R=0.085)  charge=  1.7808  magn=  0.0085
     atom  35 (R=0.085)  charge=  1.7819  magn= -0.0019
     atom  36 (R=0.085)  charge=  1.7758  magn=  0.0054
     atom  37 (R=0.085)  charge=  1.7838  magn= -0.0034
     atom  38 (R=0.085)  charge=  1.7758  magn=  0.0054
     atom  39 (R=0.085)  charge=  1.7838  magn= -0.0034
     atom  40 (R=0.085)  charge=  1.7812  magn=  0.0179
     atom  41 (R=0.085)  charge=  1.8003  magn=  0.0088
     atom  42 (R=0.085)  charge=  1.7813  magn=  0.0211
     atom  43 (R=0.085)  charge=  1.7760  magn= -0.0013
     atom  44 (R=0.085)  charge=  1.7931  magn=  0.0031
     atom  45 (R=0.085)  charge=  1.7624  magn= -0.0000
     atom  46 (R=0.085)  charge=  1.7814  magn=  0.0210
     atom  47 (R=0.085)  charge=  1.7760  magn= -0.0013
     atom  48 (R=0.085)  charge=  1.7812  magn=  0.0179
     atom  49 (R=0.085)  charge=  1.8003  magn=  0.0088
     atom  50 (R=0.085)  charge=  1.7813  magn=  0.0211
     atom  51 (R=0.085)  charge=  1.7760  magn= -0.0013
     atom  52 (R=0.085)  charge=  1.7814  magn=  0.0210
     atom  53 (R=0.085)  charge=  1.7760  magn= -0.0013
     atom  54 (R=0.085)  charge=  1.7931  magn=  0.0031
     atom  55 (R=0.085)  charge=  1.7624  magn= -0.0000
     atom  56 (R=0.085)  charge=  1.7856  magn=  0.0010
     atom  57 (R=0.085)  charge=  1.7788  magn=  0.0010
     atom  58 (R=0.085)  charge=  1.7866  magn=  0.0018
     atom  59 (R=0.085)  charge=  1.7824  magn= -0.0009
     atom  60 (R=0.085)  charge=  1.7866  magn=  0.0018
     atom  61 (R=0.085)  charge=  1.7825  magn= -0.0009
     atom  62 (R=0.085)  charge=  1.7866  magn=  0.0018
     atom  63 (R=0.085)  charge=  1.7825  magn= -0.0009

     total cpu time spent up to now is       19.9 secs

     End of self-consistent calculation

 ------ SPIN UP ------------


          k = 0.0000 0.0000 0.0000 (  7386 PWs)   bands (ev):

    -8.5732  -7.0372  -6.2639  -6.2638  -6.1588  -6.1553  -5.8782  -4.9503
    -4.1219  -4.1217  -4.0893  -4.0862  -4.0306  -4.0292  -3.9782  -3.9093
    -3.8616  -3.8602  -3.3557  -2.9543  -2.6664  -2.6643  -2.1107  -0.3598
    -0.3570  -0.3114  -0.2892  -0.0926   0.1875   0.1885   0.2953   0.2966
     0.3692   0.6077   0.8202   0.8236   0.9873   0.9875   1.0285   1.0521
     1.0529   1.0773   1.3039   1.3065   3.0569   3.8749   3.8809   4.0406
     4.2352   4.2376   4.2510   4.2517   4.2907   4.2924   4.4357   4.4381
     4.5030   4.5036   4.6011   4.6804   4.6890   4.6930   4.6955   4.7742
     4.7791   4.9107   4.9666   4.9688   5.0590   5.2256   5.2279   5.3011
     5.3729   5.3766   5.4113   5.4215   5.4227   6.0458   6.0474   6.0797
     6.6394   6.6436   6.7662   7.0038   7.0279   7.0291   7.5181   8.3287
     8.3372   8.4215   8.4947   8.5006   8.6707   8.6734   8.8288   8.8371
     8.8524   8.8580   8.8953   8.8960   8.9439   9.3075   9.3081   9.3138
     9.7199   9.7211   9.9352   9.9382   9.9438   9.9598   9.9820  10.0062
    10.0070  10.0073  10.0306  10.0366  10.1348  10.1361  10.2850  10.2869
    10.3603  10.9773  12.2199  12.4702  12.4772  13.8095  14.7966  14.7971
    17.3775  17.3810  17.3965  17.5571  17.5614  17.5624  17.8963  17.9271
    17.9296  18.0120  18.0196  18.3744  18.9868  18.9953  19.0265  20.7174
    20.8085  20.8213  20.8675  20.9568  20.9602  21.0291  21.0363  21.0810

     occupation numbers 
     1.0000   1.0000   1.0000   1.0000   1.0000   1.0000   1.0000   1.0000
     1.0000   1.0000   1.0000   1.0000   1.0000   1.0000   1.0000   1.0000
     1.0000   1.0000   1.0000   1.0000   1.0000   1.0000   1.0000   1.0000
     1.0000   1.0000   1.0000   1.0000   1.0000   1.0000   1.0000   1.0000
     1.0000   1.0000   1.0000   1.0000   1.0000   1.0000   1.0000   1.0000
     1.0000   1.0000   1.0000   1.0000   1.0000   1.0000   1.0000   1.0000
     1.0000   1.0000   1.0000   1.0000   1.0000   1.0000   1.0000   1.0000
     1.0000   1.0000   1.0000   1.0000   1.0000   1.0000   1.0000   1.0000
     1.0000   1.0000   1.0000   1.0000   1.0000   1.0000   1.0000   1.0000
     1.0000   1.0000   1.0000   1.0000   1.0000   1.0000   1.0000   1.0000
     1.0000   1.0000   1.0000   1.0000   1.0000   1.0000   1.0000   1.0000
     1.0000   1.0000   1.0000   1.0000   1.0000   1.0000   1.0000   1.0000
     1.0000   1.0000   1.0000   1.0000   1.0000   1.0000   1.0000   1.0000
     1.0000   1.0000   1.0000   1.0000   1.0000   1.0000   1.0000   1.0000
     1.0000   1.0000   1.0000   1.0000   1.0000   1.0000   1.0000   1.0000
     1.0000   1.0000   1.0000   1.0000   1.0000   1.0000   1.0000   1.0000
     0.0000   0.0000   0.0000   0.0000   0.0000   0.0000   0.0000   0.0000
     0.0000   0.0000   0.0000   0.0000   0.0000   0.0000   0.0000   0.0000
     0.0000   0.0000   0.0000   0.0000   0.0000   0.0000   0.0000   0.0000

 ------ SPIN DOWN ----------


          k = 0.0000 0.0000 0.0000 (  7386 PWs)   bands (ev):

    -8.5500  -7.0227  -6.2445  -6.2445  -6.1170  -6.1131  -5.8414  -4.9344
    -4.1020  -4.1016  -4.0738  -4.0717  -3.9743  -3.9716  -3.9529  -3.8974
    -3.8158  -3.8152  -3.3121  -2.9364  -2.6121  -2.6100  -1.9703  -0.3430
    -0.3401  -0.2934  -0.2672  -0.0262   0.2031   0.2042   0.3303   0.3316
     0.3948   0.6400   0.8331   0.8361   1.0120   1.0123   1.0611   1.0677
     1.0680   1.0952   1.4751   1.4779   3.1714   3.8953   3.9012   4.0628
     4.2714   4.2730   4.2775   4.2848   4.3105   4.3115   4.4846   4.4894
     4.5219   4.5238   4.6280   4.7035   4.7052   4.7081   4.7147   4.8111
     4.8160   4.9226   4.9984   5.0010   5.1433   5.2595   5.2616   5.3246
     5.3839   5.3877   5.4237   5.4812   5.4828   6.1058   6.1073   6.1207
     6.6659   6.6701   6.8006   7.0464   7.1201   7.1217   7.6970   8.3669
     8.3761   8.4579   8.5273   8.5319   8.7010   8.7039   8.8669   8.8691
     8.8771   8.8813   8.9481   8.9482   8.9682   9.3348   9.3445   9.3504
     9.7489   9.7505   9.9532   9.9532   9.9583   9.9841  10.0087  10.0192
    10.0265  10.0268  10.0626  10.0705  10.1673  10.1684  10.3405  10.3422
    10.4216  11.3710  12.5293  12.6169  12.6240  14.2777  16.1580  16.1591
    17.3960  17.4050  17.4207  17.5807  17.6145  17.6154  17.9206  17.9478
    17.9500  18.0497  18.0578  18.4867  19.0698  19.0750  19.0844  20.7666
    20.8216  20.8345  20.8815  20.9739  20.9762  21.0541  21.0615  21.0931

     occupation numbers 
     1.0000   1.0000   1.0000   1.0000   1.0000   1.0000   1.0000   1.0000
     1.0000   1.0000   1.0000   1.0000   1.0000   1.0000   1.0000   1.0000
     1.0000   1.0000   1.0000   1.0000   1.0000   1.0000   1.0000   1.0000
     1.0000   1.0000   1.0000   1.0000   1.0000   1.0000   1.0000   1.0000
     1.0000   1.0000   1.0000   1.0000   1.0000   1.0000   1.0000   1.0000
     1.0000   1.0000   1.0000   1.0000   1.0000   1.0000   1.0000   1.0000
     1.0000   1.0000   1.0000   1.0000   1.0000   1.0000   1.0000   1.0000
     1.0000   1.0000   1.0000   1.0000   1.0000   1.0000   1.0000   1.0000
     1.0000   1.0000   1.0000   1.0000   1.0000   1.0000   1.0000   1.0000
     1.0000   1.0000   1.0000   1.0000   1.0000   1.0000   1.0000   1.0000
     1.0000   1.0000   1.0000   1.0000   1.0000   1.0000   1.0000   1.0000
     1.0000   1.0000   1.0000   1.0000   1.0000   1.0000   1.0000   1.0000
     1.0000   1.0000   1.0000   1.0000   1.0000   1.0000   1.0000   1.0000
     1.0000   1.0000   1.0000   1.0000   1.0000   1.0000   1.0000   1.0000
     1.0000   1.0000   1.0000   1.0000   1.0000   1.0000   1.0000   1.0000
     1.0000   1.0000   1.0000   1.0000   1.0000   1.0000   0.0000   0.0000
     0.0000   0.0000   0.0000   0.0000   0.0000   0.0000   0.0000   0.0000
     0.0000   0.0000   0.0000   0.0000   0.0000   0.0000   0.0000   0.0000
     0.0000   0.0000   0.0000   0.0000   0.0000   0.0000   0.0000   0.0000

     highest occupied, lowest unoccupied level (ev):    14.7971   16.1580

!    total energy              =    -723.91682816 Ry
     estimated scf accuracy    <          3.5E-09 Ry

     The total energy is the sum of the following terms:
     one-electron contribution =     232.75346249 Ry
     hartree contribution      =      70.11671132 Ry
     xc contribution           =    -226.74611223 Ry
     ewald contribution        =    -800.04088975 Ry

     total magnetization       =     2.00 Bohr mag/cell
     absolute magnetization    =     2.29 Bohr mag/cell

     convergence has been achieved in  14 iterations

     Forces acting on atoms (cartesian axes, Ry/au):

     atom    1 type  1   force =    -0.00143508    0.00356888    0.00356888
     atom    2 type  2   force =    -0.00023210    0.00017403    0.00017403
     atom    3 type  2   force =     0.00096247    0.00093347    0.00093347
     atom    4 type  2   force =     0.00022008   -0.00027124    0.00021379
     atom    5 type  2   force =     0.00084886    0.00085768    0.00090388
     atom    6 type  2   force =     0.00022008    0.00021379   -0.00027124
     atom    7 type  2   force =     0.00084886    0.00090388    0.00085768
     atom    8 type  2   force =     0.00039342    0.00032443   -0.00050411
     atom    9 type  2   force =     0.00068555    0.00033124   -0.00049342
     atom   10 type  2   force =     0.00022225   -0.00034248    0.00037809
     atom   11 type  2   force =    -0.00080627    0.00051900   -0.00055355
     atom   12 type  2   force =    -0.00390508   -0.00074928    0.00091658
     atom   13 type  2   force =    -0.00009995   -0.00142120   -0.00022183
     atom   14 type  2   force =    -0.00022546    0.00003232   -0.00038272
     atom   15 type  2   force =    -0.00025161   -0.00024780   -0.00001464
     atom   16 type  2   force =     0.00039342   -0.00050411    0.00032443
     atom   17 type  2   force =     0.00068555   -0.00049342    0.00033124
     atom   18 type  2   force =     0.00022225    0.00037809   -0.00034248
     atom   19 type  2   force =    -0.00080627   -0.00055355    0.00051900
     atom   20 type  2   force =    -0.00022546   -0.00038272    0.00003232
     atom   21 type  2   force =    -0.00025161   -0.00001464   -0.00024780
     atom   22 type  2   force =    -0.00390508    0.00091658   -0.00074928
     atom   23 type  2   force =    -0.00009995   -0.00022183   -0.00142120
     atom   24 type  2   force =     0.00009653    0.00010527    0.00010527
     atom   25 type  2   force =     0.00059372    0.00040886    0.00040886
     atom   26 type  2   force =    -0.00423488   -0.00143769   -0.00143769
     atom   27 type  2   force =     0.01921096   -0.00175439   -0.00175439
     atom   28 type  2   force =    -0.00021091   -0.00002576    0.00001480
     atom   29 type  2   force =    -0.00112351    0.00088141    0.00012132
     atom   30 type  2   force =    -0.00021091    0.00001480   -0.00002576
     atom   31 type  2   force =    -0.00112351    0.00012132    0.00088141
     atom   32 type  2   force =    -0.00056422    0.00038349    0.00038349
     atom   33 type  2   force =    -0.00016911    0.00001767    0.00001767
     atom   34 type  2   force =    -0.00023677   -0.00010439   -0.00010439
     atom   35 type  2   force =     0.00000016   -0.00022375   -0.00022375
     atom   36 type  2   force =     0.00038817    0.00005405   -0.00026682
     atom   37 type  2   force =    -0.00055879   -0.00078976    0.00052536
     atom   38 type  2   force =     0.00038817   -0.00026682    0.00005405
     atom   39 type  2   force =    -0.00055879    0.00052536   -0.00078976
     atom   40 type  2   force =    -0.00001151    0.00023532    0.00004721
     atom   41 type  2   force =     0.00002526    0.00008703   -0.00000837
     atom   42 type  2   force =    -0.00004917   -0.00033997   -0.00006077
     atom   43 type  2   force =     0.00032939   -0.00060054    0.00033308
     atom   44 type  2   force =    -0.00019066   -0.00016065   -0.00013580
     atom   45 type  2   force =    -0.00231779    0.00181444   -0.00142868
     atom   46 type  2   force =     0.00002818   -0.00028140   -0.00000248
     atom   47 type  2   force =     0.00031191   -0.00058090    0.00036475
     atom   48 type  2   force =    -0.00001151    0.00004721    0.00023532
     atom   49 type  2   force =     0.00002526   -0.00000837    0.00008703
     atom   50 type  2   force =    -0.00004917   -0.00006077   -0.00033997
     atom   51 type  2   force =     0.00032939    0.00033308   -0.00060054
     atom   52 type  2   force =     0.00002818   -0.00000248   -0.00028140
     atom   53 type  2   force =     0.00031191    0.00036475   -0.00058090
     atom   54 type  2   force =    -0.00019066   -0.00013580   -0.00016065
     atom   55 type  2   force =    -0.00231779   -0.00142868    0.00181444
     atom   56 type  2   force =    -0.00007107   -0.00005726   -0.00005726
     atom   57 type  2   force =     0.00005755    0.00003109    0.00003109
     atom   58 type  2   force =    -0.00027682    0.00001218    0.00001218
     atom   59 type  2   force =    -0.00039632    0.00023763    0.00023763
     atom   60 type  2   force =    -0.00000382   -0.00036038    0.00017202
     atom   61 type  2   force =    -0.00035107   -0.00101678   -0.00016153
     atom   62 type  2   force =    -0.00000382    0.00017202   -0.00036038
     atom   63 type  2   force =    -0.00035107   -0.00016153   -0.00101678
     The non-local contrib.  to forces
     atom    1 type  1   force =    -0.74264241   -0.74145611   -0.74145611
     atom    2 type  2   force =    -0.22495670    0.21089683    0.21089683
     atom    3 type  2   force =     0.06960261    0.06959359    0.06959359
     atom    4 type  2   force =     0.21079825   -0.22483141    0.21096026
     atom    5 type  2   force =     0.06946793    0.06989360    0.06929017
     atom    6 type  2   force =     0.21079825    0.21096026   -0.22483141
     atom    7 type  2   force =     0.06946793    0.06929017    0.06989360
     atom    8 type  2   force =    -0.00846423   -0.00849983    0.05202326
     atom    9 type  2   force =    -0.00555231   -0.00366769    0.01439278
     atom   10 type  2   force =    -0.04448111   -0.01308996   -0.01897278
     atom   11 type  2   force =    -0.07154461    0.06006348   -0.08285890
     atom   12 type  2   force =    -0.01613565   -0.04420984   -0.01932056
     atom   13 type  2   force =     0.05959379   -0.07181351   -0.08264099
     atom   14 type  2   force =    -0.00140693   -0.00127715    0.05088663
     atom   15 type  2   force =     0.01379842    0.01370583    0.00049769
     atom   16 type  2   force =    -0.00846423    0.05202326   -0.00849983
     atom   17 type  2   force =    -0.00555231    0.01439278   -0.00366769
     atom   18 type  2   force =    -0.04448111   -0.01897278   -0.01308996
     atom   19 type  2   force =    -0.07154461   -0.08285890    0.06006348
     atom   20 type  2   force =    -0.00140693    0.05088663   -0.00127715
     atom   21 type  2   force =     0.01379842    0.00049769    0.01370583
     atom   22 type  2   force =    -0.01613565   -0.01932056   -0.04420984
     atom   23 type  2   force =     0.05959379   -0.08264099   -0.07181351
     atom   24 type  2   force =    -0.07367515    0.02862390    0.02862390
     atom   25 type  2   force =    -0.01197490    0.01804997    0.01804997
     atom   26 type  2   force =    -0.06528644   -0.02674458   -0.02674458
     atom   27 type  2   force =    -0.09642469    0.13657225    0.13657225
     atom   28 type  2   force =     0.06212660    0.02818487   -0.01946694
     atom   29 type  2   force =     0.00142915    0.01874583    0.00515209
     atom   30 type  2   force =     0.06212660   -0.01946694    0.02818487
     atom   31 type  2   force =     0.00142915    0.00515209    0.01874583
     atom   32 type  2   force =     0.05247859   -0.00821701   -0.00821701
     atom   33 type  2   force =     0.01585071   -0.00481624   -0.00481624
     atom   34 type  2   force =     0.05154586   -0.00180778   -0.00180778
     atom   35 type  2   force =     0.00047919    0.01365495    0.01365495
     atom   36 type  2   force =    -0.01915787   -0.04440053   -0.01317039
     atom   37 type  2   force =    -0.08297529   -0.07154269    0.06004223
     atom   38 type  2   force =    -0.01915787   -0.01317039   -0.04440053
     atom   39 type  2   force =    -0.08297529    0.06004223   -0.07154269
     atom   40 type  2   force =     0.02825391   -0.07371761    0.02828419
     atom   41 type  2   force =     0.01710309   -0.01158668    0.01703297
     atom   42 type  2   force =     0.02806127    0.06206162   -0.01917982
     atom   43 type  2   force =     0.01856016    0.00148912    0.00555913
     atom   44 type  2   force =    -0.02433953   -0.06012721   -0.02452754
     atom   45 type  2   force =     0.13498752   -0.11786949    0.13579622
     atom   46 type  2   force =    -0.01929837    0.06235597    0.02821704
     atom   47 type  2   force =     0.00554686    0.00162155    0.01865934
     atom   48 type  2   force =     0.02825391    0.02828419   -0.07371761
     atom   49 type  2   force =     0.01710309    0.01703297   -0.01158668
     atom   50 type  2   force =     0.02806127   -0.01917982    0.06206162
     atom   51 type  2   force =     0.01856016    0.00555913    0.00148912
     atom   52 type  2   force =    -0.01929837    0.02821704    0.06235597
     atom   53 type  2   force =     0.00554686    0.01865934    0.00162155
     atom   54 type  2   force =    -0.02433953   -0.02452754   -0.06012721
     atom   55 type  2   force =     0.13498752    0.13579622   -0.11786949
     atom   56 type  2   force =     0.01616690    0.01612089    0.01612089
     atom   57 type  2   force =     0.00779545    0.00752105    0.00752105
     atom   58 type  2   force =     0.01395174   -0.01280446   -0.01280446
     atom   59 type  2   force =     0.01100731   -0.01051988   -0.01051988
     atom   60 type  2   force =    -0.01304121    0.01324003   -0.01282966
     atom   61 type  2   force =    -0.01135934    0.01021328   -0.01040837
     atom   62 type  2   force =    -0.01304121   -0.01282966    0.01324003
     atom   63 type  2   force =    -0.01135934   -0.01040837    0.01021328
     The ionic contribution  to forces
     atom    1 type  1   force =     3.02991647    3.07886654    3.07886654
     atom    2 type  2   force =     2.25845950   -2.15959266   -2.15959266
     atom    3 type  2   force =     0.43284683   -0.74865303   -0.74865303
     atom    4 type  2   force =    -2.15834565    2.25653294   -2.16239909
     atom    5 type  2   force =    -0.74886172    0.43100331   -0.74865771
     atom    6 type  2   force =    -2.15834565   -2.16239909    2.25653294
     atom    7 type  2   force =    -0.74886172   -0.74865771    0.43100331
     atom    8 type  2   force =     0.24572326    0.24433202   -0.70296249
     atom    9 type  2   force =     0.11761110    0.11204582   -0.22511019
     atom   10 type  2   force =     0.21271673    0.06814170    0.52646559
     atom   11 type  2   force =    -0.28842769   -0.72450389    0.72913792
     atom   12 type  2   force =     0.06331807    0.18486237    0.55221639
     atom   13 type  2   force =    -0.72883595   -0.29914500    0.72906347
     atom   14 type  2   force =    -0.19825242   -0.19983233   -0.67142501
     atom   15 type  2   force =    -0.15878823   -0.15858041   -0.04760341
     atom   16 type  2   force =     0.24572326   -0.70296249    0.24433202
     atom   17 type  2   force =     0.11761110   -0.22511019    0.11204582
     atom   18 type  2   force =     0.21271673    0.52646559    0.06814170
     atom   19 type  2   force =    -0.28842769    0.72913792   -0.72450389
     atom   20 type  2   force =    -0.19825242   -0.67142501   -0.19983233
     atom   21 type  2   force =    -0.15878823   -0.04760341   -0.15858041
     atom   22 type  2   force =     0.06331807    0.55221639    0.18486237
     atom   23 type  2   force =    -0.72883595    0.72906347   -0.29914500
     atom   24 type  2   force =     0.03447337   -0.19277277   -0.19277277
     atom   25 type  2   force =     0.10152103   -0.07233397   -0.07233397
     atom   26 type  2   force =     0.11654381   -0.20241713   -0.20241713
     atom   27 type  2   force =     1.42622172    0.22881264    0.22881264
     atom   28 type  2   force =    -0.08399231   -0.22455861    0.15770152
     atom   29 type  2   force =    -0.16334854    0.00553924    0.22985492
     atom   30 type  2   force =    -0.08399231    0.15770152   -0.22455861
     atom   31 type  2   force =    -0.16334854    0.22985492    0.00553924
     atom   32 type  2   force =    -0.70811321    0.24111395    0.24111395
     atom   33 type  2   force =    -0.22834866    0.11234606    0.11234606
     atom   34 type  2   force =    -0.67309853   -0.19965289   -0.19965289
     atom   35 type  2   force =    -0.04936947   -0.15857828   -0.15857828
     atom   36 type  2   force =     0.52527987    0.21090268    0.06698390
     atom   37 type  2   force =     0.72910364   -0.29057305   -0.72447926
     atom   38 type  2   force =     0.52527987    0.06698390    0.21090268
     atom   39 type  2   force =     0.72910364   -0.72447926   -0.29057305
     atom   40 type  2   force =    -0.19451227    0.03280973   -0.19115482
     atom   41 type  2   force =    -0.07556908    0.09625834   -0.07263144
     atom   42 type  2   force =    -0.22931382   -0.08710963    0.15718984
     atom   43 type  2   force =    -0.00464825   -0.15885890    0.22986360
     atom   44 type  2   force =    -0.18454821    0.11787707   -0.17948755
     atom   45 type  2   force =     0.23820995    1.35117303    0.24272619
     atom   46 type  2   force =     0.15563016   -0.08560595   -0.22747168
     atom   47 type  2   force =     0.22980406   -0.15884829   -0.00310869
     atom   48 type  2   force =    -0.19451227   -0.19115482    0.03280973
     atom   49 type  2   force =    -0.07556908   -0.07263144    0.09625834
     atom   50 type  2   force =    -0.22931382    0.15718984   -0.08710963
     atom   51 type  2   force =    -0.00464825    0.22986360   -0.15885890
     atom   52 type  2   force =     0.15563016   -0.22747168   -0.08560595
     atom   53 type  2   force =     0.22980406   -0.00310869   -0.15884829
     atom   54 type  2   force =    -0.18454821   -0.17948755    0.11787707
     atom   55 type  2   force =     0.23820995    0.24272619    1.35117303
     atom   56 type  2   force =    -0.10992140   -0.10843061   -0.10843061
     atom   57 type  2   force =    -0.02513240   -0.02219787   -0.02219787
     atom   58 type  2   force =    -0.14124534    0.01268237    0.01268237
     atom   59 type  2   force =    -0.32070033    0.12380888    0.12380888
     atom   60 type  2   force =     0.00827579   -0.13496899    0.00984861
     atom   61 type  2   force =     0.11974485   -0.32025801    0.12380300
     atom   62 type  2   force =     0.00827579    0.00984861   -0.13496899
     atom   63 type  2   force =     0.11974485    0.12380300   -0.32025801
     The local contribution  to forces
     atom    1 type  1   force =    -2.28870938   -2.33379972   -2.33380298
     atom    2 type  2   force =    -2.03373117    1.94888176    1.94887681
     atom    3 type  2   force =    -0.50147634    0.67998785    0.67998499
     atom    4 type  2   force =     1.94779521   -2.03193419    1.95166059
     atom    5 type  2   force =     0.68026619   -0.50001562    0.68026536
     atom    6 type  2   force =     1.94779109    1.95166036   -2.03193892
     atom    7 type  2   force =     0.68026025    0.68026121   -0.50001979
     atom    8 type  2   force =    -0.23686220   -0.23547183    0.65043123
     atom    9 type  2   force =    -0.11135969   -0.10802255    0.21022517
     atom   10 type  2   force =    -0.16800678   -0.05538988   -0.50709934
     atom   11 type  2   force =     0.35918328    0.66495513   -0.64679860
     atom   12 type  2   force =    -0.05106747   -0.14136483   -0.53196257
     atom   13 type  2   force =     0.66916520    0.36956494   -0.64661265
     atom   14 type  2   force =     0.19945500    0.20114724    0.62014987
     atom   15 type  2   force =     0.14476060    0.14461704    0.04709676
     atom   16 type  2   force =    -0.23685717    0.65042839   -0.23546981
     atom   17 type  2   force =    -0.11136437    0.21021710   -0.10802647
     atom   18 type  2   force =    -0.16801219   -0.50710104   -0.05539023
     atom   19 type  2   force =     0.35917868   -0.64679914    0.66495716
     atom   20 type  2   force =     0.19944819    0.62014251    0.20114525
     atom   21 type  2   force =     0.14475905    0.04709288    0.14462337
     atom   22 type  2   force =    -0.05107061   -0.53196468   -0.14137206
     atom   23 type  2   force =     0.66916882   -0.64660717    0.36956035
     atom   24 type  2   force =     0.03930152    0.16424316    0.16424439
     atom   25 type  2   force =    -0.08893977    0.05469310    0.05469584
     atom   26 type  2   force =    -0.05548883    0.22774180    0.22774344
     atom   27 type  2   force =    -1.31058061   -0.36710470   -0.36710606
     atom   28 type  2   force =     0.02167721    0.19633842   -0.13819975
     atom   29 type  2   force =     0.16081488   -0.02340804   -0.23485670
     atom   30 type  2   force =     0.02167662   -0.13820239    0.19634336
     atom   31 type  2   force =     0.16081846   -0.23485244   -0.02340367
     atom   32 type  2   force =     0.65508900   -0.23247654   -0.23247862
     atom   33 type  2   force =     0.21233245   -0.10749176   -0.10748941
     atom   34 type  2   force =     0.62132962    0.20135805    0.20136236
     atom   35 type  2   force =     0.04890200    0.14469065    0.14469682
     atom   36 type  2   force =    -0.50573659   -0.16641485   -0.05407426
     atom   37 type  2   force =    -0.64668897    0.36135171    0.66496063
     atom   38 type  2   force =    -0.50573450   -0.05407630   -0.16641481
     atom   39 type  2   force =    -0.64668260    0.66495985    0.36135284
     atom   40 type  2   force =     0.16626319    0.04117905    0.16290974
     atom   41 type  2   force =     0.05849806   -0.08456036    0.05559054
     atom   42 type  2   force =     0.20121737    0.02471644   -0.13805321
     atom   43 type  2   force =    -0.01358154    0.15676064   -0.23506136
     atom   44 type  2   force =     0.20869822   -0.05787816    0.20389677
     atom   45 type  2   force =    -0.37551176   -1.23147280   -0.37991703
     atom   46 type  2   force =    -0.13630257    0.02297633    0.19924514
     atom   47 type  2   force =    -0.23504028    0.15663870   -0.01518953
     atom   48 type  2   force =     0.16625910    0.16290478    0.04117176
     atom   49 type  2   force =     0.05850330    0.05559343   -0.08456079
     atom   50 type  2   force =     0.20122369   -0.13804881    0.02471635
     atom   51 type  2   force =    -0.01357683   -0.23505555    0.15676213
     atom   52 type  2   force =    -0.13629673    0.19924406    0.02297696
     atom   53 type  2   force =    -0.23503922   -0.01519016    0.15663748
     atom   54 type  2   force =     0.20870106    0.20389968   -0.05787697
     atom   55 type  2   force =    -0.37551436   -0.37991782   -1.23147272
     atom   56 type  2   force =     0.09370093    0.09224113    0.09224798
     atom   57 type  2   force =     0.01740221    0.01470717    0.01470976
     atom   58 type  2   force =     0.12703279    0.00015292    0.00015092
     atom   59 type  2   force =     0.30930734   -0.11301654   -0.11301989
     atom   60 type  2   force =     0.00476119    0.12135887    0.00316775
     atom   61 type  2   force =    -0.10873368    0.30903253   -0.11352336
     atom   62 type  2   force =     0.00476289    0.00317191    0.12136105
     atom   63 type  2   force =    -0.10873702   -0.11352234    0.30903171
     The core correction contribution to forces
     atom    1 type  1   force =     0.00000000    0.00000000    0.00000000
     atom    2 type  2   force =     0.00000000    0.00000000    0.00000000
     atom    3 type  2   force =     0.00000000    0.00000000    0.00000000
     atom    4 type  2   force =     0.00000000    0.00000000    0.00000000
     atom    5 type  2   force =     0.00000000    0.00000000    0.00000000
     atom    6 type  2   force =     0.00000000    0.00000000    0.00000000
     atom    7 type  2   force =     0.00000000    0.00000000    0.00000000
     atom    8 type  2   force =     0.00000000    0.00000000    0.00000000
     atom    9 type  2   force =     0.00000000    0.00000000    0.00000000
     atom   10 type  2   force =     0.00000000    0.00000000    0.00000000
     atom   11 type  2   force =     0.00000000    0.00000000    0.00000000
     atom   12 type  2   force =     0.00000000    0.00000000    0.00000000
     atom   13 type  2   force =     0.00000000    0.00000000    0.00000000
     atom   14 type  2   force =     0.00000000    0.00000000    0.00000000
     atom   15 type  2   force =     0.00000000    0.00000000    0.00000000
     atom   16 type  2   force =     0.00000000    0.00000000    0.00000000
     atom   17 type  2   force =     0.00000000    0.00000000    0.00000000
     atom   18 type  2   force =     0.00000000    0.00000000    0.00000000
     atom   19 type  2   force =     0.00000000    0.00000000    0.00000000
     atom   20 type  2   force =     0.00000000    0.00000000    0.00000000
     atom   21 type  2   force =     0.00000000    0.00000000    0.00000000
     atom   22 type  2   force =     0.00000000    0.00000000    0.00000000
     atom   23 type  2   force =     0.00000000    0.00000000    0.00000000
     atom   24 type  2   force =     0.00000000    0.00000000    0.00000000
     atom   25 type  2   force =     0.00000000    0.00000000    0.00000000
     atom   26 type  2   force =     0.00000000    0.00000000    0.00000000
     atom   27 type  2   force =     0.00000000    0.00000000    0.00000000
     atom   28 type  2   force =     0.00000000    0.00000000    0.00000000
     atom   29 type  2   force =     0.00000000    0.00000000    0.00000000
     atom   30 type  2   force =     0.00000000    0.00000000    0.00000000
     atom   31 type  2   force =     0.00000000    0.00000000    0.00000000
     atom   32 type  2   force =     0.00000000    0.00000000    0.00000000
     atom   33 type  2   force =     0.00000000    0.00000000    0.00000000
     atom   34 type  2   force =     0.00000000    0.00000000    0.00000000
     atom   35 type  2   force =     0.00000000    0.00000000    0.00000000
     atom   36 type  2   force =     0.00000000    0.00000000    0.00000000
     atom   37 type  2   force =     0.00000000    0.00000000    0.00000000
     atom   38 type  2   force =     0.00000000    0.00000000    0.00000000
     atom   39 type  2   force =     0.00000000    0.00000000    0.00000000
     atom   40 type  2   force =     0.00000000    0.00000000    0.00000000
     atom   41 type  2   force =     0.00000000    0.00000000    0.00000000
     atom   42 type  2   force =     0.00000000    0.00000000    0.00000000
     atom   43 type  2   force =     0.00000000    0.00000000    0.00000000
     atom   44 type  2   force =     0.00000000    0.00000000    0.00000000
     atom   45 type  2   force =     0.00000000    0.00000000    0.00000000
     atom   46 type  2   force =     0.00000000    0.00000000    0.00000000
     atom   47 type  2   force =     0.00000000    0.00000000    0.00000000
     atom   48 type  2   force =     0.00000000    0.00000000    0.00000000
     atom   49 type  2   force =     0.00000000    0.00000000    0.00000000
     atom   50 type  2   force =     0.00000000    0.00000000    0.00000000
     atom   51 type  2   force =     0.00000000    0.00000000    0.00000000
     atom   52 type  2   force =     0.00000000    0.00000000    0.00000000
     atom   53 type  2   force =     0.00000000    0.00000000    0.00000000
     atom   54 type  2   force =     0.00000000    0.00000000    0.00000000
     atom   55 type  2   force =     0.00000000    0.00000000    0.00000000
     atom   56 type  2   force =     0.00000000    0.00000000    0.00000000
     atom   57 type  2   force =     0.00000000    0.00000000    0.00000000
     atom   58 type  2   force =     0.00000000    0.00000000    0.00000000
     atom   59 type  2   force =     0.00000000    0.00000000    0.00000000
     atom   60 type  2   force =     0.00000000    0.00000000    0.00000000
     atom   61 type  2   force =     0.00000000    0.00000000    0.00000000
     atom   62 type  2   force =     0.00000000    0.00000000    0.00000000
     atom   63 type  2   force =     0.00000000    0.00000000    0.00000000
     The Hubbard contrib.    to forces
     atom    1 type  1   force =     0.00000000    0.00000000    0.00000000
     atom    2 type  2   force =     0.00000000    0.00000000    0.00000000
     atom    3 type  2   force =     0.00000000    0.00000000    0.00000000
     atom    4 type  2   force =     0.00000000    0.00000000    0.00000000
     atom    5 type  2   force =     0.00000000    0.00000000    0.00000000
     atom    6 type  2   force =     0.00000000    0.00000000    0.00000000
     atom    7 type  2   force =     0.00000000    0.00000000    0.00000000
     atom    8 type  2   force =     0.00000000    0.00000000    0.00000000
     atom    9 type  2   force =     0.00000000    0.00000000    0.00000000
     atom   10 type  2   force =     0.00000000    0.00000000    0.00000000
     atom   11 type  2   force =     0.00000000    0.00000000    0.00000000
     atom   12 type  2   force =     0.00000000    0.00000000    0.00000000
     atom   13 type  2   force =     0.00000000    0.00000000    0.00000000
     atom   14 type  2   force =     0.00000000    0.00000000    0.00000000
     atom   15 type  2   force =     0.00000000    0.00000000    0.00000000
     atom   16 type  2   force =     0.00000000    0.00000000    0.00000000
     atom   17 type  2   force =     0.00000000    0.00000000    0.00000000
     atom   18 type  2   force =     0.00000000    0.00000000    0.00000000
     atom   19 type  2   force =     0.00000000    0.00000000    0.00000000
     atom   20 type  2   force =     0.00000000    0.00000000    0.00000000
     atom   21 type  2   force =     0.00000000    0.00000000    0.00000000
     atom   22 type  2   force =     0.00000000    0.00000000    0.00000000
     atom   23 type  2   force =     0.00000000    0.00000000    0.00000000
     atom   24 type  2   force =     0.00000000    0.00000000    0.00000000
     atom   25 type  2   force =     0.00000000    0.00000000    0.00000000
     atom   26 type  2   force =     0.00000000    0.00000000    0.00000000
     atom   27 type  2   force =     0.00000000    0.00000000    0.00000000
     atom   28 type  2   force =     0.00000000    0.00000000    0.00000000
     atom   29 type  2   force =     0.00000000    0.00000000    0.00000000
     atom   30 type  2   force =     0.00000000    0.00000000    0.00000000
     atom   31 type  2   force =     0.00000000    0.00000000    0.00000000
     atom   32 type  2   force =     0.00000000    0.00000000    0.00000000
     atom   33 type  2   force =     0.00000000    0.00000000    0.00000000
     atom   34 type  2   force =     0.00000000    0.00000000    0.00000000
     atom   35 type  2   force =     0.00000000    0.00000000    0.00000000
     atom   36 type  2   force =     0.00000000    0.00000000    0.00000000
     atom   37 type  2   force =     0.00000000    0.00000000    0.00000000
     atom   38 type  2   force =     0.00000000    0.00000000    0.00000000
     atom   39 type  2   force =     0.00000000    0.00000000    0.00000000
     atom   40 type  2   force =     0.00000000    0.00000000    0.00000000
     atom   41 type  2   force =     0.00000000    0.00000000    0.00000000
     atom   42 type  2   force =     0.00000000    0.00000000    0.00000000
     atom   43 type  2   force =     0.00000000    0.00000000    0.00000000
     atom   44 type  2   force =     0.00000000    0.00000000    0.00000000
     atom   45 type  2   force =     0.00000000    0.00000000    0.00000000
     atom   46 type  2   force =     0.00000000    0.00000000    0.00000000
     atom   47 type  2   force =     0.00000000    0.00000000    0.00000000
     atom   48 type  2   force =     0.00000000    0.00000000    0.00000000
     atom   49 type  2   force =     0.00000000    0.00000000    0.00000000
     atom   50 type  2   force =     0.00000000    0.00000000    0.00000000
     atom   51 type  2   force =     0.00000000    0.00000000    0.00000000
     atom   52 type  2   force =     0.00000000    0.00000000    0.00000000
     atom   53 type  2   force =     0.00000000    0.00000000    0.00000000
     atom   54 type  2   force =     0.00000000    0.00000000    0.00000000
     atom   55 type  2   force =     0.00000000    0.00000000    0.00000000
     atom   56 type  2   force =     0.00000000    0.00000000    0.00000000
     atom   57 type  2   force =     0.00000000    0.00000000    0.00000000
     atom   58 type  2   force =     0.00000000    0.00000000    0.00000000
     atom   59 type  2   force =     0.00000000    0.00000000    0.00000000
     atom   60 type  2   force =     0.00000000    0.00000000    0.00000000
     atom   61 type  2   force =     0.00000000    0.00000000    0.00000000
     atom   62 type  2   force =     0.00000000    0.00000000    0.00000000
     atom   63 type  2   force =     0.00000000    0.00000000    0.00000000
     The SCF correction term to forces
     atom    1 type  1   force =     0.00001077   -0.00002919   -0.00002644
     atom    2 type  2   force =     0.00000681    0.00000042    0.00000552
     atom    3 type  2   force =    -0.00000010    0.00001809    0.00001970
     atom    4 type  2   force =    -0.00001668   -0.00002750    0.00000458
     atom    5 type  2   force =    -0.00001368   -0.00001168    0.00001739
     atom    6 type  2   force =    -0.00001359    0.00000448   -0.00002016
     atom    7 type  2   force =    -0.00000637    0.00002367   -0.00000660
     atom    8 type  2   force =     0.00000741   -0.00002408    0.00001589
     atom    9 type  2   force =    -0.00000348   -0.00001184    0.00001141
     atom   10 type  2   force =     0.00000372    0.00000732   -0.00000351
     atom   11 type  2   force =    -0.00000740    0.00001681   -0.00002198
     atom   12 type  2   force =    -0.00001001   -0.00002463   -0.00000468
     atom   13 type  2   force =    -0.00001258   -0.00001587   -0.00001903
     atom   14 type  2   force =    -0.00001096    0.00000672    0.00001832
     atom   15 type  2   force =    -0.00001191    0.00002221    0.00000596
     atom   16 type  2   force =     0.00000182    0.00001949   -0.00002501
     atom   17 type  2   force =     0.00000213    0.00001907   -0.00000815
     atom   18 type  2   force =     0.00000959   -0.00000077    0.00000913
     atom   19 type  2   force =    -0.00000141   -0.00002065    0.00001452
     atom   20 type  2   force =    -0.00000337    0.00002539    0.00000916
     atom   21 type  2   force =    -0.00001028    0.00001135    0.00001573
     atom   22 type  2   force =    -0.00000583   -0.00000180   -0.00001732
     atom   23 type  2   force =    -0.00001595   -0.00002500   -0.00001001
     atom   24 type  2   force =     0.00000732    0.00002342    0.00002209
     atom   25 type  2   force =    -0.00000211    0.00001292    0.00000864
     atom   26 type  2   force =     0.00000712   -0.00000569   -0.00000675
     atom   27 type  2   force =     0.00000508   -0.00002275   -0.00002027
     atom   28 type  2   force =    -0.00001185    0.00002304   -0.00000740
     atom   29 type  2   force =    -0.00000814    0.00001694   -0.00001569
     atom   30 type  2   force =    -0.00001131   -0.00000524    0.00001592
     atom   31 type  2   force =    -0.00001235   -0.00002175    0.00001222
     atom   32 type  2   force =    -0.00000806   -0.00002576   -0.00002119
     atom   33 type  2   force =     0.00000693   -0.00000790   -0.00001044
     atom   34 type  2   force =    -0.00000318    0.00001077    0.00000616
     atom   35 type  2   force =    -0.00000104    0.00002133    0.00001512
     atom   36 type  2   force =     0.00001331   -0.00002054    0.00000647
     atom   37 type  2   force =     0.00001253   -0.00001355    0.00001450
     atom   38 type  2   force =     0.00001120    0.00000821   -0.00002121
     atom   39 type  2   force =     0.00000582    0.00001458   -0.00001426
     atom   40 type  2   force =    -0.00000598   -0.00002350    0.00002047
     atom   41 type  2   force =     0.00000425   -0.00001216    0.00001139
     atom   42 type  2   force =    -0.00000310    0.00000468   -0.00000485
     atom   43 type  2   force =     0.00000990    0.00002209   -0.00001505
     atom   44 type  2   force =     0.00000982   -0.00002052   -0.00000463
     atom   45 type  2   force =     0.00000709   -0.00000363   -0.00002119
     atom   46 type  2   force =     0.00000968    0.00000507    0.00001878
     atom   47 type  2   force =     0.00001176    0.00002002    0.00001634
     atom   48 type  2   force =    -0.00000152    0.00002547   -0.00001615
     atom   49 type  2   force =    -0.00000204    0.00000963   -0.00001119
     atom   50 type  2   force =    -0.00001012   -0.00000993    0.00000338
     atom   51 type  2   force =     0.00000448   -0.00002257    0.00001840
     atom   52 type  2   force =     0.00000348    0.00002110    0.00000358
     atom   53 type  2   force =     0.00001078    0.00001633    0.00002026
     atom   54 type  2   force =     0.00000614   -0.00000845   -0.00002059
     atom   55 type  2   force =     0.00000958   -0.00002137   -0.00000425
     atom   56 type  2   force =    -0.00000695    0.00002442    0.00001614
     atom   57 type  2   force =     0.00000283    0.00001269    0.00001099
     atom   58 type  2   force =    -0.00000548   -0.00000636   -0.00000417
     atom   59 type  2   force =    -0.00000009   -0.00002258   -0.00001896
     atom   60 type  2   force =     0.00001060    0.00002186   -0.00000228
     atom   61 type  2   force =     0.00000731    0.00000812   -0.00002061
     atom   62 type  2   force =     0.00000961   -0.00000644    0.00002018
     atom   63 type  2   force =     0.00001130   -0.00002126    0.00000832

     Total force =     0.022636     Total SCF correction =     0.000195

     Writing all to output data dir ./pwscf.save/ :
     XML data file, charge density, pseudopotentials, collected wavefunctions
 
     init_run     :      0.57s CPU      0.61s WALL (       1 calls)
     electrons    :     17.06s CPU     18.00s WALL (       1 calls)
     forces       :      0.24s CPU      0.24s WALL (       1 calls)

     Called by init_run:
     wfcinit      :      0.09s CPU      0.11s WALL (       1 calls)
     wfcinit:wfcr :      0.08s CPU      0.09s WALL (       1 calls)
     potinit      :      0.38s CPU      0.39s WALL (       1 calls)
     hinit0       :      0.03s CPU      0.03s WALL (       1 calls)

     Called by electrons:
     c_bands      :     13.49s CPU     14.39s WALL (      14 calls)
     sum_band     :      1.54s CPU      1.55s WALL (      14 calls)
     v_of_rho     :      0.60s CPU      0.61s WALL (      15 calls)
     v_h          :      0.02s CPU      0.02s WALL (      15 calls)
     v_xc         :      0.58s CPU      0.59s WALL (      15 calls)
     mix_rho      :      0.24s CPU      0.24s WALL (      14 calls)

     Called by c_bands:
     init_us_2    :      0.02s CPU      0.02s WALL (      30 calls)
     regterg      :      9.37s CPU     10.24s WALL (      14 calls)

     Called by sum_band:
     sum_band:wei :      0.04s CPU      0.04s WALL (      14 calls)
     sum_band:loo :      0.31s CPU      0.32s WALL (      14 calls)
     sum_band:buf :      0.00s CPU      0.00s WALL (      14 calls)
     sum_band:ini :      0.01s CPU      0.01s WALL (      14 calls)

     Called by *egterg:
     rdiaghg      :      4.83s CPU      5.63s WALL (     279 calls)
     regterg:over :      0.60s CPU      0.61s WALL (     265 calls)
     regterg:upda :      0.31s CPU      0.33s WALL (     265 calls)
     regterg:last :      0.38s CPU      0.39s WALL (      53 calls)
     rdiaghg:chol :      0.15s CPU      0.15s WALL (     279 calls)
     rdiaghg:inve :      0.03s CPU      0.03s WALL (     279 calls)
     rdiaghg:para :      0.38s CPU      0.40s WALL (     558 calls)
     h_psi        :      3.09s CPU      3.14s WALL (     280 calls)
     g_psi        :      0.00s CPU      0.00s WALL (     265 calls)

     Called by h_psi:
     h_psi:calbec :      0.72s CPU      0.73s WALL (     280 calls)
     vloc_psi     :      2.26s CPU      2.29s WALL (     280 calls)
                                        0.00s GPU  (     280 calls)
     add_vuspsi   :      0.11s CPU      0.11s WALL (     280 calls)

     General routines
     calbec       :      0.74s CPU      0.74s WALL (     284 calls)
     fft          :      0.38s CPU      0.40s WALL (     196 calls)
     ffts         :      0.02s CPU      0.02s WALL (      14 calls)
     fftw         :      2.46s CPU      2.49s WALL (   10258 calls)
 
     Parallel routines
 
     PWSCF        :     33.62s CPU     34.88s WALL

 
   This run was terminated on:  13:56:45  19Nov2025            

=------------------------------------------------------------------------------=
   JOB DONE.
=------------------------------------------------------------------------------=
