
     Program PWSCF v.7.5 starts on  4Dec2025 at 23:26:16 

     This program is part of the open-source Quantum ESPRESSO suite
     for quantum simulation of materials; please cite
         "P. Giannozzi et al., J. Phys.:Condens. Matter 21 395502 (2009);
         "P. Giannozzi et al., J. Phys.:Condens. Matter 29 465901 (2017);
         "P. Giannozzi et al., J. Chem. Phys. 152 154105 (2020);
          URL http://www.quantum-espresso.org", 
     in publications or presentations arising from this work. More details at
     http://www.quantum-espresso.org/quote

     Parallel version (MPI), running on    96 processors

     MPI processes distributed on     2 nodes
     152033 MiB available memory on the printing compute node when the environment starts
 
     Reading input from pw.in

     Current dimensions of program PWSCF are:
     Max number of different atomic species (ntypx) = 10
     Max number of k-points (npk) =  40000
     Max angular momentum in pseudopotentials (lmaxx) =  4

     gamma-point specific algorithms are used
     Message from routine setup:
     using ibrav=0 with symmetry is DISCOURAGED, use correct ibrav instead
 
     K-points division:     npool     =       2
     R & G space division:  proc/nbgrp/npool/nimage =      48
     Subspace diagonalization in iterative solution of the eigenvalue problem:
     one sub-group per band group will be used
     scalapack distributed-memory algorithm (size of sub-group:  6*  6 procs)

 
     Parallelization info
     --------------------
     sticks:   dense  smooth     PW     G-vecs:    dense   smooth      PW
     Min         384     384     96                39496    39496    4936
     Max         386     386     98                39521    39521    4949
     Sum       18505   18505   4637              1896521  1896521  237129
 
     Using Slab Decomposition
 


     bravais-lattice index     =            0
     lattice parameter (alat)  =      26.9702  a.u.
     unit-cell volume          =   19617.8366 (a.u.)^3
     number of atoms/cell      =          511
     number of atomic types    =            2
     number of electrons       =      2046.00 (up:1024.00, down:1022.00)
     number of Kohn-Sham states=         1032
     kinetic-energy cutoff     =      80.0000  Ry
     charge density cutoff     =     320.0000  Ry
     scf convergence threshold =      1.0E-10
     mixing beta               =       0.7000
     number of iterations used =            8  plain     mixing
     Exchange-correlation= PBE
                           (   1   4   3   4   0   0   0)

     celldm(1)=  26.970171  celldm(2)=   0.000000  celldm(3)=   0.000000
     celldm(4)=   0.000000  celldm(5)=   0.000000  celldm(6)=   0.000000

     crystal axes: (cart. coord. in units of alat)
               a(1) = (   1.000000   0.000000   0.000000 )  
               a(2) = (   0.000000   1.000000   0.000000 )  
               a(3) = (   0.000000   0.000000   1.000000 )  

     reciprocal axes: (cart. coord. in units 2 pi/alat)
               b(1) = (  1.000000  0.000000  0.000000 )  
               b(2) = (  0.000000  1.000000  0.000000 )  
               b(3) = (  0.000000  0.000000  1.000000 )  


     PseudoPot. # 1 for C  read from file:
     ./C_ONCV_PBE-1.2.upf
     MD5 check sum: d60b57d9bdca4133f5fde4b584ee909d
     Pseudo is Norm-conserving, Zval =  4.0
     Generated using ONCVPSP code by D. R. Hamann
     Using radial grid of  602 points,  4 beta functions with: 
                l(1) =   0
                l(2) =   0
                l(3) =   1
                l(4) =   1

     PseudoPot. # 2 for N  read from file:
     ./N_ONCV_PBE-1.2.upf
     MD5 check sum: 5312fdf34e96954e02a33bdc911c617a
     Pseudo is Norm-conserving, Zval =  5.0
     Generated using ONCVPSP code by D. R. Hamann
     Using radial grid of  602 points,  4 beta functions with: 
                l(1) =   0
                l(2) =   0
                l(3) =   1
                l(4) =   1

     atomic species   valence    mass     pseudopotential
     C                 4.00    12.01100     C ( 1.00)
     N                 5.00    14.00670     N ( 1.00)

     Starting magnetic structure 
     atomic species   magnetization
     C               0.000
     N               0.000

      2 Sym. Ops. (no inversion) found


                                    s                        frac. trans.

      isym =  1     identity                                     

 cryst.   s( 1) = (     1          0          0      )
                  (     0          1          0      )
                  (     0          0          1      )

 cart.    s( 1) = (  1.0000000  0.0000000  0.0000000 )
                  (  0.0000000  1.0000000  0.0000000 )
                  (  0.0000000  0.0000000  1.0000000 )


      isym =  2     inv. 180 deg rotation - cart. axis [0,1,-1]  

 cryst.   s( 2) = (     1          0          0      )
                  (     0          0          1      )
                  (     0          1          0      )

 cart.    s( 2) = (  1.0000000  0.0000000  0.0000000 )
                  (  0.0000000  0.0000000  1.0000000 )
                  (  0.0000000  1.0000000  0.0000000 )


   Cartesian axes

     site n.     atom                  positions (alat units)
         1        C      tau(   1) = (   0.0000014   0.0000031   0.0000080  )
         2        C      tau(   2) = (  -0.0000531  -0.0000397   0.2500154  )
         3        C      tau(   3) = (  -0.0000285  -0.0000112   0.5000073  )
         4        C      tau(   4) = (   0.0000559   0.0000468   0.7499967  )
         5        C      tau(   5) = (  -0.0000533   0.2500106  -0.0000346  )
         6        C      tau(   6) = (  -0.0000832   0.2499743   0.2499793  )
         7        C      tau(   7) = (  -0.0001191   0.2500423   0.4999839  )
         8        C      tau(   8) = (  -0.0000874   0.2500470   0.7499596  )
         9        C      tau(   9) = (  -0.0000285   0.5000024  -0.0000054  )
        10        C      tau(  10) = (  -0.0001192   0.4999787   0.2500479  )
        11        C      tau(  11) = (  -0.0000238   0.4999997   0.5000052  )
        12        C      tau(  12) = (   0.0000659   0.5000229   0.7499754  )
        13        C      tau(  13) = (   0.0000560   0.7499919   0.0000524  )
        14        C      tau(  14) = (  -0.0000873   0.7499542   0.2500526  )
        15        C      tau(  15) = (   0.0000658   0.7499699   0.5000282  )
        16        C      tau(  16) = (   0.0002135   0.7500379   0.7500432  )
        17        C      tau(  17) = (   0.2500024  -0.0000521  -0.0000460  )
        18        C      tau(  18) = (   0.2499501  -0.0000659   0.2499613  )
        19        C      tau(  19) = (   0.2500270  -0.0001230   0.4999742  )
        20        C      tau(  20) = (   0.2500452  -0.0001064   0.7499548  )
        21        C      tau(  21) = (   0.2499496   0.2499550  -0.0000594  )
        22        C      tau(  22) = (   0.2499859   0.2500023   0.2500085  )
        23        C      tau(  23) = (   0.2495096   0.2494916   0.5000198  )
        24        C      tau(  24) = (   0.2499891   0.2499689   0.7499276  )
        25        C      tau(  25) = (   0.2500271   0.4999684  -0.0001166  )
        26        C      tau(  26) = (   0.2495097   0.5000130   0.2494982  )
        27        C      tau(  27) = (   0.2504263   0.4998012   0.4998083  )
        28        C      tau(  28) = (   0.2499219   0.4998096   0.7500527  )
        29        C      tau(  29) = (   0.2500456   0.7499485  -0.0000987  )
        30        C      tau(  30) = (   0.2499899   0.7499202   0.2499766  )
        31        C      tau(  31) = (   0.2499218   0.7500458   0.4998165  )
        32        C      tau(  32) = (   0.2503734   0.7497329   0.7497400  )
        33        C      tau(  33) = (   0.4999962  -0.0000123  -0.0000062  )
        34        C      tau(  34) = (   0.4999655  -0.0001010   0.2500336  )
        35        C      tau(  35) = (   0.4999972  -0.0000368   0.5000054  )
        36        C      tau(  36) = (   0.5000285   0.0000391   0.7499893  )
        37        C      tau(  37) = (   0.4999653   0.2500280  -0.0000954  )
        38        C      tau(  38) = (   0.4999429   0.2495520   0.2495579  )
        39        C      tau(  39) = (   0.4997976   0.2502915   0.4998513  )
        40        C      tau(  40) = (   0.4998361   0.2498042   0.7501540  )
        41        C      tau(  41) = (   0.4999973   0.5000000  -0.0000311  )
        42        C      tau(  42) = (   0.4997979   0.4998444   0.2502983  )
        43        C      tau(  43) = (   0.5001331   0.5000952   0.7495825  )
        44        C      tau(  44) = (   0.5000288   0.7499834   0.0000457  )
        45        C      tau(  45) = (   0.4998367   0.7501479   0.2498104  )
        46        C      tau(  46) = (   0.5001334   0.7495763   0.5001016  )
        47        C      tau(  47) = (   0.5003352   0.7504023   0.7504083  )
        48        C      tau(  48) = (   0.7499939   0.0000585   0.0000632  )
        49        C      tau(  49) = (   0.7499475  -0.0000663   0.2500589  )
        50        C      tau(  50) = (   0.7499783   0.0000627   0.5000378  )
        51        C      tau(  51) = (   0.7500535   0.0001952   0.7500593  )
        52        C      tau(  52) = (   0.7499474   0.2500543  -0.0000615  )
        53        C      tau(  53) = (   0.7498899   0.2500061   0.2500111  )
        54        C      tau(  54) = (   0.7499935   0.2499381   0.4998959  )
        55        C      tau(  55) = (   0.7497627   0.2503436   0.7497889  )
        56        C      tau(  56) = (   0.7499783   0.5000332   0.0000677  )
        57        C      tau(  57) = (   0.7499934   0.4998899   0.2499444  )
        58        C      tau(  58) = (   0.7495382   0.5001373   0.5001437  )
        59        C      tau(  59) = (   0.7504187   0.5003283   0.7504417  )
        60        C      tau(  60) = (   0.7500536   0.7500545   0.0002002  )
        61        C      tau(  61) = (   0.7497623   0.7497830   0.2503497  )
        62        C      tau(  62) = (   0.7504186   0.7504361   0.5003339  )
        63        C      tau(  63) = (   0.7502820   0.7502781   0.7502831  )
        64        C      tau(  64) = (  -0.0000463   0.1249866   0.1249914  )
        65        C      tau(  65) = (  -0.0000757   0.1249733   0.3749859  )
        66        C      tau(  66) = (  -0.0000892   0.1250602   0.6249919  )
        67        C      tau(  67) = (  -0.0000264   0.1250368   0.8749719  )
        68        C      tau(  68) = (  -0.0000759   0.3749810   0.1249786  )
        69        C      tau(  69) = (  -0.0001185   0.3750086   0.3750140  )
        70        C      tau(  70) = (  -0.0000510   0.3750397   0.6249638  )
        71        C      tau(  71) = (  -0.0000454   0.3750186   0.8749608  )
        72        C      tau(  72) = (  -0.0000891   0.6249867   0.1250661  )
        73        C      tau(  73) = (  -0.0000511   0.6249583   0.3750453  )
        74        C      tau(  74) = (   0.0001201   0.6250007   0.6250063  )
        75        C      tau(  75) = (   0.0001423   0.6250239   0.8750360  )
        76        C      tau(  76) = (  -0.0000262   0.8749669   0.1250420  )
        77        C      tau(  77) = (  -0.0000452   0.8749552   0.3750238  )
        78        C      tau(  78) = (   0.0001423   0.8750303   0.6250289  )
        79        C      tau(  79) = (   0.0001097   0.8750207   0.8750258  )
        80        C      tau(  80) = (   0.2499604   0.1249642   0.1249701  )
        81        C      tau(  81) = (   0.2499520   0.1248945   0.3749641  )
        82        C      tau(  82) = (   0.2499127   0.1248588   0.6249741  )
        83        C      tau(  83) = (   0.2499872   0.1249560   0.8749487  )
        84        C      tau(  84) = (   0.2499521   0.3749582   0.1249005  )
        85        C      tau(  85) = (   0.2501453   0.3750799   0.3750866  )
        86        C      tau(  86) = (   0.2499639   0.3748581   0.6248826  )
        87        C      tau(  87) = (   0.2499643   0.3749529   0.8749621  )
        88        C      tau(  88) = (   0.2499134   0.6249672   0.1248665  )
        89        C      tau(  89) = (   0.2499643   0.6248751   0.3748656  )
        90        C      tau(  90) = (   0.2505851   0.6245391   0.6245460  )
        91        C      tau(  91) = (   0.2503057   0.6249231   0.8747167  )
        92        C      tau(  92) = (   0.2499878   0.8749422   0.1249631  )
        93        C      tau(  93) = (   0.2499648   0.8749550   0.3749598  )
        94        C      tau(  94) = (   0.2503057   0.8747094   0.6249295  )
        95        C      tau(  95) = (   0.2500973   0.8748957   0.8749024  )
        96        C      tau(  96) = (   0.4999754   0.1248264   0.1248318  )
        97        C      tau(  97) = (   0.4999277   0.1249757   0.3749736  )
        98        C      tau(  98) = (   0.4999287   0.1250753   0.6249162  )
        99        C      tau(  99) = (   0.4999528   0.1249372   0.8750519  )
       100        C      tau( 100) = (   0.4999278   0.3749680   0.1249814  )
       101        C      tau( 101) = (   0.5001597   0.3751400   0.3751469  )
       102        C      tau( 102) = (   0.4990675   0.3757242   0.6239017  )
       103        C      tau( 103) = (   0.4999896   0.3751305   0.8747963  )
       104        C      tau( 104) = (   0.4999294   0.6249096   0.1250821  )
       105        C      tau( 105) = (   0.4990678   0.6238955   0.3757306  )
       106        C      tau( 106) = (   0.5028496   0.6247697   0.6247759  )
       107        C      tau( 107) = (   0.5001307   0.6250211   0.8749788  )
       108        C      tau( 108) = (   0.4999532   0.8750456   0.1249437  )
       109        C      tau( 109) = (   0.4999899   0.8747905   0.3751365  )
       110        C      tau( 110) = (   0.5001307   0.8749728   0.6250267  )
       111        C      tau( 111) = (   0.5001012   0.8751344   0.8751403  )
       112        C      tau( 112) = (   0.7499501   0.1250016   0.1250062  )
       113        C      tau( 113) = (   0.7499523   0.1249751   0.3749941  )
       114        C      tau( 114) = (   0.7498694   0.1251787   0.6249496  )
       115        C      tau( 115) = (   0.7499471   0.1251723   0.8749389  )
       116        C      tau( 116) = (   0.7499522   0.3749893   0.1249802  )
       117        C      tau( 117) = (   0.7498202   0.3750117   0.3750176  )
       118        C      tau( 118) = (   0.7491688   0.3757960   0.6248214  )
       119        C      tau( 119) = (   0.7499048   0.3751310   0.8749114  )
       120        C      tau( 120) = (   0.7498694   0.6249444   0.1251843  )
       121        C      tau( 121) = (   0.7491690   0.6248153   0.3758022  )
       122        C      tau( 122) = (   0.7505664   0.6254400   0.6254459  )
       123        C      tau( 123) = (   0.7502214   0.6251752   0.8752927  )
       124        C      tau( 124) = (   0.7499471   0.8749339   0.1251774  )
       125        C      tau( 125) = (   0.7499047   0.8749063   0.3751361  )
       126        C      tau( 126) = (   0.7502212   0.8752876   0.6251799  )
       127        C      tau( 127) = (   0.7501076   0.8751542   0.8751590  )
       128        C      tau( 128) = (   0.1249740  -0.0000371   0.1249840  )
       129        C      tau( 129) = (   0.1249479  -0.0000620   0.3749784  )
       130        C      tau( 130) = (   0.1250554  -0.0000949   0.6249863  )
       131        C      tau( 131) = (   0.1250379  -0.0000339   0.8749653  )
       132        C      tau( 132) = (   0.1249517   0.2499769   0.1249752  )
       133        C      tau( 133) = (   0.1249035   0.2499767   0.3749693  )
       134        C      tau( 134) = (   0.1248846   0.2499162   0.6249688  )
       135        C      tau( 135) = (   0.1249649   0.2499877   0.8749463  )
       136        C      tau( 136) = (   0.1247937   0.4999945   0.1248051  )
       137        C      tau( 137) = (   0.1250046   0.4999463   0.3749719  )
       138        C      tau( 138) = (   0.1251405   0.4999172   0.6248796  )
       139        C      tau( 139) = (   0.1249741   0.4999491   0.8750106  )
       140        C      tau( 140) = (   0.1249860   0.7499576   0.1249863  )
       141        C      tau( 141) = (   0.1249625   0.7499682   0.3749713  )
       142        C      tau( 142) = (   0.1252140   0.7498406   0.6249155  )
       143        C      tau( 143) = (   0.1251831   0.7499332   0.8749090  )
       144        C      tau( 144) = (   0.3749657  -0.0000553   0.1249566  )
       145        C      tau( 145) = (   0.3749909  -0.0001142   0.3749983  )
       146        C      tau( 146) = (   0.3750363  -0.0000729   0.6249647  )
       147        C      tau( 147) = (   0.3750159  -0.0000603   0.8749613  )
       148        C      tau( 148) = (   0.3749392   0.2499651   0.1249068  )
       149        C      tau( 149) = (   0.3750298   0.2500719   0.3750763  )
       150        C      tau( 150) = (   0.3748801   0.2498738   0.6249260  )
       151        C      tau( 151) = (   0.3749619   0.2499408   0.8749808  )
       152        C      tau( 152) = (   0.3749524   0.4999505   0.1249684  )
       153        C      tau( 153) = (   0.3752482   0.5004360   0.3751316  )
       154        C      tau( 154) = (   0.3760602   0.4990294   0.6236836  )
       155        C      tau( 155) = (   0.3751520   0.4999736   0.8747748  )
       156        C      tau( 156) = (   0.3749689   0.7499943   0.1249249  )
       157        C      tau( 157) = (   0.3749951   0.7499066   0.3749377  )
       158        C      tau( 158) = (   0.3758218   0.7491694   0.6247555  )
       159        C      tau( 159) = (   0.3751387   0.7498870   0.8748758  )
       160        C      tau( 160) = (   0.6249812  -0.0000652   0.1250680  )
       161        C      tau( 161) = (   0.6249562  -0.0000445   0.3750454  )
       162        C      tau( 162) = (   0.6250133   0.0000978   0.6250210  )
       163        C      tau( 163) = (   0.6250313   0.0001278   0.8750534  )
       164        C      tau( 164) = (   0.6249428   0.2499384   0.1249078  )
       165        C      tau( 165) = (   0.6248343   0.2499418   0.3749094  )
       166        C      tau( 166) = (   0.6245805   0.2504542   0.6246433  )
       167        C      tau( 167) = (   0.6249419   0.2502830   0.8747627  )
       168        C      tau( 168) = (   0.6248844   0.4999484   0.1251008  )
       169        C      tau( 169) = (   0.6236475   0.4993112   0.3759051  )
       170        C      tau( 170) = (   0.6247788   0.5028506   0.6248464  )
       171        C      tau( 171) = (   0.6250336   0.5001207   0.8749950  )
       172        C      tau( 172) = (   0.6249324   0.7498899   0.1251670  )
       173        C      tau( 173) = (   0.6247808   0.7492301   0.3757846  )
       174        C      tau( 174) = (   0.6254356   0.7505810   0.6254354  )
       175        C      tau( 175) = (   0.6251777   0.7502165   0.8752869  )
       176        C      tau( 176) = (   0.8749614  -0.0000166   0.1250477  )
       177        C      tau( 177) = (   0.8749473  -0.0000272   0.3750295  )
       178        C      tau( 178) = (   0.8750427   0.0001343   0.6250361  )
       179        C      tau( 179) = (   0.8750290   0.0001037   0.8750338  )
       180        C      tau( 180) = (   0.8749279   0.2500041   0.1249895  )
       181        C      tau( 181) = (   0.8749218   0.2499928   0.3749914  )
       182        C      tau( 182) = (   0.8747180   0.2503025   0.6249570  )
       183        C      tau( 183) = (   0.8749107   0.2500965   0.8749272  )
       184        C      tau( 184) = (   0.8749841   0.4999715   0.1250059  )
       185        C      tau( 185) = (   0.8747546   0.5000023   0.3751633  )
       186        C      tau( 186) = (   0.8749740   0.5001263   0.6250379  )
       187        C      tau( 187) = (   0.8751442   0.5001006   0.8751495  )
       188        C      tau( 188) = (   0.8749219   0.7499534   0.1251781  )
       189        C      tau( 189) = (   0.8748857   0.7499066   0.3751385  )
       190        C      tau( 190) = (   0.8752912   0.7502149   0.6251770  )
       191        C      tau( 191) = (   0.8751613   0.7501012   0.8751556  )
       192        C      tau( 192) = (   0.1249737   0.1249786  -0.0000316  )
       193        C      tau( 193) = (   0.1249518   0.1249695   0.2499822  )
       194        C      tau( 194) = (   0.1247934   0.1247985   0.5000004  )
       195        C      tau( 195) = (   0.1249854   0.1249797   0.7499634  )
       196        C      tau( 196) = (   0.1249476   0.3749729  -0.0000559  )
       197        C      tau( 197) = (   0.1249035   0.3749635   0.2499827  )
       198        C      tau( 198) = (   0.1250046   0.3749656   0.4999525  )
       199        C      tau( 199) = (   0.1249620   0.3749648   0.7499748  )
       200        C      tau( 200) = (   0.1250557   0.6249807  -0.0000881  )
       201        C      tau( 201) = (   0.1248851   0.6249624   0.2499230  )
       202        C      tau( 202) = (   0.1251404   0.6248731   0.4999237  )
       203        C      tau( 203) = (   0.1252140   0.6249091   0.7498474  )
       204        C      tau( 204) = (   0.1250381   0.8749599  -0.0000280  )
       205        C      tau( 205) = (   0.1249655   0.8749403   0.2499937  )
       206        C      tau( 206) = (   0.1249745   0.8750039   0.4999551  )
       207        C      tau( 207) = (   0.1251831   0.8749024   0.7499390  )
       208        C      tau( 208) = (   0.3749654   0.1249501  -0.0000488  )
       209        C      tau( 209) = (   0.3749392   0.1249011   0.2499708  )
       210        C      tau( 210) = (   0.3749519   0.1249619   0.4999569  )
       211        C      tau( 211) = (   0.3749683   0.1249171   0.7500015  )
       212        C      tau( 212) = (   0.3749908   0.3749925  -0.0001083  )
       213        C      tau( 213) = (   0.3750299   0.3750695   0.2500787  )
       214        C      tau( 214) = (   0.3752480   0.3751249   0.5004427  )
       215        C      tau( 215) = (   0.3749947   0.3749308   0.7499132  )
       216        C      tau( 216) = (   0.3750367   0.6249586  -0.0000659  )
       217        C      tau( 217) = (   0.3748806   0.6249190   0.2498808  )
       218        C      tau( 218) = (   0.3760603   0.6236772   0.4990360  )
       219        C      tau( 219) = (   0.3758218   0.6247489   0.7491761  )
       220        C      tau( 220) = (   0.3750162   0.8749547  -0.0000529  )
       221        C      tau( 221) = (   0.3749625   0.8749737   0.2499480  )
       222        C      tau( 222) = (   0.3751520   0.8747685   0.4999798  )
       223        C      tau( 223) = (   0.3751387   0.8748687   0.7498934  )
       224        C      tau( 224) = (   0.6249812   0.1250630  -0.0000602  )
       225        C      tau( 225) = (   0.6249429   0.1249027   0.2499433  )
       226        C      tau( 226) = (   0.6248842   0.1250953   0.4999539  )
       227        C      tau( 227) = (   0.6249321   0.1251609   0.7498958  )
       228        C      tau( 228) = (   0.6249561   0.3750404  -0.0000394  )
       229        C      tau( 229) = (   0.6248343   0.3749036   0.2499477  )
       230        C      tau( 230) = (   0.6236470   0.3758987   0.4993177  )
       231        C      tau( 231) = (   0.6247805   0.3757787   0.7492359  )
       232        C      tau( 232) = (   0.6250135   0.6250160   0.0001032  )
       233        C      tau( 233) = (   0.6245807   0.6246366   0.2504610  )
       234        C      tau( 234) = (   0.6247790   0.6248405   0.5028566  )
       235        C      tau( 235) = (   0.6254356   0.6254295   0.7505871  )
       236        C      tau( 236) = (   0.6250314   0.8750481   0.0001333  )
       237        C      tau( 237) = (   0.6249421   0.8747573   0.2502885  )
       238        C      tau( 238) = (   0.6250335   0.8749896   0.5001260  )
       239        C      tau( 239) = (   0.6251777   0.8752816   0.7502215  )
       240        C      tau( 240) = (   0.8749613   0.1250431  -0.0000119  )
       241        C      tau( 241) = (   0.8749280   0.1249848   0.2500086  )
       242        C      tau( 242) = (   0.8749843   0.1250005   0.4999763  )
       243        C      tau( 243) = (   0.8749220   0.1251727   0.7499585  )
       244        C      tau( 244) = (   0.8749471   0.3750249  -0.0000222  )
       245        C      tau( 245) = (   0.8749217   0.3749863   0.2499981  )
       246        C      tau( 246) = (   0.8747547   0.3751573   0.5000081  )
       247        C      tau( 247) = (   0.8748860   0.3751329   0.7499121  )
       248        C      tau( 248) = (   0.8750428   0.6250315   0.0001395  )
       249        C      tau( 249) = (   0.8747176   0.6249513   0.2503086  )
       250        C      tau( 250) = (   0.8749739   0.6250324   0.5001319  )
       251        C      tau( 251) = (   0.8752913   0.6251720   0.7502200  )
       252        C      tau( 252) = (   0.8750291   0.8750292   0.0001085  )
       253        C      tau( 253) = (   0.8749106   0.8749220   0.2501015  )
       254        C      tau( 254) = (   0.8751441   0.8751444   0.5001053  )
       255        C      tau( 255) = (   0.8751613   0.8751507   0.7501058  )
       256        C      tau( 256) = (   0.1874586   0.0624614   0.1874757  )
       257        C      tau( 257) = (   0.1874338   0.0623804   0.4374707  )
       258        C      tau( 258) = (   0.1875047   0.0624037   0.6874708  )
       259        C      tau( 259) = (   0.1875031   0.0624664   0.9374612  )
       260        C      tau( 260) = (   0.1874446   0.3124625   0.1874639  )
       261        C      tau( 261) = (   0.1874194   0.3123919   0.4374287  )
       262        C      tau( 262) = (   0.1874354   0.3124667   0.6874278  )
       263        C      tau( 263) = (   0.1874589   0.3124733   0.9374543  )
       264        C      tau( 264) = (   0.1871703   0.5624023   0.1871689  )
       265        C      tau( 265) = (   0.1876185   0.5623533   0.4374417  )
       266        C      tau( 266) = (   0.1877458   0.5623764   0.6873251  )
       267        C      tau( 267) = (   0.1876169   0.5624543   0.9373466  )
       268        C      tau( 268) = (   0.1874904   0.8124354   0.1874893  )
       269        C      tau( 269) = (   0.1873923   0.8125713   0.4375105  )
       270        C      tau( 270) = (   0.1877611   0.8122988   0.6873878  )
       271        C      tau( 271) = (   0.1875872   0.8124405   0.9374254  )
       272        C      tau( 272) = (   0.4374531   0.0623953   0.1874531  )
       273        C      tau( 273) = (   0.4374548   0.0624391   0.4374745  )
       274        C      tau( 274) = (   0.4375044   0.0624961   0.6874613  )
       275        C      tau( 275) = (   0.4375080   0.0624340   0.9375050  )
       276        C      tau( 276) = (   0.4373822   0.3123999   0.1873992  )
       277        C      tau( 277) = (   0.4374150   0.3126983   0.4375116  )
       278        C      tau( 278) = (   0.4376648   0.3120024   0.6879068  )
       279        C      tau( 279) = (   0.4374909   0.3125258   0.9373741  )
       280        C      tau( 280) = (   0.4374332   0.5623855   0.1875399  )
       281        C      tau( 281) = (   0.4386965   0.5618511   0.6862453  )
       282        C      tau( 282) = (   0.4375556   0.5624965   0.9374201  )
       283        C      tau( 283) = (   0.4375173   0.8126287   0.1873337  )
       284        C      tau( 284) = (   0.4375713   0.8122517   0.4375488  )
       285        C      tau( 285) = (   0.4377706   0.8123369   0.6874658  )
       286        C      tau( 286) = (   0.4375716   0.8124706   0.9374814  )
       287        C      tau( 287) = (   0.6874582   0.0624406   0.1875250  )
       288        C      tau( 288) = (   0.6874373   0.0625274   0.4375243  )
       289        C      tau( 289) = (   0.6874889   0.0626425   0.6875046  )
       290        C      tau( 290) = (   0.6874898   0.0626139   0.9374987  )
       291        C      tau( 291) = (   0.6874014   0.3124932   0.1874464  )
       292        C      tau( 292) = (   0.6876909   0.3121832   0.4376539  )
       293        C      tau( 293) = (   0.6871144   0.3129707   0.6871695  )
       294        C      tau( 294) = (   0.6874478   0.3126018   0.9374132  )
       295        C      tau( 295) = (   0.6873325   0.5624392   0.1876892  )
       296        C      tau( 296) = (   0.6862246   0.5619470   0.4386976  )
       297        C      tau( 297) = (   0.6884360   0.5629302   0.6884662  )
       298        C      tau( 298) = (   0.6875550   0.5625795   0.9375991  )
       299        C      tau( 299) = (   0.6874003   0.8123431   0.1877395  )
       300        C      tau( 300) = (   0.6874843   0.8123775   0.4377568  )
       301        C      tau( 301) = (   0.6878054   0.8129234   0.6878062  )
       302        C      tau( 302) = (   0.6876054   0.8126351   0.9377212  )
       303        C      tau( 303) = (   0.9374489   0.0624828   0.1875194  )
       304        C      tau( 304) = (   0.9374670   0.0624726   0.4375207  )
       305        C      tau( 305) = (   0.9374829   0.0626117   0.6874977  )
       306        C      tau( 306) = (   0.9374980   0.0625508   0.9375077  )
       307        C      tau( 307) = (   0.9374258   0.3124901   0.1874900  )
       308        C      tau( 308) = (   0.9373427   0.3125522   0.4375133  )
       309        C      tau( 309) = (   0.9373874   0.3126092   0.6874554  )
       310        C      tau( 310) = (   0.9374361   0.3125436   0.9374543  )
       311        C      tau( 311) = (   0.9373410   0.5624676   0.1876354  )
       312        C      tau( 312) = (   0.9374187   0.5625054   0.4375667  )
       313        C      tau( 313) = (   0.9375977   0.5625762   0.6875529  )
       314        C      tau( 314) = (   0.9375878   0.5625307   0.9375901  )
       315        C      tau( 315) = (   0.9374348   0.8124554   0.1875918  )
       316        C      tau( 316) = (   0.9374933   0.8124745   0.4375776  )
       317        C      tau( 317) = (   0.9377285   0.8126249   0.6876026  )
       318        C      tau( 318) = (   0.9375986   0.8125459   0.9375960  )
       319        C      tau( 319) = (   0.0624777   0.0624857   0.0624908  )
       320        C      tau( 320) = (   0.0624471   0.0624662   0.3124950  )
       321        C      tau( 321) = (   0.0624074   0.0624130   0.5624720  )
       322        C      tau( 322) = (   0.0625180   0.0625131   0.8124791  )
       323        C      tau( 323) = (   0.0624469   0.3124899   0.0624718  )
       324        C      tau( 324) = (   0.0623796   0.3124599   0.3124655  )
       325        C      tau( 325) = (   0.0624389   0.3125006   0.5624562  )
       326        C      tau( 326) = (   0.0624439   0.3125148   0.8124560  )
       327        C      tau( 327) = (   0.0624076   0.5624665   0.0624195  )
       328        C      tau( 328) = (   0.0624389   0.5624505   0.3125065  )
       329        C      tau( 329) = (   0.0625841   0.5624649   0.5624710  )
       330        C      tau( 330) = (   0.0626087   0.5624946   0.8124594  )
       331        C      tau( 331) = (   0.0625184   0.8124739   0.0625189  )
       332        C      tau( 332) = (   0.0624444   0.8124501   0.3125206  )
       333        C      tau( 333) = (   0.0626088   0.8124533   0.5625003  )
       334        C      tau( 334) = (   0.0626809   0.8124813   0.8124871  )
       335        C      tau( 335) = (   0.3124770   0.0624580   0.0624643  )
       336        C      tau( 336) = (   0.3124382   0.0623830   0.3124560  )
       337        C      tau( 337) = (   0.3124891   0.0624132   0.5624592  )
       338        C      tau( 338) = (   0.3125107   0.0624187   0.8124635  )
       339        C      tau( 339) = (   0.3124381   0.3124503   0.0623889  )
       340        C      tau( 340) = (   0.3124948   0.3125105   0.3125174  )
       341        C      tau( 341) = (   0.3117664   0.3117050   0.5621323  )
       342        C      tau( 342) = (   0.3124988   0.3124752   0.8124749  )
       343        C      tau( 343) = (   0.3124895   0.5624530   0.0624201  )
       344        C      tau( 344) = (   0.3117666   0.5621252   0.3117117  )
       345        C      tau( 345) = (   0.3132867   0.5619722   0.5619788  )
       346        C      tau( 346) = (   0.3128933   0.5623537   0.8120643  )
       347        C      tau( 347) = (   0.3125113   0.8124566   0.0624266  )
       348        C      tau( 348) = (   0.3124994   0.8124676   0.3124826  )
       349        C      tau( 349) = (   0.3128934   0.8120574   0.5623604  )
       350        C      tau( 350) = (   0.3126621   0.8123501   0.8123570  )
       351        C      tau( 351) = (   0.5624636   0.0624321   0.0624374  )
       352        C      tau( 352) = (   0.5624397   0.0624391   0.3125077  )
       353        C      tau( 353) = (   0.5624706   0.0625478   0.5624912  )
       354        C      tau( 354) = (   0.5625024   0.0625747   0.8124914  )
       355        C      tau( 355) = (   0.5624396   0.3125025   0.0624443  )
       356        C      tau( 356) = (   0.5620953   0.3117854   0.3117916  )
       357        C      tau( 357) = (   0.5619992   0.3130582   0.5621583  )
       358        C      tau( 358) = (   0.5623772   0.3128441   0.8121204  )
       359        C      tau( 359) = (   0.5624709   0.5624856   0.0625535  )
       360        C      tau( 360) = (   0.5619995   0.5621515   0.3130649  )
       361        C      tau( 361) = (   0.5626458   0.5626267   0.8125242  )
       362        C      tau( 362) = (   0.5625028   0.8124855   0.0625810  )
       363        C      tau( 363) = (   0.5623776   0.8121146   0.3128500  )
       364        C      tau( 364) = (   0.5626459   0.8125184   0.5626325  )
       365        C      tau( 365) = (   0.5626728   0.8128271   0.8128325  )
       366        C      tau( 366) = (   0.8124712   0.0625271   0.0625317  )
       367        C      tau( 367) = (   0.8124415   0.0624633   0.3125302  )
       368        C      tau( 368) = (   0.8124642   0.0626006   0.5625160  )
       369        C      tau( 369) = (   0.8124943   0.0626712   0.8125048  )
       370        C      tau( 370) = (   0.8124414   0.3125257   0.0624681  )
       371        C      tau( 371) = (   0.8124105   0.3125203   0.3125255  )
       372        C      tau( 372) = (   0.8120481   0.3128988   0.5624078  )
       373        C      tau( 373) = (   0.8123722   0.3126529   0.8123903  )
       374        C      tau( 374) = (   0.8124642   0.5625113   0.0626058  )
       375        C      tau( 375) = (   0.8120480   0.5624017   0.3129052  )
       376        C      tau( 376) = (   0.8124993   0.5626487   0.5626545  )
       377        C      tau( 377) = (   0.8128400   0.5626693   0.8128456  )
       378        C      tau( 378) = (   0.8124944   0.8125000   0.0626762  )
       379        C      tau( 379) = (   0.8123719   0.8123849   0.3126583  )
       380        C      tau( 380) = (   0.8128399   0.8128405   0.5626742  )
       381        C      tau( 381) = (   0.8127012   0.8126942   0.8126990  )
       382        C      tau( 382) = (   0.0624449   0.1874771   0.1874823  )
       383        C      tau( 383) = (   0.0623808   0.1874540   0.4374750  )
       384        C      tau( 384) = (   0.0624195   0.1875090   0.6874714  )
       385        C      tau( 385) = (   0.0624684   0.1875077   0.9374648  )
       386        C      tau( 386) = (   0.0623807   0.4374696   0.1874597  )
       387        C      tau( 387) = (   0.0624601   0.4374689   0.4374747  )
       388        C      tau( 388) = (   0.0625381   0.4375060   0.6874415  )
       389        C      tau( 389) = (   0.0624439   0.4375106   0.9374914  )
       390        C      tau( 390) = (   0.0624199   0.6874657   0.1875152  )
       391        C      tau( 391) = (   0.0625381   0.6874356   0.4375119  )
       392        C      tau( 392) = (   0.0626741   0.6874715   0.6874776  )
       393        C      tau( 393) = (   0.0626170   0.6874849   0.9374765  )
       394        C      tau( 394) = (   0.0624688   0.9374594   0.1875130  )
       395        C      tau( 395) = (   0.0624443   0.9374853   0.4375160  )
       396        C      tau( 396) = (   0.0626169   0.9374702   0.6874902  )
       397        C      tau( 397) = (   0.0625497   0.9374950   0.9375003  )
       398        C      tau( 398) = (   0.3124428   0.1874570   0.1874628  )
       399        C      tau( 399) = (   0.3123651   0.1873775   0.4374306  )
       400        C      tau( 400) = (   0.3124716   0.1873815   0.6874467  )
       401        C      tau( 401) = (   0.3124692   0.1874545   0.9374628  )
       402        C      tau( 402) = (   0.3123654   0.4374239   0.1873840  )
       403        C      tau( 403) = (   0.3128693   0.4374991   0.4375058  )
       404        C      tau( 404) = (   0.3121882   0.4376082   0.6877799  )
       405        C      tau( 405) = (   0.3125339   0.4374888   0.9373590  )
       406        C      tau( 406) = (   0.3124723   0.6874393   0.1873893  )
       407        C      tau( 407) = (   0.3121884   0.6877733   0.4376151  )
       408        C      tau( 408) = (   0.3130216   0.6870934   0.6871004  )
       409        C      tau( 409) = (   0.3126060   0.6874386   0.9373763  )
       410        C      tau( 410) = (   0.3124699   0.9374559   0.1874616  )
       411        C      tau( 411) = (   0.3125341   0.9373527   0.4374949  )
       412        C      tau( 412) = (   0.3126059   0.9373689   0.6874447  )
       413        C      tau( 413) = (   0.3125371   0.9374294   0.9374361  )
       414        C      tau( 414) = (   0.5623866   0.1872143   0.1872196  )
       415        C      tau( 415) = (   0.5623393   0.1875572   0.4374762  )
       416        C      tau( 416) = (   0.5623951   0.1876491   0.6874029  )
       417        C      tau( 417) = (   0.5624586   0.1876049   0.9373796  )
       418        C      tau( 418) = (   0.5623395   0.4374702   0.1875631  )
       419        C      tau( 419) = (   0.5618874   0.4386059   0.6863072  )
       420        C      tau( 420) = (   0.5625018   0.4375506   0.9374349  )
       421        C      tau( 421) = (   0.5623958   0.6873962   0.1876559  )
       422        C      tau( 422) = (   0.5618878   0.6863014   0.4386120  )
       423        C      tau( 423) = (   0.5629422   0.6884216   0.6884278  )
       424        C      tau( 424) = (   0.5625800   0.6875522   0.9375878  )
       425        C      tau( 425) = (   0.5624588   0.9373741   0.1876105  )
       426        C      tau( 426) = (   0.5625019   0.9374296   0.4375559  )
       427        C      tau( 427) = (   0.5625799   0.9375821   0.6875575  )
       428        C      tau( 428) = (   0.5625321   0.9375868   0.9375924  )
       429        C      tau( 429) = (   0.8124205   0.1875075   0.1875121  )
       430        C      tau( 430) = (   0.8125292   0.1874272   0.4375307  )
       431        C      tau( 431) = (   0.8123213   0.1877426   0.6874198  )
       432        C      tau( 432) = (   0.8124476   0.1875892   0.9374532  )
       433        C      tau( 433) = (   0.8125289   0.4375255   0.1874328  )
       434        C      tau( 434) = (   0.8122078   0.4375860   0.4375920  )
       435        C      tau( 435) = (   0.8123471   0.4377681   0.6874984  )
       436        C      tau( 436) = (   0.8124768   0.4375736   0.9375066  )
       437        C      tau( 437) = (   0.8123210   0.6874144   0.1877484  )
       438        C      tau( 438) = (   0.8123468   0.6874926   0.4377740  )
       439        C      tau( 439) = (   0.8129259   0.6878020   0.6878072  )
       440        C      tau( 440) = (   0.8126362   0.6876040   0.9377235  )
       441        C      tau( 441) = (   0.8124477   0.9374483   0.1875940  )
       442        C      tau( 442) = (   0.8124768   0.9375016   0.4375782  )
       443        C      tau( 443) = (   0.8126360   0.9377185   0.6876086  )
       444        C      tau( 444) = (   0.8125492   0.9375966   0.9376013  )
       445        C      tau( 445) = (   0.1874584   0.1874700   0.0624674  )
       446        C      tau( 446) = (   0.1874445   0.1874580   0.3124683  )
       447        C      tau( 447) = (   0.1871700   0.1871618   0.5624090  )
       448        C      tau( 448) = (   0.1874897   0.1874823   0.8124419  )
       449        C      tau( 449) = (   0.1874339   0.4374650   0.0623865  )
       450        C      tau( 450) = (   0.1874193   0.4374221   0.3123984  )
       451        C      tau( 451) = (   0.1876185   0.4374346   0.5623604  )
       452        C      tau( 452) = (   0.1873920   0.4375037   0.8125783  )
       453        C      tau( 453) = (   0.1875053   0.6874645   0.0624112  )
       454        C      tau( 454) = (   0.1874360   0.6874206   0.3124741  )
       455        C      tau( 455) = (   0.1877457   0.6873180   0.5623833  )
       456        C      tau( 456) = (   0.1877610   0.6873812   0.8123059  )
       457        C      tau( 457) = (   0.1875035   0.9374552   0.0624726  )
       458        C      tau( 458) = (   0.1874596   0.9374477   0.3124796  )
       459        C      tau( 459) = (   0.1876170   0.9373399   0.5624601  )
       460        C      tau( 460) = (   0.1875870   0.9374185   0.8124466  )
       461        C      tau( 461) = (   0.4374529   0.1874475   0.0624010  )
       462        C      tau( 462) = (   0.4373821   0.1873932   0.3124058  )
       463        C      tau( 463) = (   0.4374326   0.1875329   0.5623925  )
       464        C      tau( 464) = (   0.4375168   0.1873271   0.8126351  )
       465        C      tau( 465) = (   0.4374550   0.4374688   0.0624449  )
       466        C      tau( 466) = (   0.4374151   0.4375046   0.3127053  )
       467        C      tau( 467) = (   0.4375709   0.4375422   0.8122580  )
       468        C      tau( 468) = (   0.4375050   0.6874548   0.0625034  )
       469        C      tau( 469) = (   0.4376653   0.6879004   0.3120089  )
       470        C      tau( 470) = (   0.4386967   0.6862390   0.5618575  )
       471        C      tau( 471) = (   0.4377706   0.6874596   0.8123436  )
       472        C      tau( 472) = (   0.4375084   0.9374984   0.0624410  )
       473        C      tau( 473) = (   0.4374913   0.9373680   0.3125319  )
       474        C      tau( 474) = (   0.4375555   0.9374140   0.5625022  )
       475        C      tau( 475) = (   0.4375714   0.9374746   0.8124767  )
       476        C      tau( 476) = (   0.6874581   0.1875203   0.0624454  )
       477        C      tau( 477) = (   0.6874014   0.1874413   0.3124982  )
       478        C      tau( 478) = (   0.6873323   0.1876833   0.5624450  )
       479        C      tau( 479) = (   0.6874002   0.1877338   0.8123486  )
       480        C      tau( 480) = (   0.6874373   0.4375194   0.0625324  )
       481        C      tau( 481) = (   0.6876911   0.4376478   0.3121891  )
       482        C      tau( 482) = (   0.6862243   0.4386914   0.5619532  )
       483        C      tau( 483) = (   0.6874843   0.4377514   0.8123829  )
       484        C      tau( 484) = (   0.6874892   0.6874995   0.0626479  )
       485        C      tau( 485) = (   0.6871144   0.6871630   0.3129772  )
       486        C      tau( 486) = (   0.6884361   0.6884602   0.5629363  )
       487        C      tau( 487) = (   0.6878055   0.6878011   0.8129288  )
       488        C      tau( 488) = (   0.6874899   0.9374937   0.0626189  )
       489        C      tau( 489) = (   0.6874479   0.9374082   0.3126068  )
       490        C      tau( 490) = (   0.6875550   0.9375940   0.5625843  )
       491        C      tau( 491) = (   0.6876054   0.9377162   0.8126400  )
       492        C      tau( 492) = (   0.9374488   0.1875148   0.0624876  )
       493        C      tau( 493) = (   0.9374259   0.1874850   0.3124949  )
       494        C      tau( 494) = (   0.9373412   0.1876297   0.5624727  )
       495        C      tau( 495) = (   0.9374347   0.1875866   0.8124604  )
       496        C      tau( 496) = (   0.9374668   0.4375160   0.0624779  )
       497        C      tau( 497) = (   0.9373426   0.4375080   0.3125577  )
       498        C      tau( 498) = (   0.9374188   0.4375611   0.5625109  )
       499        C      tau( 499) = (   0.9374934   0.4375726   0.8124798  )
       500        C      tau( 500) = (   0.9374830   0.6874929   0.0626172  )
       501        C      tau( 501) = (   0.9373871   0.6874501   0.3126148  )
       502        C      tau( 502) = (   0.9375976   0.6875475   0.5625815  )
       503        C      tau( 503) = (   0.9377285   0.6875977   0.8126301  )
       504        C      tau( 504) = (   0.9374981   0.9375030   0.0625556  )
       505        C      tau( 505) = (   0.9374363   0.9374491   0.3125483  )
       506        C      tau( 506) = (   0.9375878   0.9375847   0.5625355  )
       507        C      tau( 507) = (   0.9375985   0.9375910   0.8125506  )
       508        C      tau( 508) = (   0.5656959   0.4327018   0.4327080  )
       509        C      tau( 509) = (   0.4329692   0.4324910   0.5659180  )
       510        C      tau( 510) = (   0.4329695   0.5659118   0.4324973  )
       511        N      tau( 511) = (   0.5681278   0.5680874   0.5680933  )

   Crystallographic axes

     site n.     atom                  positions (cryst. coord.)
         1        C      tau(   1) = (  0.0000014  0.0000031  0.0000080  )
         2        C      tau(   2) = ( -0.0000531 -0.0000397  0.2500154  )
         3        C      tau(   3) = ( -0.0000285 -0.0000112  0.5000073  )
         4        C      tau(   4) = (  0.0000559  0.0000468  0.7499967  )
         5        C      tau(   5) = ( -0.0000533  0.2500106 -0.0000346  )
         6        C      tau(   6) = ( -0.0000832  0.2499743  0.2499793  )
         7        C      tau(   7) = ( -0.0001191  0.2500423  0.4999839  )
         8        C      tau(   8) = ( -0.0000874  0.2500470  0.7499596  )
         9        C      tau(   9) = ( -0.0000285  0.5000024 -0.0000054  )
        10        C      tau(  10) = ( -0.0001192  0.4999787  0.2500479  )
        11        C      tau(  11) = ( -0.0000238  0.4999997  0.5000052  )
        12        C      tau(  12) = (  0.0000659  0.5000229  0.7499754  )
        13        C      tau(  13) = (  0.0000560  0.7499919  0.0000524  )
        14        C      tau(  14) = ( -0.0000873  0.7499542  0.2500526  )
        15        C      tau(  15) = (  0.0000658  0.7499699  0.5000282  )
        16        C      tau(  16) = (  0.0002135  0.7500379  0.7500432  )
        17        C      tau(  17) = (  0.2500024 -0.0000521 -0.0000460  )
        18        C      tau(  18) = (  0.2499501 -0.0000659  0.2499613  )
        19        C      tau(  19) = (  0.2500270 -0.0001230  0.4999742  )
        20        C      tau(  20) = (  0.2500452 -0.0001064  0.7499548  )
        21        C      tau(  21) = (  0.2499496  0.2499550 -0.0000594  )
        22        C      tau(  22) = (  0.2499859  0.2500023  0.2500085  )
        23        C      tau(  23) = (  0.2495096  0.2494916  0.5000198  )
        24        C      tau(  24) = (  0.2499891  0.2499689  0.7499276  )
        25        C      tau(  25) = (  0.2500271  0.4999684 -0.0001166  )
        26        C      tau(  26) = (  0.2495097  0.5000130  0.2494982  )
        27        C      tau(  27) = (  0.2504263  0.4998012  0.4998083  )
        28        C      tau(  28) = (  0.2499219  0.4998096  0.7500527  )
        29        C      tau(  29) = (  0.2500456  0.7499485 -0.0000987  )
        30        C      tau(  30) = (  0.2499899  0.7499202  0.2499766  )
        31        C      tau(  31) = (  0.2499218  0.7500458  0.4998165  )
        32        C      tau(  32) = (  0.2503734  0.7497329  0.7497400  )
        33        C      tau(  33) = (  0.4999962 -0.0000123 -0.0000062  )
        34        C      tau(  34) = (  0.4999655 -0.0001010  0.2500336  )
        35        C      tau(  35) = (  0.4999972 -0.0000368  0.5000054  )
        36        C      tau(  36) = (  0.5000285  0.0000391  0.7499893  )
        37        C      tau(  37) = (  0.4999653  0.2500280 -0.0000954  )
        38        C      tau(  38) = (  0.4999429  0.2495520  0.2495579  )
        39        C      tau(  39) = (  0.4997976  0.2502915  0.4998513  )
        40        C      tau(  40) = (  0.4998361  0.2498042  0.7501540  )
        41        C      tau(  41) = (  0.4999973  0.5000000 -0.0000311  )
        42        C      tau(  42) = (  0.4997979  0.4998444  0.2502983  )
        43        C      tau(  43) = (  0.5001331  0.5000952  0.7495825  )
        44        C      tau(  44) = (  0.5000288  0.7499834  0.0000457  )
        45        C      tau(  45) = (  0.4998367  0.7501479  0.2498104  )
        46        C      tau(  46) = (  0.5001334  0.7495763  0.5001016  )
        47        C      tau(  47) = (  0.5003352  0.7504023  0.7504083  )
        48        C      tau(  48) = (  0.7499939  0.0000585  0.0000632  )
        49        C      tau(  49) = (  0.7499475 -0.0000663  0.2500589  )
        50        C      tau(  50) = (  0.7499783  0.0000627  0.5000378  )
        51        C      tau(  51) = (  0.7500535  0.0001952  0.7500593  )
        52        C      tau(  52) = (  0.7499474  0.2500543 -0.0000615  )
        53        C      tau(  53) = (  0.7498899  0.2500061  0.2500111  )
        54        C      tau(  54) = (  0.7499935  0.2499381  0.4998959  )
        55        C      tau(  55) = (  0.7497627  0.2503436  0.7497889  )
        56        C      tau(  56) = (  0.7499783  0.5000332  0.0000677  )
        57        C      tau(  57) = (  0.7499934  0.4998899  0.2499444  )
        58        C      tau(  58) = (  0.7495382  0.5001373  0.5001437  )
        59        C      tau(  59) = (  0.7504187  0.5003283  0.7504417  )
        60        C      tau(  60) = (  0.7500536  0.7500545  0.0002002  )
        61        C      tau(  61) = (  0.7497623  0.7497830  0.2503497  )
        62        C      tau(  62) = (  0.7504186  0.7504361  0.5003339  )
        63        C      tau(  63) = (  0.7502820  0.7502781  0.7502831  )
        64        C      tau(  64) = ( -0.0000463  0.1249866  0.1249914  )
        65        C      tau(  65) = ( -0.0000757  0.1249733  0.3749859  )
        66        C      tau(  66) = ( -0.0000892  0.1250602  0.6249919  )
        67        C      tau(  67) = ( -0.0000264  0.1250368  0.8749719  )
        68        C      tau(  68) = ( -0.0000759  0.3749810  0.1249786  )
        69        C      tau(  69) = ( -0.0001185  0.3750086  0.3750140  )
        70        C      tau(  70) = ( -0.0000510  0.3750397  0.6249638  )
        71        C      tau(  71) = ( -0.0000454  0.3750186  0.8749608  )
        72        C      tau(  72) = ( -0.0000891  0.6249867  0.1250661  )
        73        C      tau(  73) = ( -0.0000511  0.6249583  0.3750453  )
        74        C      tau(  74) = (  0.0001201  0.6250007  0.6250063  )
        75        C      tau(  75) = (  0.0001423  0.6250239  0.8750360  )
        76        C      tau(  76) = ( -0.0000262  0.8749669  0.1250420  )
        77        C      tau(  77) = ( -0.0000452  0.8749552  0.3750238  )
        78        C      tau(  78) = (  0.0001423  0.8750303  0.6250289  )
        79        C      tau(  79) = (  0.0001097  0.8750207  0.8750258  )
        80        C      tau(  80) = (  0.2499604  0.1249642  0.1249701  )
        81        C      tau(  81) = (  0.2499520  0.1248945  0.3749641  )
        82        C      tau(  82) = (  0.2499127  0.1248588  0.6249741  )
        83        C      tau(  83) = (  0.2499872  0.1249560  0.8749487  )
        84        C      tau(  84) = (  0.2499521  0.3749582  0.1249005  )
        85        C      tau(  85) = (  0.2501453  0.3750799  0.3750866  )
        86        C      tau(  86) = (  0.2499639  0.3748581  0.6248826  )
        87        C      tau(  87) = (  0.2499643  0.3749529  0.8749621  )
        88        C      tau(  88) = (  0.2499134  0.6249672  0.1248665  )
        89        C      tau(  89) = (  0.2499643  0.6248751  0.3748656  )
        90        C      tau(  90) = (  0.2505851  0.6245391  0.6245460  )
        91        C      tau(  91) = (  0.2503057  0.6249231  0.8747167  )
        92        C      tau(  92) = (  0.2499878  0.8749422  0.1249631  )
        93        C      tau(  93) = (  0.2499648  0.8749550  0.3749598  )
        94        C      tau(  94) = (  0.2503057  0.8747094  0.6249295  )
        95        C      tau(  95) = (  0.2500973  0.8748957  0.8749024  )
        96        C      tau(  96) = (  0.4999754  0.1248264  0.1248318  )
        97        C      tau(  97) = (  0.4999277  0.1249757  0.3749736  )
        98        C      tau(  98) = (  0.4999287  0.1250753  0.6249162  )
        99        C      tau(  99) = (  0.4999528  0.1249372  0.8750519  )
       100        C      tau( 100) = (  0.4999278  0.3749680  0.1249814  )
       101        C      tau( 101) = (  0.5001597  0.3751400  0.3751469  )
       102        C      tau( 102) = (  0.4990675  0.3757242  0.6239017  )
       103        C      tau( 103) = (  0.4999896  0.3751305  0.8747963  )
       104        C      tau( 104) = (  0.4999294  0.6249096  0.1250821  )
       105        C      tau( 105) = (  0.4990678  0.6238955  0.3757306  )
       106        C      tau( 106) = (  0.5028496  0.6247697  0.6247759  )
       107        C      tau( 107) = (  0.5001307  0.6250211  0.8749788  )
       108        C      tau( 108) = (  0.4999532  0.8750456  0.1249437  )
       109        C      tau( 109) = (  0.4999899  0.8747905  0.3751365  )
       110        C      tau( 110) = (  0.5001307  0.8749728  0.6250267  )
       111        C      tau( 111) = (  0.5001012  0.8751344  0.8751403  )
       112        C      tau( 112) = (  0.7499501  0.1250016  0.1250062  )
       113        C      tau( 113) = (  0.7499523  0.1249751  0.3749941  )
       114        C      tau( 114) = (  0.7498694  0.1251787  0.6249496  )
       115        C      tau( 115) = (  0.7499471  0.1251723  0.8749389  )
       116        C      tau( 116) = (  0.7499522  0.3749893  0.1249802  )
       117        C      tau( 117) = (  0.7498202  0.3750117  0.3750176  )
       118        C      tau( 118) = (  0.7491688  0.3757960  0.6248214  )
       119        C      tau( 119) = (  0.7499048  0.3751310  0.8749114  )
       120        C      tau( 120) = (  0.7498694  0.6249444  0.1251843  )
       121        C      tau( 121) = (  0.7491690  0.6248153  0.3758022  )
       122        C      tau( 122) = (  0.7505664  0.6254400  0.6254459  )
       123        C      tau( 123) = (  0.7502214  0.6251752  0.8752927  )
       124        C      tau( 124) = (  0.7499471  0.8749339  0.1251774  )
       125        C      tau( 125) = (  0.7499047  0.8749063  0.3751361  )
       126        C      tau( 126) = (  0.7502212  0.8752876  0.6251799  )
       127        C      tau( 127) = (  0.7501076  0.8751542  0.8751590  )
       128        C      tau( 128) = (  0.1249740 -0.0000371  0.1249840  )
       129        C      tau( 129) = (  0.1249479 -0.0000620  0.3749784  )
       130        C      tau( 130) = (  0.1250554 -0.0000949  0.6249863  )
       131        C      tau( 131) = (  0.1250379 -0.0000339  0.8749653  )
       132        C      tau( 132) = (  0.1249517  0.2499769  0.1249752  )
       133        C      tau( 133) = (  0.1249035  0.2499767  0.3749693  )
       134        C      tau( 134) = (  0.1248846  0.2499162  0.6249688  )
       135        C      tau( 135) = (  0.1249649  0.2499877  0.8749463  )
       136        C      tau( 136) = (  0.1247937  0.4999945  0.1248051  )
       137        C      tau( 137) = (  0.1250046  0.4999463  0.3749719  )
       138        C      tau( 138) = (  0.1251405  0.4999172  0.6248796  )
       139        C      tau( 139) = (  0.1249741  0.4999491  0.8750106  )
       140        C      tau( 140) = (  0.1249860  0.7499576  0.1249863  )
       141        C      tau( 141) = (  0.1249625  0.7499682  0.3749713  )
       142        C      tau( 142) = (  0.1252140  0.7498406  0.6249155  )
       143        C      tau( 143) = (  0.1251831  0.7499332  0.8749090  )
       144        C      tau( 144) = (  0.3749657 -0.0000553  0.1249566  )
       145        C      tau( 145) = (  0.3749909 -0.0001142  0.3749983  )
       146        C      tau( 146) = (  0.3750363 -0.0000729  0.6249647  )
       147        C      tau( 147) = (  0.3750159 -0.0000603  0.8749613  )
       148        C      tau( 148) = (  0.3749392  0.2499651  0.1249068  )
       149        C      tau( 149) = (  0.3750298  0.2500719  0.3750763  )
       150        C      tau( 150) = (  0.3748801  0.2498738  0.6249260  )
       151        C      tau( 151) = (  0.3749619  0.2499408  0.8749808  )
       152        C      tau( 152) = (  0.3749524  0.4999505  0.1249684  )
       153        C      tau( 153) = (  0.3752482  0.5004360  0.3751316  )
       154        C      tau( 154) = (  0.3760602  0.4990294  0.6236836  )
       155        C      tau( 155) = (  0.3751520  0.4999736  0.8747748  )
       156        C      tau( 156) = (  0.3749689  0.7499943  0.1249249  )
       157        C      tau( 157) = (  0.3749951  0.7499066  0.3749377  )
       158        C      tau( 158) = (  0.3758218  0.7491694  0.6247555  )
       159        C      tau( 159) = (  0.3751387  0.7498870  0.8748758  )
       160        C      tau( 160) = (  0.6249812 -0.0000652  0.1250680  )
       161        C      tau( 161) = (  0.6249562 -0.0000445  0.3750454  )
       162        C      tau( 162) = (  0.6250133  0.0000978  0.6250210  )
       163        C      tau( 163) = (  0.6250313  0.0001278  0.8750534  )
       164        C      tau( 164) = (  0.6249428  0.2499384  0.1249078  )
       165        C      tau( 165) = (  0.6248343  0.2499418  0.3749094  )
       166        C      tau( 166) = (  0.6245805  0.2504542  0.6246433  )
       167        C      tau( 167) = (  0.6249419  0.2502830  0.8747627  )
       168        C      tau( 168) = (  0.6248844  0.4999484  0.1251008  )
       169        C      tau( 169) = (  0.6236475  0.4993112  0.3759051  )
       170        C      tau( 170) = (  0.6247788  0.5028506  0.6248464  )
       171        C      tau( 171) = (  0.6250336  0.5001207  0.8749950  )
       172        C      tau( 172) = (  0.6249324  0.7498899  0.1251670  )
       173        C      tau( 173) = (  0.6247808  0.7492301  0.3757846  )
       174        C      tau( 174) = (  0.6254356  0.7505810  0.6254354  )
       175        C      tau( 175) = (  0.6251777  0.7502165  0.8752869  )
       176        C      tau( 176) = (  0.8749614 -0.0000166  0.1250477  )
       177        C      tau( 177) = (  0.8749473 -0.0000272  0.3750295  )
       178        C      tau( 178) = (  0.8750427  0.0001343  0.6250361  )
       179        C      tau( 179) = (  0.8750290  0.0001037  0.8750338  )
       180        C      tau( 180) = (  0.8749279  0.2500041  0.1249895  )
       181        C      tau( 181) = (  0.8749218  0.2499928  0.3749914  )
       182        C      tau( 182) = (  0.8747180  0.2503025  0.6249570  )
       183        C      tau( 183) = (  0.8749107  0.2500965  0.8749272  )
       184        C      tau( 184) = (  0.8749841  0.4999715  0.1250059  )
       185        C      tau( 185) = (  0.8747546  0.5000023  0.3751633  )
       186        C      tau( 186) = (  0.8749740  0.5001263  0.6250379  )
       187        C      tau( 187) = (  0.8751442  0.5001006  0.8751495  )
       188        C      tau( 188) = (  0.8749219  0.7499534  0.1251781  )
       189        C      tau( 189) = (  0.8748857  0.7499066  0.3751385  )
       190        C      tau( 190) = (  0.8752912  0.7502149  0.6251770  )
       191        C      tau( 191) = (  0.8751613  0.7501012  0.8751556  )
       192        C      tau( 192) = (  0.1249737  0.1249786 -0.0000316  )
       193        C      tau( 193) = (  0.1249518  0.1249695  0.2499822  )
       194        C      tau( 194) = (  0.1247934  0.1247985  0.5000004  )
       195        C      tau( 195) = (  0.1249854  0.1249797  0.7499634  )
       196        C      tau( 196) = (  0.1249476  0.3749729 -0.0000559  )
       197        C      tau( 197) = (  0.1249035  0.3749635  0.2499827  )
       198        C      tau( 198) = (  0.1250046  0.3749656  0.4999525  )
       199        C      tau( 199) = (  0.1249620  0.3749648  0.7499748  )
       200        C      tau( 200) = (  0.1250557  0.6249807 -0.0000881  )
       201        C      tau( 201) = (  0.1248851  0.6249624  0.2499230  )
       202        C      tau( 202) = (  0.1251404  0.6248731  0.4999237  )
       203        C      tau( 203) = (  0.1252140  0.6249091  0.7498474  )
       204        C      tau( 204) = (  0.1250381  0.8749599 -0.0000280  )
       205        C      tau( 205) = (  0.1249655  0.8749403  0.2499937  )
       206        C      tau( 206) = (  0.1249745  0.8750039  0.4999551  )
       207        C      tau( 207) = (  0.1251831  0.8749024  0.7499390  )
       208        C      tau( 208) = (  0.3749654  0.1249501 -0.0000488  )
       209        C      tau( 209) = (  0.3749392  0.1249011  0.2499708  )
       210        C      tau( 210) = (  0.3749519  0.1249619  0.4999569  )
       211        C      tau( 211) = (  0.3749683  0.1249171  0.7500015  )
       212        C      tau( 212) = (  0.3749908  0.3749925 -0.0001083  )
       213        C      tau( 213) = (  0.3750299  0.3750695  0.2500787  )
       214        C      tau( 214) = (  0.3752480  0.3751249  0.5004427  )
       215        C      tau( 215) = (  0.3749947  0.3749308  0.7499132  )
       216        C      tau( 216) = (  0.3750367  0.6249586 -0.0000659  )
       217        C      tau( 217) = (  0.3748806  0.6249190  0.2498808  )
       218        C      tau( 218) = (  0.3760603  0.6236772  0.4990360  )
       219        C      tau( 219) = (  0.3758218  0.6247489  0.7491761  )
       220        C      tau( 220) = (  0.3750162  0.8749547 -0.0000529  )
       221        C      tau( 221) = (  0.3749625  0.8749737  0.2499480  )
       222        C      tau( 222) = (  0.3751520  0.8747685  0.4999798  )
       223        C      tau( 223) = (  0.3751387  0.8748687  0.7498934  )
       224        C      tau( 224) = (  0.6249812  0.1250630 -0.0000602  )
       225        C      tau( 225) = (  0.6249429  0.1249027  0.2499433  )
       226        C      tau( 226) = (  0.6248842  0.1250953  0.4999539  )
       227        C      tau( 227) = (  0.6249321  0.1251609  0.7498958  )
       228        C      tau( 228) = (  0.6249561  0.3750404 -0.0000394  )
       229        C      tau( 229) = (  0.6248343  0.3749036  0.2499477  )
       230        C      tau( 230) = (  0.6236470  0.3758987  0.4993177  )
       231        C      tau( 231) = (  0.6247805  0.3757787  0.7492359  )
       232        C      tau( 232) = (  0.6250135  0.6250160  0.0001032  )
       233        C      tau( 233) = (  0.6245807  0.6246366  0.2504610  )
       234        C      tau( 234) = (  0.6247790  0.6248405  0.5028566  )
       235        C      tau( 235) = (  0.6254356  0.6254295  0.7505871  )
       236        C      tau( 236) = (  0.6250314  0.8750481  0.0001333  )
       237        C      tau( 237) = (  0.6249421  0.8747573  0.2502885  )
       238        C      tau( 238) = (  0.6250335  0.8749896  0.5001260  )
       239        C      tau( 239) = (  0.6251777  0.8752816  0.7502215  )
       240        C      tau( 240) = (  0.8749613  0.1250431 -0.0000119  )
       241        C      tau( 241) = (  0.8749280  0.1249848  0.2500086  )
       242        C      tau( 242) = (  0.8749843  0.1250005  0.4999763  )
       243        C      tau( 243) = (  0.8749220  0.1251727  0.7499585  )
       244        C      tau( 244) = (  0.8749471  0.3750249 -0.0000222  )
       245        C      tau( 245) = (  0.8749217  0.3749863  0.2499981  )
       246        C      tau( 246) = (  0.8747547  0.3751573  0.5000081  )
       247        C      tau( 247) = (  0.8748860  0.3751329  0.7499121  )
       248        C      tau( 248) = (  0.8750428  0.6250315  0.0001395  )
       249        C      tau( 249) = (  0.8747176  0.6249513  0.2503086  )
       250        C      tau( 250) = (  0.8749739  0.6250324  0.5001319  )
       251        C      tau( 251) = (  0.8752913  0.6251720  0.7502200  )
       252        C      tau( 252) = (  0.8750291  0.8750292  0.0001085  )
       253        C      tau( 253) = (  0.8749106  0.8749220  0.2501015  )
       254        C      tau( 254) = (  0.8751441  0.8751444  0.5001053  )
       255        C      tau( 255) = (  0.8751613  0.8751507  0.7501058  )
       256        C      tau( 256) = (  0.1874586  0.0624614  0.1874757  )
       257        C      tau( 257) = (  0.1874338  0.0623804  0.4374707  )
       258        C      tau( 258) = (  0.1875047  0.0624037  0.6874708  )
       259        C      tau( 259) = (  0.1875031  0.0624664  0.9374612  )
       260        C      tau( 260) = (  0.1874446  0.3124625  0.1874639  )
       261        C      tau( 261) = (  0.1874194  0.3123919  0.4374287  )
       262        C      tau( 262) = (  0.1874354  0.3124667  0.6874278  )
       263        C      tau( 263) = (  0.1874589  0.3124733  0.9374543  )
       264        C      tau( 264) = (  0.1871703  0.5624023  0.1871689  )
       265        C      tau( 265) = (  0.1876185  0.5623533  0.4374417  )
       266        C      tau( 266) = (  0.1877458  0.5623764  0.6873251  )
       267        C      tau( 267) = (  0.1876169  0.5624543  0.9373466  )
       268        C      tau( 268) = (  0.1874904  0.8124354  0.1874893  )
       269        C      tau( 269) = (  0.1873923  0.8125713  0.4375105  )
       270        C      tau( 270) = (  0.1877611  0.8122988  0.6873878  )
       271        C      tau( 271) = (  0.1875872  0.8124405  0.9374254  )
       272        C      tau( 272) = (  0.4374531  0.0623953  0.1874531  )
       273        C      tau( 273) = (  0.4374548  0.0624391  0.4374745  )
       274        C      tau( 274) = (  0.4375044  0.0624961  0.6874613  )
       275        C      tau( 275) = (  0.4375080  0.0624340  0.9375050  )
       276        C      tau( 276) = (  0.4373822  0.3123999  0.1873992  )
       277        C      tau( 277) = (  0.4374150  0.3126983  0.4375116  )
       278        C      tau( 278) = (  0.4376648  0.3120024  0.6879068  )
       279        C      tau( 279) = (  0.4374909  0.3125258  0.9373741  )
       280        C      tau( 280) = (  0.4374332  0.5623855  0.1875399  )
       281        C      tau( 281) = (  0.4386965  0.5618511  0.6862453  )
       282        C      tau( 282) = (  0.4375556  0.5624965  0.9374201  )
       283        C      tau( 283) = (  0.4375173  0.8126287  0.1873337  )
       284        C      tau( 284) = (  0.4375713  0.8122517  0.4375488  )
       285        C      tau( 285) = (  0.4377706  0.8123369  0.6874658  )
       286        C      tau( 286) = (  0.4375716  0.8124706  0.9374814  )
       287        C      tau( 287) = (  0.6874582  0.0624406  0.1875250  )
       288        C      tau( 288) = (  0.6874373  0.0625274  0.4375243  )
       289        C      tau( 289) = (  0.6874889  0.0626425  0.6875046  )
       290        C      tau( 290) = (  0.6874898  0.0626139  0.9374987  )
       291        C      tau( 291) = (  0.6874014  0.3124932  0.1874464  )
       292        C      tau( 292) = (  0.6876909  0.3121832  0.4376539  )
       293        C      tau( 293) = (  0.6871144  0.3129707  0.6871695  )
       294        C      tau( 294) = (  0.6874478  0.3126018  0.9374132  )
       295        C      tau( 295) = (  0.6873325  0.5624392  0.1876892  )
       296        C      tau( 296) = (  0.6862246  0.5619470  0.4386976  )
       297        C      tau( 297) = (  0.6884360  0.5629302  0.6884662  )
       298        C      tau( 298) = (  0.6875550  0.5625795  0.9375991  )
       299        C      tau( 299) = (  0.6874003  0.8123431  0.1877395  )
       300        C      tau( 300) = (  0.6874843  0.8123775  0.4377568  )
       301        C      tau( 301) = (  0.6878054  0.8129234  0.6878062  )
       302        C      tau( 302) = (  0.6876054  0.8126351  0.9377212  )
       303        C      tau( 303) = (  0.9374489  0.0624828  0.1875194  )
       304        C      tau( 304) = (  0.9374670  0.0624726  0.4375207  )
       305        C      tau( 305) = (  0.9374829  0.0626117  0.6874977  )
       306        C      tau( 306) = (  0.9374980  0.0625508  0.9375077  )
       307        C      tau( 307) = (  0.9374258  0.3124901  0.1874900  )
       308        C      tau( 308) = (  0.9373427  0.3125522  0.4375133  )
       309        C      tau( 309) = (  0.9373874  0.3126092  0.6874554  )
       310        C      tau( 310) = (  0.9374361  0.3125436  0.9374543  )
       311        C      tau( 311) = (  0.9373410  0.5624676  0.1876354  )
       312        C      tau( 312) = (  0.9374187  0.5625054  0.4375667  )
       313        C      tau( 313) = (  0.9375977  0.5625762  0.6875529  )
       314        C      tau( 314) = (  0.9375878  0.5625307  0.9375901  )
       315        C      tau( 315) = (  0.9374348  0.8124554  0.1875918  )
       316        C      tau( 316) = (  0.9374933  0.8124745  0.4375776  )
       317        C      tau( 317) = (  0.9377285  0.8126249  0.6876026  )
       318        C      tau( 318) = (  0.9375986  0.8125459  0.9375960  )
       319        C      tau( 319) = (  0.0624777  0.0624857  0.0624908  )
       320        C      tau( 320) = (  0.0624471  0.0624662  0.3124950  )
       321        C      tau( 321) = (  0.0624074  0.0624130  0.5624720  )
       322        C      tau( 322) = (  0.0625180  0.0625131  0.8124791  )
       323        C      tau( 323) = (  0.0624469  0.3124899  0.0624718  )
       324        C      tau( 324) = (  0.0623796  0.3124599  0.3124655  )
       325        C      tau( 325) = (  0.0624389  0.3125006  0.5624562  )
       326        C      tau( 326) = (  0.0624439  0.3125148  0.8124560  )
       327        C      tau( 327) = (  0.0624076  0.5624665  0.0624195  )
       328        C      tau( 328) = (  0.0624389  0.5624505  0.3125065  )
       329        C      tau( 329) = (  0.0625841  0.5624649  0.5624710  )
       330        C      tau( 330) = (  0.0626087  0.5624946  0.8124594  )
       331        C      tau( 331) = (  0.0625184  0.8124739  0.0625189  )
       332        C      tau( 332) = (  0.0624444  0.8124501  0.3125206  )
       333        C      tau( 333) = (  0.0626088  0.8124533  0.5625003  )
       334        C      tau( 334) = (  0.0626809  0.8124813  0.8124871  )
       335        C      tau( 335) = (  0.3124770  0.0624580  0.0624643  )
       336        C      tau( 336) = (  0.3124382  0.0623830  0.3124560  )
       337        C      tau( 337) = (  0.3124891  0.0624132  0.5624592  )
       338        C      tau( 338) = (  0.3125107  0.0624187  0.8124635  )
       339        C      tau( 339) = (  0.3124381  0.3124503  0.0623889  )
       340        C      tau( 340) = (  0.3124948  0.3125105  0.3125174  )
       341        C      tau( 341) = (  0.3117664  0.3117050  0.5621323  )
       342        C      tau( 342) = (  0.3124988  0.3124752  0.8124749  )
       343        C      tau( 343) = (  0.3124895  0.5624530  0.0624201  )
       344        C      tau( 344) = (  0.3117666  0.5621252  0.3117117  )
       345        C      tau( 345) = (  0.3132867  0.5619722  0.5619788  )
       346        C      tau( 346) = (  0.3128933  0.5623537  0.8120643  )
       347        C      tau( 347) = (  0.3125113  0.8124566  0.0624266  )
       348        C      tau( 348) = (  0.3124994  0.8124676  0.3124826  )
       349        C      tau( 349) = (  0.3128934  0.8120574  0.5623604  )
       350        C      tau( 350) = (  0.3126621  0.8123501  0.8123570  )
       351        C      tau( 351) = (  0.5624636  0.0624321  0.0624374  )
       352        C      tau( 352) = (  0.5624397  0.0624391  0.3125077  )
       353        C      tau( 353) = (  0.5624706  0.0625478  0.5624912  )
       354        C      tau( 354) = (  0.5625024  0.0625747  0.8124914  )
       355        C      tau( 355) = (  0.5624396  0.3125025  0.0624443  )
       356        C      tau( 356) = (  0.5620953  0.3117854  0.3117916  )
       357        C      tau( 357) = (  0.5619992  0.3130582  0.5621583  )
       358        C      tau( 358) = (  0.5623772  0.3128441  0.8121204  )
       359        C      tau( 359) = (  0.5624709  0.5624856  0.0625535  )
       360        C      tau( 360) = (  0.5619995  0.5621515  0.3130649  )
       361        C      tau( 361) = (  0.5626458  0.5626267  0.8125242  )
       362        C      tau( 362) = (  0.5625028  0.8124855  0.0625810  )
       363        C      tau( 363) = (  0.5623776  0.8121146  0.3128500  )
       364        C      tau( 364) = (  0.5626459  0.8125184  0.5626325  )
       365        C      tau( 365) = (  0.5626728  0.8128271  0.8128325  )
       366        C      tau( 366) = (  0.8124712  0.0625271  0.0625317  )
       367        C      tau( 367) = (  0.8124415  0.0624633  0.3125302  )
       368        C      tau( 368) = (  0.8124642  0.0626006  0.5625160  )
       369        C      tau( 369) = (  0.8124943  0.0626712  0.8125048  )
       370        C      tau( 370) = (  0.8124414  0.3125257  0.0624681  )
       371        C      tau( 371) = (  0.8124105  0.3125203  0.3125255  )
       372        C      tau( 372) = (  0.8120481  0.3128988  0.5624078  )
       373        C      tau( 373) = (  0.8123722  0.3126529  0.8123903  )
       374        C      tau( 374) = (  0.8124642  0.5625113  0.0626058  )
       375        C      tau( 375) = (  0.8120480  0.5624017  0.3129052  )
       376        C      tau( 376) = (  0.8124993  0.5626487  0.5626545  )
       377        C      tau( 377) = (  0.8128400  0.5626693  0.8128456  )
       378        C      tau( 378) = (  0.8124944  0.8125000  0.0626762  )
       379        C      tau( 379) = (  0.8123719  0.8123849  0.3126583  )
       380        C      tau( 380) = (  0.8128399  0.8128405  0.5626742  )
       381        C      tau( 381) = (  0.8127012  0.8126942  0.8126990  )
       382        C      tau( 382) = (  0.0624449  0.1874771  0.1874823  )
       383        C      tau( 383) = (  0.0623808  0.1874540  0.4374750  )
       384        C      tau( 384) = (  0.0624195  0.1875090  0.6874714  )
       385        C      tau( 385) = (  0.0624684  0.1875077  0.9374648  )
       386        C      tau( 386) = (  0.0623807  0.4374696  0.1874597  )
       387        C      tau( 387) = (  0.0624601  0.4374689  0.4374747  )
       388        C      tau( 388) = (  0.0625381  0.4375060  0.6874415  )
       389        C      tau( 389) = (  0.0624439  0.4375106  0.9374914  )
       390        C      tau( 390) = (  0.0624199  0.6874657  0.1875152  )
       391        C      tau( 391) = (  0.0625381  0.6874356  0.4375119  )
       392        C      tau( 392) = (  0.0626741  0.6874715  0.6874776  )
       393        C      tau( 393) = (  0.0626170  0.6874849  0.9374765  )
       394        C      tau( 394) = (  0.0624688  0.9374594  0.1875130  )
       395        C      tau( 395) = (  0.0624443  0.9374853  0.4375160  )
       396        C      tau( 396) = (  0.0626169  0.9374702  0.6874902  )
       397        C      tau( 397) = (  0.0625497  0.9374950  0.9375003  )
       398        C      tau( 398) = (  0.3124428  0.1874570  0.1874628  )
       399        C      tau( 399) = (  0.3123651  0.1873775  0.4374306  )
       400        C      tau( 400) = (  0.3124716  0.1873815  0.6874467  )
       401        C      tau( 401) = (  0.3124692  0.1874545  0.9374628  )
       402        C      tau( 402) = (  0.3123654  0.4374239  0.1873840  )
       403        C      tau( 403) = (  0.3128693  0.4374991  0.4375058  )
       404        C      tau( 404) = (  0.3121882  0.4376082  0.6877799  )
       405        C      tau( 405) = (  0.3125339  0.4374888  0.9373590  )
       406        C      tau( 406) = (  0.3124723  0.6874393  0.1873893  )
       407        C      tau( 407) = (  0.3121884  0.6877733  0.4376151  )
       408        C      tau( 408) = (  0.3130216  0.6870934  0.6871004  )
       409        C      tau( 409) = (  0.3126060  0.6874386  0.9373763  )
       410        C      tau( 410) = (  0.3124699  0.9374559  0.1874616  )
       411        C      tau( 411) = (  0.3125341  0.9373527  0.4374949  )
       412        C      tau( 412) = (  0.3126059  0.9373689  0.6874447  )
       413        C      tau( 413) = (  0.3125371  0.9374294  0.9374361  )
       414        C      tau( 414) = (  0.5623866  0.1872143  0.1872196  )
       415        C      tau( 415) = (  0.5623393  0.1875572  0.4374762  )
       416        C      tau( 416) = (  0.5623951  0.1876491  0.6874029  )
       417        C      tau( 417) = (  0.5624586  0.1876049  0.9373796  )
       418        C      tau( 418) = (  0.5623395  0.4374702  0.1875631  )
       419        C      tau( 419) = (  0.5618874  0.4386059  0.6863072  )
       420        C      tau( 420) = (  0.5625018  0.4375506  0.9374349  )
       421        C      tau( 421) = (  0.5623958  0.6873962  0.1876559  )
       422        C      tau( 422) = (  0.5618878  0.6863014  0.4386120  )
       423        C      tau( 423) = (  0.5629422  0.6884216  0.6884278  )
       424        C      tau( 424) = (  0.5625800  0.6875522  0.9375878  )
       425        C      tau( 425) = (  0.5624588  0.9373741  0.1876105  )
       426        C      tau( 426) = (  0.5625019  0.9374296  0.4375559  )
       427        C      tau( 427) = (  0.5625799  0.9375821  0.6875575  )
       428        C      tau( 428) = (  0.5625321  0.9375868  0.9375924  )
       429        C      tau( 429) = (  0.8124205  0.1875075  0.1875121  )
       430        C      tau( 430) = (  0.8125292  0.1874272  0.4375307  )
       431        C      tau( 431) = (  0.8123213  0.1877426  0.6874198  )
       432        C      tau( 432) = (  0.8124476  0.1875892  0.9374532  )
       433        C      tau( 433) = (  0.8125289  0.4375255  0.1874328  )
       434        C      tau( 434) = (  0.8122078  0.4375860  0.4375920  )
       435        C      tau( 435) = (  0.8123471  0.4377681  0.6874984  )
       436        C      tau( 436) = (  0.8124768  0.4375736  0.9375066  )
       437        C      tau( 437) = (  0.8123210  0.6874144  0.1877484  )
       438        C      tau( 438) = (  0.8123468  0.6874926  0.4377740  )
       439        C      tau( 439) = (  0.8129259  0.6878020  0.6878072  )
       440        C      tau( 440) = (  0.8126362  0.6876040  0.9377235  )
       441        C      tau( 441) = (  0.8124477  0.9374483  0.1875940  )
       442        C      tau( 442) = (  0.8124768  0.9375016  0.4375782  )
       443        C      tau( 443) = (  0.8126360  0.9377185  0.6876086  )
       444        C      tau( 444) = (  0.8125492  0.9375966  0.9376013  )
       445        C      tau( 445) = (  0.1874584  0.1874700  0.0624674  )
       446        C      tau( 446) = (  0.1874445  0.1874580  0.3124683  )
       447        C      tau( 447) = (  0.1871700  0.1871618  0.5624090  )
       448        C      tau( 448) = (  0.1874897  0.1874823  0.8124419  )
       449        C      tau( 449) = (  0.1874339  0.4374650  0.0623865  )
       450        C      tau( 450) = (  0.1874193  0.4374221  0.3123984  )
       451        C      tau( 451) = (  0.1876185  0.4374346  0.5623604  )
       452        C      tau( 452) = (  0.1873920  0.4375037  0.8125783  )
       453        C      tau( 453) = (  0.1875053  0.6874645  0.0624112  )
       454        C      tau( 454) = (  0.1874360  0.6874206  0.3124741  )
       455        C      tau( 455) = (  0.1877457  0.6873180  0.5623833  )
       456        C      tau( 456) = (  0.1877610  0.6873812  0.8123059  )
       457        C      tau( 457) = (  0.1875035  0.9374552  0.0624726  )
       458        C      tau( 458) = (  0.1874596  0.9374477  0.3124796  )
       459        C      tau( 459) = (  0.1876170  0.9373399  0.5624601  )
       460        C      tau( 460) = (  0.1875870  0.9374185  0.8124466  )
       461        C      tau( 461) = (  0.4374529  0.1874475  0.0624010  )
       462        C      tau( 462) = (  0.4373821  0.1873932  0.3124058  )
       463        C      tau( 463) = (  0.4374326  0.1875329  0.5623925  )
       464        C      tau( 464) = (  0.4375168  0.1873271  0.8126351  )
       465        C      tau( 465) = (  0.4374550  0.4374688  0.0624449  )
       466        C      tau( 466) = (  0.4374151  0.4375046  0.3127053  )
       467        C      tau( 467) = (  0.4375709  0.4375422  0.8122580  )
       468        C      tau( 468) = (  0.4375050  0.6874548  0.0625034  )
       469        C      tau( 469) = (  0.4376653  0.6879004  0.3120089  )
       470        C      tau( 470) = (  0.4386967  0.6862390  0.5618575  )
       471        C      tau( 471) = (  0.4377706  0.6874596  0.8123436  )
       472        C      tau( 472) = (  0.4375084  0.9374984  0.0624410  )
       473        C      tau( 473) = (  0.4374913  0.9373680  0.3125319  )
       474        C      tau( 474) = (  0.4375555  0.9374140  0.5625022  )
       475        C      tau( 475) = (  0.4375714  0.9374746  0.8124767  )
       476        C      tau( 476) = (  0.6874581  0.1875203  0.0624454  )
       477        C      tau( 477) = (  0.6874014  0.1874413  0.3124982  )
       478        C      tau( 478) = (  0.6873323  0.1876833  0.5624450  )
       479        C      tau( 479) = (  0.6874002  0.1877338  0.8123486  )
       480        C      tau( 480) = (  0.6874373  0.4375194  0.0625324  )
       481        C      tau( 481) = (  0.6876911  0.4376478  0.3121891  )
       482        C      tau( 482) = (  0.6862243  0.4386914  0.5619532  )
       483        C      tau( 483) = (  0.6874843  0.4377514  0.8123829  )
       484        C      tau( 484) = (  0.6874892  0.6874995  0.0626479  )
       485        C      tau( 485) = (  0.6871144  0.6871630  0.3129772  )
       486        C      tau( 486) = (  0.6884361  0.6884602  0.5629363  )
       487        C      tau( 487) = (  0.6878055  0.6878011  0.8129288  )
       488        C      tau( 488) = (  0.6874899  0.9374937  0.0626189  )
       489        C      tau( 489) = (  0.6874479  0.9374082  0.3126068  )
       490        C      tau( 490) = (  0.6875550  0.9375940  0.5625843  )
       491        C      tau( 491) = (  0.6876054  0.9377162  0.8126400  )
       492        C      tau( 492) = (  0.9374488  0.1875148  0.0624876  )
       493        C      tau( 493) = (  0.9374259  0.1874850  0.3124949  )
       494        C      tau( 494) = (  0.9373412  0.1876297  0.5624727  )
       495        C      tau( 495) = (  0.9374347  0.1875866  0.8124604  )
       496        C      tau( 496) = (  0.9374668  0.4375160  0.0624779  )
       497        C      tau( 497) = (  0.9373426  0.4375080  0.3125577  )
       498        C      tau( 498) = (  0.9374188  0.4375611  0.5625109  )
       499        C      tau( 499) = (  0.9374934  0.4375726  0.8124798  )
       500        C      tau( 500) = (  0.9374830  0.6874929  0.0626172  )
       501        C      tau( 501) = (  0.9373871  0.6874501  0.3126148  )
       502        C      tau( 502) = (  0.9375976  0.6875475  0.5625815  )
       503        C      tau( 503) = (  0.9377285  0.6875977  0.8126301  )
       504        C      tau( 504) = (  0.9374981  0.9375030  0.0625556  )
       505        C      tau( 505) = (  0.9374363  0.9374491  0.3125483  )
       506        C      tau( 506) = (  0.9375878  0.9375847  0.5625355  )
       507        C      tau( 507) = (  0.9375985  0.9375910  0.8125506  )
       508        C      tau( 508) = (  0.5656959  0.4327018  0.4327080  )
       509        C      tau( 509) = (  0.4329692  0.4324910  0.5659180  )
       510        C      tau( 510) = (  0.4329695  0.5659118  0.4324973  )
       511        N      tau( 511) = (  0.5681278  0.5680874  0.5680933  )

     number of k points=     1
                       cart. coord. in units 2pi/alat
        k(    1) = (   0.0000000   0.0000000   0.0000000), wk =   1.0000000

                       cryst. coord.
        k(    1) = (   0.0000000   0.0000000   0.0000000), wk =   1.0000000

     Dense  grid:   948261 G-vectors     FFT dimensions: ( 160, 160, 160)

     Dynamical RAM for                 wfc:      38.88 MB

     Dynamical RAM for     wfc (w. buffer):      38.88 MB

     Dynamical RAM for           str. fact:       0.60 MB

     Dynamical RAM for           local pot:       0.00 MB

     Dynamical RAM for          nlocal pot:     154.01 MB

     Dynamical RAM for                qrad:       0.82 MB

     Dynamical RAM for          rho,v,vnew:       6.50 MB

     Dynamical RAM for               rhoin:       2.17 MB

     Dynamical RAM for            rho*nmix:       9.65 MB

     Dynamical RAM for           G-vectors:       1.28 MB

     Dynamical RAM for          h,s,v(r/c):       2.71 MB

     Dynamical RAM for          <psi|beta>:      32.19 MB

     Dynamical RAM for                 psi:      77.76 MB

     Dynamical RAM for                hpsi:      77.76 MB

     Dynamical RAM for      wfcinit/wfcrot:     102.14 MB

     Estimated static dynamical RAM per process >     209.85 MB

     Estimated max dynamical RAM per process >     409.91 MB

     Estimated total dynamical RAM >      37.98 GB
     Generating pointlists ...
     new r_m :   0.0426 (alat units)  1.1501 (a.u.) for type    1
     new r_m :   0.0426 (alat units)  1.1501 (a.u.) for type    2

     Initial potential from superposition of free atoms

     starting charge    2041.4445, renormalised to    2046.0000
     Starting wfcs are random

     total cpu time spent up to now is       11.7 secs

     Self-consistent Calculation

     iteration #  1     ecut=    80.00 Ry     beta= 0.70
     Davidson diagonalization with overlap

---- Real-time Memory Report at c_bands before calling an iterative solver
           512 MiB given to the printing process from OS
             0 MiB allocation reported by mallinfo(arena+hblkhd)
        139247 MiB available memory on the node where the printing process lives
------------------
     ethr =  1.00E-02,  avg # of iterations = 13.0

     total cpu time spent up to now is      130.5 secs

     total energy              =   -5824.01662256 Ry
     estimated scf accuracy    <      29.00919334 Ry

     total magnetization       =     2.00 Bohr mag/cell
     absolute magnetization    =     2.00 Bohr mag/cell

     iteration #  2     ecut=    80.00 Ry     beta= 0.70
     Davidson diagonalization with overlap

---- Real-time Memory Report at c_bands before calling an iterative solver
           628 MiB given to the printing process from OS
             0 MiB allocation reported by mallinfo(arena+hblkhd)
        137718 MiB available memory on the node where the printing process lives
------------------
     ethr =  1.42E-03,  avg # of iterations = 15.5

     total cpu time spent up to now is      179.3 secs

     total energy              =   -5828.18916606 Ry
     estimated scf accuracy    <       1.19012302 Ry

     total magnetization       =     2.00 Bohr mag/cell
     absolute magnetization    =     2.07 Bohr mag/cell

     iteration #  3     ecut=    80.00 Ry     beta= 0.70
     Davidson diagonalization with overlap

---- Real-time Memory Report at c_bands before calling an iterative solver
           651 MiB given to the printing process from OS
             0 MiB allocation reported by mallinfo(arena+hblkhd)
        137568 MiB available memory on the node where the printing process lives
------------------
     c_bands:  1 eigenvalues not converged
     ethr =  5.82E-05,  avg # of iterations = 20.0

     total cpu time spent up to now is      233.1 secs

     total energy              =   -5828.06097497 Ry
     estimated scf accuracy    <       4.75842141 Ry

     total magnetization       =     2.00 Bohr mag/cell
     absolute magnetization    =     2.20 Bohr mag/cell

     iteration #  4     ecut=    80.00 Ry     beta= 0.70
     Davidson diagonalization with overlap

---- Real-time Memory Report at c_bands before calling an iterative solver
           657 MiB given to the printing process from OS
             0 MiB allocation reported by mallinfo(arena+hblkhd)
        137564 MiB available memory on the node where the printing process lives
------------------
     c_bands:  1 eigenvalues not converged
     ethr =  5.82E-05,  avg # of iterations = 20.0

     total cpu time spent up to now is      267.6 secs

     total energy              =   -5829.07392377 Ry
     estimated scf accuracy    <       0.15489440 Ry

     total magnetization       =     2.00 Bohr mag/cell
     absolute magnetization    =     2.15 Bohr mag/cell

     iteration #  5     ecut=    80.00 Ry     beta= 0.70
     Davidson diagonalization with overlap

---- Real-time Memory Report at c_bands before calling an iterative solver
           657 MiB given to the printing process from OS
             0 MiB allocation reported by mallinfo(arena+hblkhd)
        137558 MiB available memory on the node where the printing process lives
------------------
     c_bands:  1 eigenvalues not converged
     ethr =  7.57E-06,  avg # of iterations = 18.5

     total cpu time spent up to now is      306.2 secs

     total energy              =   -5829.09102179 Ry
     estimated scf accuracy    <       0.05292194 Ry

     total magnetization       =     2.00 Bohr mag/cell
     absolute magnetization    =     2.18 Bohr mag/cell

     iteration #  6     ecut=    80.00 Ry     beta= 0.70
     Davidson diagonalization with overlap

---- Real-time Memory Report at c_bands before calling an iterative solver
           657 MiB given to the printing process from OS
             0 MiB allocation reported by mallinfo(arena+hblkhd)
        137558 MiB available memory on the node where the printing process lives
------------------
     c_bands:  1 eigenvalues not converged
     ethr =  2.59E-06,  avg # of iterations = 20.0

     total cpu time spent up to now is      347.4 secs

     total energy              =   -5829.10106653 Ry
     estimated scf accuracy    <       0.00355587 Ry

     total magnetization       =     2.00 Bohr mag/cell
     absolute magnetization    =     2.21 Bohr mag/cell

     iteration #  7     ecut=    80.00 Ry     beta= 0.70
     Davidson diagonalization with overlap

---- Real-time Memory Report at c_bands before calling an iterative solver
           657 MiB given to the printing process from OS
             0 MiB allocation reported by mallinfo(arena+hblkhd)
        137556 MiB available memory on the node where the printing process lives
------------------
     c_bands:  1 eigenvalues not converged
     ethr =  1.74E-07,  avg # of iterations = 20.0

     total cpu time spent up to now is      374.7 secs

     total energy              =   -5829.10253219 Ry
     estimated scf accuracy    <       0.00048454 Ry

     total magnetization       =     2.00 Bohr mag/cell
     absolute magnetization    =     2.23 Bohr mag/cell

     iteration #  8     ecut=    80.00 Ry     beta= 0.70
     Davidson diagonalization with overlap

---- Real-time Memory Report at c_bands before calling an iterative solver
           657 MiB given to the printing process from OS
             0 MiB allocation reported by mallinfo(arena+hblkhd)
        137336 MiB available memory on the node where the printing process lives
------------------
     c_bands:  2 eigenvalues not converged
     ethr =  2.37E-08,  avg # of iterations = 20.0

     total cpu time spent up to now is      400.4 secs

     total energy              =   -5829.10278556 Ry
     estimated scf accuracy    <       0.00021462 Ry

     total magnetization       =     2.00 Bohr mag/cell
     absolute magnetization    =     2.24 Bohr mag/cell

     iteration #  9     ecut=    80.00 Ry     beta= 0.70
     Davidson diagonalization with overlap

---- Real-time Memory Report at c_bands before calling an iterative solver
           662 MiB given to the printing process from OS
             0 MiB allocation reported by mallinfo(arena+hblkhd)
        137245 MiB available memory on the node where the printing process lives
------------------
     c_bands:  1 eigenvalues not converged
     ethr =  1.05E-08,  avg # of iterations = 20.0

     total cpu time spent up to now is      428.3 secs

     total energy              =   -5829.10286633 Ry
     estimated scf accuracy    <       0.00004774 Ry

     total magnetization       =     2.00 Bohr mag/cell
     absolute magnetization    =     2.26 Bohr mag/cell

     iteration # 10     ecut=    80.00 Ry     beta= 0.70
     Davidson diagonalization with overlap

---- Real-time Memory Report at c_bands before calling an iterative solver
           664 MiB given to the printing process from OS
             0 MiB allocation reported by mallinfo(arena+hblkhd)
        137246 MiB available memory on the node where the printing process lives
------------------
     c_bands:  1 eigenvalues not converged
     ethr =  2.33E-09,  avg # of iterations = 20.0

     total cpu time spent up to now is      464.7 secs

     total energy              =   -5829.10288535 Ry
     estimated scf accuracy    <       0.00001346 Ry

     total magnetization       =     2.00 Bohr mag/cell
     absolute magnetization    =     2.27 Bohr mag/cell

     iteration # 11     ecut=    80.00 Ry     beta= 0.70
     Davidson diagonalization with overlap

---- Real-time Memory Report at c_bands before calling an iterative solver
           664 MiB given to the printing process from OS
             0 MiB allocation reported by mallinfo(arena+hblkhd)
        137195 MiB available memory on the node where the printing process lives
------------------
     c_bands:  1 eigenvalues not converged
     ethr =  6.58E-10,  avg # of iterations = 16.5

     total cpu time spent up to now is      491.3 secs

     total energy              =   -5829.10288951 Ry
     estimated scf accuracy    <       0.00000162 Ry

     total magnetization       =     2.00 Bohr mag/cell
     absolute magnetization    =     2.27 Bohr mag/cell

     iteration # 12     ecut=    80.00 Ry     beta= 0.70
     Davidson diagonalization with overlap

---- Real-time Memory Report at c_bands before calling an iterative solver
           665 MiB given to the printing process from OS
             0 MiB allocation reported by mallinfo(arena+hblkhd)
        137102 MiB available memory on the node where the printing process lives
------------------
     c_bands:  2 eigenvalues not converged
     ethr =  7.92E-11,  avg # of iterations = 20.0

     total cpu time spent up to now is      517.5 secs

     total energy              =   -5829.10289034 Ry
     estimated scf accuracy    <       0.00000072 Ry

     total magnetization       =     2.00 Bohr mag/cell
     absolute magnetization    =     2.27 Bohr mag/cell

     iteration # 13     ecut=    80.00 Ry     beta= 0.70
     Davidson diagonalization with overlap

---- Real-time Memory Report at c_bands before calling an iterative solver
           667 MiB given to the printing process from OS
             0 MiB allocation reported by mallinfo(arena+hblkhd)
        136943 MiB available memory on the node where the printing process lives
------------------
     c_bands:  1 eigenvalues not converged
     ethr =  3.50E-11,  avg # of iterations = 20.0

     total cpu time spent up to now is      545.0 secs

     total energy              =   -5829.10289061 Ry
     estimated scf accuracy    <       0.00000032 Ry

     total magnetization       =     2.00 Bohr mag/cell
     absolute magnetization    =     2.28 Bohr mag/cell

     iteration # 14     ecut=    80.00 Ry     beta= 0.70
     Davidson diagonalization with overlap

---- Real-time Memory Report at c_bands before calling an iterative solver
           670 MiB given to the printing process from OS
             0 MiB allocation reported by mallinfo(arena+hblkhd)
        136943 MiB available memory on the node where the printing process lives
------------------
     c_bands:  1 eigenvalues not converged
     ethr =  1.55E-11,  avg # of iterations = 20.0

     total cpu time spent up to now is      580.0 secs

     total energy              =   -5829.10289070 Ry
     estimated scf accuracy    <       0.00000006 Ry

     total magnetization       =     2.00 Bohr mag/cell
     absolute magnetization    =     2.28 Bohr mag/cell

     iteration # 15     ecut=    80.00 Ry     beta= 0.70
     Davidson diagonalization with overlap

---- Real-time Memory Report at c_bands before calling an iterative solver
           670 MiB given to the printing process from OS
             0 MiB allocation reported by mallinfo(arena+hblkhd)
        136942 MiB available memory on the node where the printing process lives
------------------
     ethr =  3.18E-12,  avg # of iterations = 19.5

     total cpu time spent up to now is      616.0 secs

     total energy              =   -5829.10289073 Ry
     estimated scf accuracy    <       0.00000004 Ry

     total magnetization       =     2.00 Bohr mag/cell
     absolute magnetization    =     2.28 Bohr mag/cell

     iteration # 16     ecut=    80.00 Ry     beta= 0.70
     Davidson diagonalization with overlap

---- Real-time Memory Report at c_bands before calling an iterative solver
           670 MiB given to the printing process from OS
             0 MiB allocation reported by mallinfo(arena+hblkhd)
        136942 MiB available memory on the node where the printing process lives
------------------
     c_bands:  1 eigenvalues not converged
     ethr =  1.89E-12,  avg # of iterations = 20.0

     total cpu time spent up to now is      652.9 secs

     total energy              =   -5829.10289074 Ry
     estimated scf accuracy    <          4.0E-09 Ry

     total magnetization       =     2.00 Bohr mag/cell
     absolute magnetization    =     2.28 Bohr mag/cell

     iteration # 17     ecut=    80.00 Ry     beta= 0.70
     Davidson diagonalization with overlap

---- Real-time Memory Report at c_bands before calling an iterative solver
           670 MiB given to the printing process from OS
             0 MiB allocation reported by mallinfo(arena+hblkhd)
        136943 MiB available memory on the node where the printing process lives
------------------
     c_bands:  1 eigenvalues not converged
     ethr =  1.96E-13,  avg # of iterations = 19.0

     total cpu time spent up to now is      683.4 secs

     total energy              =   -5829.10289075 Ry
     estimated scf accuracy    <          3.7E-09 Ry

     total magnetization       =     2.00 Bohr mag/cell
     absolute magnetization    =     2.28 Bohr mag/cell

     iteration # 18     ecut=    80.00 Ry     beta= 0.70
     Davidson diagonalization with overlap

---- Real-time Memory Report at c_bands before calling an iterative solver
           670 MiB given to the printing process from OS
             0 MiB allocation reported by mallinfo(arena+hblkhd)
        136842 MiB available memory on the node where the printing process lives
------------------
     c_bands:  1 eigenvalues not converged
     ethr =  1.80E-13,  avg # of iterations = 18.0

     total cpu time spent up to now is      708.2 secs

     total energy              =   -5829.10289075 Ry
     estimated scf accuracy    <          3.4E-10 Ry

     total magnetization       =     2.00 Bohr mag/cell
     absolute magnetization    =     2.28 Bohr mag/cell

     iteration # 19     ecut=    80.00 Ry     beta= 0.70
     Davidson diagonalization with overlap

---- Real-time Memory Report at c_bands before calling an iterative solver
           673 MiB given to the printing process from OS
             0 MiB allocation reported by mallinfo(arena+hblkhd)
        136842 MiB available memory on the node where the printing process lives
------------------
     c_bands:  2 eigenvalues not converged
     ethr =  1.00E-13,  avg # of iterations = 20.0

     total cpu time spent up to now is      744.5 secs

     total energy              =   -5829.10289075 Ry
     estimated scf accuracy    <          3.1E-10 Ry

     total magnetization       =     2.00 Bohr mag/cell
     absolute magnetization    =     2.28 Bohr mag/cell

     iteration # 20     ecut=    80.00 Ry     beta= 0.70
     Davidson diagonalization with overlap

---- Real-time Memory Report at c_bands before calling an iterative solver
           673 MiB given to the printing process from OS
             0 MiB allocation reported by mallinfo(arena+hblkhd)
        136843 MiB available memory on the node where the printing process lives
------------------
     ethr =  1.00E-13,  avg # of iterations = 12.0
 
     Magnetic moment per site  (integrated on atomic sphere of radius R)
     atom   1 (R=0.043)  charge=  1.8122  magn= -0.0000
     atom   2 (R=0.043)  charge=  1.8122  magn= -0.0000
     atom   3 (R=0.043)  charge=  1.8137  magn=  0.0002
     atom   4 (R=0.043)  charge=  1.8120  magn=  0.0000
     atom   5 (R=0.043)  charge=  1.8122  magn= -0.0000
     atom   6 (R=0.043)  charge=  1.8127  magn= -0.0000
     atom   7 (R=0.043)  charge=  1.8123  magn= -0.0000
     atom   8 (R=0.043)  charge=  1.8123  magn= -0.0000
     atom   9 (R=0.043)  charge=  1.8137  magn=  0.0002
     atom  10 (R=0.043)  charge=  1.8123  magn= -0.0000
     atom  11 (R=0.043)  charge=  1.8121  magn= -0.0000
     atom  12 (R=0.043)  charge=  1.8125  magn=  0.0000
     atom  13 (R=0.043)  charge=  1.8120  magn=  0.0000
     atom  14 (R=0.043)  charge=  1.8123  magn= -0.0000
     atom  15 (R=0.043)  charge=  1.8125  magn=  0.0000
     atom  16 (R=0.043)  charge=  1.8127  magn= -0.0000
     atom  17 (R=0.043)  charge=  1.8122  magn= -0.0000
     atom  18 (R=0.043)  charge=  1.8127  magn= -0.0000
     atom  19 (R=0.043)  charge=  1.8124  magn= -0.0000
     atom  20 (R=0.043)  charge=  1.8124  magn= -0.0000
     atom  21 (R=0.043)  charge=  1.8127  magn= -0.0000
     atom  22 (R=0.043)  charge=  1.8120  magn= -0.0001
     atom  23 (R=0.043)  charge=  1.8165  magn=  0.0017
     atom  24 (R=0.043)  charge=  1.8119  magn= -0.0001
     atom  25 (R=0.043)  charge=  1.8124  magn= -0.0000
     atom  26 (R=0.043)  charge=  1.8165  magn=  0.0017
     atom  27 (R=0.043)  charge=  1.8127  magn= -0.0009
     atom  28 (R=0.043)  charge=  1.8150  magn=  0.0029
     atom  29 (R=0.043)  charge=  1.8123  magn= -0.0000
     atom  30 (R=0.043)  charge=  1.8119  magn= -0.0001
     atom  31 (R=0.043)  charge=  1.8150  magn=  0.0029
     atom  32 (R=0.043)  charge=  1.8110  magn=  0.0001
     atom  33 (R=0.043)  charge=  1.8139  magn=  0.0002
     atom  34 (R=0.043)  charge=  1.8124  magn= -0.0000
     atom  35 (R=0.043)  charge=  1.8122  magn= -0.0000
     atom  36 (R=0.043)  charge=  1.8125  magn=  0.0000
     atom  37 (R=0.043)  charge=  1.8124  magn= -0.0000
     atom  38 (R=0.043)  charge=  1.8162  magn=  0.0017
     atom  39 (R=0.043)  charge=  1.8126  magn= -0.0009
     atom  40 (R=0.043)  charge=  1.8156  magn=  0.0028
     atom  41 (R=0.043)  charge=  1.8122  magn= -0.0000
     atom  42 (R=0.043)  charge=  1.8126  magn= -0.0009
     atom  43 (R=0.043)  charge=  1.8153  magn= -0.0005
     atom  44 (R=0.043)  charge=  1.8125  magn=  0.0000
     atom  45 (R=0.043)  charge=  1.8156  magn=  0.0028
     atom  46 (R=0.043)  charge=  1.8153  magn= -0.0005
     atom  47 (R=0.043)  charge=  1.8165  magn=  0.0001
     atom  48 (R=0.043)  charge=  1.8121  magn=  0.0000
     atom  49 (R=0.043)  charge=  1.8124  magn= -0.0000
     atom  50 (R=0.043)  charge=  1.8125  magn=  0.0000
     atom  51 (R=0.043)  charge=  1.8128  magn= -0.0000
     atom  52 (R=0.043)  charge=  1.8124  magn= -0.0000
     atom  53 (R=0.043)  charge=  1.8119  magn= -0.0001
     atom  54 (R=0.043)  charge=  1.8148  magn=  0.0029
     atom  55 (R=0.043)  charge=  1.8111  magn=  0.0001
     atom  56 (R=0.043)  charge=  1.8125  magn=  0.0000
     atom  57 (R=0.043)  charge=  1.8148  magn=  0.0029
     atom  58 (R=0.043)  charge=  1.8151  magn= -0.0005
     atom  59 (R=0.043)  charge=  1.8166  magn=  0.0001
     atom  60 (R=0.043)  charge=  1.8128  magn= -0.0000
     atom  61 (R=0.043)  charge=  1.8111  magn=  0.0001
     atom  62 (R=0.043)  charge=  1.8166  magn=  0.0001
     atom  63 (R=0.043)  charge=  1.8125  magn= -0.0000
     atom  64 (R=0.043)  charge=  1.8123  magn= -0.0000
     atom  65 (R=0.043)  charge=  1.8127  magn= -0.0000
     atom  66 (R=0.043)  charge=  1.8121  magn= -0.0000
     atom  67 (R=0.043)  charge=  1.8121  magn= -0.0000
     atom  68 (R=0.043)  charge=  1.8127  magn= -0.0000
     atom  69 (R=0.043)  charge=  1.8122  magn=  0.0000
     atom  70 (R=0.043)  charge=  1.8123  magn=  0.0000
     atom  71 (R=0.043)  charge=  1.8125  magn= -0.0000
     atom  72 (R=0.043)  charge=  1.8121  magn= -0.0000
     atom  73 (R=0.043)  charge=  1.8123  magn=  0.0000
     atom  74 (R=0.043)  charge=  1.8124  magn= -0.0000
     atom  75 (R=0.043)  charge=  1.8127  magn= -0.0000
     atom  76 (R=0.043)  charge=  1.8121  magn= -0.0000
     atom  77 (R=0.043)  charge=  1.8125  magn= -0.0000
     atom  78 (R=0.043)  charge=  1.8127  magn= -0.0000
     atom  79 (R=0.043)  charge=  1.8121  magn=  0.0000
     atom  80 (R=0.043)  charge=  1.8125  magn= -0.0000
     atom  81 (R=0.043)  charge=  1.8126  magn=  0.0000
     atom  82 (R=0.043)  charge=  1.8124  magn= -0.0001
     atom  83 (R=0.043)  charge=  1.8123  magn= -0.0000
     atom  84 (R=0.043)  charge=  1.8126  magn=  0.0000
     atom  85 (R=0.043)  charge=  1.8107  magn= -0.0004
     atom  86 (R=0.043)  charge=  1.8109  magn= -0.0011
     atom  87 (R=0.043)  charge=  1.8125  magn= -0.0001
     atom  88 (R=0.043)  charge=  1.8124  magn= -0.0001
     atom  89 (R=0.043)  charge=  1.8109  magn= -0.0011
     atom  90 (R=0.043)  charge=  1.8099  magn= -0.0007
     atom  91 (R=0.043)  charge=  1.8111  magn= -0.0000
     atom  92 (R=0.043)  charge=  1.8123  magn= -0.0000
     atom  93 (R=0.043)  charge=  1.8125  magn= -0.0001
     atom  94 (R=0.043)  charge=  1.8111  magn= -0.0000
     atom  95 (R=0.043)  charge=  1.8121  magn=  0.0000
     atom  96 (R=0.043)  charge=  1.8138  magn=  0.0003
     atom  97 (R=0.043)  charge=  1.8122  magn= -0.0001
     atom  98 (R=0.043)  charge=  1.8123  magn= -0.0001
     atom  99 (R=0.043)  charge=  1.8136  magn=  0.0005
     atom 100 (R=0.043)  charge=  1.8122  magn= -0.0001
     atom 101 (R=0.043)  charge=  1.8182  magn= -0.0083
     atom 102 (R=0.043)  charge=  1.8164  magn= -0.0043
     atom 103 (R=0.043)  charge=  1.8125  magn= -0.0000
     atom 104 (R=0.043)  charge=  1.8123  magn= -0.0001
     atom 105 (R=0.043)  charge=  1.8165  magn= -0.0043
     atom 106 (R=0.043)  charge=  1.7904  magn=  0.0008
     atom 107 (R=0.043)  charge=  1.8126  magn= -0.0000
     atom 108 (R=0.043)  charge=  1.8136  magn=  0.0005
     atom 109 (R=0.043)  charge=  1.8125  magn= -0.0000
     atom 110 (R=0.043)  charge=  1.8126  magn= -0.0000
     atom 111 (R=0.043)  charge=  1.8138  magn=  0.0000
     atom 112 (R=0.043)  charge=  1.8122  magn= -0.0000
     atom 113 (R=0.043)  charge=  1.8124  magn= -0.0001
     atom 114 (R=0.043)  charge=  1.8122  magn= -0.0000
     atom 115 (R=0.043)  charge=  1.8120  magn=  0.0000
     atom 116 (R=0.043)  charge=  1.8124  magn= -0.0001
     atom 117 (R=0.043)  charge=  1.8114  magn= -0.0011
     atom 118 (R=0.043)  charge=  1.8073  magn= -0.0002
     atom 119 (R=0.043)  charge=  1.8121  magn=  0.0000
     atom 120 (R=0.043)  charge=  1.8122  magn= -0.0000
     atom 121 (R=0.043)  charge=  1.8073  magn= -0.0002
     atom 122 (R=0.043)  charge=  1.8134  magn= -0.0000
     atom 123 (R=0.043)  charge=  1.8132  magn= -0.0000
     atom 124 (R=0.043)  charge=  1.8120  magn=  0.0000
     atom 125 (R=0.043)  charge=  1.8121  magn=  0.0000
     atom 126 (R=0.043)  charge=  1.8132  magn= -0.0000
     atom 127 (R=0.043)  charge=  1.8126  magn=  0.0000
     atom 128 (R=0.043)  charge=  1.8123  magn= -0.0000
     atom 129 (R=0.043)  charge=  1.8127  magn= -0.0000
     atom 130 (R=0.043)  charge=  1.8121  magn= -0.0000
     atom 131 (R=0.043)  charge=  1.8121  magn= -0.0000
     atom 132 (R=0.043)  charge=  1.8124  magn= -0.0000
     atom 133 (R=0.043)  charge=  1.8124  magn=  0.0000
     atom 134 (R=0.043)  charge=  1.8123  magn= -0.0001
     atom 135 (R=0.043)  charge=  1.8123  magn= -0.0000
     atom 136 (R=0.043)  charge=  1.8139  magn=  0.0003
     atom 137 (R=0.043)  charge=  1.8122  magn= -0.0001
     atom 138 (R=0.043)  charge=  1.8122  magn= -0.0001
     atom 139 (R=0.043)  charge=  1.8134  magn=  0.0005
     atom 140 (R=0.043)  charge=  1.8121  magn= -0.0000
     atom 141 (R=0.043)  charge=  1.8124  magn= -0.0001
     atom 142 (R=0.043)  charge=  1.8121  magn= -0.0000
     atom 143 (R=0.043)  charge=  1.8119  magn=  0.0000
     atom 144 (R=0.043)  charge=  1.8127  magn= -0.0000
     atom 145 (R=0.043)  charge=  1.8123  magn=  0.0000
     atom 146 (R=0.043)  charge=  1.8124  magn=  0.0000
     atom 147 (R=0.043)  charge=  1.8126  magn= -0.0000
     atom 148 (R=0.043)  charge=  1.8126  magn=  0.0000
     atom 149 (R=0.043)  charge=  1.8112  magn= -0.0004
     atom 150 (R=0.043)  charge=  1.8110  magn= -0.0011
     atom 151 (R=0.043)  charge=  1.8125  magn= -0.0001
     atom 152 (R=0.043)  charge=  1.8123  magn= -0.0001
     atom 153 (R=0.043)  charge=  1.8184  magn= -0.0082
     atom 154 (R=0.043)  charge=  1.8149  magn= -0.0043
     atom 155 (R=0.043)  charge=  1.8125  magn= -0.0000
     atom 156 (R=0.043)  charge=  1.8124  magn= -0.0001
     atom 157 (R=0.043)  charge=  1.8116  magn= -0.0011
     atom 158 (R=0.043)  charge=  1.8073  magn= -0.0002
     atom 159 (R=0.043)  charge=  1.8120  magn=  0.0000
     atom 160 (R=0.043)  charge=  1.8122  magn= -0.0000
     atom 161 (R=0.043)  charge=  1.8123  magn=  0.0000
     atom 162 (R=0.043)  charge=  1.8125  magn= -0.0000
     atom 163 (R=0.043)  charge=  1.8128  magn= -0.0000
     atom 164 (R=0.043)  charge=  1.8123  magn= -0.0001
     atom 165 (R=0.043)  charge=  1.8110  magn= -0.0011
     atom 166 (R=0.043)  charge=  1.8105  magn= -0.0007
     atom 167 (R=0.043)  charge=  1.8112  magn= -0.0000
     atom 168 (R=0.043)  charge=  1.8122  magn= -0.0001
     atom 169 (R=0.043)  charge=  1.8143  magn= -0.0043
     atom 170 (R=0.043)  charge=  1.7904  magn=  0.0008
     atom 171 (R=0.043)  charge=  1.8126  magn= -0.0000
     atom 172 (R=0.043)  charge=  1.8123  magn= -0.0000
     atom 173 (R=0.043)  charge=  1.8073  magn= -0.0002
     atom 174 (R=0.043)  charge=  1.8135  magn= -0.0000
     atom 175 (R=0.043)  charge=  1.8132  magn= -0.0000
     atom 176 (R=0.043)  charge=  1.8122  magn= -0.0000
     atom 177 (R=0.043)  charge=  1.8125  magn= -0.0000
     atom 178 (R=0.043)  charge=  1.8128  magn=  0.0000
     atom 179 (R=0.043)  charge=  1.8121  magn=  0.0000
     atom 180 (R=0.043)  charge=  1.8123  magn= -0.0000
     atom 181 (R=0.043)  charge=  1.8124  magn= -0.0001
     atom 182 (R=0.043)  charge=  1.8110  magn= -0.0000
     atom 183 (R=0.043)  charge=  1.8121  magn=  0.0000
     atom 184 (R=0.043)  charge=  1.8132  magn=  0.0005
     atom 185 (R=0.043)  charge=  1.8124  magn= -0.0000
     atom 186 (R=0.043)  charge=  1.8125  magn= -0.0000
     atom 187 (R=0.043)  charge=  1.8138  magn=  0.0000
     atom 188 (R=0.043)  charge=  1.8120  magn=  0.0000
     atom 189 (R=0.043)  charge=  1.8120  magn=  0.0000
     atom 190 (R=0.043)  charge=  1.8131  magn= -0.0000
     atom 191 (R=0.043)  charge=  1.8126  magn=  0.0000
     atom 192 (R=0.043)  charge=  1.8123  magn= -0.0000
     atom 193 (R=0.043)  charge=  1.8124  magn= -0.0000
     atom 194 (R=0.043)  charge=  1.8139  magn=  0.0003
     atom 195 (R=0.043)  charge=  1.8121  magn= -0.0000
     atom 196 (R=0.043)  charge=  1.8127  magn= -0.0000
     atom 197 (R=0.043)  charge=  1.8125  magn=  0.0000
     atom 198 (R=0.043)  charge=  1.8122  magn= -0.0001
     atom 199 (R=0.043)  charge=  1.8124  magn= -0.0001
     atom 200 (R=0.043)  charge=  1.8121  magn= -0.0000
     atom 201 (R=0.043)  charge=  1.8123  magn= -0.0001
     atom 202 (R=0.043)  charge=  1.8122  magn= -0.0001
     atom 203 (R=0.043)  charge=  1.8121  magn= -0.0000
     atom 204 (R=0.043)  charge=  1.8121  magn= -0.0000
     atom 205 (R=0.043)  charge=  1.8123  magn= -0.0000
     atom 206 (R=0.043)  charge=  1.8134  magn=  0.0005
     atom 207 (R=0.043)  charge=  1.8119  magn=  0.0000
     atom 208 (R=0.043)  charge=  1.8127  magn= -0.0000
     atom 209 (R=0.043)  charge=  1.8126  magn=  0.0000
     atom 210 (R=0.043)  charge=  1.8123  magn= -0.0001
     atom 211 (R=0.043)  charge=  1.8124  magn= -0.0001
     atom 212 (R=0.043)  charge=  1.8123  magn=  0.0000
     atom 213 (R=0.043)  charge=  1.8112  magn= -0.0004
     atom 214 (R=0.043)  charge=  1.8184  magn= -0.0082
     atom 215 (R=0.043)  charge=  1.8116  magn= -0.0011
     atom 216 (R=0.043)  charge=  1.8124  magn=  0.0000
     atom 217 (R=0.043)  charge=  1.8110  magn= -0.0011
     atom 218 (R=0.043)  charge=  1.8149  magn= -0.0043
     atom 219 (R=0.043)  charge=  1.8073  magn= -0.0002
     atom 220 (R=0.043)  charge=  1.8126  magn= -0.0000
     atom 221 (R=0.043)  charge=  1.8125  magn= -0.0001
     atom 222 (R=0.043)  charge=  1.8125  magn= -0.0000
     atom 223 (R=0.043)  charge=  1.8120  magn=  0.0000
     atom 224 (R=0.043)  charge=  1.8122  magn= -0.0000
     atom 225 (R=0.043)  charge=  1.8123  magn= -0.0001
     atom 226 (R=0.043)  charge=  1.8122  magn= -0.0001
     atom 227 (R=0.043)  charge=  1.8123  magn= -0.0000
     atom 228 (R=0.043)  charge=  1.8123  magn=  0.0000
     atom 229 (R=0.043)  charge=  1.8110  magn= -0.0011
     atom 230 (R=0.043)  charge=  1.8143  magn= -0.0043
     atom 231 (R=0.043)  charge=  1.8073  magn= -0.0002
     atom 232 (R=0.043)  charge=  1.8125  magn= -0.0000
     atom 233 (R=0.043)  charge=  1.8105  magn= -0.0007
     atom 234 (R=0.043)  charge=  1.7904  magn=  0.0008
     atom 235 (R=0.043)  charge=  1.8135  magn= -0.0000
     atom 236 (R=0.043)  charge=  1.8128  magn= -0.0000
     atom 237 (R=0.043)  charge=  1.8112  magn= -0.0000
     atom 238 (R=0.043)  charge=  1.8126  magn= -0.0000
     atom 239 (R=0.043)  charge=  1.8132  magn= -0.0000
     atom 240 (R=0.043)  charge=  1.8122  magn= -0.0000
     atom 241 (R=0.043)  charge=  1.8123  magn= -0.0000
     atom 242 (R=0.043)  charge=  1.8132  magn=  0.0005
     atom 243 (R=0.043)  charge=  1.8120  magn=  0.0000
     atom 244 (R=0.043)  charge=  1.8125  magn= -0.0000
     atom 245 (R=0.043)  charge=  1.8124  magn= -0.0001
     atom 246 (R=0.043)  charge=  1.8124  magn= -0.0000
     atom 247 (R=0.043)  charge=  1.8120  magn=  0.0000
     atom 248 (R=0.043)  charge=  1.8128  magn=  0.0000
     atom 249 (R=0.043)  charge=  1.8110  magn= -0.0000
     atom 250 (R=0.043)  charge=  1.8125  magn= -0.0000
     atom 251 (R=0.043)  charge=  1.8131  magn= -0.0000
     atom 252 (R=0.043)  charge=  1.8121  magn=  0.0000
     atom 253 (R=0.043)  charge=  1.8121  magn=  0.0000
     atom 254 (R=0.043)  charge=  1.8138  magn=  0.0000
     atom 255 (R=0.043)  charge=  1.8126  magn=  0.0000
     atom 256 (R=0.043)  charge=  1.8124  magn=  0.0000
     atom 257 (R=0.043)  charge=  1.8121  magn=  0.0000
     atom 258 (R=0.043)  charge=  1.8128  magn=  0.0001
     atom 259 (R=0.043)  charge=  1.8125  magn=  0.0001
     atom 260 (R=0.043)  charge=  1.8120  magn=  0.0000
     atom 261 (R=0.043)  charge=  1.8117  magn=  0.0001
     atom 262 (R=0.043)  charge=  1.8122  magn=  0.0011
     atom 263 (R=0.043)  charge=  1.8126  magn=  0.0001
     atom 264 (R=0.043)  charge=  1.8143  magn=  0.0012
     atom 265 (R=0.043)  charge=  1.8121  magn=  0.0014
     atom 266 (R=0.043)  charge=  1.8114  magn=  0.0000
     atom 267 (R=0.043)  charge=  1.8115  magn=  0.0000
     atom 268 (R=0.043)  charge=  1.8123  magn=  0.0003
     atom 269 (R=0.043)  charge=  1.8133  magn=  0.0014
     atom 270 (R=0.043)  charge=  1.8120  magn=  0.0000
     atom 271 (R=0.043)  charge=  1.8126  magn=  0.0000
     atom 272 (R=0.043)  charge=  1.8121  magn=  0.0000
     atom 273 (R=0.043)  charge=  1.8123  magn=  0.0003
     atom 274 (R=0.043)  charge=  1.8122  magn=  0.0001
     atom 275 (R=0.043)  charge=  1.8129  magn=  0.0002
     atom 276 (R=0.043)  charge=  1.8119  magn=  0.0001
     atom 277 (R=0.043)  charge=  1.8117  magn=  0.0069
     atom 278 (R=0.043)  charge=  1.8104  magn=  0.0176
     atom 279 (R=0.043)  charge=  1.8120  magn=  0.0001
     atom 280 (R=0.043)  charge=  1.8123  magn=  0.0014
     atom 281 (R=0.043)  charge=  1.8091  magn=  0.0038
     atom 282 (R=0.043)  charge=  1.8122  magn=  0.0002
     atom 283 (R=0.043)  charge=  1.8136  magn=  0.0014
     atom 284 (R=0.043)  charge=  1.8123  magn=  0.0006
     atom 285 (R=0.043)  charge=  1.8116  magn=  0.0001
     atom 286 (R=0.043)  charge=  1.8120  magn=  0.0000
     atom 287 (R=0.043)  charge=  1.8127  magn=  0.0001
     atom 288 (R=0.043)  charge=  1.8122  magn=  0.0001
     atom 289 (R=0.043)  charge=  1.8125  magn=  0.0000
     atom 290 (R=0.043)  charge=  1.8125  magn=  0.0000
     atom 291 (R=0.043)  charge=  1.8122  magn=  0.0011
     atom 292 (R=0.043)  charge=  1.8091  magn=  0.0175
     atom 293 (R=0.043)  charge=  1.8126  magn=  0.0003
     atom 294 (R=0.043)  charge=  1.8124  magn=  0.0000
     atom 295 (R=0.043)  charge=  1.8116  magn=  0.0000
     atom 296 (R=0.043)  charge=  1.8091  magn=  0.0038
     atom 297 (R=0.043)  charge=  1.8210  magn=  0.0001
     atom 298 (R=0.043)  charge=  1.8123  magn=  0.0001
     atom 299 (R=0.043)  charge=  1.8120  magn=  0.0000
     atom 300 (R=0.043)  charge=  1.8117  magn=  0.0001
     atom 301 (R=0.043)  charge=  1.8143  magn=  0.0000
     atom 302 (R=0.043)  charge=  1.8133  magn=  0.0000
     atom 303 (R=0.043)  charge=  1.8124  magn=  0.0001
     atom 304 (R=0.043)  charge=  1.8127  magn=  0.0002
     atom 305 (R=0.043)  charge=  1.8126  magn=  0.0000
     atom 306 (R=0.043)  charge=  1.8126  magn=  0.0000
     atom 307 (R=0.043)  charge=  1.8125  magn=  0.0001
     atom 308 (R=0.043)  charge=  1.8119  magn=  0.0001
     atom 309 (R=0.043)  charge=  1.8124  magn=  0.0000
     atom 310 (R=0.043)  charge=  1.8124  magn=  0.0000
     atom 311 (R=0.043)  charge=  1.8115  magn=  0.0000
     atom 312 (R=0.043)  charge=  1.8122  magn=  0.0002
     atom 313 (R=0.043)  charge=  1.8123  magn=  0.0001
     atom 314 (R=0.043)  charge=  1.8131  magn=  0.0000
     atom 315 (R=0.043)  charge=  1.8126  magn=  0.0000
     atom 316 (R=0.043)  charge=  1.8120  magn=  0.0000
     atom 317 (R=0.043)  charge=  1.8133  magn=  0.0000
     atom 318 (R=0.043)  charge=  1.8128  magn=  0.0000
     atom 319 (R=0.043)  charge=  1.8125  magn=  0.0000
     atom 320 (R=0.043)  charge=  1.8124  magn=  0.0000
     atom 321 (R=0.043)  charge=  1.8128  magn=  0.0001
     atom 322 (R=0.043)  charge=  1.8125  magn=  0.0000
     atom 323 (R=0.043)  charge=  1.8124  magn=  0.0000
     atom 324 (R=0.043)  charge=  1.8123  magn= -0.0000
     atom 325 (R=0.043)  charge=  1.8122  magn=  0.0001
     atom 326 (R=0.043)  charge=  1.8126  magn=  0.0001
     atom 327 (R=0.043)  charge=  1.8128  magn=  0.0001
     atom 328 (R=0.043)  charge=  1.8122  magn=  0.0001
     atom 329 (R=0.043)  charge=  1.8122  magn=  0.0003
     atom 330 (R=0.043)  charge=  1.8120  magn= -0.0000
     atom 331 (R=0.043)  charge=  1.8125  magn=  0.0000
     atom 332 (R=0.043)  charge=  1.8126  magn=  0.0001
     atom 333 (R=0.043)  charge=  1.8120  magn= -0.0000
     atom 334 (R=0.043)  charge=  1.8127  magn=  0.0000
     atom 335 (R=0.043)  charge=  1.8125  magn=  0.0000
     atom 336 (R=0.043)  charge=  1.8124  magn= -0.0000
     atom 337 (R=0.043)  charge=  1.8123  magn=  0.0001
     atom 338 (R=0.043)  charge=  1.8127  magn=  0.0001
     atom 339 (R=0.043)  charge=  1.8124  magn= -0.0000
     atom 340 (R=0.043)  charge=  1.8120  magn=  0.0003
     atom 341 (R=0.043)  charge=  1.8128  magn=  0.0163
     atom 342 (R=0.043)  charge=  1.8122  magn=  0.0010
     atom 343 (R=0.043)  charge=  1.8123  magn=  0.0001
     atom 344 (R=0.043)  charge=  1.8128  magn=  0.0163
     atom 345 (R=0.043)  charge=  1.8118  magn=  0.0056
     atom 346 (R=0.043)  charge=  1.8097  magn=  0.0001
     atom 347 (R=0.043)  charge=  1.8127  magn=  0.0001
     atom 348 (R=0.043)  charge=  1.8122  magn=  0.0010
     atom 349 (R=0.043)  charge=  1.8097  magn=  0.0001
     atom 350 (R=0.043)  charge=  1.8122  magn=  0.0000
     atom 351 (R=0.043)  charge=  1.8128  magn=  0.0001
     atom 352 (R=0.043)  charge=  1.8123  magn=  0.0001
     atom 353 (R=0.043)  charge=  1.8123  magn=  0.0003
     atom 354 (R=0.043)  charge=  1.8121  magn= -0.0000
     atom 355 (R=0.043)  charge=  1.8123  magn=  0.0001
     atom 356 (R=0.043)  charge=  1.8125  magn=  0.0163
     atom 357 (R=0.043)  charge=  1.8123  magn=  0.0057
     atom 358 (R=0.043)  charge=  1.8097  magn=  0.0001
     atom 359 (R=0.043)  charge=  1.8123  magn=  0.0003
     atom 360 (R=0.043)  charge=  1.8123  magn=  0.0057
     atom 361 (R=0.043)  charge=  1.8122  magn=  0.0005
     atom 362 (R=0.043)  charge=  1.8121  magn= -0.0000
     atom 363 (R=0.043)  charge=  1.8097  magn=  0.0001
     atom 364 (R=0.043)  charge=  1.8122  magn=  0.0005
     atom 365 (R=0.043)  charge=  1.8142  magn=  0.0000
     atom 366 (R=0.043)  charge=  1.8125  magn=  0.0000
     atom 367 (R=0.043)  charge=  1.8125  magn=  0.0001
     atom 368 (R=0.043)  charge=  1.8121  magn= -0.0000
     atom 369 (R=0.043)  charge=  1.8127  magn=  0.0000
     atom 370 (R=0.043)  charge=  1.8125  magn=  0.0001
     atom 371 (R=0.043)  charge=  1.8121  magn=  0.0010
     atom 372 (R=0.043)  charge=  1.8097  magn=  0.0001
     atom 373 (R=0.043)  charge=  1.8122  magn=  0.0000
     atom 374 (R=0.043)  charge=  1.8121  magn= -0.0000
     atom 375 (R=0.043)  charge=  1.8097  magn=  0.0001
     atom 376 (R=0.043)  charge=  1.8121  magn=  0.0005
     atom 377 (R=0.043)  charge=  1.8142  magn=  0.0000
     atom 378 (R=0.043)  charge=  1.8127  magn=  0.0000
     atom 379 (R=0.043)  charge=  1.8122  magn=  0.0000
     atom 380 (R=0.043)  charge=  1.8142  magn=  0.0000
     atom 381 (R=0.043)  charge=  1.8133  magn= -0.0000
     atom 382 (R=0.043)  charge=  1.8124  magn=  0.0000
     atom 383 (R=0.043)  charge=  1.8120  magn=  0.0000
     atom 384 (R=0.043)  charge=  1.8127  magn=  0.0001
     atom 385 (R=0.043)  charge=  1.8124  magn=  0.0001
     atom 386 (R=0.043)  charge=  1.8120  magn=  0.0000
     atom 387 (R=0.043)  charge=  1.8122  magn=  0.0003
     atom 388 (R=0.043)  charge=  1.8121  magn=  0.0001
     atom 389 (R=0.043)  charge=  1.8128  magn=  0.0002
     atom 390 (R=0.043)  charge=  1.8127  magn=  0.0001
     atom 391 (R=0.043)  charge=  1.8121  magn=  0.0001
     atom 392 (R=0.043)  charge=  1.8124  magn=  0.0000
     atom 393 (R=0.043)  charge=  1.8126  magn=  0.0000
     atom 394 (R=0.043)  charge=  1.8124  magn=  0.0001
     atom 395 (R=0.043)  charge=  1.8128  magn=  0.0002
     atom 396 (R=0.043)  charge=  1.8126  magn=  0.0000
     atom 397 (R=0.043)  charge=  1.8126  magn=  0.0000
     atom 398 (R=0.043)  charge=  1.8120  magn=  0.0000
     atom 399 (R=0.043)  charge=  1.8120  magn=  0.0001
     atom 400 (R=0.043)  charge=  1.8124  magn=  0.0011
     atom 401 (R=0.043)  charge=  1.8127  magn=  0.0001
     atom 402 (R=0.043)  charge=  1.8120  magn=  0.0001
     atom 403 (R=0.043)  charge=  1.8107  magn=  0.0068
     atom 404 (R=0.043)  charge=  1.8092  magn=  0.0175
     atom 405 (R=0.043)  charge=  1.8120  magn=  0.0001
     atom 406 (R=0.043)  charge=  1.8124  magn=  0.0011
     atom 407 (R=0.043)  charge=  1.8092  magn=  0.0175
     atom 408 (R=0.043)  charge=  1.8126  magn=  0.0003
     atom 409 (R=0.043)  charge=  1.8124  magn=  0.0000
     atom 410 (R=0.043)  charge=  1.8127  magn=  0.0001
     atom 411 (R=0.043)  charge=  1.8120  magn=  0.0001
     atom 412 (R=0.043)  charge=  1.8124  magn=  0.0000
     atom 413 (R=0.043)  charge=  1.8125  magn=  0.0000
     atom 414 (R=0.043)  charge=  1.8141  magn=  0.0012
     atom 415 (R=0.043)  charge=  1.8122  magn=  0.0014
     atom 416 (R=0.043)  charge=  1.8116  magn=  0.0000
     atom 417 (R=0.043)  charge=  1.8115  magn=  0.0000
     atom 418 (R=0.043)  charge=  1.8122  magn=  0.0014
     atom 419 (R=0.043)  charge=  1.8088  magn=  0.0039
     atom 420 (R=0.043)  charge=  1.8122  magn=  0.0002
     atom 421 (R=0.043)  charge=  1.8116  magn=  0.0000
     atom 422 (R=0.043)  charge=  1.8088  magn=  0.0039
     atom 423 (R=0.043)  charge=  1.8208  magn=  0.0000
     atom 424 (R=0.043)  charge=  1.8123  magn=  0.0001
     atom 425 (R=0.043)  charge=  1.8115  magn=  0.0000
     atom 426 (R=0.043)  charge=  1.8122  magn=  0.0002
     atom 427 (R=0.043)  charge=  1.8123  magn=  0.0001
     atom 428 (R=0.043)  charge=  1.8131  magn=  0.0000
     atom 429 (R=0.043)  charge=  1.8123  magn=  0.0003
     atom 430 (R=0.043)  charge=  1.8131  magn=  0.0014
     atom 431 (R=0.043)  charge=  1.8120  magn=  0.0000
     atom 432 (R=0.043)  charge=  1.8126  magn=  0.0000
     atom 433 (R=0.043)  charge=  1.8131  magn=  0.0014
     atom 434 (R=0.043)  charge=  1.8122  magn=  0.0006
     atom 435 (R=0.043)  charge=  1.8116  magn=  0.0001
     atom 436 (R=0.043)  charge=  1.8120  magn=  0.0000
     atom 437 (R=0.043)  charge=  1.8120  magn=  0.0000
     atom 438 (R=0.043)  charge=  1.8116  magn=  0.0001
     atom 439 (R=0.043)  charge=  1.8143  magn=  0.0000
     atom 440 (R=0.043)  charge=  1.8133  magn=  0.0000
     atom 441 (R=0.043)  charge=  1.8126  magn=  0.0000
     atom 442 (R=0.043)  charge=  1.8120  magn=  0.0000
     atom 443 (R=0.043)  charge=  1.8133  magn=  0.0000
     atom 444 (R=0.043)  charge=  1.8128  magn=  0.0000
     atom 445 (R=0.043)  charge=  1.8124  magn=  0.0000
     atom 446 (R=0.043)  charge=  1.8120  magn=  0.0000
     atom 447 (R=0.043)  charge=  1.8143  magn=  0.0012
     atom 448 (R=0.043)  charge=  1.8123  magn=  0.0003
     atom 449 (R=0.043)  charge=  1.8121  magn=  0.0000
     atom 450 (R=0.043)  charge=  1.8117  magn=  0.0001
     atom 451 (R=0.043)  charge=  1.8121  magn=  0.0014
     atom 452 (R=0.043)  charge=  1.8133  magn=  0.0014
     atom 453 (R=0.043)  charge=  1.8127  magn=  0.0001
     atom 454 (R=0.043)  charge=  1.8122  magn=  0.0011
     atom 455 (R=0.043)  charge=  1.8114  magn=  0.0000
     atom 456 (R=0.043)  charge=  1.8120  magn=  0.0000
     atom 457 (R=0.043)  charge=  1.8125  magn=  0.0001
     atom 458 (R=0.043)  charge=  1.8126  magn=  0.0001
     atom 459 (R=0.043)  charge=  1.8115  magn=  0.0000
     atom 460 (R=0.043)  charge=  1.8126  magn=  0.0000
     atom 461 (R=0.043)  charge=  1.8121  magn=  0.0000
     atom 462 (R=0.043)  charge=  1.8119  magn=  0.0001
     atom 463 (R=0.043)  charge=  1.8123  magn=  0.0014
     atom 464 (R=0.043)  charge=  1.8136  magn=  0.0014
     atom 465 (R=0.043)  charge=  1.8123  magn=  0.0003
     atom 466 (R=0.043)  charge=  1.8117  magn=  0.0069
     atom 467 (R=0.043)  charge=  1.8123  magn=  0.0006
     atom 468 (R=0.043)  charge=  1.8122  magn=  0.0001
     atom 469 (R=0.043)  charge=  1.8104  magn=  0.0176
     atom 470 (R=0.043)  charge=  1.8091  magn=  0.0038
     atom 471 (R=0.043)  charge=  1.8116  magn=  0.0001
     atom 472 (R=0.043)  charge=  1.8129  magn=  0.0002
     atom 473 (R=0.043)  charge=  1.8120  magn=  0.0001
     atom 474 (R=0.043)  charge=  1.8122  magn=  0.0002
     atom 475 (R=0.043)  charge=  1.8120  magn=  0.0000
     atom 476 (R=0.043)  charge=  1.8127  magn=  0.0001
     atom 477 (R=0.043)  charge=  1.8122  magn=  0.0011
     atom 478 (R=0.043)  charge=  1.8116  magn=  0.0000
     atom 479 (R=0.043)  charge=  1.8120  magn=  0.0000
     atom 480 (R=0.043)  charge=  1.8122  magn=  0.0001
     atom 481 (R=0.043)  charge=  1.8091  magn=  0.0175
     atom 482 (R=0.043)  charge=  1.8091  magn=  0.0038
     atom 483 (R=0.043)  charge=  1.8117  magn=  0.0001
     atom 484 (R=0.043)  charge=  1.8125  magn=  0.0000
     atom 485 (R=0.043)  charge=  1.8126  magn=  0.0003
     atom 486 (R=0.043)  charge=  1.8210  magn=  0.0001
     atom 487 (R=0.043)  charge=  1.8143  magn=  0.0000
     atom 488 (R=0.043)  charge=  1.8125  magn=  0.0000
     atom 489 (R=0.043)  charge=  1.8124  magn=  0.0000
     atom 490 (R=0.043)  charge=  1.8123  magn=  0.0001
     atom 491 (R=0.043)  charge=  1.8133  magn=  0.0000
     atom 492 (R=0.043)  charge=  1.8124  magn=  0.0001
     atom 493 (R=0.043)  charge=  1.8125  magn=  0.0001
     atom 494 (R=0.043)  charge=  1.8115  magn=  0.0000
     atom 495 (R=0.043)  charge=  1.8126  magn=  0.0000
     atom 496 (R=0.043)  charge=  1.8127  magn=  0.0002
     atom 497 (R=0.043)  charge=  1.8119  magn=  0.0001
     atom 498 (R=0.043)  charge=  1.8122  magn=  0.0002
     atom 499 (R=0.043)  charge=  1.8120  magn=  0.0000
     atom 500 (R=0.043)  charge=  1.8126  magn=  0.0000
     atom 501 (R=0.043)  charge=  1.8124  magn=  0.0000
     atom 502 (R=0.043)  charge=  1.8123  magn=  0.0001
     atom 503 (R=0.043)  charge=  1.8133  magn=  0.0000
     atom 504 (R=0.043)  charge=  1.8126  magn=  0.0000
     atom 505 (R=0.043)  charge=  1.8124  magn=  0.0000
     atom 506 (R=0.043)  charge=  1.8131  magn=  0.0000
     atom 507 (R=0.043)  charge=  1.8128  magn=  0.0000
     atom 508 (R=0.043)  charge=  1.8162  magn=  0.2512
     atom 509 (R=0.043)  charge=  1.8191  magn=  0.2502
     atom 510 (R=0.043)  charge=  1.8191  magn=  0.2502
     atom 511 (R=0.043)  charge=  2.9018  magn= -0.0010

     total cpu time spent up to now is      760.2 secs

     End of self-consistent calculation

 ------ SPIN UP ------------


          k = 0.0000 0.0000 0.0000 (118565 PWs)   bands (ev):

    -8.1978  -7.6656  -7.6368  -7.6367  -7.6135  -7.6126  -7.5591  -7.1747
    -7.0673  -7.0668  -7.0607  -7.0601  -7.0599  -7.0414  -7.0410  -7.0368
    -7.0003  -6.9984  -6.9150  -6.5940  -6.4751  -6.4680  -6.4675  -6.4577
    -6.4478  -6.4467  -6.3739  -5.9964  -5.9113  -5.9110  -5.9022  -5.9018
    -5.8805  -5.6428  -5.3836  -5.3815  -5.3811  -5.3778  -5.3732  -5.3730
    -5.3695  -5.3691  -5.3613  -5.3606  -5.3577  -5.3572  -5.3522  -5.3514
    -5.3398  -5.3313  -5.3307  -5.3183  -5.3163  -5.3158  -5.2771  -5.2751
    -5.1904  -5.0047  -4.8241  -4.8240  -4.8194  -4.8158  -4.8156  -4.8153
    -4.8150  -4.8123  -4.8118  -4.8107  -4.8059  -4.8050  -4.8033  -4.8014
    -4.7937  -4.7930  -4.7715  -4.7525  -4.7519  -4.7268  -4.7077  -4.7046
    -4.4701  -3.8971  -3.7309  -3.7307  -3.7283  -3.7278  -3.7214  -3.7210
    -3.7193  -3.7124  -3.7085  -3.7080  -3.6660  -3.4874  -3.2651  -3.2649
    -3.2621  -3.2607  -3.2605  -3.2599  -3.2582  -3.2574  -3.2529  -3.2528
    -3.2462  -3.2437  -3.2431  -3.2427  -3.2420  -3.2283  -3.2183  -3.1979
    -3.1973  -3.1792  -3.1655  -3.1644  -3.1563  -3.1446  -3.1441  -3.1418
    -3.1333  -3.1325  -3.0112  -2.7854  -2.6577  -2.6575  -2.6571  -2.6560
    -2.6560  -2.6552  -2.6482  -2.6477  -2.6409  -2.6382  -2.6378  -2.6330
    -2.6322  -2.6308  -2.6301  -2.6300  -2.6259  -2.6119  -2.5916  -2.5912
    -2.5623  -2.5610  -2.4980  -2.4443  -2.3979  -2.3977  -2.3757  -2.2968
    -2.1921  -2.1919  -2.1767  -2.1747  -2.1744  -2.1741  -2.1736  -2.1715
    -2.1674  -2.1673  -2.1645  -2.1596  -2.1592  -2.1588  -2.1529  -2.1522
    -2.1521  -2.1336  -2.1334  -2.1253  -2.0820  -2.0797  -1.8445  -1.5833
    -1.4458  -1.4453  -1.4435  -1.4363  -1.4362  -1.4352  -1.4294  -1.4293
    -1.4290  -1.4261  -1.4246  -1.4245  -1.4127  -1.4122  -1.4015  -1.4002
    -1.3925  -1.3867  -1.3860  -1.3847  -1.3672  -1.3671  -1.3508  -1.3033
    -1.2521  -1.2507  -1.2506  -1.2470  -1.2466  -1.2438  -1.2391  -1.2388
    -1.2373  -1.2231  -1.2223  -1.2148  -1.2021  -1.2014  -1.1883  -1.1873
    -1.1834  -1.1561  -1.1534  -1.1413  -1.0751  -1.0721  -0.4516  -0.0883
    -0.0882  -0.0866  -0.0663   0.2129   0.2879   0.2881   0.3040   0.3055
     0.3059   0.3082   0.3083   0.3115   0.3208   0.3211   0.3854   0.4906
     0.4989   0.4992   0.5062   0.5068   0.5345   0.7549   0.8136   0.8141
     0.8219   0.8221   0.8230   0.8250   0.8260   0.8264   0.8426   0.8470
     0.8475   0.8500   0.8508   0.8512   0.8550   0.8556   0.8605   0.8649
     0.8708   0.8712   0.8837   0.8847   0.8849   0.8904   0.8921   0.8922
     0.8925   0.8971   0.8972   0.8984   0.8986   0.8988   0.9152   0.9158
     0.9201   0.9250   0.9254   0.9263   0.9304   0.9306   0.9308   0.9369
     0.9375   1.0027   1.0447   1.0459   1.1378   1.2427   1.2917   1.2919
     1.3129   1.3130   1.3156   1.3227   1.3234   1.3285   1.3406   1.3412
     1.4248   1.5124   1.5292   1.5297   1.5484   1.5487   1.5509   1.5555
     1.5672   1.5674   1.5920   1.5925   1.6736   1.6915   1.6980   1.6982
     1.7045   1.7050   1.7072   1.7100   1.7102   1.7103   1.7105   1.7168
     1.7241   1.7261   1.7268   1.7275   1.7277   1.7359   1.7473   1.7546
     1.7547   1.8643   1.9018   1.9035   2.2088   2.4281   2.4516   2.4520
     2.4808   2.4861   2.4862   2.4862   2.4868   2.4880   2.4881   2.4912
     2.4915   2.4916   2.4936   2.4938   2.4977   2.4982   2.4986   2.5031
     2.5031   2.5578   2.5726   2.5738   2.6690   2.8271   2.8274   2.8322
     2.8443   2.8443   2.8473   2.8502   2.8504   2.8509   2.8616   2.8617
     2.8677   2.8740   2.8820   2.8826   2.8830   2.8879   2.8887   2.8973
     2.9050   2.9054   3.0261   3.0279   3.6767   3.9204   3.9205   3.9464
     3.9469   3.9474   3.9476   3.9478   3.9538   3.9539   3.9645   3.9682
     3.9683   4.0819   4.1033   4.1039   4.1355   4.1355   4.1369   4.1402
     4.1404   4.1421   4.1428   4.1431   4.1437   4.1437   4.1441   4.1446
     4.1450   4.1491   4.1622   4.1624   4.1868   4.1975   4.2054   4.2060
     4.2142   4.2307   4.2308   4.2343   4.2369   4.2401   4.2401   4.2403
     4.2430   4.2433   4.2630   4.2630   4.2642   4.2665   4.2684   4.2693
     4.2713   4.2718   4.2764   4.2802   4.2863   4.2872   4.3328   4.3331
     4.3679   4.3680   4.3734   4.3768   4.3768   4.3785   4.3801   4.3803
     4.3827   4.3857   4.3913   4.3915   4.3915   4.4035   4.4038   4.4127
     4.4165   4.4166   4.4294   4.4362   4.4363   4.4838   4.5058   4.5060
     4.5062   4.5504   4.5507   4.5753   4.5780   4.5817   4.5819   4.5851
     4.5853   4.6128   4.6431   4.6434   4.6548   4.6893   4.7092   4.7098
     4.7890   4.7909   4.9252   4.9253   4.9470   4.9507   4.9512   4.9513
     4.9520   4.9636   4.9637   5.0349   5.0668   5.0688   5.5791   5.6295
     5.6297   5.6540   5.6617   5.6620   5.6664   5.6665   5.6665   5.7003
     5.7005   5.7042   5.8905   5.8974   5.8978   5.9161   5.9194   5.9194
     5.9220   5.9222   5.9224   5.9328   5.9384   5.9385   5.9447   5.9448
     5.9482   5.9515   5.9516   5.9575   5.9722   5.9725   5.9771   6.0033
     6.0080   6.0084   6.0661   6.1945   6.1950   6.2622   6.2624   6.2644
     6.2669   6.2671   6.2672   6.2686   6.2686   6.2704   6.2723   6.2761
     6.2764   6.2768   6.2868   6.2871   6.2951   6.2955   6.2990   6.3153
     6.3320   6.3323   6.3337   6.4765   6.4770   6.4856   6.5155   6.5165
     6.5165   6.5167   6.5192   6.5193   6.5198   6.5222   6.5224   6.5226
     6.5228   6.5249   6.5263   6.5294   6.5298   6.5366   6.5371   6.5738
     6.5803   6.5805   6.5858   6.6552   6.6560   6.6560   6.6653   6.6701
     6.6703   6.6713   6.6824   6.7109   6.7114   6.7275   6.7310   6.7313
     6.7322   6.7347   6.7405   6.7407   6.7428   6.7431   6.7432   6.7451
     6.7452   6.7703   6.7706   6.7778   6.7799   6.7821   6.7823   6.8087
     6.8534   6.8541   6.8997   6.8998   6.9019   6.9317   6.9320   6.9329
     6.9360   6.9404   6.9443   6.9443   6.9445   6.9467   6.9469   6.9479
     6.9554   6.9556   6.9610   6.9612   6.9627   6.9662   6.9684   6.9687
     6.9699   6.9704   6.9857   6.9957   6.9959   7.0768   7.1092   7.1106
     7.2628   7.2634   7.3026   7.3030   7.3034   7.3036   7.3054   7.3078
     7.3080   7.3085   7.3087   7.3091   7.3128   7.3129   7.3133   7.3189
     7.3249   7.3250   7.3279   7.3518   7.3520   7.3760   7.3761   7.3795
     7.4897   7.4901   7.5218   7.5254   7.5263   7.5269   7.5402   7.5405
     7.5624   7.5860   7.5884   7.5887   7.6601   7.6879   7.6881   7.7366
     7.7404   7.7405   7.7406   7.7429   7.7430   7.7438   7.7494   7.7498
     7.7530   7.7534   7.7549   7.7584   7.7615   7.7618   7.7643   7.7652
     7.7653   7.7663   7.7667   7.7668   7.7708   7.7710   7.7719   7.7724
     7.7732   7.7762   7.7778   7.7786   7.7789   7.7795   7.7798   7.7800
     7.7818   7.7839   7.7842   7.7889   7.7982   7.7993   7.8041   7.8209
     7.8213   7.8516   7.8521   7.8647   7.8877   7.8878   7.9025   7.9160
     7.9163   7.9271   7.9383   7.9384   7.9406   8.0940   8.1025   8.1032
     8.3056   8.3058   8.3581   8.3584   8.3598   8.3643   8.3644   8.3651
     8.3675   8.3690   8.3692   8.3707   8.3739   8.3742   8.3744   8.3812
     8.3813   8.3871   8.3977   8.3985   8.4117   8.4138   8.4200   8.4202
     8.4350   8.5160   8.5162   8.5480   8.5523   8.5524   8.5529   8.5541
     8.5542   8.5569   8.5598   8.5634   8.5638   8.5664   8.5664   8.5825
     8.5826   8.5919   8.5962   8.6011   8.6016   8.6076   8.6301   8.6304
     8.6322   8.6506   8.6589   8.6589   8.6597   8.6636   8.6636   8.6761
     8.6802   8.6803   8.6902   8.6902   8.6916   8.6945   8.6958   8.6970
     8.7143   8.7156   8.7199   8.7241   8.7249   8.7371   8.7447   8.7454
     8.7566   8.7585   8.7596   9.0035   9.0327   9.0332   9.1116   9.1118
     9.1325   9.1344   9.1353   9.1353   9.1373   9.1378   9.1443   9.1688
     9.1900   9.2021   9.2024   9.2534   9.2537   9.2606   9.2608   9.2695
     9.2762   9.2765   9.2865   9.4233   9.4485   9.4495   9.6652   9.6655
     9.7104   9.7114   9.7117   9.7121   9.7145   9.7169   9.7198   9.7198
     9.7322   9.7323   9.7333   9.7349   9.7352   9.7427   9.7429   9.7474
     9.7594   9.7600   9.7657   9.8030   9.8431   9.8433   9.8474   9.9762
     9.9767   9.9902   9.9950   9.9950  10.0015  10.0018  10.0019  10.0055
    10.0187  10.0191  10.0192  10.0261  10.0296  10.0298  10.0368  10.0369
    10.0373  10.0395  10.0395  10.0432  10.0446  10.0448  10.0459  10.0461
    10.0476  10.0488  10.0490  10.0508  10.0606  10.0619  10.0625  10.1422
    10.1425  10.1527  10.1984  10.1987  10.2021  10.2023  10.2023  10.2025
    10.2035  10.2044  10.2046  10.2058  10.2059  10.2070  10.2766  10.2825
    10.2828  10.3100  10.3113  10.3125  10.3125  10.3190  10.3191  10.3218
    10.3218  10.3227  10.3247  10.3256  10.3287  10.3288  10.3299  10.3302
    10.3335  10.3344  10.3344  10.3364  10.3365  10.3369  10.3425  10.3427
    10.3436  10.3490  10.3496  10.3518  10.3579  10.3582  10.3585  10.3721
    10.3727  10.3782  10.3958  10.3965  10.4139  10.4224  10.4231  10.4253
    10.4510  10.4520  10.4564  10.4631  10.4773  10.4788  10.5067  10.5067
    10.5829  10.6094  10.6115  11.2420  11.3145  11.3153  11.4650  11.4651
    11.4846  11.4849  11.4891  11.4913  11.4914  11.4914  11.4943  11.4953
    11.4954  11.4966  11.5005  11.5005  11.5053  11.5054  11.5168  11.5175
    11.5215  11.5347  11.5350  11.5435  11.5463  11.5561  11.5563  11.5954
    11.8770  11.8773  11.8820  11.9183  11.9188  12.2213  12.3314  12.3318
    12.3398  12.4582  12.4691  12.4691  12.4752  12.4876  12.4884  12.5009
    12.5273  12.5290  13.1514  13.1822  13.1823  14.0337  15.1163  15.1455
    17.4060  17.4064  17.4071  17.4201  17.4201  17.4318  17.7134  17.7140

     occupation numbers 
     1.0000   1.0000   1.0000   1.0000   1.0000   1.0000   1.0000   1.0000
     1.0000   1.0000   1.0000   1.0000   1.0000   1.0000   1.0000   1.0000
     1.0000   1.0000   1.0000   1.0000   1.0000   1.0000   1.0000   1.0000
     1.0000   1.0000   1.0000   1.0000   1.0000   1.0000   1.0000   1.0000
     1.0000   1.0000   1.0000   1.0000   1.0000   1.0000   1.0000   1.0000
     1.0000   1.0000   1.0000   1.0000   1.0000   1.0000   1.0000   1.0000
     1.0000   1.0000   1.0000   1.0000   1.0000   1.0000   1.0000   1.0000
     1.0000   1.0000   1.0000   1.0000   1.0000   1.0000   1.0000   1.0000
     1.0000   1.0000   1.0000   1.0000   1.0000   1.0000   1.0000   1.0000
     1.0000   1.0000   1.0000   1.0000   1.0000   1.0000   1.0000   1.0000
     1.0000   1.0000   1.0000   1.0000   1.0000   1.0000   1.0000   1.0000
     1.0000   1.0000   1.0000   1.0000   1.0000   1.0000   1.0000   1.0000
     1.0000   1.0000   1.0000   1.0000   1.0000   1.0000   1.0000   1.0000
     1.0000   1.0000   1.0000   1.0000   1.0000   1.0000   1.0000   1.0000
     1.0000   1.0000   1.0000   1.0000   1.0000   1.0000   1.0000   1.0000
     1.0000   1.0000   1.0000   1.0000   1.0000   1.0000   1.0000   1.0000
     1.0000   1.0000   1.0000   1.0000   1.0000   1.0000   1.0000   1.0000
     1.0000   1.0000   1.0000   1.0000   1.0000   1.0000   1.0000   1.0000
     1.0000   1.0000   1.0000   1.0000   1.0000   1.0000   1.0000   1.0000
     1.0000   1.0000   1.0000   1.0000   1.0000   1.0000   1.0000   1.0000
     1.0000   1.0000   1.0000   1.0000   1.0000   1.0000   1.0000   1.0000
     1.0000   1.0000   1.0000   1.0000   1.0000   1.0000   1.0000   1.0000
     1.0000   1.0000   1.0000   1.0000   1.0000   1.0000   1.0000   1.0000
     1.0000   1.0000   1.0000   1.0000   1.0000   1.0000   1.0000   1.0000
     1.0000   1.0000   1.0000   1.0000   1.0000   1.0000   1.0000   1.0000
     1.0000   1.0000   1.0000   1.0000   1.0000   1.0000   1.0000   1.0000
     1.0000   1.0000   1.0000   1.0000   1.0000   1.0000   1.0000   1.0000
     1.0000   1.0000   1.0000   1.0000   1.0000   1.0000   1.0000   1.0000
     1.0000   1.0000   1.0000   1.0000   1.0000   1.0000   1.0000   1.0000
     1.0000   1.0000   1.0000   1.0000   1.0000   1.0000   1.0000   1.0000
     1.0000   1.0000   1.0000   1.0000   1.0000   1.0000   1.0000   1.0000
     1.0000   1.0000   1.0000   1.0000   1.0000   1.0000   1.0000   1.0000
     1.0000   1.0000   1.0000   1.0000   1.0000   1.0000   1.0000   1.0000
     1.0000   1.0000   1.0000   1.0000   1.0000   1.0000   1.0000   1.0000
     1.0000   1.0000   1.0000   1.0000   1.0000   1.0000   1.0000   1.0000
     1.0000   1.0000   1.0000   1.0000   1.0000   1.0000   1.0000   1.0000
     1.0000   1.0000   1.0000   1.0000   1.0000   1.0000   1.0000   1.0000
     1.0000   1.0000   1.0000   1.0000   1.0000   1.0000   1.0000   1.0000
     1.0000   1.0000   1.0000   1.0000   1.0000   1.0000   1.0000   1.0000
     1.0000   1.0000   1.0000   1.0000   1.0000   1.0000   1.0000   1.0000
     1.0000   1.0000   1.0000   1.0000   1.0000   1.0000   1.0000   1.0000
     1.0000   1.0000   1.0000   1.0000   1.0000   1.0000   1.0000   1.0000
     1.0000   1.0000   1.0000   1.0000   1.0000   1.0000   1.0000   1.0000
     1.0000   1.0000   1.0000   1.0000   1.0000   1.0000   1.0000   1.0000
     1.0000   1.0000   1.0000   1.0000   1.0000   1.0000   1.0000   1.0000
     1.0000   1.0000   1.0000   1.0000   1.0000   1.0000   1.0000   1.0000
     1.0000   1.0000   1.0000   1.0000   1.0000   1.0000   1.0000   1.0000
     1.0000   1.0000   1.0000   1.0000   1.0000   1.0000   1.0000   1.0000
     1.0000   1.0000   1.0000   1.0000   1.0000   1.0000   1.0000   1.0000
     1.0000   1.0000   1.0000   1.0000   1.0000   1.0000   1.0000   1.0000
     1.0000   1.0000   1.0000   1.0000   1.0000   1.0000   1.0000   1.0000
     1.0000   1.0000   1.0000   1.0000   1.0000   1.0000   1.0000   1.0000
     1.0000   1.0000   1.0000   1.0000   1.0000   1.0000   1.0000   1.0000
     1.0000   1.0000   1.0000   1.0000   1.0000   1.0000   1.0000   1.0000
     1.0000   1.0000   1.0000   1.0000   1.0000   1.0000   1.0000   1.0000
     1.0000   1.0000   1.0000   1.0000   1.0000   1.0000   1.0000   1.0000
     1.0000   1.0000   1.0000   1.0000   1.0000   1.0000   1.0000   1.0000
     1.0000   1.0000   1.0000   1.0000   1.0000   1.0000   1.0000   1.0000
     1.0000   1.0000   1.0000   1.0000   1.0000   1.0000   1.0000   1.0000
     1.0000   1.0000   1.0000   1.0000   1.0000   1.0000   1.0000   1.0000
     1.0000   1.0000   1.0000   1.0000   1.0000   1.0000   1.0000   1.0000
     1.0000   1.0000   1.0000   1.0000   1.0000   1.0000   1.0000   1.0000
     1.0000   1.0000   1.0000   1.0000   1.0000   1.0000   1.0000   1.0000
     1.0000   1.0000   1.0000   1.0000   1.0000   1.0000   1.0000   1.0000
     1.0000   1.0000   1.0000   1.0000   1.0000   1.0000   1.0000   1.0000
     1.0000   1.0000   1.0000   1.0000   1.0000   1.0000   1.0000   1.0000
     1.0000   1.0000   1.0000   1.0000   1.0000   1.0000   1.0000   1.0000
     1.0000   1.0000   1.0000   1.0000   1.0000   1.0000   1.0000   1.0000
     1.0000   1.0000   1.0000   1.0000   1.0000   1.0000   1.0000   1.0000
     1.0000   1.0000   1.0000   1.0000   1.0000   1.0000   1.0000   1.0000
     1.0000   1.0000   1.0000   1.0000   1.0000   1.0000   1.0000   1.0000
     1.0000   1.0000   1.0000   1.0000   1.0000   1.0000   1.0000   1.0000
     1.0000   1.0000   1.0000   1.0000   1.0000   1.0000   1.0000   1.0000
     1.0000   1.0000   1.0000   1.0000   1.0000   1.0000   1.0000   1.0000
     1.0000   1.0000   1.0000   1.0000   1.0000   1.0000   1.0000   1.0000
     1.0000   1.0000   1.0000   1.0000   1.0000   1.0000   1.0000   1.0000
     1.0000   1.0000   1.0000   1.0000   1.0000   1.0000   1.0000   1.0000
     1.0000   1.0000   1.0000   1.0000   1.0000   1.0000   1.0000   1.0000
     1.0000   1.0000   1.0000   1.0000   1.0000   1.0000   1.0000   1.0000
     1.0000   1.0000   1.0000   1.0000   1.0000   1.0000   1.0000   1.0000
     1.0000   1.0000   1.0000   1.0000   1.0000   1.0000   1.0000   1.0000
     1.0000   1.0000   1.0000   1.0000   1.0000   1.0000   1.0000   1.0000
     1.0000   1.0000   1.0000   1.0000   1.0000   1.0000   1.0000   1.0000
     1.0000   1.0000   1.0000   1.0000   1.0000   1.0000   1.0000   1.0000
     1.0000   1.0000   1.0000   1.0000   1.0000   1.0000   1.0000   1.0000
     1.0000   1.0000   1.0000   1.0000   1.0000   1.0000   1.0000   1.0000
     1.0000   1.0000   1.0000   1.0000   1.0000   1.0000   1.0000   1.0000
     1.0000   1.0000   1.0000   1.0000   1.0000   1.0000   1.0000   1.0000
     1.0000   1.0000   1.0000   1.0000   1.0000   1.0000   1.0000   1.0000
     1.0000   1.0000   1.0000   1.0000   1.0000   1.0000   1.0000   1.0000
     1.0000   1.0000   1.0000   1.0000   1.0000   1.0000   1.0000   1.0000
     1.0000   1.0000   1.0000   1.0000   1.0000   1.0000   1.0000   1.0000
     1.0000   1.0000   1.0000   1.0000   1.0000   1.0000   1.0000   1.0000
     1.0000   1.0000   1.0000   1.0000   1.0000   1.0000   1.0000   1.0000
     1.0000   1.0000   1.0000   1.0000   1.0000   1.0000   1.0000   1.0000
     1.0000   1.0000   1.0000   1.0000   1.0000   1.0000   1.0000   1.0000
     1.0000   1.0000   1.0000   1.0000   1.0000   1.0000   1.0000   1.0000
     1.0000   1.0000   1.0000   1.0000   1.0000   1.0000   1.0000   1.0000
     1.0000   1.0000   1.0000   1.0000   1.0000   1.0000   1.0000   1.0000
     1.0000   1.0000   1.0000   1.0000   1.0000   1.0000   1.0000   1.0000
     1.0000   1.0000   1.0000   1.0000   1.0000   1.0000   1.0000   1.0000
     1.0000   1.0000   1.0000   1.0000   1.0000   1.0000   1.0000   1.0000
     1.0000   1.0000   1.0000   1.0000   1.0000   1.0000   1.0000   1.0000
     1.0000   1.0000   1.0000   1.0000   1.0000   1.0000   1.0000   1.0000
     1.0000   1.0000   1.0000   1.0000   1.0000   1.0000   1.0000   1.0000
     1.0000   1.0000   1.0000   1.0000   1.0000   1.0000   1.0000   1.0000
     1.0000   1.0000   1.0000   1.0000   1.0000   1.0000   1.0000   1.0000
     1.0000   1.0000   1.0000   1.0000   1.0000   1.0000   1.0000   1.0000
     1.0000   1.0000   1.0000   1.0000   1.0000   1.0000   1.0000   1.0000
     1.0000   1.0000   1.0000   1.0000   1.0000   1.0000   1.0000   1.0000
     1.0000   1.0000   1.0000   1.0000   1.0000   1.0000   1.0000   1.0000
     1.0000   1.0000   1.0000   1.0000   1.0000   1.0000   1.0000   1.0000
     1.0000   1.0000   1.0000   1.0000   1.0000   1.0000   1.0000   1.0000
     1.0000   1.0000   1.0000   1.0000   1.0000   1.0000   1.0000   1.0000
     1.0000   1.0000   1.0000   1.0000   1.0000   1.0000   1.0000   1.0000
     1.0000   1.0000   1.0000   1.0000   1.0000   1.0000   1.0000   1.0000
     1.0000   1.0000   1.0000   1.0000   1.0000   1.0000   1.0000   1.0000
     1.0000   1.0000   1.0000   1.0000   1.0000   1.0000   1.0000   1.0000
     1.0000   1.0000   1.0000   1.0000   1.0000   1.0000   1.0000   1.0000
     1.0000   1.0000   1.0000   1.0000   1.0000   1.0000   1.0000   1.0000
     1.0000   1.0000   1.0000   1.0000   1.0000   1.0000   1.0000   1.0000
     1.0000   1.0000   1.0000   1.0000   1.0000   1.0000   1.0000   1.0000
     1.0000   1.0000   1.0000   1.0000   1.0000   1.0000   1.0000   1.0000
     1.0000   1.0000   1.0000   1.0000   1.0000   1.0000   1.0000   1.0000
     1.0000   1.0000   1.0000   1.0000   1.0000   1.0000   1.0000   1.0000
     1.0000   1.0000   1.0000   1.0000   1.0000   1.0000   1.0000   1.0000
     1.0000   1.0000   1.0000   1.0000   1.0000   1.0000   1.0000   1.0000
     1.0000   1.0000   1.0000   1.0000   1.0000   1.0000   1.0000   1.0000
     0.0000   0.0000   0.0000   0.0000   0.0000   0.0000   0.0000   0.0000

 ------ SPIN DOWN ----------


          k = 0.0000 0.0000 0.0000 (118565 PWs)   bands (ev):

    -8.1964  -7.6644  -7.6362  -7.6362  -7.6118  -7.6109  -7.5543  -7.1730
    -7.0669  -7.0663  -7.0599  -7.0596  -7.0594  -7.0401  -7.0397  -7.0357
    -6.9951  -6.9933  -6.9056  -6.5927  -6.4743  -6.4657  -6.4653  -6.4555
    -6.4428  -6.4418  -6.3637  -5.9936  -5.9097  -5.9094  -5.8993  -5.8989
    -5.8772  -5.6376  -5.3833  -5.3810  -5.3806  -5.3772  -5.3724  -5.3722
    -5.3689  -5.3685  -5.3610  -5.3602  -5.3572  -5.3567  -5.3508  -5.3501
    -5.3365  -5.3283  -5.3277  -5.3172  -5.3128  -5.3124  -5.2658  -5.2639
    -5.1820  -5.0023  -4.8236  -4.8235  -4.8184  -4.8149  -4.8145  -4.8144
    -4.8143  -4.8114  -4.8109  -4.8103  -4.8043  -4.8034  -4.8023  -4.7979
    -4.7910  -4.7902  -4.7679  -4.7445  -4.7438  -4.7224  -4.6888  -4.6856
    -4.4434  -3.8906  -3.7290  -3.7288  -3.7270  -3.7266  -3.7173  -3.7163
    -3.7161  -3.7113  -3.7048  -3.7043  -3.6604  -3.4821  -3.2647  -3.2646
    -3.2617  -3.2600  -3.2597  -3.2592  -3.2569  -3.2560  -3.2510  -3.2509
    -3.2440  -3.2426  -3.2420  -3.2392  -3.2384  -3.2255  -3.2132  -3.1937
    -3.1931  -3.1758  -3.1570  -3.1564  -3.1535  -3.1420  -3.1414  -3.1405
    -3.1236  -3.1224  -2.9987  -2.7777  -2.6572  -2.6569  -2.6569  -2.6553
    -2.6553  -2.6545  -2.6469  -2.6464  -2.6403  -2.6373  -2.6369  -2.6311
    -2.6303  -2.6296  -2.6274  -2.6270  -2.6225  -2.6104  -2.5870  -2.5867
    -2.5512  -2.5501  -2.4938  -2.4428  -2.3931  -2.3929  -2.3691  -2.2928
    -2.1908  -2.1906  -2.1744  -2.1731  -2.1730  -2.1696  -2.1693  -2.1689
    -2.1649  -2.1646  -2.1631  -2.1582  -2.1578  -2.1571  -2.1488  -2.1485
    -2.1479  -2.1279  -2.1277  -2.1231  -2.0579  -2.0555  -1.8279  -1.5786
    -1.4453  -1.4449  -1.4428  -1.4356  -1.4355  -1.4348  -1.4287  -1.4286
    -1.4282  -1.4257  -1.4235  -1.4234  -1.4116  -1.4110  -1.3965  -1.3952
    -1.3905  -1.3854  -1.3847  -1.3819  -1.3616  -1.3615  -1.3461  -1.3001
    -1.2518  -1.2495  -1.2493  -1.2459  -1.2454  -1.2430  -1.2369  -1.2365
    -1.2364  -1.2207  -1.2199  -1.2105  -1.1980  -1.1973  -1.1823  -1.1813
    -1.1808  -1.1502  -1.1475  -1.1326  -1.0177  -1.0141  -0.3800  -0.0862
    -0.0861  -0.0846  -0.0619   0.2190   0.2895   0.2898   0.3058   0.3078
     0.3078   0.3107   0.3109   0.3132   0.3310   0.3314   0.3978   0.4926
     0.5002   0.5004   0.5088   0.5094   0.5399   0.7675   0.8149   0.8153
     0.8225   0.8227   0.8232   0.8257   0.8266   0.8271   0.8437   0.8485
     0.8490   0.8519   0.8528   0.8531   0.8575   0.8581   0.8614   0.8666
     0.8737   0.8741   0.8842   0.8852   0.8855   0.8912   0.8929   0.8929
     0.8931   0.8984   0.8985   0.8992   0.8994   0.8996   0.9221   0.9227
     0.9264   0.9291   0.9292   0.9298   0.9348   0.9349   0.9364   0.9450
     0.9454   1.0062   1.0567   1.0578   1.1459   1.2478   1.2932   1.2933
     1.3158   1.3159   1.3199   1.3247   1.3254   1.3304   1.3543   1.3550
     1.4319   1.5164   1.5312   1.5317   1.5507   1.5510   1.5532   1.5604
     1.5705   1.5706   1.6082   1.6088   1.6788   1.6935   1.6988   1.6989
     1.7061   1.7065   1.7082   1.7108   1.7111   1.7115   1.7117   1.7195
     1.7260   1.7280   1.7287   1.7303   1.7306   1.7405   1.7604   1.7607
     1.7660   1.8727   1.9248   1.9266   2.2306   2.4320   2.4533   2.4537
     2.4871   2.4873   2.4889   2.4890   2.4901   2.4904   2.4914   2.4924
     2.4925   2.4949   2.4970   2.4973   2.5010   2.5010   2.5014   2.5083
     2.5084   2.5625   2.5842   2.5853   2.6789   2.8283   2.8286   2.8392
     2.8451   2.8452   2.8482   2.8514   2.8520   2.8521   2.8633   2.8634
     2.8728   2.8762   2.8856   2.8858   2.8879   2.8910   2.8918   2.9037
     2.9088   2.9092   3.0730   3.0753   3.7264   3.9220   3.9221   3.9479
     3.9484   3.9489   3.9492   3.9492   3.9556   3.9558   3.9658   3.9709
     3.9711   4.0903   4.1063   4.1068   4.1361   4.1361   4.1376   4.1418
     4.1420   4.1431   4.1438   4.1440   4.1444   4.1449   4.1454   4.1458
     4.1462   4.1544   4.1650   4.1652   4.1922   4.1998   4.2072   4.2077
     4.2174   4.2326   4.2327   4.2378   4.2404   4.2411   4.2413   4.2443
     4.2445   4.2485   4.2660   4.2661   4.2686   4.2694   4.2722   4.2732
     4.2736   4.2741   4.2805   4.2834   4.2900   4.2909   4.3479   4.3482
     4.3687   4.3688   4.3765   4.3774   4.3775   4.3798   4.3809   4.3811
     4.3841   4.3893   4.3929   4.3934   4.3937   4.4077   4.4080   4.4147
     4.4182   4.4183   4.4311   4.4422   4.4424   4.4895   4.5123   4.5134
     4.5136   4.5536   4.5539   4.5791   4.5826   4.5851   4.5851   4.5895
     4.5899   4.6213   4.6489   4.6491   4.6583   4.6974   4.7127   4.7133
     4.8254   4.8273   4.9271   4.9272   4.9499   4.9531   4.9534   4.9539
     4.9539   4.9683   4.9684   5.0402   5.0924   5.0948   5.6010   5.6323
     5.6326   5.6565   5.6632   5.6634   5.6678   5.6707   5.6709   5.7048
     5.7050   5.7076   5.8996   5.8999   5.9063   5.9186   5.9197   5.9198
     5.9224   5.9235   5.9237   5.9339   5.9396   5.9397   5.9459   5.9461
     5.9495   5.9539   5.9539   5.9597   5.9763   5.9766   5.9815   6.0053
     6.0137   6.0141   6.1039   6.1964   6.1968   6.2633   6.2634   6.2674
     6.2687   6.2689   6.2690   6.2706   6.2707   6.2717   6.2756   6.2777
     6.2787   6.2791   6.2908   6.2910   6.2997   6.3001   6.3048   6.3304
     6.3387   6.3390   6.3408   6.4793   6.4797   6.4887   6.5177   6.5178
     6.5180   6.5199   6.5207   6.5207   6.5223   6.5237   6.5238   6.5258
     6.5269   6.5272   6.5287   6.5325   6.5329   6.5418   6.5422   6.5768
     6.5868   6.5870   6.5958   6.6591   6.6599   6.6600   6.6664   6.6711
     6.6712   6.6729   6.6852   6.7143   6.7148   6.7277   6.7314   6.7317
     6.7327   6.7388   6.7418   6.7420   6.7436   6.7445   6.7446   6.7472
     6.7474   6.7732   6.7735   6.7816   6.7881   6.7882   6.7887   6.8204
     6.8620   6.8627   6.9030   6.9031   6.9077   6.9325   6.9328   6.9336
     6.9369   6.9431   6.9459   6.9462   6.9473   6.9495   6.9495   6.9532
     6.9582   6.9584   6.9648   6.9651   6.9668   6.9676   6.9702   6.9705
     6.9760   6.9762   6.9903   7.0129   7.0133   7.0846   7.1285   7.1300
     7.2648   7.2653   7.3034   7.3041   7.3043   7.3059   7.3079   7.3091
     7.3093   7.3097   7.3098   7.3101   7.3150   7.3158   7.3159   7.3214
     7.3275   7.3276   7.3297   7.3566   7.3569   7.3819   7.3825   7.3826
     7.4928   7.4932   7.5251   7.5274   7.5284   7.5293   7.5454   7.5457
     7.5686   7.5898   7.5957   7.5960   7.6817   7.6907   7.6909   7.7375
     7.7412   7.7412   7.7414   7.7439   7.7440   7.7452   7.7506   7.7510
     7.7558   7.7562   7.7571   7.7610   7.7630   7.7632   7.7671   7.7672
     7.7673   7.7679   7.7679   7.7689   7.7727   7.7729   7.7744   7.7749
     7.7755   7.7784   7.7795   7.7806   7.7808   7.7814   7.7817   7.7828
     7.7854   7.7864   7.7867   7.7917   7.8026   7.8036   7.8104   7.8305
     7.8307   7.8546   7.8552   7.8701   7.8946   7.8948   7.9089   7.9222
     7.9223   7.9294   7.9472   7.9482   7.9484   8.1027   8.1206   8.1212
     8.3077   8.3079   8.3601   8.3603   8.3614   8.3653   8.3654   8.3676
     8.3693   8.3703   8.3705   8.3712   8.3758   8.3771   8.3773   8.3841
     8.3842   8.3893   8.4009   8.4017   8.4169   8.4254   8.4258   8.4259
     8.4716   8.5190   8.5192   8.5499   8.5536   8.5539   8.5552   8.5557
     8.5557   8.5597   8.5616   8.5653   8.5659   8.5683   8.5685   8.5848
     8.5849   8.5976   8.6007   8.6067   8.6072   8.6093   8.6347   8.6348
     8.6367   8.6526   8.6602   8.6603   8.6606   8.6685   8.6685   8.6799
     8.6848   8.6850   8.6931   8.6931   8.6944   8.7010   8.7023   8.7030
     8.7227   8.7238   8.7265   8.7330   8.7333   8.7414   8.7530   8.7535
     8.7688   8.7692   8.7752   9.0105   9.0507   9.0510   9.1162   9.1163
     9.1368   9.1373   9.1376   9.1381   9.1420   9.1422   9.1467   9.1854
     9.2024   9.2130   9.2134   9.2564   9.2568   9.2616   9.2618   9.2719
     9.2844   9.2846   9.2957   9.4347   9.4728   9.4739   9.6692   9.6695
     9.7112   9.7121   9.7124   9.7140   9.7154   9.7180   9.7228   9.7228
     9.7352   9.7353   9.7386   9.7396   9.7397   9.7450   9.7450   9.7497
     9.7690   9.7695   9.7747   9.8335   9.8542   9.8545   9.8760   9.9808
     9.9813   9.9920   9.9971   9.9972  10.0028  10.0042  10.0043  10.0109
    10.0198  10.0201  10.0206  10.0294  10.0323  10.0325  10.0399  10.0401
    10.0403  10.0407  10.0408  10.0454  10.0467  10.0471  10.0486  10.0486
    10.0491  10.0503  10.0504  10.0529  10.0683  10.0704  10.0712  10.1496
    10.1498  10.1592  10.1994  10.1997  10.2026  10.2027  10.2028  10.2030
    10.2040  10.2051  10.2052  10.2069  10.2071  10.2082  10.2862  10.2865
    10.2937  10.3104  10.3117  10.3129  10.3130  10.3200  10.3201  10.3229
    10.3230  10.3230  10.3256  10.3269  10.3296  10.3297  10.3306  10.3309
    10.3343  10.3358  10.3359  10.3376  10.3376  10.3381  10.3440  10.3443
    10.3453  10.3511  10.3517  10.3544  10.3604  10.3607  10.3631  10.3779
    10.3786  10.3860  10.4057  10.4064  10.4169  10.4249  10.4255  10.4287
    10.4550  10.4561  10.4602  10.4817  10.4905  10.4918  10.5224  10.5225
    10.6084  10.6412  10.6435  11.2469  11.3477  11.3484  11.4687  11.4688
    11.4853  11.4857  11.4901  11.4926  11.4926  11.4931  11.4970  11.4971
    11.4975  11.4977  11.5044  11.5046  11.5085  11.5088  11.5208  11.5216
    11.5263  11.5396  11.5400  11.5492  11.5621  11.5722  11.5723  11.7442
    11.8849  11.8851  11.8895  11.9202  11.9207  12.2703  12.3600  12.3604
    12.4586  12.4707  12.4708  12.4764  12.4910  12.4918  12.5064  12.5340
    12.5358  12.5869  13.1995  13.1996  13.2023  14.6989  16.5383  16.5719
    17.4073  17.4078  17.4097  17.4230  17.4232  17.4359  17.7154  17.7160

     occupation numbers 
     1.0000   1.0000   1.0000   1.0000   1.0000   1.0000   1.0000   1.0000
     1.0000   1.0000   1.0000   1.0000   1.0000   1.0000   1.0000   1.0000
     1.0000   1.0000   1.0000   1.0000   1.0000   1.0000   1.0000   1.0000
     1.0000   1.0000   1.0000   1.0000   1.0000   1.0000   1.0000   1.0000
     1.0000   1.0000   1.0000   1.0000   1.0000   1.0000   1.0000   1.0000
     1.0000   1.0000   1.0000   1.0000   1.0000   1.0000   1.0000   1.0000
     1.0000   1.0000   1.0000   1.0000   1.0000   1.0000   1.0000   1.0000
     1.0000   1.0000   1.0000   1.0000   1.0000   1.0000   1.0000   1.0000
     1.0000   1.0000   1.0000   1.0000   1.0000   1.0000   1.0000   1.0000
     1.0000   1.0000   1.0000   1.0000   1.0000   1.0000   1.0000   1.0000
     1.0000   1.0000   1.0000   1.0000   1.0000   1.0000   1.0000   1.0000
     1.0000   1.0000   1.0000   1.0000   1.0000   1.0000   1.0000   1.0000
     1.0000   1.0000   1.0000   1.0000   1.0000   1.0000   1.0000   1.0000
     1.0000   1.0000   1.0000   1.0000   1.0000   1.0000   1.0000   1.0000
     1.0000   1.0000   1.0000   1.0000   1.0000   1.0000   1.0000   1.0000
     1.0000   1.0000   1.0000   1.0000   1.0000   1.0000   1.0000   1.0000
     1.0000   1.0000   1.0000   1.0000   1.0000   1.0000   1.0000   1.0000
     1.0000   1.0000   1.0000   1.0000   1.0000   1.0000   1.0000   1.0000
     1.0000   1.0000   1.0000   1.0000   1.0000   1.0000   1.0000   1.0000
     1.0000   1.0000   1.0000   1.0000   1.0000   1.0000   1.0000   1.0000
     1.0000   1.0000   1.0000   1.0000   1.0000   1.0000   1.0000   1.0000
     1.0000   1.0000   1.0000   1.0000   1.0000   1.0000   1.0000   1.0000
     1.0000   1.0000   1.0000   1.0000   1.0000   1.0000   1.0000   1.0000
     1.0000   1.0000   1.0000   1.0000   1.0000   1.0000   1.0000   1.0000
     1.0000   1.0000   1.0000   1.0000   1.0000   1.0000   1.0000   1.0000
     1.0000   1.0000   1.0000   1.0000   1.0000   1.0000   1.0000   1.0000
     1.0000   1.0000   1.0000   1.0000   1.0000   1.0000   1.0000   1.0000
     1.0000   1.0000   1.0000   1.0000   1.0000   1.0000   1.0000   1.0000
     1.0000   1.0000   1.0000   1.0000   1.0000   1.0000   1.0000   1.0000
     1.0000   1.0000   1.0000   1.0000   1.0000   1.0000   1.0000   1.0000
     1.0000   1.0000   1.0000   1.0000   1.0000   1.0000   1.0000   1.0000
     1.0000   1.0000   1.0000   1.0000   1.0000   1.0000   1.0000   1.0000
     1.0000   1.0000   1.0000   1.0000   1.0000   1.0000   1.0000   1.0000
     1.0000   1.0000   1.0000   1.0000   1.0000   1.0000   1.0000   1.0000
     1.0000   1.0000   1.0000   1.0000   1.0000   1.0000   1.0000   1.0000
     1.0000   1.0000   1.0000   1.0000   1.0000   1.0000   1.0000   1.0000
     1.0000   1.0000   1.0000   1.0000   1.0000   1.0000   1.0000   1.0000
     1.0000   1.0000   1.0000   1.0000   1.0000   1.0000   1.0000   1.0000
     1.0000   1.0000   1.0000   1.0000   1.0000   1.0000   1.0000   1.0000
     1.0000   1.0000   1.0000   1.0000   1.0000   1.0000   1.0000   1.0000
     1.0000   1.0000   1.0000   1.0000   1.0000   1.0000   1.0000   1.0000
     1.0000   1.0000   1.0000   1.0000   1.0000   1.0000   1.0000   1.0000
     1.0000   1.0000   1.0000   1.0000   1.0000   1.0000   1.0000   1.0000
     1.0000   1.0000   1.0000   1.0000   1.0000   1.0000   1.0000   1.0000
     1.0000   1.0000   1.0000   1.0000   1.0000   1.0000   1.0000   1.0000
     1.0000   1.0000   1.0000   1.0000   1.0000   1.0000   1.0000   1.0000
     1.0000   1.0000   1.0000   1.0000   1.0000   1.0000   1.0000   1.0000
     1.0000   1.0000   1.0000   1.0000   1.0000   1.0000   1.0000   1.0000
     1.0000   1.0000   1.0000   1.0000   1.0000   1.0000   1.0000   1.0000
     1.0000   1.0000   1.0000   1.0000   1.0000   1.0000   1.0000   1.0000
     1.0000   1.0000   1.0000   1.0000   1.0000   1.0000   1.0000   1.0000
     1.0000   1.0000   1.0000   1.0000   1.0000   1.0000   1.0000   1.0000
     1.0000   1.0000   1.0000   1.0000   1.0000   1.0000   1.0000   1.0000
     1.0000   1.0000   1.0000   1.0000   1.0000   1.0000   1.0000   1.0000
     1.0000   1.0000   1.0000   1.0000   1.0000   1.0000   1.0000   1.0000
     1.0000   1.0000   1.0000   1.0000   1.0000   1.0000   1.0000   1.0000
     1.0000   1.0000   1.0000   1.0000   1.0000   1.0000   1.0000   1.0000
     1.0000   1.0000   1.0000   1.0000   1.0000   1.0000   1.0000   1.0000
     1.0000   1.0000   1.0000   1.0000   1.0000   1.0000   1.0000   1.0000
     1.0000   1.0000   1.0000   1.0000   1.0000   1.0000   1.0000   1.0000
     1.0000   1.0000   1.0000   1.0000   1.0000   1.0000   1.0000   1.0000
     1.0000   1.0000   1.0000   1.0000   1.0000   1.0000   1.0000   1.0000
     1.0000   1.0000   1.0000   1.0000   1.0000   1.0000   1.0000   1.0000
     1.0000   1.0000   1.0000   1.0000   1.0000   1.0000   1.0000   1.0000
     1.0000   1.0000   1.0000   1.0000   1.0000   1.0000   1.0000   1.0000
     1.0000   1.0000   1.0000   1.0000   1.0000   1.0000   1.0000   1.0000
     1.0000   1.0000   1.0000   1.0000   1.0000   1.0000   1.0000   1.0000
     1.0000   1.0000   1.0000   1.0000   1.0000   1.0000   1.0000   1.0000
     1.0000   1.0000   1.0000   1.0000   1.0000   1.0000   1.0000   1.0000
     1.0000   1.0000   1.0000   1.0000   1.0000   1.0000   1.0000   1.0000
     1.0000   1.0000   1.0000   1.0000   1.0000   1.0000   1.0000   1.0000
     1.0000   1.0000   1.0000   1.0000   1.0000   1.0000   1.0000   1.0000
     1.0000   1.0000   1.0000   1.0000   1.0000   1.0000   1.0000   1.0000
     1.0000   1.0000   1.0000   1.0000   1.0000   1.0000   1.0000   1.0000
     1.0000   1.0000   1.0000   1.0000   1.0000   1.0000   1.0000   1.0000
     1.0000   1.0000   1.0000   1.0000   1.0000   1.0000   1.0000   1.0000
     1.0000   1.0000   1.0000   1.0000   1.0000   1.0000   1.0000   1.0000
     1.0000   1.0000   1.0000   1.0000   1.0000   1.0000   1.0000   1.0000
     1.0000   1.0000   1.0000   1.0000   1.0000   1.0000   1.0000   1.0000
     1.0000   1.0000   1.0000   1.0000   1.0000   1.0000   1.0000   1.0000
     1.0000   1.0000   1.0000   1.0000   1.0000   1.0000   1.0000   1.0000
     1.0000   1.0000   1.0000   1.0000   1.0000   1.0000   1.0000   1.0000
     1.0000   1.0000   1.0000   1.0000   1.0000   1.0000   1.0000   1.0000
     1.0000   1.0000   1.0000   1.0000   1.0000   1.0000   1.0000   1.0000
     1.0000   1.0000   1.0000   1.0000   1.0000   1.0000   1.0000   1.0000
     1.0000   1.0000   1.0000   1.0000   1.0000   1.0000   1.0000   1.0000
     1.0000   1.0000   1.0000   1.0000   1.0000   1.0000   1.0000   1.0000
     1.0000   1.0000   1.0000   1.0000   1.0000   1.0000   1.0000   1.0000
     1.0000   1.0000   1.0000   1.0000   1.0000   1.0000   1.0000   1.0000
     1.0000   1.0000   1.0000   1.0000   1.0000   1.0000   1.0000   1.0000
     1.0000   1.0000   1.0000   1.0000   1.0000   1.0000   1.0000   1.0000
     1.0000   1.0000   1.0000   1.0000   1.0000   1.0000   1.0000   1.0000
     1.0000   1.0000   1.0000   1.0000   1.0000   1.0000   1.0000   1.0000
     1.0000   1.0000   1.0000   1.0000   1.0000   1.0000   1.0000   1.0000
     1.0000   1.0000   1.0000   1.0000   1.0000   1.0000   1.0000   1.0000
     1.0000   1.0000   1.0000   1.0000   1.0000   1.0000   1.0000   1.0000
     1.0000   1.0000   1.0000   1.0000   1.0000   1.0000   1.0000   1.0000
     1.0000   1.0000   1.0000   1.0000   1.0000   1.0000   1.0000   1.0000
     1.0000   1.0000   1.0000   1.0000   1.0000   1.0000   1.0000   1.0000
     1.0000   1.0000   1.0000   1.0000   1.0000   1.0000   1.0000   1.0000
     1.0000   1.0000   1.0000   1.0000   1.0000   1.0000   1.0000   1.0000
     1.0000   1.0000   1.0000   1.0000   1.0000   1.0000   1.0000   1.0000
     1.0000   1.0000   1.0000   1.0000   1.0000   1.0000   1.0000   1.0000
     1.0000   1.0000   1.0000   1.0000   1.0000   1.0000   1.0000   1.0000
     1.0000   1.0000   1.0000   1.0000   1.0000   1.0000   1.0000   1.0000
     1.0000   1.0000   1.0000   1.0000   1.0000   1.0000   1.0000   1.0000
     1.0000   1.0000   1.0000   1.0000   1.0000   1.0000   1.0000   1.0000
     1.0000   1.0000   1.0000   1.0000   1.0000   1.0000   1.0000   1.0000
     1.0000   1.0000   1.0000   1.0000   1.0000   1.0000   1.0000   1.0000
     1.0000   1.0000   1.0000   1.0000   1.0000   1.0000   1.0000   1.0000
     1.0000   1.0000   1.0000   1.0000   1.0000   1.0000   1.0000   1.0000
     1.0000   1.0000   1.0000   1.0000   1.0000   1.0000   1.0000   1.0000
     1.0000   1.0000   1.0000   1.0000   1.0000   1.0000   1.0000   1.0000
     1.0000   1.0000   1.0000   1.0000   1.0000   1.0000   1.0000   1.0000
     1.0000   1.0000   1.0000   1.0000   1.0000   1.0000   1.0000   1.0000
     1.0000   1.0000   1.0000   1.0000   1.0000   1.0000   1.0000   1.0000
     1.0000   1.0000   1.0000   1.0000   1.0000   1.0000   1.0000   1.0000
     1.0000   1.0000   1.0000   1.0000   1.0000   1.0000   1.0000   1.0000
     1.0000   1.0000   1.0000   1.0000   1.0000   1.0000   1.0000   1.0000
     1.0000   1.0000   1.0000   1.0000   1.0000   1.0000   1.0000   1.0000
     1.0000   1.0000   1.0000   1.0000   1.0000   1.0000   1.0000   1.0000
     1.0000   1.0000   1.0000   1.0000   1.0000   1.0000   1.0000   1.0000
     1.0000   1.0000   1.0000   1.0000   1.0000   1.0000   1.0000   1.0000
     1.0000   1.0000   1.0000   1.0000   1.0000   1.0000   1.0000   1.0000
     1.0000   1.0000   1.0000   1.0000   1.0000   1.0000   1.0000   1.0000
     1.0000   1.0000   1.0000   1.0000   1.0000   1.0000   1.0000   1.0000
     1.0000   1.0000   1.0000   1.0000   1.0000   1.0000   1.0000   1.0000
     1.0000   1.0000   1.0000   1.0000   1.0000   1.0000   0.0000   0.0000
     0.0000   0.0000   0.0000   0.0000   0.0000   0.0000   0.0000   0.0000

     highest occupied, lowest unoccupied level (ev):    15.1455   16.5383

!    total energy              =   -5829.10289075 Ry
     estimated scf accuracy    <          4.1E-11 Ry

     The total energy is the sum of the following terms:
     one-electron contribution =    2012.42518051 Ry
     hartree contribution      =     504.94876662 Ry
     xc contribution           =   -1820.28911829 Ry
     ewald contribution        =   -6526.18771958 Ry

     total magnetization       =     2.00 Bohr mag/cell
     absolute magnetization    =     2.28 Bohr mag/cell

     convergence has been achieved in  20 iterations

 %%%%%%%%%%%%%%%%%%%%%%%%%%%%%%%%%%%%%%%%%%%%%%%%%%%%%%%%%%%%%%%%%%%%%%%%%%%%%%
     Error in routine write_rhog (2):
     error writing file ./pwscf.save/charge-density
 %%%%%%%%%%%%%%%%%%%%%%%%%%%%%%%%%%%%%%%%%%%%%%%%%%%%%%%%%%%%%%%%%%%%%%%%%%%%%%

     stopping ...

 %%%%%%%%%%%%%%%%%%%%%%%%%%%%%%%%%%%%%%%%%%%%%%%%%%%%%%%%%%%%%%%%%%%%%%%%%%%%%%
     Error in routine write_rhog (2):
     error writing file ./pwscf.save/charge-density
 %%%%%%%%%%%%%%%%%%%%%%%%%%%%%%%%%%%%%%%%%%%%%%%%%%%%%%%%%%%%%%%%%%%%%%%%%%%%%%

     stopping ...

 %%%%%%%%%%%%%%%%%%%%%%%%%%%%%%%%%%%%%%%%%%%%%%%%%%%%%%%%%%%%%%%%%%%%%%%%%%%%%%
     Error in routine write_rhog (2):
     error writing file ./pwscf.save/charge-density
 %%%%%%%%%%%%%%%%%%%%%%%%%%%%%%%%%%%%%%%%%%%%%%%%%%%%%%%%%%%%%%%%%%%%%%%%%%%%%%

     stopping ...

 %%%%%%%%%%%%%%%%%%%%%%%%%%%%%%%%%%%%%%%%%%%%%%%%%%%%%%%%%%%%%%%%%%%%%%%%%%%%%%
     Error in routine write_rhog (2):
     error writing file ./pwscf.save/charge-density
 %%%%%%%%%%%%%%%%%%%%%%%%%%%%%%%%%%%%%%%%%%%%%%%%%%%%%%%%%%%%%%%%%%%%%%%%%%%%%%

     stopping ...

 %%%%%%%%%%%%%%%%%%%%%%%%%%%%%%%%%%%%%%%%%%%%%%%%%%%%%%%%%%%%%%%%%%%%%%%%%%%%%%
     Error in routine write_rhog (2):
     error writing file ./pwscf.save/charge-density
 %%%%%%%%%%%%%%%%%%%%%%%%%%%%%%%%%%%%%%%%%%%%%%%%%%%%%%%%%%%%%%%%%%%%%%%%%%%%%%

     stopping ...

 %%%%%%%%%%%%%%%%%%%%%%%%%%%%%%%%%%%%%%%%%%%%%%%%%%%%%%%%%%%%%%%%%%%%%%%%%%%%%%
     Error in routine write_rhog (2):
     error writing file ./pwscf.save/charge-density
 %%%%%%%%%%%%%%%%%%%%%%%%%%%%%%%%%%%%%%%%%%%%%%%%%%%%%%%%%%%%%%%%%%%%%%%%%%%%%%

     stopping ...

 %%%%%%%%%%%%%%%%%%%%%%%%%%%%%%%%%%%%%%%%%%%%%%%%%%%%%%%%%%%%%%%%%%%%%%%%%%%%%%
     Error in routine write_rhog (2):
     error writing file ./pwscf.save/charge-density
 %%%%%%%%%%%%%%%%%%%%%%%%%%%%%%%%%%%%%%%%%%%%%%%%%%%%%%%%%%%%%%%%%%%%%%%%%%%%%%

     stopping ...

 %%%%%%%%%%%%%%%%%%%%%%%%%%%%%%%%%%%%%%%%%%%%%%%%%%%%%%%%%%%%%%%%%%%%%%%%%%%%%%
     Error in routine write_rhog (2):
     error writing file ./pwscf.save/charge-density
 %%%%%%%%%%%%%%%%%%%%%%%%%%%%%%%%%%%%%%%%%%%%%%%%%%%%%%%%%%%%%%%%%%%%%%%%%%%%%%

     stopping ...

 %%%%%%%%%%%%%%%%%%%%%%%%%%%%%%%%%%%%%%%%%%%%%%%%%%%%%%%%%%%%%%%%%%%%%%%%%%%%%%
     Error in routine write_rhog (2):
     error writing file ./pwscf.save/charge-density
 %%%%%%%%%%%%%%%%%%%%%%%%%%%%%%%%%%%%%%%%%%%%%%%%%%%%%%%%%%%%%%%%%%%%%%%%%%%%%%

     stopping ...

 %%%%%%%%%%%%%%%%%%%%%%%%%%%%%%%%%%%%%%%%%%%%%%%%%%%%%%%%%%%%%%%%%%%%%%%%%%%%%%
     Error in routine write_rhog (2):
     error writing file ./pwscf.save/charge-density
 %%%%%%%%%%%%%%%%%%%%%%%%%%%%%%%%%%%%%%%%%%%%%%%%%%%%%%%%%%%%%%%%%%%%%%%%%%%%%%

     stopping ...

 %%%%%%%%%%%%%%%%%%%%%%%%%%%%%%%%%%%%%%%%%%%%%%%%%%%%%%%%%%%%%%%%%%%%%%%%%%%%%%
     Error in routine write_rhog (2):
     error writing file ./pwscf.save/charge-density
 %%%%%%%%%%%%%%%%%%%%%%%%%%%%%%%%%%%%%%%%%%%%%%%%%%%%%%%%%%%%%%%%%%%%%%%%%%%%%%

     stopping ...

 %%%%%%%%%%%%%%%%%%%%%%%%%%%%%%%%%%%%%%%%%%%%%%%%%%%%%%%%%%%%%%%%%%%%%%%%%%%%%%
     Error in routine write_rhog (2):
     error writing file ./pwscf.save/charge-density
 %%%%%%%%%%%%%%%%%%%%%%%%%%%%%%%%%%%%%%%%%%%%%%%%%%%%%%%%%%%%%%%%%%%%%%%%%%%%%%

     stopping ...

 %%%%%%%%%%%%%%%%%%%%%%%%%%%%%%%%%%%%%%%%%%%%%%%%%%%%%%%%%%%%%%%%%%%%%%%%%%%%%%
     Error in routine write_rhog (2):
     error writing file ./pwscf.save/charge-density
 %%%%%%%%%%%%%%%%%%%%%%%%%%%%%%%%%%%%%%%%%%%%%%%%%%%%%%%%%%%%%%%%%%%%%%%%%%%%%%

     stopping ...

 %%%%%%%%%%%%%%%%%%%%%%%%%%%%%%%%%%%%%%%%%%%%%%%%%%%%%%%%%%%%%%%%%%%%%%%%%%%%%%
     Error in routine write_rhog (2):
     error writing file ./pwscf.save/charge-density
 %%%%%%%%%%%%%%%%%%%%%%%%%%%%%%%%%%%%%%%%%%%%%%%%%%%%%%%%%%%%%%%%%%%%%%%%%%%%%%

     stopping ...

 %%%%%%%%%%%%%%%%%%%%%%%%%%%%%%%%%%%%%%%%%%%%%%%%%%%%%%%%%%%%%%%%%%%%%%%%%%%%%%
     Error in routine write_rhog (2):
     error writing file ./pwscf.save/charge-density
 %%%%%%%%%%%%%%%%%%%%%%%%%%%%%%%%%%%%%%%%%%%%%%%%%%%%%%%%%%%%%%%%%%%%%%%%%%%%%%

     stopping ...

 %%%%%%%%%%%%%%%%%%%%%%%%%%%%%%%%%%%%%%%%%%%%%%%%%%%%%%%%%%%%%%%%%%%%%%%%%%%%%%
     Error in routine write_rhog (2):
     error writing file ./pwscf.save/charge-density
 %%%%%%%%%%%%%%%%%%%%%%%%%%%%%%%%%%%%%%%%%%%%%%%%%%%%%%%%%%%%%%%%%%%%%%%%%%%%%%

     stopping ...

 %%%%%%%%%%%%%%%%%%%%%%%%%%%%%%%%%%%%%%%%%%%%%%%%%%%%%%%%%%%%%%%%%%%%%%%%%%%%%%
     Error in routine write_rhog (2):
     error writing file ./pwscf.save/charge-density
 %%%%%%%%%%%%%%%%%%%%%%%%%%%%%%%%%%%%%%%%%%%%%%%%%%%%%%%%%%%%%%%%%%%%%%%%%%%%%%

     stopping ...

 %%%%%%%%%%%%%%%%%%%%%%%%%%%%%%%%%%%%%%%%%%%%%%%%%%%%%%%%%%%%%%%%%%%%%%%%%%%%%%
     Error in routine write_rhog (2):
     error writing file ./pwscf.save/charge-density
 %%%%%%%%%%%%%%%%%%%%%%%%%%%%%%%%%%%%%%%%%%%%%%%%%%%%%%%%%%%%%%%%%%%%%%%%%%%%%%

     stopping ...

 %%%%%%%%%%%%%%%%%%%%%%%%%%%%%%%%%%%%%%%%%%%%%%%%%%%%%%%%%%%%%%%%%%%%%%%%%%%%%%
     Error in routine write_rhog (2):
     error writing file ./pwscf.save/charge-density
 %%%%%%%%%%%%%%%%%%%%%%%%%%%%%%%%%%%%%%%%%%%%%%%%%%%%%%%%%%%%%%%%%%%%%%%%%%%%%%

     stopping ...

 %%%%%%%%%%%%%%%%%%%%%%%%%%%%%%%%%%%%%%%%%%%%%%%%%%%%%%%%%%%%%%%%%%%%%%%%%%%%%%
     Error in routine write_rhog (2):
     error writing file ./pwscf.save/charge-density
 %%%%%%%%%%%%%%%%%%%%%%%%%%%%%%%%%%%%%%%%%%%%%%%%%%%%%%%%%%%%%%%%%%%%%%%%%%%%%%

     stopping ...

 %%%%%%%%%%%%%%%%%%%%%%%%%%%%%%%%%%%%%%%%%%%%%%%%%%%%%%%%%%%%%%%%%%%%%%%%%%%%%%
     Error in routine write_rhog (2):
     error writing file ./pwscf.save/charge-density
 %%%%%%%%%%%%%%%%%%%%%%%%%%%%%%%%%%%%%%%%%%%%%%%%%%%%%%%%%%%%%%%%%%%%%%%%%%%%%%

     stopping ...

 %%%%%%%%%%%%%%%%%%%%%%%%%%%%%%%%%%%%%%%%%%%%%%%%%%%%%%%%%%%%%%%%%%%%%%%%%%%%%%
     Error in routine write_rhog (2):
     error writing file ./pwscf.save/charge-density
 %%%%%%%%%%%%%%%%%%%%%%%%%%%%%%%%%%%%%%%%%%%%%%%%%%%%%%%%%%%%%%%%%%%%%%%%%%%%%%

     stopping ...

 %%%%%%%%%%%%%%%%%%%%%%%%%%%%%%%%%%%%%%%%%%%%%%%%%%%%%%%%%%%%%%%%%%%%%%%%%%%%%%
     Error in routine write_rhog (2):
     error writing file ./pwscf.save/charge-density
 %%%%%%%%%%%%%%%%%%%%%%%%%%%%%%%%%%%%%%%%%%%%%%%%%%%%%%%%%%%%%%%%%%%%%%%%%%%%%%

     stopping ...

 %%%%%%%%%%%%%%%%%%%%%%%%%%%%%%%%%%%%%%%%%%%%%%%%%%%%%%%%%%%%%%%%%%%%%%%%%%%%%%
     Error in routine write_rhog (2):
     error writing file ./pwscf.save/charge-density
 %%%%%%%%%%%%%%%%%%%%%%%%%%%%%%%%%%%%%%%%%%%%%%%%%%%%%%%%%%%%%%%%%%%%%%%%%%%%%%

     stopping ...

 %%%%%%%%%%%%%%%%%%%%%%%%%%%%%%%%%%%%%%%%%%%%%%%%%%%%%%%%%%%%%%%%%%%%%%%%%%%%%%
     Error in routine write_rhog (2):
     error writing file ./pwscf.save/charge-density
 %%%%%%%%%%%%%%%%%%%%%%%%%%%%%%%%%%%%%%%%%%%%%%%%%%%%%%%%%%%%%%%%%%%%%%%%%%%%%%

     stopping ...

 %%%%%%%%%%%%%%%%%%%%%%%%%%%%%%%%%%%%%%%%%%%%%%%%%%%%%%%%%%%%%%%%%%%%%%%%%%%%%%
     Error in routine write_rhog (2):
     error writing file ./pwscf.save/charge-density
 %%%%%%%%%%%%%%%%%%%%%%%%%%%%%%%%%%%%%%%%%%%%%%%%%%%%%%%%%%%%%%%%%%%%%%%%%%%%%%

     stopping ...

 %%%%%%%%%%%%%%%%%%%%%%%%%%%%%%%%%%%%%%%%%%%%%%%%%%%%%%%%%%%%%%%%%%%%%%%%%%%%%%
     Error in routine write_rhog (2):
     error writing file ./pwscf.save/charge-density
 %%%%%%%%%%%%%%%%%%%%%%%%%%%%%%%%%%%%%%%%%%%%%%%%%%%%%%%%%%%%%%%%%%%%%%%%%%%%%%

     stopping ...

 %%%%%%%%%%%%%%%%%%%%%%%%%%%%%%%%%%%%%%%%%%%%%%%%%%%%%%%%%%%%%%%%%%%%%%%%%%%%%%
     Error in routine write_rhog (2):
     error writing file ./pwscf.save/charge-density
 %%%%%%%%%%%%%%%%%%%%%%%%%%%%%%%%%%%%%%%%%%%%%%%%%%%%%%%%%%%%%%%%%%%%%%%%%%%%%%

     stopping ...

 %%%%%%%%%%%%%%%%%%%%%%%%%%%%%%%%%%%%%%%%%%%%%%%%%%%%%%%%%%%%%%%%%%%%%%%%%%%%%%
     Error in routine write_rhog (2):
     error writing file ./pwscf.save/charge-density
 %%%%%%%%%%%%%%%%%%%%%%%%%%%%%%%%%%%%%%%%%%%%%%%%%%%%%%%%%%%%%%%%%%%%%%%%%%%%%%

     stopping ...

 %%%%%%%%%%%%%%%%%%%%%%%%%%%%%%%%%%%%%%%%%%%%%%%%%%%%%%%%%%%%%%%%%%%%%%%%%%%%%%
     Error in routine write_rhog (2):
     error writing file ./pwscf.save/charge-density
 %%%%%%%%%%%%%%%%%%%%%%%%%%%%%%%%%%%%%%%%%%%%%%%%%%%%%%%%%%%%%%%%%%%%%%%%%%%%%%

     stopping ...

 %%%%%%%%%%%%%%%%%%%%%%%%%%%%%%%%%%%%%%%%%%%%%%%%%%%%%%%%%%%%%%%%%%%%%%%%%%%%%%
     Error in routine write_rhog (2):
     error writing file ./pwscf.save/charge-density
 %%%%%%%%%%%%%%%%%%%%%%%%%%%%%%%%%%%%%%%%%%%%%%%%%%%%%%%%%%%%%%%%%%%%%%%%%%%%%%

     stopping ...

 %%%%%%%%%%%%%%%%%%%%%%%%%%%%%%%%%%%%%%%%%%%%%%%%%%%%%%%%%%%%%%%%%%%%%%%%%%%%%%
     Error in routine write_rhog (2):
     error writing file ./pwscf.save/charge-density
 %%%%%%%%%%%%%%%%%%%%%%%%%%%%%%%%%%%%%%%%%%%%%%%%%%%%%%%%%%%%%%%%%%%%%%%%%%%%%%

     stopping ...

 %%%%%%%%%%%%%%%%%%%%%%%%%%%%%%%%%%%%%%%%%%%%%%%%%%%%%%%%%%%%%%%%%%%%%%%%%%%%%%
     Error in routine write_rhog (2):
     error writing file ./pwscf.save/charge-density
 %%%%%%%%%%%%%%%%%%%%%%%%%%%%%%%%%%%%%%%%%%%%%%%%%%%%%%%%%%%%%%%%%%%%%%%%%%%%%%

     stopping ...

 %%%%%%%%%%%%%%%%%%%%%%%%%%%%%%%%%%%%%%%%%%%%%%%%%%%%%%%%%%%%%%%%%%%%%%%%%%%%%%
     Error in routine write_rhog (2):
     error writing file ./pwscf.save/charge-density
 %%%%%%%%%%%%%%%%%%%%%%%%%%%%%%%%%%%%%%%%%%%%%%%%%%%%%%%%%%%%%%%%%%%%%%%%%%%%%%

     stopping ...

 %%%%%%%%%%%%%%%%%%%%%%%%%%%%%%%%%%%%%%%%%%%%%%%%%%%%%%%%%%%%%%%%%%%%%%%%%%%%%%
     Error in routine write_rhog (2):
     error writing file ./pwscf.save/charge-density
 %%%%%%%%%%%%%%%%%%%%%%%%%%%%%%%%%%%%%%%%%%%%%%%%%%%%%%%%%%%%%%%%%%%%%%%%%%%%%%

     stopping ...

 %%%%%%%%%%%%%%%%%%%%%%%%%%%%%%%%%%%%%%%%%%%%%%%%%%%%%%%%%%%%%%%%%%%%%%%%%%%%%%
     Error in routine write_rhog (2):
     error writing file ./pwscf.save/charge-density
 %%%%%%%%%%%%%%%%%%%%%%%%%%%%%%%%%%%%%%%%%%%%%%%%%%%%%%%%%%%%%%%%%%%%%%%%%%%%%%

     stopping ...

 %%%%%%%%%%%%%%%%%%%%%%%%%%%%%%%%%%%%%%%%%%%%%%%%%%%%%%%%%%%%%%%%%%%%%%%%%%%%%%
     Error in routine write_rhog (2):
     error writing file ./pwscf.save/charge-density
 %%%%%%%%%%%%%%%%%%%%%%%%%%%%%%%%%%%%%%%%%%%%%%%%%%%%%%%%%%%%%%%%%%%%%%%%%%%%%%

     stopping ...

 %%%%%%%%%%%%%%%%%%%%%%%%%%%%%%%%%%%%%%%%%%%%%%%%%%%%%%%%%%%%%%%%%%%%%%%%%%%%%%
     Error in routine write_rhog (2):
     error writing file ./pwscf.save/charge-density
 %%%%%%%%%%%%%%%%%%%%%%%%%%%%%%%%%%%%%%%%%%%%%%%%%%%%%%%%%%%%%%%%%%%%%%%%%%%%%%

     stopping ...

 %%%%%%%%%%%%%%%%%%%%%%%%%%%%%%%%%%%%%%%%%%%%%%%%%%%%%%%%%%%%%%%%%%%%%%%%%%%%%%
     Error in routine write_rhog (2):
     error writing file ./pwscf.save/charge-density
 %%%%%%%%%%%%%%%%%%%%%%%%%%%%%%%%%%%%%%%%%%%%%%%%%%%%%%%%%%%%%%%%%%%%%%%%%%%%%%

     stopping ...

 %%%%%%%%%%%%%%%%%%%%%%%%%%%%%%%%%%%%%%%%%%%%%%%%%%%%%%%%%%%%%%%%%%%%%%%%%%%%%%
     Error in routine write_rhog (2):
     error writing file ./pwscf.save/charge-density
 %%%%%%%%%%%%%%%%%%%%%%%%%%%%%%%%%%%%%%%%%%%%%%%%%%%%%%%%%%%%%%%%%%%%%%%%%%%%%%

     stopping ...

 %%%%%%%%%%%%%%%%%%%%%%%%%%%%%%%%%%%%%%%%%%%%%%%%%%%%%%%%%%%%%%%%%%%%%%%%%%%%%%
     Error in routine write_rhog (2):
     error writing file ./pwscf.save/charge-density
 %%%%%%%%%%%%%%%%%%%%%%%%%%%%%%%%%%%%%%%%%%%%%%%%%%%%%%%%%%%%%%%%%%%%%%%%%%%%%%

     stopping ...

 %%%%%%%%%%%%%%%%%%%%%%%%%%%%%%%%%%%%%%%%%%%%%%%%%%%%%%%%%%%%%%%%%%%%%%%%%%%%%%
     Error in routine write_rhog (2):
     error writing file ./pwscf.save/charge-density
 %%%%%%%%%%%%%%%%%%%%%%%%%%%%%%%%%%%%%%%%%%%%%%%%%%%%%%%%%%%%%%%%%%%%%%%%%%%%%%

     stopping ...

 %%%%%%%%%%%%%%%%%%%%%%%%%%%%%%%%%%%%%%%%%%%%%%%%%%%%%%%%%%%%%%%%%%%%%%%%%%%%%%
     Error in routine write_rhog (2):
     error writing file ./pwscf.save/charge-density
 %%%%%%%%%%%%%%%%%%%%%%%%%%%%%%%%%%%%%%%%%%%%%%%%%%%%%%%%%%%%%%%%%%%%%%%%%%%%%%

     stopping ...

 %%%%%%%%%%%%%%%%%%%%%%%%%%%%%%%%%%%%%%%%%%%%%%%%%%%%%%%%%%%%%%%%%%%%%%%%%%%%%%
     Error in routine write_rhog (2):
     error writing file ./pwscf.save/charge-density
 %%%%%%%%%%%%%%%%%%%%%%%%%%%%%%%%%%%%%%%%%%%%%%%%%%%%%%%%%%%%%%%%%%%%%%%%%%%%%%

     stopping ...

 %%%%%%%%%%%%%%%%%%%%%%%%%%%%%%%%%%%%%%%%%%%%%%%%%%%%%%%%%%%%%%%%%%%%%%%%%%%%%%
     Error in routine write_rhog (2):
     error writing file ./pwscf.save/charge-density
 %%%%%%%%%%%%%%%%%%%%%%%%%%%%%%%%%%%%%%%%%%%%%%%%%%%%%%%%%%%%%%%%%%%%%%%%%%%%%%

     stopping ...

 %%%%%%%%%%%%%%%%%%%%%%%%%%%%%%%%%%%%%%%%%%%%%%%%%%%%%%%%%%%%%%%%%%%%%%%%%%%%%%
     Error in routine write_rhog (2):
     error writing file ./pwscf.save/charge-density
 %%%%%%%%%%%%%%%%%%%%%%%%%%%%%%%%%%%%%%%%%%%%%%%%%%%%%%%%%%%%%%%%%%%%%%%%%%%%%%

     stopping ...

 %%%%%%%%%%%%%%%%%%%%%%%%%%%%%%%%%%%%%%%%%%%%%%%%%%%%%%%%%%%%%%%%%%%%%%%%%%%%%%
     Error in routine write_rhog (2):
     error writing file ./pwscf.save/charge-density
 %%%%%%%%%%%%%%%%%%%%%%%%%%%%%%%%%%%%%%%%%%%%%%%%%%%%%%%%%%%%%%%%%%%%%%%%%%%%%%

     stopping ...

 %%%%%%%%%%%%%%%%%%%%%%%%%%%%%%%%%%%%%%%%%%%%%%%%%%%%%%%%%%%%%%%%%%%%%%%%%%%%%%
     Error in routine write_rhog (2):
     error writing file ./pwscf.save/charge-density
 %%%%%%%%%%%%%%%%%%%%%%%%%%%%%%%%%%%%%%%%%%%%%%%%%%%%%%%%%%%%%%%%%%%%%%%%%%%%%%

     stopping ...
