&CONTROL
   calculation      = 'scf'
   verbosity        = 'high'
   wf_collect       = .true.
   nstep            = 100
   tstress          = .true.
   tprnfor          = .true.
   outdir           = './'
   prefix           = 'pwscf'
   forc_conv_thr    = 0.00039
   pseudo_dir       = './'
/
&SYSTEM
   ibrav            = 0
   nat              = 63
   ntyp             = 2
   nbnd             = 152
   tot_charge       = -1
   tot_magnetization = 2.0
   ecutwfc          = 85
   nspin            = 2
   starting_magnetization(1) = 0.0
   starting_magnetization(2) = 0.0
/
&ELECTRONS
   conv_thr         = 1e-08
   diago_full_acc   = .true.
/
&IONS
   ion_positions    = 'default'
   ion_dynamics     = 'bfgs'
/
&CELL
/
&FCP
/
&RISM
/
ATOMIC_SPECIES
N  14.007 N_ONCV_PBE-1.0.upf
C  12.011 C_ONCV_PBE-1.0.upf

K_POINTS gamma

CELL_PARAMETERS angstrom
7.13400000000000 0.00000000000000 0.00000000000000
0.00000000000000 7.13400000000000 0.00000000000000
0.00000000000000 0.00000000000000 7.13400000000000

ATOMIC_POSITIONS angstrom
N  0.0000000000 0.0000000000 0.0000000000  
C  0.0000000000 1.7835000000 1.7835000000  
C  0.8917500000 2.6752500000 2.6752500000  
C  1.7835000000 0.0000000000 1.7835000000  
C  2.6752500000 0.8917500000 2.6752500000  
C  1.7835000000 1.7835000000 0.0000000000  
C  2.6752500000 2.6752500000 0.8917500000  
C  0.0000000000 0.0000000000 3.5670000000  
C  0.8917500000 0.8917500000 4.4587500000  
C  0.0000000000 1.7835000000 5.3505000000  
C  0.8917500000 2.6752500000 6.2422500000  
C  1.7835000000 0.0000000000 5.3505000000  
C  2.6752500000 0.8917500000 6.2422500000  
C  1.7835000000 1.7835000000 3.5670000000  
C  2.6752500000 2.6752500000 4.4587500000  
C  0.0000000000 3.5670000000 0.0000000000  
C  0.8917500000 4.4587500000 0.8917500000  
C  0.0000000000 5.3505000000 1.7835000000  
C  0.8917500000 6.2422500000 2.6752500000  
C  1.7835000000 3.5670000000 1.7835000000  
C  2.6752500000 4.4587500000 2.6752500000  
C  1.7835000000 5.3505000000 0.0000000000  
C  2.6752500000 6.2422500000 0.8917500000  
C  0.0000000000 3.5670000000 3.5670000000  
C  0.8917500000 4.4587500000 4.4587500000  
C  0.0000000000 5.3505000000 5.3505000000  
C  0.8917500000 6.2422500000 6.2422500000  
C  1.7835000000 3.5670000000 5.3505000000  
C  2.6752500000 4.4587500000 6.2422500000  
C  1.7835000000 5.3505000000 3.5670000000  
C  2.6752500000 6.2422500000 4.4587500000  
C  3.5670000000 0.0000000000 0.0000000000  
C  4.4587500000 0.8917500000 0.8917500000  
C  3.5670000000 1.7835000000 1.7835000000  
C  4.4587500000 2.6752500000 2.6752500000  
C  5.3505000000 0.0000000000 1.7835000000  
C  6.2422500000 0.8917500000 2.6752500000  
C  5.3505000000 1.7835000000 0.0000000000  
C  6.2422500000 2.6752500000 0.8917500000  
C  3.5670000000 0.0000000000 3.5670000000  
C  4.4587500000 0.8917500000 4.4587500000  
C  3.5670000000 1.7835000000 5.3505000000  
C  4.4587500000 2.6752500000 6.2422500000  
C  5.3505000000 0.0000000000 5.3505000000  
C  6.2422500000 0.8917500000 6.2422500000  
C  5.3505000000 1.7835000000 3.5670000000  
C  6.2422500000 2.6752500000 4.4587500000  
C  3.5670000000 3.5670000000 0.0000000000  
C  4.4587500000 4.4587500000 0.8917500000  
C  3.5670000000 5.3505000000 1.7835000000  
C  4.4587500000 6.2422500000 2.6752500000  
C  5.3505000000 3.5670000000 1.7835000000  
C  6.2422500000 4.4587500000 2.6752500000  
C  5.3505000000 5.3505000000 0.0000000000  
C  6.2422500000 6.2422500000 0.8917500000  
C  3.5670000000 3.5670000000 3.5670000000  
C  4.4587500000 4.4587500000 4.4587500000  
C  3.5670000000 5.3505000000 5.3505000000  
C  4.4587500000 6.2422500000 6.2422500000  
C  5.3505000000 3.5670000000 5.3505000000  
C  6.2422500000 4.4587500000 6.2422500000  
C  5.3505000000 5.3505000000 3.5670000000  
C  6.2422500000 6.2422500000 4.4587500000  

