
     Program PWSCF v.7.5 starts on 15Nov2025 at 22:44:47 

     This program is part of the open-source Quantum ESPRESSO suite
     for quantum simulation of materials; please cite
         "P. Giannozzi et al., J. Phys.:Condens. Matter 21 395502 (2009);
         "P. Giannozzi et al., J. Phys.:Condens. Matter 29 465901 (2017);
         "P. Giannozzi et al., J. Chem. Phys. 152 154105 (2020);
          URL http://www.quantum-espresso.org", 
     in publications or presentations arising from this work. More details at
     http://www.quantum-espresso.org/quote

     Parallel version (MPI), running on    96 processors

     MPI processes distributed on     2 nodes
     175370 MiB available memory on the printing compute node when the environment starts
 
     Reading input from run-supercell-022.in

     Current dimensions of program PWSCF are:
     Max number of different atomic species (ntypx) = 10
     Max number of k-points (npk) =  40000
     Max angular momentum in pseudopotentials (lmaxx) =  4

     gamma-point specific algorithms are used
 
     K-points division:     npool     =       2
     R & G space division:  proc/nbgrp/npool/nimage =      48
     Subspace diagonalization in iterative solution of the eigenvalue problem:
     one sub-group per band group will be used
     scalapack distributed-memory algorithm (size of sub-group:  2*  2 procs)

 
     Parallelization info
     --------------------
     sticks:   dense  smooth     PW     G-vecs:    dense   smooth      PW
     Min          59      59     14                 2432     2432     302
     Max          62      62     16                 2442     2442     316
     Sum        2885    2885    725               116921   116921   14771
 
     Using Slab Decomposition
 


     bravais-lattice index     =            0
     lattice parameter (alat)  =      13.4813  a.u.
     unit-cell volume          =    2450.1683 (a.u.)^3
     number of atoms/cell      =           63
     number of atomic types    =            2
     number of electrons       =       254.00 (up: 128.00, down: 126.00)
     number of Kohn-Sham states=          152
     kinetic-energy cutoff     =      50.0000  Ry
     charge density cutoff     =     200.0000  Ry
     scf convergence threshold =      1.0E-08
     mixing beta               =       0.7000
     number of iterations used =            8  plain     mixing
     Exchange-correlation= PBE
                           (   1   4   3   4   0   0   0)

     celldm(1)=  13.481306  celldm(2)=   0.000000  celldm(3)=   0.000000
     celldm(4)=   0.000000  celldm(5)=   0.000000  celldm(6)=   0.000000

     crystal axes: (cart. coord. in units of alat)
               a(1) = (   1.000000   0.000000   0.000000 )  
               a(2) = (   0.000000   1.000000   0.000000 )  
               a(3) = (   0.000000   0.000000   1.000000 )  

     reciprocal axes: (cart. coord. in units 2 pi/alat)
               b(1) = (  1.000000  0.000000  0.000000 )  
               b(2) = (  0.000000  1.000000  0.000000 )  
               b(3) = (  0.000000  0.000000  1.000000 )  


     PseudoPot. # 1 for N  read from file:
     ./N_ONCV_PBE-1.2.upf
     MD5 check sum: 5312fdf34e96954e02a33bdc911c617a
     Pseudo is Norm-conserving, Zval =  5.0
     Generated using ONCVPSP code by D. R. Hamann
     Using radial grid of  602 points,  4 beta functions with: 
                l(1) =   0
                l(2) =   0
                l(3) =   1
                l(4) =   1

     PseudoPot. # 2 for C  read from file:
     ./C_ONCV_PBE-1.2.upf
     MD5 check sum: d60b57d9bdca4133f5fde4b584ee909d
     Pseudo is Norm-conserving, Zval =  4.0
     Generated using ONCVPSP code by D. R. Hamann
     Using radial grid of  602 points,  4 beta functions with: 
                l(1) =   0
                l(2) =   0
                l(3) =   1
                l(4) =   1

     atomic species   valence    mass     pseudopotential
     N                 5.00    14.00670     N ( 1.00)
     C                 4.00    12.01070     C ( 1.00)

     Starting magnetic structure 
     atomic species   magnetization
     N               0.000
     C               0.000

     No symmetry found


                                    s                        frac. trans.

      isym =  1     identity                                     

 cryst.   s( 1) = (     1          0          0      )
                  (     0          1          0      )
                  (     0          0          1      )

 cart.    s( 1) = (  1.0000000  0.0000000  0.0000000 )
                  (  0.0000000  1.0000000  0.0000000 )
                  (  0.0000000  0.0000000  1.0000000 )


   Cartesian axes

     site n.     atom                  positions (alat units)
         1        N      tau(   1) = (   0.0000000   0.0000000   0.0000000  )
         2        C      tau(   2) = (   0.0000000   0.2500000   0.2500000  )
         3        C      tau(   3) = (   0.1250000   0.3750000   0.3750000  )
         4        C      tau(   4) = (   0.2500000   0.0000000   0.2500000  )
         5        C      tau(   5) = (   0.3750000   0.1250000   0.3750000  )
         6        C      tau(   6) = (   0.2500000   0.2500000   0.0000000  )
         7        C      tau(   7) = (   0.3750000   0.3750000   0.1250000  )
         8        C      tau(   8) = (   0.0000000   0.0000000   0.5000000  )
         9        C      tau(   9) = (   0.1250000   0.1250000   0.6250000  )
        10        C      tau(  10) = (   0.0000000   0.2485165   0.7500000  )
        11        C      tau(  11) = (   0.1250000   0.3750000   0.8750000  )
        12        C      tau(  12) = (   0.2500000   0.0000000   0.7500000  )
        13        C      tau(  13) = (   0.3750000   0.1250000   0.8750000  )
        14        C      tau(  14) = (   0.2500000   0.2500000   0.5000000  )
        15        C      tau(  15) = (   0.3750000   0.3750000   0.6250000  )
        16        C      tau(  16) = (   0.0000000   0.5000000   0.0000000  )
        17        C      tau(  17) = (   0.1250000   0.6250000   0.1250000  )
        18        C      tau(  18) = (   0.0000000   0.7500000   0.2500000  )
        19        C      tau(  19) = (   0.1250000   0.8750000   0.3750000  )
        20        C      tau(  20) = (   0.2500000   0.5000000   0.2500000  )
        21        C      tau(  21) = (   0.3750000   0.6250000   0.3750000  )
        22        C      tau(  22) = (   0.2500000   0.7500000   0.0000000  )
        23        C      tau(  23) = (   0.3750000   0.8750000   0.1250000  )
        24        C      tau(  24) = (   0.0000000   0.5000000   0.5000000  )
        25        C      tau(  25) = (   0.1250000   0.6250000   0.6250000  )
        26        C      tau(  26) = (   0.0000000   0.7500000   0.7500000  )
        27        C      tau(  27) = (   0.1250000   0.8750000   0.8750000  )
        28        C      tau(  28) = (   0.2500000   0.5000000   0.7500000  )
        29        C      tau(  29) = (   0.3750000   0.6250000   0.8750000  )
        30        C      tau(  30) = (   0.2500000   0.7500000   0.5000000  )
        31        C      tau(  31) = (   0.3750000   0.8750000   0.6250000  )
        32        C      tau(  32) = (   0.5000000   0.0000000   0.0000000  )
        33        C      tau(  33) = (   0.6250000   0.1250000   0.1250000  )
        34        C      tau(  34) = (   0.5000000   0.2500000   0.2500000  )
        35        C      tau(  35) = (   0.6250000   0.3750000   0.3750000  )
        36        C      tau(  36) = (   0.7500000   0.0000000   0.2500000  )
        37        C      tau(  37) = (   0.8750000   0.1250000   0.3750000  )
        38        C      tau(  38) = (   0.7500000   0.2500000   0.0000000  )
        39        C      tau(  39) = (   0.8750000   0.3750000   0.1250000  )
        40        C      tau(  40) = (   0.5000000   0.0000000   0.5000000  )
        41        C      tau(  41) = (   0.6250000   0.1250000   0.6250000  )
        42        C      tau(  42) = (   0.5000000   0.2500000   0.7500000  )
        43        C      tau(  43) = (   0.6250000   0.3750000   0.8750000  )
        44        C      tau(  44) = (   0.7500000   0.0000000   0.7500000  )
        45        C      tau(  45) = (   0.8750000   0.1250000   0.8750000  )
        46        C      tau(  46) = (   0.7500000   0.2500000   0.5000000  )
        47        C      tau(  47) = (   0.8750000   0.3750000   0.6250000  )
        48        C      tau(  48) = (   0.5000000   0.5000000   0.0000000  )
        49        C      tau(  49) = (   0.6250000   0.6250000   0.1250000  )
        50        C      tau(  50) = (   0.5000000   0.7500000   0.2500000  )
        51        C      tau(  51) = (   0.6250000   0.8750000   0.3750000  )
        52        C      tau(  52) = (   0.7500000   0.5000000   0.2500000  )
        53        C      tau(  53) = (   0.8750000   0.6250000   0.3750000  )
        54        C      tau(  54) = (   0.7500000   0.7500000   0.0000000  )
        55        C      tau(  55) = (   0.8750000   0.8750000   0.1250000  )
        56        C      tau(  56) = (   0.5000000   0.5000000   0.5000000  )
        57        C      tau(  57) = (   0.6250000   0.6250000   0.6250000  )
        58        C      tau(  58) = (   0.5000000   0.7500000   0.7500000  )
        59        C      tau(  59) = (   0.6250000   0.8750000   0.8750000  )
        60        C      tau(  60) = (   0.7500000   0.5000000   0.7500000  )
        61        C      tau(  61) = (   0.8750000   0.6250000   0.8750000  )
        62        C      tau(  62) = (   0.7500000   0.7500000   0.5000000  )
        63        C      tau(  63) = (   0.8750000   0.8750000   0.6250000  )

   Crystallographic axes

     site n.     atom                  positions (cryst. coord.)
         1        N      tau(   1) = (  0.0000000  0.0000000  0.0000000  )
         2        C      tau(   2) = (  0.0000000  0.2500000  0.2500000  )
         3        C      tau(   3) = (  0.1250000  0.3750000  0.3750000  )
         4        C      tau(   4) = (  0.2500000  0.0000000  0.2500000  )
         5        C      tau(   5) = (  0.3750000  0.1250000  0.3750000  )
         6        C      tau(   6) = (  0.2500000  0.2500000  0.0000000  )
         7        C      tau(   7) = (  0.3750000  0.3750000  0.1250000  )
         8        C      tau(   8) = (  0.0000000  0.0000000  0.5000000  )
         9        C      tau(   9) = (  0.1250000  0.1250000  0.6250000  )
        10        C      tau(  10) = (  0.0000000  0.2485165  0.7500000  )
        11        C      tau(  11) = (  0.1250000  0.3750000  0.8750000  )
        12        C      tau(  12) = (  0.2500000  0.0000000  0.7500000  )
        13        C      tau(  13) = (  0.3750000  0.1250000  0.8750000  )
        14        C      tau(  14) = (  0.2500000  0.2500000  0.5000000  )
        15        C      tau(  15) = (  0.3750000  0.3750000  0.6250000  )
        16        C      tau(  16) = (  0.0000000  0.5000000  0.0000000  )
        17        C      tau(  17) = (  0.1250000  0.6250000  0.1250000  )
        18        C      tau(  18) = (  0.0000000  0.7500000  0.2500000  )
        19        C      tau(  19) = (  0.1250000  0.8750000  0.3750000  )
        20        C      tau(  20) = (  0.2500000  0.5000000  0.2500000  )
        21        C      tau(  21) = (  0.3750000  0.6250000  0.3750000  )
        22        C      tau(  22) = (  0.2500000  0.7500000  0.0000000  )
        23        C      tau(  23) = (  0.3750000  0.8750000  0.1250000  )
        24        C      tau(  24) = (  0.0000000  0.5000000  0.5000000  )
        25        C      tau(  25) = (  0.1250000  0.6250000  0.6250000  )
        26        C      tau(  26) = (  0.0000000  0.7500000  0.7500000  )
        27        C      tau(  27) = (  0.1250000  0.8750000  0.8750000  )
        28        C      tau(  28) = (  0.2500000  0.5000000  0.7500000  )
        29        C      tau(  29) = (  0.3750000  0.6250000  0.8750000  )
        30        C      tau(  30) = (  0.2500000  0.7500000  0.5000000  )
        31        C      tau(  31) = (  0.3750000  0.8750000  0.6250000  )
        32        C      tau(  32) = (  0.5000000  0.0000000  0.0000000  )
        33        C      tau(  33) = (  0.6250000  0.1250000  0.1250000  )
        34        C      tau(  34) = (  0.5000000  0.2500000  0.2500000  )
        35        C      tau(  35) = (  0.6250000  0.3750000  0.3750000  )
        36        C      tau(  36) = (  0.7500000  0.0000000  0.2500000  )
        37        C      tau(  37) = (  0.8750000  0.1250000  0.3750000  )
        38        C      tau(  38) = (  0.7500000  0.2500000  0.0000000  )
        39        C      tau(  39) = (  0.8750000  0.3750000  0.1250000  )
        40        C      tau(  40) = (  0.5000000  0.0000000  0.5000000  )
        41        C      tau(  41) = (  0.6250000  0.1250000  0.6250000  )
        42        C      tau(  42) = (  0.5000000  0.2500000  0.7500000  )
        43        C      tau(  43) = (  0.6250000  0.3750000  0.8750000  )
        44        C      tau(  44) = (  0.7500000  0.0000000  0.7500000  )
        45        C      tau(  45) = (  0.8750000  0.1250000  0.8750000  )
        46        C      tau(  46) = (  0.7500000  0.2500000  0.5000000  )
        47        C      tau(  47) = (  0.8750000  0.3750000  0.6250000  )
        48        C      tau(  48) = (  0.5000000  0.5000000  0.0000000  )
        49        C      tau(  49) = (  0.6250000  0.6250000  0.1250000  )
        50        C      tau(  50) = (  0.5000000  0.7500000  0.2500000  )
        51        C      tau(  51) = (  0.6250000  0.8750000  0.3750000  )
        52        C      tau(  52) = (  0.7500000  0.5000000  0.2500000  )
        53        C      tau(  53) = (  0.8750000  0.6250000  0.3750000  )
        54        C      tau(  54) = (  0.7500000  0.7500000  0.0000000  )
        55        C      tau(  55) = (  0.8750000  0.8750000  0.1250000  )
        56        C      tau(  56) = (  0.5000000  0.5000000  0.5000000  )
        57        C      tau(  57) = (  0.6250000  0.6250000  0.6250000  )
        58        C      tau(  58) = (  0.5000000  0.7500000  0.7500000  )
        59        C      tau(  59) = (  0.6250000  0.8750000  0.8750000  )
        60        C      tau(  60) = (  0.7500000  0.5000000  0.7500000  )
        61        C      tau(  61) = (  0.8750000  0.6250000  0.8750000  )
        62        C      tau(  62) = (  0.7500000  0.7500000  0.5000000  )
        63        C      tau(  63) = (  0.8750000  0.8750000  0.6250000  )

     number of k points=     1
                       cart. coord. in units 2pi/alat
        k(    1) = (   0.0000000   0.0000000   0.0000000), wk =   1.0000000

                       cryst. coord.
        k(    1) = (   0.0000000   0.0000000   0.0000000), wk =   1.0000000

     Dense  grid:    58461 G-vectors     FFT dimensions: (  64,  64,  64)

     Dynamical RAM for                 wfc:       0.35 MB

     Dynamical RAM for     wfc (w. buffer):       0.35 MB

     Dynamical RAM for           str. fact:       0.04 MB

     Dynamical RAM for           local pot:       0.00 MB

     Dynamical RAM for          nlocal pot:       1.17 MB

     Dynamical RAM for                qrad:       0.65 MB

     Dynamical RAM for          rho,v,vnew:       0.49 MB

     Dynamical RAM for               rhoin:       0.16 MB

     Dynamical RAM for            rho*nmix:       0.60 MB

     Dynamical RAM for           G-vectors:       0.08 MB

     Dynamical RAM for          h,s,v(r/c):       0.53 MB

     Dynamical RAM for          <psi|beta>:       0.58 MB

     Dynamical RAM for                 psi:       0.71 MB

     Dynamical RAM for                hpsi:       0.71 MB

     Dynamical RAM for      wfcinit/wfcrot:       1.24 MB

     Estimated static dynamical RAM per process >       3.37 MB

     Estimated max dynamical RAM per process >       6.49 MB

     Estimated total dynamical RAM >     594.05 MB
     Generating pointlists ...
     new r_m :   0.0893 (alat units)  1.2040 (a.u.) for type    1
     new r_m :   0.0890 (alat units)  1.1993 (a.u.) for type    2

     Initial potential from superposition of free atoms

     starting charge     252.5655, renormalised to     254.0000
     Starting wfcs are random

     total cpu time spent up to now is        1.3 secs

     Self-consistent Calculation

     iteration #  1     ecut=    50.00 Ry     beta= 0.70
     Davidson diagonalization with overlap

---- Real-time Memory Report at c_bands before calling an iterative solver
           157 MiB given to the printing process from OS
             0 MiB allocation reported by mallinfo(arena+hblkhd)
        174375 MiB available memory on the node where the printing process lives
------------------
     ethr =  1.00E-02,  avg # of iterations = 13.0

     total cpu time spent up to now is        2.0 secs

     total energy              =    -723.26175561 Ry
     estimated scf accuracy    <       3.61261111 Ry

     total magnetization       =     2.00 Bohr mag/cell
     absolute magnetization    =     2.00 Bohr mag/cell

     iteration #  2     ecut=    50.00 Ry     beta= 0.70
     Davidson diagonalization with overlap

---- Real-time Memory Report at c_bands before calling an iterative solver
           164 MiB given to the printing process from OS
             0 MiB allocation reported by mallinfo(arena+hblkhd)
        174318 MiB available memory on the node where the printing process lives
------------------
     ethr =  1.42E-03,  avg # of iterations = 12.0

     total cpu time spent up to now is        2.5 secs

     total energy              =    -723.63425681 Ry
     estimated scf accuracy    <       0.38428207 Ry

     total magnetization       =     2.00 Bohr mag/cell
     absolute magnetization    =     2.06 Bohr mag/cell

     iteration #  3     ecut=    50.00 Ry     beta= 0.70
     Davidson diagonalization with overlap

---- Real-time Memory Report at c_bands before calling an iterative solver
           164 MiB given to the printing process from OS
             0 MiB allocation reported by mallinfo(arena+hblkhd)
        174325 MiB available memory on the node where the printing process lives
------------------
     c_bands:  4 eigenvalues not converged
     ethr =  1.51E-04,  avg # of iterations = 20.0

     total cpu time spent up to now is        3.2 secs

     total energy              =    -723.67177739 Ry
     estimated scf accuracy    <       0.83284234 Ry

     total magnetization       =     2.00 Bohr mag/cell
     absolute magnetization    =     2.10 Bohr mag/cell

     iteration #  4     ecut=    50.00 Ry     beta= 0.70
     Davidson diagonalization with overlap

---- Real-time Memory Report at c_bands before calling an iterative solver
           164 MiB given to the printing process from OS
             0 MiB allocation reported by mallinfo(arena+hblkhd)
        174324 MiB available memory on the node where the printing process lives
------------------
     ethr =  1.51E-04,  avg # of iterations = 15.0

     total cpu time spent up to now is        3.6 secs

     total energy              =    -723.83795476 Ry
     estimated scf accuracy    <       0.00794903 Ry

     total magnetization       =     2.00 Bohr mag/cell
     absolute magnetization    =     2.15 Bohr mag/cell

     iteration #  5     ecut=    50.00 Ry     beta= 0.70
     Davidson diagonalization with overlap

---- Real-time Memory Report at c_bands before calling an iterative solver
           165 MiB given to the printing process from OS
             0 MiB allocation reported by mallinfo(arena+hblkhd)
        174315 MiB available memory on the node where the printing process lives
------------------
     ethr =  3.13E-06,  avg # of iterations = 28.5

     total cpu time spent up to now is        5.7 secs

     total energy              =    -723.84135548 Ry
     estimated scf accuracy    <       0.00391027 Ry

     total magnetization       =     2.00 Bohr mag/cell
     absolute magnetization    =     2.17 Bohr mag/cell

     iteration #  6     ecut=    50.00 Ry     beta= 0.70
     Davidson diagonalization with overlap

---- Real-time Memory Report at c_bands before calling an iterative solver
           165 MiB given to the printing process from OS
             0 MiB allocation reported by mallinfo(arena+hblkhd)
        174309 MiB available memory on the node where the printing process lives
------------------
     c_bands:  3 eigenvalues not converged
     ethr =  1.54E-06,  avg # of iterations = 20.0

     total cpu time spent up to now is        7.4 secs

     total energy              =    -723.84208911 Ry
     estimated scf accuracy    <       0.00055976 Ry

     total magnetization       =     2.00 Bohr mag/cell
     absolute magnetization    =     2.19 Bohr mag/cell

     iteration #  7     ecut=    50.00 Ry     beta= 0.70
     Davidson diagonalization with overlap

---- Real-time Memory Report at c_bands before calling an iterative solver
           165 MiB given to the printing process from OS
             0 MiB allocation reported by mallinfo(arena+hblkhd)
        174324 MiB available memory on the node where the printing process lives
------------------
     c_bands:  2 eigenvalues not converged
     ethr =  2.20E-07,  avg # of iterations = 20.0

     total cpu time spent up to now is        8.1 secs

     total energy              =    -723.84225140 Ry
     estimated scf accuracy    <       0.00005144 Ry

     total magnetization       =     2.00 Bohr mag/cell
     absolute magnetization    =     2.20 Bohr mag/cell

     iteration #  8     ecut=    50.00 Ry     beta= 0.70
     Davidson diagonalization with overlap

---- Real-time Memory Report at c_bands before calling an iterative solver
           165 MiB given to the printing process from OS
             0 MiB allocation reported by mallinfo(arena+hblkhd)
        174321 MiB available memory on the node where the printing process lives
------------------
     c_bands:  1 eigenvalues not converged
     ethr =  2.03E-08,  avg # of iterations = 20.0

     total cpu time spent up to now is        9.7 secs

     total energy              =    -723.84227145 Ry
     estimated scf accuracy    <       0.00001187 Ry

     total magnetization       =     2.00 Bohr mag/cell
     absolute magnetization    =     2.20 Bohr mag/cell

     iteration #  9     ecut=    50.00 Ry     beta= 0.70
     Davidson diagonalization with overlap

---- Real-time Memory Report at c_bands before calling an iterative solver
           165 MiB given to the printing process from OS
             0 MiB allocation reported by mallinfo(arena+hblkhd)
        174312 MiB available memory on the node where the printing process lives
------------------
     c_bands:  1 eigenvalues not converged
     ethr =  4.67E-09,  avg # of iterations = 20.0

     total cpu time spent up to now is       10.3 secs

     total energy              =    -723.84227635 Ry
     estimated scf accuracy    <       0.00000188 Ry

     total magnetization       =     2.00 Bohr mag/cell
     absolute magnetization    =     2.21 Bohr mag/cell

     iteration # 10     ecut=    50.00 Ry     beta= 0.70
     Davidson diagonalization with overlap

---- Real-time Memory Report at c_bands before calling an iterative solver
           165 MiB given to the printing process from OS
             0 MiB allocation reported by mallinfo(arena+hblkhd)
        174308 MiB available memory on the node where the printing process lives
------------------
     c_bands:  1 eigenvalues not converged
     ethr =  7.41E-10,  avg # of iterations = 20.0

     total cpu time spent up to now is       11.0 secs

     total energy              =    -723.84227755 Ry
     estimated scf accuracy    <       0.00000069 Ry

     total magnetization       =     2.00 Bohr mag/cell
     absolute magnetization    =     2.21 Bohr mag/cell

     iteration # 11     ecut=    50.00 Ry     beta= 0.70
     Davidson diagonalization with overlap

---- Real-time Memory Report at c_bands before calling an iterative solver
           165 MiB given to the printing process from OS
             0 MiB allocation reported by mallinfo(arena+hblkhd)
        174320 MiB available memory on the node where the printing process lives
------------------
     c_bands:  1 eigenvalues not converged
     ethr =  2.70E-10,  avg # of iterations = 20.0

     total cpu time spent up to now is       11.8 secs

     total energy              =    -723.84227784 Ry
     estimated scf accuracy    <       0.00000016 Ry

     total magnetization       =     2.00 Bohr mag/cell
     absolute magnetization    =     2.22 Bohr mag/cell

     iteration # 12     ecut=    50.00 Ry     beta= 0.70
     Davidson diagonalization with overlap

---- Real-time Memory Report at c_bands before calling an iterative solver
           165 MiB given to the printing process from OS
             0 MiB allocation reported by mallinfo(arena+hblkhd)
        174321 MiB available memory on the node where the printing process lives
------------------
     c_bands:  1 eigenvalues not converged
     ethr =  6.40E-11,  avg # of iterations = 20.0

     total cpu time spent up to now is       12.5 secs

     total energy              =    -723.84227791 Ry
     estimated scf accuracy    <       0.00000005 Ry

     total magnetization       =     2.00 Bohr mag/cell
     absolute magnetization    =     2.22 Bohr mag/cell

     iteration # 13     ecut=    50.00 Ry     beta= 0.70
     Davidson diagonalization with overlap

---- Real-time Memory Report at c_bands before calling an iterative solver
           165 MiB given to the printing process from OS
             0 MiB allocation reported by mallinfo(arena+hblkhd)
        174317 MiB available memory on the node where the printing process lives
------------------
     c_bands:  1 eigenvalues not converged
     ethr =  1.97E-11,  avg # of iterations = 20.0

     total cpu time spent up to now is       13.3 secs

     total energy              =    -723.84227794 Ry
     estimated scf accuracy    <       0.00000001 Ry

     total magnetization       =     2.00 Bohr mag/cell
     absolute magnetization    =     2.22 Bohr mag/cell

     iteration # 14     ecut=    50.00 Ry     beta= 0.70
     Davidson diagonalization with overlap

---- Real-time Memory Report at c_bands before calling an iterative solver
           165 MiB given to the printing process from OS
             0 MiB allocation reported by mallinfo(arena+hblkhd)
        174319 MiB available memory on the node where the printing process lives
------------------
     c_bands:  2 eigenvalues not converged
     ethr =  4.82E-12,  avg # of iterations = 20.0
 
     Magnetic moment per site  (integrated on atomic sphere of radius R)
     atom   1 (R=0.089)  charge=  3.0644  magn=  0.0033
     atom   2 (R=0.089)  charge=  1.9367  magn=  0.2837
     atom   3 (R=0.089)  charge=  1.9970  magn= -0.0081
     atom   4 (R=0.089)  charge=  1.9367  magn=  0.2838
     atom   5 (R=0.089)  charge=  1.9970  magn= -0.0081
     atom   6 (R=0.089)  charge=  1.9367  magn=  0.2838
     atom   7 (R=0.089)  charge=  1.9970  magn= -0.0081
     atom   8 (R=0.089)  charge=  2.0044  magn=  0.0061
     atom   9 (R=0.089)  charge=  2.0057  magn= -0.0016
     atom  10 (R=0.089)  charge=  2.0045  magn=  0.0042
     atom  11 (R=0.089)  charge=  1.9932  magn=  0.0018
     atom  12 (R=0.089)  charge=  2.0049  magn=  0.0042
     atom  13 (R=0.089)  charge=  1.9955  magn=  0.0019
     atom  14 (R=0.089)  charge=  2.0035  magn=  0.0063
     atom  15 (R=0.089)  charge=  2.0056  magn= -0.0016
     atom  16 (R=0.089)  charge=  2.0042  magn=  0.0061
     atom  17 (R=0.089)  charge=  2.0034  magn= -0.0016
     atom  18 (R=0.089)  charge=  2.0048  magn=  0.0042
     atom  19 (R=0.089)  charge=  1.9955  magn=  0.0019
     atom  20 (R=0.089)  charge=  2.0036  magn=  0.0064
     atom  21 (R=0.089)  charge=  2.0056  magn= -0.0016
     atom  22 (R=0.089)  charge=  2.0048  magn=  0.0042
     atom  23 (R=0.089)  charge=  1.9954  magn=  0.0019
     atom  24 (R=0.089)  charge=  2.0047  magn=  0.0148
     atom  25 (R=0.089)  charge=  2.0061  magn=  0.0083
     atom  26 (R=0.089)  charge=  2.0083  magn=  0.0027
     atom  27 (R=0.089)  charge=  1.9600  magn=  0.0017
     atom  28 (R=0.089)  charge=  2.0049  magn=  0.0183
     atom  29 (R=0.089)  charge=  2.0046  magn= -0.0010
     atom  30 (R=0.089)  charge=  2.0050  magn=  0.0183
     atom  31 (R=0.089)  charge=  2.0047  magn= -0.0010
     atom  32 (R=0.089)  charge=  2.0043  magn=  0.0061
     atom  33 (R=0.089)  charge=  2.0034  magn= -0.0016
     atom  34 (R=0.089)  charge=  2.0036  magn=  0.0063
     atom  35 (R=0.089)  charge=  2.0057  magn= -0.0016
     atom  36 (R=0.089)  charge=  2.0048  magn=  0.0042
     atom  37 (R=0.089)  charge=  1.9955  magn=  0.0019
     atom  38 (R=0.089)  charge=  2.0047  magn=  0.0042
     atom  39 (R=0.089)  charge=  1.9954  magn=  0.0018
     atom  40 (R=0.089)  charge=  2.0048  magn=  0.0148
     atom  41 (R=0.089)  charge=  2.0062  magn=  0.0083
     atom  42 (R=0.089)  charge=  2.0050  magn=  0.0183
     atom  43 (R=0.089)  charge=  2.0046  magn= -0.0010
     atom  44 (R=0.089)  charge=  2.0084  magn=  0.0027
     atom  45 (R=0.089)  charge=  1.9622  magn=  0.0017
     atom  46 (R=0.089)  charge=  2.0051  magn=  0.0183
     atom  47 (R=0.089)  charge=  2.0024  magn= -0.0010
     atom  48 (R=0.089)  charge=  2.0048  magn=  0.0148
     atom  49 (R=0.089)  charge=  2.0062  magn=  0.0083
     atom  50 (R=0.089)  charge=  2.0050  magn=  0.0183
     atom  51 (R=0.089)  charge=  2.0046  magn= -0.0010
     atom  52 (R=0.089)  charge=  2.0050  magn=  0.0183
     atom  53 (R=0.089)  charge=  2.0046  magn= -0.0010
     atom  54 (R=0.089)  charge=  2.0083  magn=  0.0027
     atom  55 (R=0.089)  charge=  1.9600  magn=  0.0017
     atom  56 (R=0.089)  charge=  2.0055  magn=  0.0009
     atom  57 (R=0.089)  charge=  2.0057  magn=  0.0010
     atom  58 (R=0.089)  charge=  2.0055  magn=  0.0016
     atom  59 (R=0.089)  charge=  2.0060  magn= -0.0008
     atom  60 (R=0.089)  charge=  2.0054  magn=  0.0016
     atom  61 (R=0.089)  charge=  2.0060  magn= -0.0008
     atom  62 (R=0.089)  charge=  2.0055  magn=  0.0016
     atom  63 (R=0.089)  charge=  2.0060  magn= -0.0008

     total cpu time spent up to now is       14.0 secs

     End of self-consistent calculation

 ------ SPIN UP ------------


          k = 0.0000 0.0000 0.0000 (  7386 PWs)   bands (ev):

    -8.4777  -6.5791  -6.2459  -6.2430  -6.1476  -6.1435  -5.8437  -4.6790
    -4.0905  -4.0848  -4.0578  -4.0541  -4.0403  -3.9811  -3.9796  -3.9293
    -3.7821  -3.7812  -3.3452  -2.9075  -2.5998  -2.5955  -1.9311  -0.3393
    -0.2962  -0.2900  -0.2498   0.0141   0.2386   0.2420   0.2960   0.2968
     0.3654   0.6388   0.9450   0.9480   0.9608   1.0096   1.0102   1.0942
     1.1002   1.1023   1.4553   1.4565   2.9618   4.0886   4.1979   4.1984
     4.2660   4.2690   4.2833   4.3305   4.3358   4.3400   4.4469   4.4514
     4.5770   4.5812   4.6314   4.6840   4.6871   4.7195   4.7417   4.7916
     4.7922   4.8783   4.8979   4.8997   5.1887   5.3527   5.3540   5.3838
     5.3880   5.4051   5.4081   5.5384   5.5420   6.0238   6.0259   6.0556
     6.7053   6.7063   6.7688   7.1248   7.1417   7.1439   7.2736   8.4511
     8.4561   8.4601   8.5544   8.5570   8.7657   8.7698   8.8554   8.8585
     8.8744   8.9110   9.0059   9.0086   9.0376   9.3129   9.3208   9.3645
     9.9157   9.9177   9.9359   9.9486   9.9520   9.9551  10.0016  10.0053
    10.0120  10.0145  10.0281  10.0424  10.1921  10.1923  10.3807  10.4120
    10.4556  10.4642  12.3092  12.4946  12.5029  13.9250  14.8531  14.8536
    17.2008  17.4350  17.4394  17.5350  17.5406  17.5432  17.7504  17.9173
    17.9226  18.0026  18.0033  18.3190  18.8194  18.8271  18.9064  20.4878
    20.8819  20.8845  20.9394  20.9427  20.9518  20.9964  20.9992  21.0499

     occupation numbers 
     1.0000   1.0000   1.0000   1.0000   1.0000   1.0000   1.0000   1.0000
     1.0000   1.0000   1.0000   1.0000   1.0000   1.0000   1.0000   1.0000
     1.0000   1.0000   1.0000   1.0000   1.0000   1.0000   1.0000   1.0000
     1.0000   1.0000   1.0000   1.0000   1.0000   1.0000   1.0000   1.0000
     1.0000   1.0000   1.0000   1.0000   1.0000   1.0000   1.0000   1.0000
     1.0000   1.0000   1.0000   1.0000   1.0000   1.0000   1.0000   1.0000
     1.0000   1.0000   1.0000   1.0000   1.0000   1.0000   1.0000   1.0000
     1.0000   1.0000   1.0000   1.0000   1.0000   1.0000   1.0000   1.0000
     1.0000   1.0000   1.0000   1.0000   1.0000   1.0000   1.0000   1.0000
     1.0000   1.0000   1.0000   1.0000   1.0000   1.0000   1.0000   1.0000
     1.0000   1.0000   1.0000   1.0000   1.0000   1.0000   1.0000   1.0000
     1.0000   1.0000   1.0000   1.0000   1.0000   1.0000   1.0000   1.0000
     1.0000   1.0000   1.0000   1.0000   1.0000   1.0000   1.0000   1.0000
     1.0000   1.0000   1.0000   1.0000   1.0000   1.0000   1.0000   1.0000
     1.0000   1.0000   1.0000   1.0000   1.0000   1.0000   1.0000   1.0000
     1.0000   1.0000   1.0000   1.0000   1.0000   1.0000   1.0000   1.0000
     0.0000   0.0000   0.0000   0.0000   0.0000   0.0000   0.0000   0.0000
     0.0000   0.0000   0.0000   0.0000   0.0000   0.0000   0.0000   0.0000
     0.0000   0.0000   0.0000   0.0000   0.0000   0.0000   0.0000   0.0000

 ------ SPIN DOWN ----------


          k = 0.0000 0.0000 0.0000 (  7386 PWs)   bands (ev):

    -8.4573  -6.5677  -6.2301  -6.2271  -6.1196  -6.1154  -5.8117  -4.6639
    -4.0757  -4.0699  -4.0445  -4.0404  -4.0194  -3.9614  -3.9599  -3.9205
    -3.7229  -3.7219  -3.3039  -2.8930  -2.5482  -2.5438  -1.7978  -0.3226
    -0.2788  -0.2725  -0.2288   0.0716   0.2542   0.2573   0.3235   0.3241
     0.3854   0.6743   0.9564   0.9601   0.9870   1.0279   1.0283   1.1115
     1.1150   1.1174   1.6221   1.6233   3.0962   4.1265   4.2158   4.2164
     4.2767   4.2799   4.2965   4.3515   4.3598   4.3641   4.5129   4.5171
     4.5911   4.5957   4.6394   4.6965   4.6998   4.7351   4.7738   4.8226
     4.8233   4.8885   4.9330   4.9345   5.2619   5.3669   5.3677   5.4106
     5.4139   5.4166   5.4286   5.5910   5.5947   6.0844   6.0866   6.0953
     6.7287   6.7297   6.8021   7.1678   7.2331   7.2353   7.4979   8.4719
     8.4767   8.4912   8.5918   8.5947   8.7920   8.7960   8.8647   8.8680
     8.8899   8.9379   9.0528   9.0555   9.0831   9.3492   9.3570   9.4075
     9.9435   9.9466   9.9548   9.9564   9.9647   9.9683  10.0220  10.0245
    10.0377  10.0407  10.0447  10.0715  10.2251  10.2252  10.4990  10.5317
    10.5402  10.9143  12.5508  12.6416  12.6497  14.3918  16.3828  16.3833
    17.2339  17.4503  17.4546  17.5571  17.5738  17.5796  17.7778  17.9448
    17.9500  18.0487  18.0494  18.4148  18.8736  18.8814  18.9541  20.5393
    20.9135  20.9153  20.9527  20.9557  20.9657  21.0214  21.0238  21.0588

     occupation numbers 
     1.0000   1.0000   1.0000   1.0000   1.0000   1.0000   1.0000   1.0000
     1.0000   1.0000   1.0000   1.0000   1.0000   1.0000   1.0000   1.0000
     1.0000   1.0000   1.0000   1.0000   1.0000   1.0000   1.0000   1.0000
     1.0000   1.0000   1.0000   1.0000   1.0000   1.0000   1.0000   1.0000
     1.0000   1.0000   1.0000   1.0000   1.0000   1.0000   1.0000   1.0000
     1.0000   1.0000   1.0000   1.0000   1.0000   1.0000   1.0000   1.0000
     1.0000   1.0000   1.0000   1.0000   1.0000   1.0000   1.0000   1.0000
     1.0000   1.0000   1.0000   1.0000   1.0000   1.0000   1.0000   1.0000
     1.0000   1.0000   1.0000   1.0000   1.0000   1.0000   1.0000   1.0000
     1.0000   1.0000   1.0000   1.0000   1.0000   1.0000   1.0000   1.0000
     1.0000   1.0000   1.0000   1.0000   1.0000   1.0000   1.0000   1.0000
     1.0000   1.0000   1.0000   1.0000   1.0000   1.0000   1.0000   1.0000
     1.0000   1.0000   1.0000   1.0000   1.0000   1.0000   1.0000   1.0000
     1.0000   1.0000   1.0000   1.0000   1.0000   1.0000   1.0000   1.0000
     1.0000   1.0000   1.0000   1.0000   1.0000   1.0000   1.0000   1.0000
     1.0000   1.0000   1.0000   1.0000   1.0000   1.0000   0.0000   0.0000
     0.0000   0.0000   0.0000   0.0000   0.0000   0.0000   0.0000   0.0000
     0.0000   0.0000   0.0000   0.0000   0.0000   0.0000   0.0000   0.0000
     0.0000   0.0000   0.0000   0.0000   0.0000   0.0000   0.0000   0.0000

     highest occupied, lowest unoccupied level (ev):    14.8536   16.3828

!    total energy              =    -723.84227795 Ry
     estimated scf accuracy    <          4.2E-09 Ry

     The total energy is the sum of the following terms:
     one-electron contribution =     239.40127882 Ry
     hartree contribution      =      67.06672740 Ry
     xc contribution           =    -226.46817897 Ry
     ewald contribution        =    -803.84210520 Ry

     total magnetization       =     2.00 Bohr mag/cell
     absolute magnetization    =     2.22 Bohr mag/cell

     convergence has been achieved in  14 iterations

     Forces acting on atoms (cartesian axes, Ry/au):

     atom    1 type  1   force =    -0.07569200   -0.07592894   -0.07481108
     atom    2 type  2   force =    -0.04397741    0.07361856    0.07363609
     atom    3 type  2   force =    -0.01700792   -0.02896922   -0.02909979
     atom    4 type  2   force =     0.07361278   -0.04395969    0.07362462
     atom    5 type  2   force =    -0.02912526   -0.01712555   -0.02895083
     atom    6 type  2   force =     0.07390890    0.07423681   -0.04368231
     atom    7 type  2   force =    -0.02893288   -0.02914246   -0.01688490
     atom    8 type  2   force =    -0.00291166   -0.00385791   -0.00047495
     atom    9 type  2   force =     0.00076749   -0.00419470   -0.00366098
     atom   10 type  2   force =     0.01030399    0.01328609    0.00934057
     atom   11 type  2   force =     0.00377999   -0.03597023    0.03288222
     atom   12 type  2   force =    -0.00356024    0.00970568    0.00894910
     atom   13 type  2   force =    -0.03207806    0.00473734    0.03374629
     atom   14 type  2   force =     0.00285272    0.00383335   -0.00071011
     atom   15 type  2   force =    -0.00259785   -0.00255531    0.00230030
     atom   16 type  2   force =    -0.00360385   -0.00034949   -0.00387692
     atom   17 type  2   force =    -0.00007942   -0.00276336   -0.00024697
     atom   18 type  2   force =     0.01025742    0.00927263   -0.00420004
     atom   19 type  2   force =     0.00455277    0.03370289   -0.03210788
     atom   20 type  2   force =     0.00321863   -0.00104722    0.00318370
     atom   21 type  2   force =    -0.00266787    0.00232095   -0.00262093
     atom   22 type  2   force =    -0.00416927    0.00934411    0.01027505
     atom   23 type  2   force =    -0.03201605    0.03378134    0.00467983
     atom   24 type  2   force =     0.00774189    0.00729561    0.00847502
     atom   25 type  2   force =    -0.00029056    0.00031967    0.00022762
     atom   26 type  2   force =     0.00331578   -0.00229017   -0.00225265
     atom   27 type  2   force =    -0.03934454    0.01848789    0.01843280
     atom   28 type  2   force =     0.00032997    0.00489766   -0.00599348
     atom   29 type  2   force =    -0.00442688   -0.00290249   -0.00358396
     atom   30 type  2   force =     0.00094200   -0.00558844    0.00550046
     atom   31 type  2   force =    -0.00426906   -0.00372407   -0.00276798
     atom   32 type  2   force =     0.00017404   -0.00326622   -0.00328786
     atom   33 type  2   force =    -0.00262389   -0.00028996   -0.00025192
     atom   34 type  2   force =    -0.00104529    0.00339373    0.00320699
     atom   35 type  2   force =     0.00220519   -0.00277357   -0.00274595
     atom   36 type  2   force =     0.00931667    0.01027110   -0.00417024
     atom   37 type  2   force =     0.03375883    0.00474706   -0.03201305
     atom   38 type  2   force =     0.00962928   -0.00358640    0.00994186
     atom   39 type  2   force =     0.03376970   -0.03195675    0.00471802
     atom   40 type  2   force =     0.00786249    0.00740243    0.00786682
     atom   41 type  2   force =     0.00031966   -0.00024747    0.00026580
     atom   42 type  2   force =     0.00548788    0.00093000   -0.00565759
     atom   43 type  2   force =    -0.00291051   -0.00426113   -0.00368546
     atom   44 type  2   force =    -0.00294952    0.00277770   -0.00191104
     atom   45 type  2   force =     0.01746828   -0.04323942    0.01928183
     atom   46 type  2   force =    -0.00598756    0.00159359    0.00516465
     atom   47 type  2   force =    -0.00284454   -0.00831266   -0.00196588
     atom   48 type  2   force =     0.00782979    0.00784046    0.00741099
     atom   49 type  2   force =     0.00030793    0.00031346   -0.00035935
     atom   50 type  2   force =     0.00548852   -0.00565892    0.00095974
     atom   51 type  2   force =    -0.00287845   -0.00365264   -0.00437780
     atom   52 type  2   force =    -0.00567930    0.00548842    0.00097614
     atom   53 type  2   force =    -0.00376757   -0.00290494   -0.00427822
     atom   54 type  2   force =    -0.00223809   -0.00218868    0.00330957
     atom   55 type  2   force =     0.01856943    0.01841118   -0.03923285
     atom   56 type  2   force =    -0.00036855   -0.00038867   -0.00041504
     atom   57 type  2   force =    -0.00095513   -0.00108751   -0.00113204
     atom   58 type  2   force =     0.00052528    0.00150902    0.00154258
     atom   59 type  2   force =     0.00229244    0.00330296    0.00325334
     atom   60 type  2   force =     0.00217269   -0.00004436    0.00190594
     atom   61 type  2   force =     0.00330150    0.00240825    0.00340200
     atom   62 type  2   force =     0.00152959    0.00160961    0.00051705
     atom   63 type  2   force =     0.00340568    0.00338897    0.00243304
     The non-local contrib.  to forces
     atom    1 type  1   force =    -1.06620304   -1.06770858   -1.06556382
     atom    2 type  2   force =    -0.34706187    0.37379481    0.37377870
     atom    3 type  2   force =     0.05622629    0.04971142    0.04994010
     atom    4 type  2   force =     0.37383372   -0.34697082    0.37380777
     atom    5 type  2   force =     0.04939490    0.05629016    0.05029917
     atom    6 type  2   force =     0.37491687    0.37337999   -0.34598102
     atom    7 type  2   force =     0.05026001    0.05005786    0.05649955
     atom    8 type  2   force =    -0.00979205   -0.01051635    0.05397316
     atom    9 type  2   force =    -0.00274498   -0.00730908    0.01613102
     atom   10 type  2   force =    -0.03079663   -0.00233154   -0.01616211
     atom   11 type  2   force =    -0.06908610    0.02590060   -0.04567694
     atom   12 type  2   force =    -0.02268465   -0.03127115   -0.01622280
     atom   13 type  2   force =     0.03002351   -0.06836049   -0.04494217
     atom   14 type  2   force =     0.00171432    0.00243077    0.05664517
     atom   15 type  2   force =     0.01639471    0.01636648    0.00715377
     atom   16 type  2   force =    -0.00980557    0.05392525   -0.01027756
     atom   17 type  2   force =    -0.00355268    0.01677489   -0.00379967
     atom   18 type  2   force =    -0.03065638   -0.01651990   -0.02324306
     atom   19 type  2   force =    -0.06820304   -0.04500584    0.02968596
     atom   20 type  2   force =     0.00269857    0.05560245    0.00281159
     atom   21 type  2   force =     0.01650656    0.00729079    0.01649949
     atom   22 type  2   force =    -0.02320790   -0.01610984   -0.03062104
     atom   23 type  2   force =     0.02995933   -0.04480691   -0.06826407
     atom   24 type  2   force =    -0.04611375    0.03831455    0.03955261
     atom   25 type  2   force =    -0.01399388    0.01707594    0.01690531
     atom   26 type  2   force =    -0.02901291   -0.02109916   -0.02125736
     atom   27 type  2   force =    -0.14163784    0.13430819    0.13411535
     atom   28 type  2   force =     0.04423782    0.03387784   -0.02516898
     atom   29 type  2   force =     0.00113840    0.01513434   -0.00565292
     atom   30 type  2   force =     0.04485019   -0.02504229    0.03456477
     atom   31 type  2   force =     0.00166821   -0.00577200    0.01526933
     atom   32 type  2   force =     0.05458719   -0.00974741   -0.00972654
     atom   33 type  2   force =     0.01740362   -0.00328524   -0.00398574
     atom   34 type  2   force =     0.05553918    0.00239709    0.00276262
     atom   35 type  2   force =     0.00684427    0.01672337    0.01602714
     atom   36 type  2   force =    -0.01629758   -0.03055668   -0.02326806
     atom   37 type  2   force =    -0.04464001   -0.06839277    0.02985400
     atom   38 type  2   force =    -0.01519826   -0.02356301   -0.03161530
     atom   39 type  2   force =    -0.04496515    0.02984649   -0.06835843
     atom   40 type  2   force =     0.03898662   -0.04608130    0.03896675
     atom   41 type  2   force =     0.01678627   -0.01417695    0.01707144
     atom   42 type  2   force =     0.03457068    0.04483065   -0.02516855
     atom   43 type  2   force =     0.01535627    0.00126559   -0.00546727
     atom   44 type  2   force =    -0.02189996   -0.02976796   -0.02133289
     atom   45 type  2   force =     0.13246709   -0.14512424    0.13453488
     atom   46 type  2   force =    -0.02622604    0.04448176    0.03357058
     atom   47 type  2   force =    -0.00469205   -0.00248856    0.01629169
     atom   48 type  2   force =     0.03909580    0.03908793   -0.04616860
     atom   49 type  2   force =     0.01687540    0.01686396   -0.01405148
     atom   50 type  2   force =     0.03460752   -0.02516642    0.04483238
     atom   51 type  2   force =     0.01529450   -0.00563925    0.00138834
     atom   52 type  2   force =    -0.02513117    0.03466844    0.04480158
     atom   53 type  2   force =    -0.00556035    0.01511797    0.00166652
     atom   54 type  2   force =    -0.02120323   -0.02103203   -0.02895559
     atom   55 type  2   force =     0.13408595    0.13393074   -0.14131816
     atom   56 type  2   force =     0.01395464    0.01405421    0.01410656
     atom   57 type  2   force =     0.00455115    0.00405598    0.00430543
     atom   58 type  2   force =     0.00942887   -0.00666364   -0.00633216
     atom   59 type  2   force =     0.01404342   -0.01786616   -0.01768548
     atom   60 type  2   force =    -0.00577485    0.00872804   -0.00635109
     atom   61 type  2   force =    -0.01777605    0.01449698   -0.01765732
     atom   62 type  2   force =    -0.00629928   -0.00617591    0.00948206
     atom   63 type  2   force =    -0.01763353   -0.01753261    0.01436007
     The ionic contribution  to forces
     atom    1 type  1   force =     2.60584073    2.60046795    2.61618405
     atom    2 type  2   force =     2.08467258   -1.87400748   -1.87684209
     atom    3 type  2   force =     0.03008266   -0.77711877   -0.77681753
     atom    4 type  2   force =    -1.87616258    2.08454303   -1.87684209
     atom    5 type  2   force =    -0.77873930    0.03215873   -0.77978862
     atom    6 type  2   force =    -1.87686703   -1.87149524    2.08464765
     atom    7 type  2   force =    -0.77979271   -0.77817684    0.03053032
     atom    8 type  2   force =     0.27856298    0.27426475   -0.58485302
     atom    9 type  2   force =     0.09533777    0.06875386   -0.16984162
     atom   10 type  2   force =     0.27953344    0.00144521    0.36911186
     atom   11 type  2   force =     0.04414907   -0.68847502    0.73618955
     atom   12 type  2   force =    -0.06245783    0.27426475    0.36874787
     atom   13 type  2   force =    -0.68474473    0.07182098    0.76265169
     atom   14 type  2   force =    -0.23163783   -0.22626604   -0.57655342
     atom   15 type  2   force =    -0.16228607   -0.15769445   -0.02698429
     atom   16 type  2   force =     0.27856298   -0.58090924    0.27037085
     atom   17 type  2   force =     0.06911716   -0.14633778    0.06847174
     atom   18 type  2   force =     0.27856298    0.36652172   -0.07073249
     atom   19 type  2   force =     0.07017059    0.75949865   -0.68836109
     atom   20 type  2   force =    -0.23229122   -0.57672405   -0.23161289
     atom   21 type  2   force =    -0.16021849   -0.02905894   -0.15946079
     atom   22 type  2   force =    -0.07072501    0.36574072    0.27857045
     atom   23 type  2   force =    -0.68679442    0.76059121    0.07002371
     atom   24 type  2   force =     0.12423631   -0.21256293   -0.20003993
     atom   25 type  2   force =     0.02863988   -0.05965218   -0.04963882
     atom   26 type  2   force =     0.12423631   -0.00855035    0.00040156
     atom   27 type  2   force =     0.52362834    0.30253211    0.31261401
     atom   28 type  2   force =    -0.08547835   -0.21256293    0.16128197
     atom   29 type  2   force =    -0.13691133   -0.05425120    0.15621768
     atom   30 type  2   force =    -0.07727875    0.15827482   -0.20823952
     atom   31 type  2   force =    -0.13455862    0.15455868   -0.05258786
     atom   32 type  2   force =    -0.57657836    0.27843342    0.27924249
     atom   33 type  2   force =    -0.14466925    0.07074039    0.07016541
     atom   34 type  2   force =    -0.57657836   -0.23044298   -0.23161289
     atom   35 type  2   force =    -0.02743195   -0.15875252   -0.15931089
     atom   36 type  2   force =     0.36806836    0.27843342   -0.07073249
     atom   37 type  2   force =     0.76071077    0.07182098   -0.68961003
     atom   38 type  2   force =     0.36877281   -0.06538563    0.27853804
     atom   39 type  2   force =     0.76265764   -0.68503219    0.06719432
     atom   40 type  2   force =    -0.20823205    0.12410675   -0.20891156
     atom   41 type  2   force =    -0.05449067    0.03323931   -0.05302847
     atom   42 type  2   force =    -0.20823205   -0.07445161    0.16128197
     atom   43 type  2   force =    -0.04961158   -0.13359713    0.15576485
     atom   44 type  2   force =    -0.00787310    0.11993808    0.00040156
     atom   45 type  2   force =     0.28445680    0.52028126    0.33585085
     atom   46 type  2   force =     0.16130690   -0.07193937   -0.20820711
     atom   47 type  2   force =     0.18223294   -0.13703997   -0.02656633
     atom   48 type  2   force =    -0.20823205   -0.20837774    0.12355799
     atom   49 type  2   force =    -0.05167916   -0.05315625    0.03068023
     atom   50 type  2   force =    -0.20823205    0.16018784   -0.07728622
     atom   51 type  2   force =    -0.05244097    0.15565125   -0.13612529
     atom   52 type  2   force =     0.16196029   -0.20837774   -0.07728622
     atom   53 type  2   force =     0.15726485   -0.05425120   -0.13457332
     atom   54 type  2   force =     0.00039409   -0.00260559    0.12424378
     atom   55 type  2   force =     0.30962397    0.30797125    0.52235186
     atom   56 type  2   force =    -0.11184280   -0.11198849   -0.11116448
     atom   57 type  2   force =    -0.02679170   -0.03015389   -0.02743711
     atom   58 type  2   force =    -0.11184280    0.06266656    0.06489271
     atom   59 type  2   force =    -0.14532830    0.11597702    0.11868944
     atom   60 type  2   force =     0.07308484   -0.11617368    0.06489271
     atom   61 type  2   force =     0.12057879   -0.15173875    0.11574040
     atom   62 type  2   force =     0.06488524    0.06188557   -0.11185027
     atom   63 type  2   force =     0.11569940    0.11053788   -0.14660478
     The local contribution  to forces
     atom    1 type  1   force =    -1.61536392   -1.60869010   -1.62540549
     atom    2 type  2   force =    -1.78161358    1.57379585    1.57668744
     atom    3 type  2   force =    -0.10333966    0.69838363    0.69773655
     atom    4 type  2   force =     1.57592880   -1.78154273    1.57665075
     atom    5 type  2   force =     0.70020442   -0.10559687    0.70050486
     atom    6 type  2   force =     1.57584553    1.57231947   -1.78233195
     atom    7 type  2   force =     0.70058964    0.69893384   -0.10390128
     atom    8 type  2   force =    -0.27170769   -0.26761899    0.53035232
     atom    9 type  2   force =    -0.09184207   -0.06566346    0.14999726
     atom   10 type  2   force =    -0.23846571    0.01414030   -0.34363496
     atom   11 type  2   force =     0.02869091    0.62656456   -0.65763286
     atom   12 type  2   force =     0.08157819   -0.23331237   -0.34360454
     atom   13 type  2   force =     0.62264102    0.00124297   -0.68397121
     atom   14 type  2   force =     0.23276415    0.22763261    0.51914185
     atom   15 type  2   force =     0.14329197    0.13873402    0.02208476
     atom   16 type  2   force =    -0.27239057    0.52657542   -0.26395858
     atom   17 type  2   force =    -0.06566006    0.12674482   -0.06491294
     atom   18 type  2   force =    -0.23767558   -0.34076111    0.08976594
     atom   19 type  2   force =     0.00256972   -0.68080354    0.62653507
     atom   20 type  2   force =     0.23279839    0.52001513    0.23197456
     atom   21 type  2   force =     0.14103845    0.02404188    0.14031472
     atom   22 type  2   force =     0.08976177   -0.34031987   -0.23767104
     atom   23 type  2   force =     0.62481215   -0.68202188    0.00292246
     atom   24 type  2   force =    -0.07041286    0.18148917    0.16891483
     atom   25 type  2   force =    -0.01495280    0.04284915    0.03291674
     atom   26 type  2   force =    -0.09194159    0.02732270    0.01857358
     atom   27 type  2   force =    -0.42135282   -0.41836902   -0.42829820
     atom   28 type  2   force =     0.04156898    0.18353993   -0.14213476
     atom   29 type  2   force =     0.13134893    0.03617227   -0.15416211
     atom   30 type  2   force =     0.03336834   -0.13885408    0.17913437
     atom   31 type  2   force =     0.12862153   -0.15253929    0.03450967
     atom   32 type  2   force =     0.52215185   -0.27197754   -0.27279957
     atom   33 type  2   force =     0.12462158   -0.06776962   -0.06642654
     atom   34 type  2   force =     0.51997460    0.23140541    0.23204916
     atom   35 type  2   force =     0.02277404    0.13921308    0.14051107
     atom   36 type  2   force =    -0.34247419   -0.23761907    0.08981817
     atom   37 type  2   force =    -0.68233023    0.00130395    0.62770306
     atom   38 type  2   force =    -0.34396250    0.08532893   -0.23697169
     atom   39 type  2   force =    -0.68394149    0.62317572    0.00589307
     atom   40 type  2   force =     0.17709249   -0.07064686    0.17776975
     atom   41 type  2   force =     0.03800229   -0.01933609    0.03618016
     atom   42 type  2   force =     0.17914171    0.03052187   -0.14180180
     atom   43 type  2   force =     0.03132589    0.12803605   -0.15399690
     atom   44 type  2   force =     0.02679194   -0.08741876    0.01899473
     atom   45 type  2   force =    -0.39948109   -0.41842401   -0.45109969
     atom   46 type  2   force =    -0.14109098    0.02902272    0.17975470
     atom   47 type  2   force =    -0.18042133    0.13117742    0.00826290
     atom   48 type  2   force =     0.17695427    0.17708613   -0.06998005
     atom   49 type  2   force =     0.03508914    0.03655984   -0.01698984
     atom   50 type  2   force =     0.17909888   -0.14071293    0.03340482
     atom   51 type  2   force =     0.03424400   -0.15369010    0.13033618
     atom   52 type  2   force =    -0.14252959    0.17914151    0.03345355
     atom   53 type  2   force =    -0.15550541    0.03617569    0.12860445
     atom   54 type  2   force =     0.01853758    0.02141532   -0.09198264
     atom   55 type  2   force =    -0.42516496   -0.42350065   -0.42026786
     atom   56 type  2   force =     0.09751096    0.09749982    0.09660560
     atom   57 type  2   force =     0.02126450    0.02496671    0.02196386
     atom   58 type  2   force =     0.10293176   -0.05453200   -0.05704637
     atom   59 type  2   force =     0.13355299   -0.09483875   -0.09776428
     atom   60 type  2   force =    -0.06517106    0.10735780   -0.05666707
     atom   61 type  2   force =    -0.09954201    0.13960121   -0.09469470
     atom   62 type  2   force =    -0.05708961   -0.05413955    0.10285110
     atom   63 type  2   force =    -0.09469952   -0.08964465    0.13463588
     The core correction contribution to forces
     atom    1 type  1   force =     0.00000000    0.00000000    0.00000000
     atom    2 type  2   force =     0.00000000    0.00000000    0.00000000
     atom    3 type  2   force =     0.00000000    0.00000000    0.00000000
     atom    4 type  2   force =     0.00000000    0.00000000    0.00000000
     atom    5 type  2   force =     0.00000000    0.00000000    0.00000000
     atom    6 type  2   force =     0.00000000    0.00000000    0.00000000
     atom    7 type  2   force =     0.00000000    0.00000000    0.00000000
     atom    8 type  2   force =     0.00000000    0.00000000    0.00000000
     atom    9 type  2   force =     0.00000000    0.00000000    0.00000000
     atom   10 type  2   force =     0.00000000    0.00000000    0.00000000
     atom   11 type  2   force =     0.00000000    0.00000000    0.00000000
     atom   12 type  2   force =     0.00000000    0.00000000    0.00000000
     atom   13 type  2   force =     0.00000000    0.00000000    0.00000000
     atom   14 type  2   force =     0.00000000    0.00000000    0.00000000
     atom   15 type  2   force =     0.00000000    0.00000000    0.00000000
     atom   16 type  2   force =     0.00000000    0.00000000    0.00000000
     atom   17 type  2   force =     0.00000000    0.00000000    0.00000000
     atom   18 type  2   force =     0.00000000    0.00000000    0.00000000
     atom   19 type  2   force =     0.00000000    0.00000000    0.00000000
     atom   20 type  2   force =     0.00000000    0.00000000    0.00000000
     atom   21 type  2   force =     0.00000000    0.00000000    0.00000000
     atom   22 type  2   force =     0.00000000    0.00000000    0.00000000
     atom   23 type  2   force =     0.00000000    0.00000000    0.00000000
     atom   24 type  2   force =     0.00000000    0.00000000    0.00000000
     atom   25 type  2   force =     0.00000000    0.00000000    0.00000000
     atom   26 type  2   force =     0.00000000    0.00000000    0.00000000
     atom   27 type  2   force =     0.00000000    0.00000000    0.00000000
     atom   28 type  2   force =     0.00000000    0.00000000    0.00000000
     atom   29 type  2   force =     0.00000000    0.00000000    0.00000000
     atom   30 type  2   force =     0.00000000    0.00000000    0.00000000
     atom   31 type  2   force =     0.00000000    0.00000000    0.00000000
     atom   32 type  2   force =     0.00000000    0.00000000    0.00000000
     atom   33 type  2   force =     0.00000000    0.00000000    0.00000000
     atom   34 type  2   force =     0.00000000    0.00000000    0.00000000
     atom   35 type  2   force =     0.00000000    0.00000000    0.00000000
     atom   36 type  2   force =     0.00000000    0.00000000    0.00000000
     atom   37 type  2   force =     0.00000000    0.00000000    0.00000000
     atom   38 type  2   force =     0.00000000    0.00000000    0.00000000
     atom   39 type  2   force =     0.00000000    0.00000000    0.00000000
     atom   40 type  2   force =     0.00000000    0.00000000    0.00000000
     atom   41 type  2   force =     0.00000000    0.00000000    0.00000000
     atom   42 type  2   force =     0.00000000    0.00000000    0.00000000
     atom   43 type  2   force =     0.00000000    0.00000000    0.00000000
     atom   44 type  2   force =     0.00000000    0.00000000    0.00000000
     atom   45 type  2   force =     0.00000000    0.00000000    0.00000000
     atom   46 type  2   force =     0.00000000    0.00000000    0.00000000
     atom   47 type  2   force =     0.00000000    0.00000000    0.00000000
     atom   48 type  2   force =     0.00000000    0.00000000    0.00000000
     atom   49 type  2   force =     0.00000000    0.00000000    0.00000000
     atom   50 type  2   force =     0.00000000    0.00000000    0.00000000
     atom   51 type  2   force =     0.00000000    0.00000000    0.00000000
     atom   52 type  2   force =     0.00000000    0.00000000    0.00000000
     atom   53 type  2   force =     0.00000000    0.00000000    0.00000000
     atom   54 type  2   force =     0.00000000    0.00000000    0.00000000
     atom   55 type  2   force =     0.00000000    0.00000000    0.00000000
     atom   56 type  2   force =     0.00000000    0.00000000    0.00000000
     atom   57 type  2   force =     0.00000000    0.00000000    0.00000000
     atom   58 type  2   force =     0.00000000    0.00000000    0.00000000
     atom   59 type  2   force =     0.00000000    0.00000000    0.00000000
     atom   60 type  2   force =     0.00000000    0.00000000    0.00000000
     atom   61 type  2   force =     0.00000000    0.00000000    0.00000000
     atom   62 type  2   force =     0.00000000    0.00000000    0.00000000
     atom   63 type  2   force =     0.00000000    0.00000000    0.00000000
     The Hubbard contrib.    to forces
     atom    1 type  1   force =     0.00000000    0.00000000    0.00000000
     atom    2 type  2   force =     0.00000000    0.00000000    0.00000000
     atom    3 type  2   force =     0.00000000    0.00000000    0.00000000
     atom    4 type  2   force =     0.00000000    0.00000000    0.00000000
     atom    5 type  2   force =     0.00000000    0.00000000    0.00000000
     atom    6 type  2   force =     0.00000000    0.00000000    0.00000000
     atom    7 type  2   force =     0.00000000    0.00000000    0.00000000
     atom    8 type  2   force =     0.00000000    0.00000000    0.00000000
     atom    9 type  2   force =     0.00000000    0.00000000    0.00000000
     atom   10 type  2   force =     0.00000000    0.00000000    0.00000000
     atom   11 type  2   force =     0.00000000    0.00000000    0.00000000
     atom   12 type  2   force =     0.00000000    0.00000000    0.00000000
     atom   13 type  2   force =     0.00000000    0.00000000    0.00000000
     atom   14 type  2   force =     0.00000000    0.00000000    0.00000000
     atom   15 type  2   force =     0.00000000    0.00000000    0.00000000
     atom   16 type  2   force =     0.00000000    0.00000000    0.00000000
     atom   17 type  2   force =     0.00000000    0.00000000    0.00000000
     atom   18 type  2   force =     0.00000000    0.00000000    0.00000000
     atom   19 type  2   force =     0.00000000    0.00000000    0.00000000
     atom   20 type  2   force =     0.00000000    0.00000000    0.00000000
     atom   21 type  2   force =     0.00000000    0.00000000    0.00000000
     atom   22 type  2   force =     0.00000000    0.00000000    0.00000000
     atom   23 type  2   force =     0.00000000    0.00000000    0.00000000
     atom   24 type  2   force =     0.00000000    0.00000000    0.00000000
     atom   25 type  2   force =     0.00000000    0.00000000    0.00000000
     atom   26 type  2   force =     0.00000000    0.00000000    0.00000000
     atom   27 type  2   force =     0.00000000    0.00000000    0.00000000
     atom   28 type  2   force =     0.00000000    0.00000000    0.00000000
     atom   29 type  2   force =     0.00000000    0.00000000    0.00000000
     atom   30 type  2   force =     0.00000000    0.00000000    0.00000000
     atom   31 type  2   force =     0.00000000    0.00000000    0.00000000
     atom   32 type  2   force =     0.00000000    0.00000000    0.00000000
     atom   33 type  2   force =     0.00000000    0.00000000    0.00000000
     atom   34 type  2   force =     0.00000000    0.00000000    0.00000000
     atom   35 type  2   force =     0.00000000    0.00000000    0.00000000
     atom   36 type  2   force =     0.00000000    0.00000000    0.00000000
     atom   37 type  2   force =     0.00000000    0.00000000    0.00000000
     atom   38 type  2   force =     0.00000000    0.00000000    0.00000000
     atom   39 type  2   force =     0.00000000    0.00000000    0.00000000
     atom   40 type  2   force =     0.00000000    0.00000000    0.00000000
     atom   41 type  2   force =     0.00000000    0.00000000    0.00000000
     atom   42 type  2   force =     0.00000000    0.00000000    0.00000000
     atom   43 type  2   force =     0.00000000    0.00000000    0.00000000
     atom   44 type  2   force =     0.00000000    0.00000000    0.00000000
     atom   45 type  2   force =     0.00000000    0.00000000    0.00000000
     atom   46 type  2   force =     0.00000000    0.00000000    0.00000000
     atom   47 type  2   force =     0.00000000    0.00000000    0.00000000
     atom   48 type  2   force =     0.00000000    0.00000000    0.00000000
     atom   49 type  2   force =     0.00000000    0.00000000    0.00000000
     atom   50 type  2   force =     0.00000000    0.00000000    0.00000000
     atom   51 type  2   force =     0.00000000    0.00000000    0.00000000
     atom   52 type  2   force =     0.00000000    0.00000000    0.00000000
     atom   53 type  2   force =     0.00000000    0.00000000    0.00000000
     atom   54 type  2   force =     0.00000000    0.00000000    0.00000000
     atom   55 type  2   force =     0.00000000    0.00000000    0.00000000
     atom   56 type  2   force =     0.00000000    0.00000000    0.00000000
     atom   57 type  2   force =     0.00000000    0.00000000    0.00000000
     atom   58 type  2   force =     0.00000000    0.00000000    0.00000000
     atom   59 type  2   force =     0.00000000    0.00000000    0.00000000
     atom   60 type  2   force =     0.00000000    0.00000000    0.00000000
     atom   61 type  2   force =     0.00000000    0.00000000    0.00000000
     atom   62 type  2   force =     0.00000000    0.00000000    0.00000000
     atom   63 type  2   force =     0.00000000    0.00000000    0.00000000
     The SCF correction term to forces
     atom    1 type  1   force =     0.00001516   -0.00003242   -0.00004480
     atom    2 type  2   force =     0.00000640    0.00000117   -0.00000693
     atom    3 type  2   force =     0.00000372    0.00002029    0.00002211
     atom    4 type  2   force =    -0.00000622   -0.00002337   -0.00001080
     atom    5 type  2   force =    -0.00000435   -0.00001177    0.00001477
     atom    6 type  2   force =    -0.00000553   -0.00000162   -0.00003595
     atom    7 type  2   force =    -0.00000889    0.00000847   -0.00003248
     atom    8 type  2   force =     0.00000603   -0.00002153    0.00003361
     atom    9 type  2   force =    -0.00000230   -0.00001022    0.00003338
     atom   10 type  2   force =     0.00001383   -0.00000208    0.00000680
     atom   11 type  2   force =     0.00000706    0.00000543   -0.00001650
     atom   12 type  2   force =    -0.00001501   -0.00000976    0.00000960
     atom   13 type  2   force =    -0.00001692   -0.00000031   -0.00001100
     atom   14 type  2   force =    -0.00000698    0.00000179    0.00003731
     atom   15 type  2   force =    -0.00001752    0.00000443    0.00002708
     atom   16 type  2   force =     0.00001024    0.00002487   -0.00003062
     atom   17 type  2   force =    -0.00000291    0.00002050   -0.00002508
     atom   18 type  2   force =     0.00000734   -0.00000230   -0.00000941
     atom   19 type  2   force =    -0.00000356   -0.00002059    0.00001320
     atom   20 type  2   force =    -0.00000617    0.00002505   -0.00000853
     atom   21 type  2   force =    -0.00001346    0.00001301    0.00000667
     atom   22 type  2   force =    -0.00001719   -0.00000111   -0.00002230
     atom   23 type  2   force =    -0.00001217   -0.00001529   -0.00002124
     atom   24 type  2   force =     0.00001313    0.00002062    0.00002852
     atom   25 type  2   force =    -0.00000282    0.00001255    0.00002541
     atom   26 type  2   force =     0.00001491    0.00000243    0.00001059
     atom   27 type  2   force =    -0.00000128   -0.00001760   -0.00001734
     atom   28 type  2   force =    -0.00001755    0.00000862    0.00000931
     atom   29 type  2   force =    -0.00002196    0.00000790   -0.00000558
     atom   30 type  2   force =    -0.00001683   -0.00000111    0.00002186
     atom   31 type  2   force =    -0.00001926   -0.00000568    0.00002190
     atom   32 type  2   force =    -0.00000571   -0.00000890   -0.00002322
     atom   33 type  2   force =     0.00000110   -0.00000970   -0.00002402
     atom   34 type  2   force =     0.00000023    0.00000000   -0.00001087
     atom   35 type  2   force =    -0.00000024    0.00000829    0.00000775
     atom   36 type  2   force =     0.00000101   -0.00002077   -0.00000685
     atom   37 type  2   force =    -0.00000077   -0.00001931    0.00002094
     atom   38 type  2   force =    -0.00000183   -0.00000089   -0.00002817
     atom   39 type  2   force =    -0.00000036    0.00001902   -0.00002992
     atom   40 type  2   force =    -0.00000363   -0.00001037    0.00002290
     atom   41 type  2   force =     0.00000269   -0.00000795    0.00002369
     atom   42 type  2   force =    -0.00001152   -0.00000513    0.00001181
     atom   43 type  2   force =    -0.00000015    0.00000016   -0.00000512
     atom   44 type  2   force =     0.00001254   -0.00000787    0.00000659
     atom   45 type  2   force =     0.00000642   -0.00000664   -0.00002319
     atom   46 type  2   force =     0.00000349   -0.00000572    0.00002751
     atom   47 type  2   force =     0.00001683    0.00000424    0.00002689
     atom   48 type  2   force =    -0.00000728    0.00000993   -0.00001733
     atom   49 type  2   force =     0.00000350    0.00001171   -0.00001723
     atom   50 type  2   force =    -0.00000489   -0.00000162   -0.00001022
     atom   51 type  2   force =     0.00000496   -0.00000875    0.00000400
     atom   52 type  2   force =     0.00000210    0.00002201   -0.00001174
     atom   53 type  2   force =     0.00001429    0.00001840    0.00000515
     atom   54 type  2   force =     0.00001440   -0.00000059   -0.00001496
     atom   55 type  2   force =     0.00000540   -0.00002436   -0.00001766
     atom   56 type  2   force =    -0.00001042    0.00001158    0.00001829
     atom   57 type  2   force =     0.00000185    0.00000948    0.00001680
     atom   58 type  2   force =    -0.00001162    0.00000389    0.00000942
     atom   59 type  2   force =     0.00000526   -0.00000335   -0.00000533
     atom   60 type  2   force =     0.00001470    0.00000927    0.00001240
     atom   61 type  2   force =     0.00002171    0.00001461   -0.00000536
     atom   62 type  2   force =     0.00001417    0.00000528    0.00001518
     atom   63 type  2   force =     0.00002025   -0.00000586    0.00002289

     Total force =     0.291169     Total SCF correction =     0.000209

     Writing all to output data dir ./pwscf.save/ :
     XML data file, charge density, pseudopotentials, collected wavefunctions
 
     init_run     :      0.58s CPU      0.64s WALL (       1 calls)
     electrons    :     13.70s CPU     14.06s WALL (       1 calls)
     forces       :      0.39s CPU      0.39s WALL (       1 calls)

     Called by init_run:
     wfcinit      :      0.10s CPU      0.12s WALL (       1 calls)
     wfcinit:wfcr :      0.10s CPU      0.11s WALL (       1 calls)
     potinit      :      0.38s CPU      0.39s WALL (       1 calls)
     hinit0       :      0.05s CPU      0.07s WALL (       1 calls)

     Called by electrons:
     c_bands      :      9.59s CPU      9.87s WALL (      14 calls)
     sum_band     :      1.20s CPU      1.22s WALL (      14 calls)
     v_of_rho     :      0.45s CPU      0.46s WALL (      15 calls)
     v_h          :      0.09s CPU      0.09s WALL (      15 calls)
     v_xc         :      0.36s CPU      0.37s WALL (      15 calls)
     mix_rho      :      0.35s CPU      0.36s WALL (      14 calls)

     Called by c_bands:
     init_us_2    :      0.02s CPU      0.02s WALL (      30 calls)
     regterg      :      8.75s CPU      9.02s WALL (      15 calls)

     Called by sum_band:
     sum_band:wei :      0.05s CPU      0.05s WALL (      14 calls)
     sum_band:loo :      0.98s CPU      1.00s WALL (      14 calls)
     sum_band:buf :      0.00s CPU      0.00s WALL (      14 calls)
     sum_band:ini :      0.01s CPU      0.01s WALL (      14 calls)

     Called by *egterg:
     rdiaghg      :      4.43s CPU      4.55s WALL (     285 calls)
     regterg:over :      0.37s CPU      0.38s WALL (     270 calls)
     regterg:upda :      0.31s CPU      0.31s WALL (     270 calls)
     regterg:last :      0.36s CPU      0.37s WALL (      55 calls)
     rdiaghg:chol :      0.14s CPU      0.15s WALL (     285 calls)
     rdiaghg:inve :      0.03s CPU      0.03s WALL (     285 calls)
     rdiaghg:para :      0.38s CPU      0.40s WALL (     570 calls)
     h_psi        :      3.24s CPU      3.36s WALL (     286 calls)
     g_psi        :      0.00s CPU      0.00s WALL (     270 calls)

     Called by h_psi:
     h_psi:calbec :      0.76s CPU      0.80s WALL (     286 calls)
     vloc_psi     :      2.36s CPU      2.44s WALL (     286 calls)
                                        0.00s GPU  (     286 calls)
     add_vuspsi   :      0.11s CPU      0.11s WALL (     286 calls)

     General routines
     calbec       :      1.14s CPU      1.19s WALL (     290 calls)
     fft          :      0.25s CPU      0.27s WALL (     196 calls)
     ffts         :      0.04s CPU      0.04s WALL (      14 calls)
     fftw         :      3.23s CPU      3.32s WALL (   10564 calls)
 
     Parallel routines
 
     PWSCF        :     16.22s CPU     16.85s WALL

 
   This run was terminated on:  22:45: 4  15Nov2025            

=------------------------------------------------------------------------------=
   JOB DONE.
=------------------------------------------------------------------------------=
