
     Program PWSCF v.7.5 starts on 15Nov2025 at 22:46:20 

     This program is part of the open-source Quantum ESPRESSO suite
     for quantum simulation of materials; please cite
         "P. Giannozzi et al., J. Phys.:Condens. Matter 21 395502 (2009);
         "P. Giannozzi et al., J. Phys.:Condens. Matter 29 465901 (2017);
         "P. Giannozzi et al., J. Chem. Phys. 152 154105 (2020);
          URL http://www.quantum-espresso.org", 
     in publications or presentations arising from this work. More details at
     http://www.quantum-espresso.org/quote

     Parallel version (MPI), running on    96 processors

     MPI processes distributed on     2 nodes
     175351 MiB available memory on the printing compute node when the environment starts
 
     Reading input from run-supercell-028.in

     Current dimensions of program PWSCF are:
     Max number of different atomic species (ntypx) = 10
     Max number of k-points (npk) =  40000
     Max angular momentum in pseudopotentials (lmaxx) =  4

     gamma-point specific algorithms are used
 
     K-points division:     npool     =       2
     R & G space division:  proc/nbgrp/npool/nimage =      48
     Subspace diagonalization in iterative solution of the eigenvalue problem:
     one sub-group per band group will be used
     scalapack distributed-memory algorithm (size of sub-group:  2*  2 procs)

 
     Parallelization info
     --------------------
     sticks:   dense  smooth     PW     G-vecs:    dense   smooth      PW
     Min          59      59     14                 2432     2432     302
     Max          62      62     16                 2442     2442     316
     Sum        2885    2885    725               116921   116921   14771
 
     Using Slab Decomposition
 


     bravais-lattice index     =            0
     lattice parameter (alat)  =      13.4813  a.u.
     unit-cell volume          =    2450.1683 (a.u.)^3
     number of atoms/cell      =           63
     number of atomic types    =            2
     number of electrons       =       254.00 (up: 128.00, down: 126.00)
     number of Kohn-Sham states=          152
     kinetic-energy cutoff     =      50.0000  Ry
     charge density cutoff     =     200.0000  Ry
     scf convergence threshold =      1.0E-08
     mixing beta               =       0.7000
     number of iterations used =            8  plain     mixing
     Exchange-correlation= PBE
                           (   1   4   3   4   0   0   0)

     celldm(1)=  13.481306  celldm(2)=   0.000000  celldm(3)=   0.000000
     celldm(4)=   0.000000  celldm(5)=   0.000000  celldm(6)=   0.000000

     crystal axes: (cart. coord. in units of alat)
               a(1) = (   1.000000   0.000000   0.000000 )  
               a(2) = (   0.000000   1.000000   0.000000 )  
               a(3) = (   0.000000   0.000000   1.000000 )  

     reciprocal axes: (cart. coord. in units 2 pi/alat)
               b(1) = (  1.000000  0.000000  0.000000 )  
               b(2) = (  0.000000  1.000000  0.000000 )  
               b(3) = (  0.000000  0.000000  1.000000 )  


     PseudoPot. # 1 for N  read from file:
     ./N_ONCV_PBE-1.2.upf
     MD5 check sum: 5312fdf34e96954e02a33bdc911c617a
     Pseudo is Norm-conserving, Zval =  5.0
     Generated using ONCVPSP code by D. R. Hamann
     Using radial grid of  602 points,  4 beta functions with: 
                l(1) =   0
                l(2) =   0
                l(3) =   1
                l(4) =   1

     PseudoPot. # 2 for C  read from file:
     ./C_ONCV_PBE-1.2.upf
     MD5 check sum: d60b57d9bdca4133f5fde4b584ee909d
     Pseudo is Norm-conserving, Zval =  4.0
     Generated using ONCVPSP code by D. R. Hamann
     Using radial grid of  602 points,  4 beta functions with: 
                l(1) =   0
                l(2) =   0
                l(3) =   1
                l(4) =   1

     atomic species   valence    mass     pseudopotential
     N                 5.00    14.00670     N ( 1.00)
     C                 4.00    12.01070     C ( 1.00)

     Starting magnetic structure 
     atomic species   magnetization
     N               0.000
     C               0.000

     No symmetry found


                                    s                        frac. trans.

      isym =  1     identity                                     

 cryst.   s( 1) = (     1          0          0      )
                  (     0          1          0      )
                  (     0          0          1      )

 cart.    s( 1) = (  1.0000000  0.0000000  0.0000000 )
                  (  0.0000000  1.0000000  0.0000000 )
                  (  0.0000000  0.0000000  1.0000000 )


   Cartesian axes

     site n.     atom                  positions (alat units)
         1        N      tau(   1) = (   0.0000000   0.0000000   0.0000000  )
         2        C      tau(   2) = (   0.0000000   0.2500000   0.2500000  )
         3        C      tau(   3) = (   0.1250000   0.3750000   0.3750000  )
         4        C      tau(   4) = (   0.2500000   0.0000000   0.2500000  )
         5        C      tau(   5) = (   0.3750000   0.1250000   0.3750000  )
         6        C      tau(   6) = (   0.2500000   0.2500000   0.0000000  )
         7        C      tau(   7) = (   0.3750000   0.3750000   0.1250000  )
         8        C      tau(   8) = (   0.0000000   0.0000000   0.5000000  )
         9        C      tau(   9) = (   0.1250000   0.1250000   0.6250000  )
        10        C      tau(  10) = (   0.0000000   0.2500000   0.7500000  )
        11        C      tau(  11) = (   0.1250000   0.3735165   0.8750000  )
        12        C      tau(  12) = (   0.2500000   0.0000000   0.7500000  )
        13        C      tau(  13) = (   0.3750000   0.1250000   0.8750000  )
        14        C      tau(  14) = (   0.2500000   0.2500000   0.5000000  )
        15        C      tau(  15) = (   0.3750000   0.3750000   0.6250000  )
        16        C      tau(  16) = (   0.0000000   0.5000000   0.0000000  )
        17        C      tau(  17) = (   0.1250000   0.6250000   0.1250000  )
        18        C      tau(  18) = (   0.0000000   0.7500000   0.2500000  )
        19        C      tau(  19) = (   0.1250000   0.8750000   0.3750000  )
        20        C      tau(  20) = (   0.2500000   0.5000000   0.2500000  )
        21        C      tau(  21) = (   0.3750000   0.6250000   0.3750000  )
        22        C      tau(  22) = (   0.2500000   0.7500000   0.0000000  )
        23        C      tau(  23) = (   0.3750000   0.8750000   0.1250000  )
        24        C      tau(  24) = (   0.0000000   0.5000000   0.5000000  )
        25        C      tau(  25) = (   0.1250000   0.6250000   0.6250000  )
        26        C      tau(  26) = (   0.0000000   0.7500000   0.7500000  )
        27        C      tau(  27) = (   0.1250000   0.8750000   0.8750000  )
        28        C      tau(  28) = (   0.2500000   0.5000000   0.7500000  )
        29        C      tau(  29) = (   0.3750000   0.6250000   0.8750000  )
        30        C      tau(  30) = (   0.2500000   0.7500000   0.5000000  )
        31        C      tau(  31) = (   0.3750000   0.8750000   0.6250000  )
        32        C      tau(  32) = (   0.5000000   0.0000000   0.0000000  )
        33        C      tau(  33) = (   0.6250000   0.1250000   0.1250000  )
        34        C      tau(  34) = (   0.5000000   0.2500000   0.2500000  )
        35        C      tau(  35) = (   0.6250000   0.3750000   0.3750000  )
        36        C      tau(  36) = (   0.7500000   0.0000000   0.2500000  )
        37        C      tau(  37) = (   0.8750000   0.1250000   0.3750000  )
        38        C      tau(  38) = (   0.7500000   0.2500000   0.0000000  )
        39        C      tau(  39) = (   0.8750000   0.3750000   0.1250000  )
        40        C      tau(  40) = (   0.5000000   0.0000000   0.5000000  )
        41        C      tau(  41) = (   0.6250000   0.1250000   0.6250000  )
        42        C      tau(  42) = (   0.5000000   0.2500000   0.7500000  )
        43        C      tau(  43) = (   0.6250000   0.3750000   0.8750000  )
        44        C      tau(  44) = (   0.7500000   0.0000000   0.7500000  )
        45        C      tau(  45) = (   0.8750000   0.1250000   0.8750000  )
        46        C      tau(  46) = (   0.7500000   0.2500000   0.5000000  )
        47        C      tau(  47) = (   0.8750000   0.3750000   0.6250000  )
        48        C      tau(  48) = (   0.5000000   0.5000000   0.0000000  )
        49        C      tau(  49) = (   0.6250000   0.6250000   0.1250000  )
        50        C      tau(  50) = (   0.5000000   0.7500000   0.2500000  )
        51        C      tau(  51) = (   0.6250000   0.8750000   0.3750000  )
        52        C      tau(  52) = (   0.7500000   0.5000000   0.2500000  )
        53        C      tau(  53) = (   0.8750000   0.6250000   0.3750000  )
        54        C      tau(  54) = (   0.7500000   0.7500000   0.0000000  )
        55        C      tau(  55) = (   0.8750000   0.8750000   0.1250000  )
        56        C      tau(  56) = (   0.5000000   0.5000000   0.5000000  )
        57        C      tau(  57) = (   0.6250000   0.6250000   0.6250000  )
        58        C      tau(  58) = (   0.5000000   0.7500000   0.7500000  )
        59        C      tau(  59) = (   0.6250000   0.8750000   0.8750000  )
        60        C      tau(  60) = (   0.7500000   0.5000000   0.7500000  )
        61        C      tau(  61) = (   0.8750000   0.6250000   0.8750000  )
        62        C      tau(  62) = (   0.7500000   0.7500000   0.5000000  )
        63        C      tau(  63) = (   0.8750000   0.8750000   0.6250000  )

   Crystallographic axes

     site n.     atom                  positions (cryst. coord.)
         1        N      tau(   1) = (  0.0000000  0.0000000  0.0000000  )
         2        C      tau(   2) = (  0.0000000  0.2500000  0.2500000  )
         3        C      tau(   3) = (  0.1250000  0.3750000  0.3750000  )
         4        C      tau(   4) = (  0.2500000  0.0000000  0.2500000  )
         5        C      tau(   5) = (  0.3750000  0.1250000  0.3750000  )
         6        C      tau(   6) = (  0.2500000  0.2500000  0.0000000  )
         7        C      tau(   7) = (  0.3750000  0.3750000  0.1250000  )
         8        C      tau(   8) = (  0.0000000  0.0000000  0.5000000  )
         9        C      tau(   9) = (  0.1250000  0.1250000  0.6250000  )
        10        C      tau(  10) = (  0.0000000  0.2500000  0.7500000  )
        11        C      tau(  11) = (  0.1250000  0.3735165  0.8750000  )
        12        C      tau(  12) = (  0.2500000  0.0000000  0.7500000  )
        13        C      tau(  13) = (  0.3750000  0.1250000  0.8750000  )
        14        C      tau(  14) = (  0.2500000  0.2500000  0.5000000  )
        15        C      tau(  15) = (  0.3750000  0.3750000  0.6250000  )
        16        C      tau(  16) = (  0.0000000  0.5000000  0.0000000  )
        17        C      tau(  17) = (  0.1250000  0.6250000  0.1250000  )
        18        C      tau(  18) = (  0.0000000  0.7500000  0.2500000  )
        19        C      tau(  19) = (  0.1250000  0.8750000  0.3750000  )
        20        C      tau(  20) = (  0.2500000  0.5000000  0.2500000  )
        21        C      tau(  21) = (  0.3750000  0.6250000  0.3750000  )
        22        C      tau(  22) = (  0.2500000  0.7500000  0.0000000  )
        23        C      tau(  23) = (  0.3750000  0.8750000  0.1250000  )
        24        C      tau(  24) = (  0.0000000  0.5000000  0.5000000  )
        25        C      tau(  25) = (  0.1250000  0.6250000  0.6250000  )
        26        C      tau(  26) = (  0.0000000  0.7500000  0.7500000  )
        27        C      tau(  27) = (  0.1250000  0.8750000  0.8750000  )
        28        C      tau(  28) = (  0.2500000  0.5000000  0.7500000  )
        29        C      tau(  29) = (  0.3750000  0.6250000  0.8750000  )
        30        C      tau(  30) = (  0.2500000  0.7500000  0.5000000  )
        31        C      tau(  31) = (  0.3750000  0.8750000  0.6250000  )
        32        C      tau(  32) = (  0.5000000  0.0000000  0.0000000  )
        33        C      tau(  33) = (  0.6250000  0.1250000  0.1250000  )
        34        C      tau(  34) = (  0.5000000  0.2500000  0.2500000  )
        35        C      tau(  35) = (  0.6250000  0.3750000  0.3750000  )
        36        C      tau(  36) = (  0.7500000  0.0000000  0.2500000  )
        37        C      tau(  37) = (  0.8750000  0.1250000  0.3750000  )
        38        C      tau(  38) = (  0.7500000  0.2500000  0.0000000  )
        39        C      tau(  39) = (  0.8750000  0.3750000  0.1250000  )
        40        C      tau(  40) = (  0.5000000  0.0000000  0.5000000  )
        41        C      tau(  41) = (  0.6250000  0.1250000  0.6250000  )
        42        C      tau(  42) = (  0.5000000  0.2500000  0.7500000  )
        43        C      tau(  43) = (  0.6250000  0.3750000  0.8750000  )
        44        C      tau(  44) = (  0.7500000  0.0000000  0.7500000  )
        45        C      tau(  45) = (  0.8750000  0.1250000  0.8750000  )
        46        C      tau(  46) = (  0.7500000  0.2500000  0.5000000  )
        47        C      tau(  47) = (  0.8750000  0.3750000  0.6250000  )
        48        C      tau(  48) = (  0.5000000  0.5000000  0.0000000  )
        49        C      tau(  49) = (  0.6250000  0.6250000  0.1250000  )
        50        C      tau(  50) = (  0.5000000  0.7500000  0.2500000  )
        51        C      tau(  51) = (  0.6250000  0.8750000  0.3750000  )
        52        C      tau(  52) = (  0.7500000  0.5000000  0.2500000  )
        53        C      tau(  53) = (  0.8750000  0.6250000  0.3750000  )
        54        C      tau(  54) = (  0.7500000  0.7500000  0.0000000  )
        55        C      tau(  55) = (  0.8750000  0.8750000  0.1250000  )
        56        C      tau(  56) = (  0.5000000  0.5000000  0.5000000  )
        57        C      tau(  57) = (  0.6250000  0.6250000  0.6250000  )
        58        C      tau(  58) = (  0.5000000  0.7500000  0.7500000  )
        59        C      tau(  59) = (  0.6250000  0.8750000  0.8750000  )
        60        C      tau(  60) = (  0.7500000  0.5000000  0.7500000  )
        61        C      tau(  61) = (  0.8750000  0.6250000  0.8750000  )
        62        C      tau(  62) = (  0.7500000  0.7500000  0.5000000  )
        63        C      tau(  63) = (  0.8750000  0.8750000  0.6250000  )

     number of k points=     1
                       cart. coord. in units 2pi/alat
        k(    1) = (   0.0000000   0.0000000   0.0000000), wk =   1.0000000

                       cryst. coord.
        k(    1) = (   0.0000000   0.0000000   0.0000000), wk =   1.0000000

     Dense  grid:    58461 G-vectors     FFT dimensions: (  64,  64,  64)

     Dynamical RAM for                 wfc:       0.35 MB

     Dynamical RAM for     wfc (w. buffer):       0.35 MB

     Dynamical RAM for           str. fact:       0.04 MB

     Dynamical RAM for           local pot:       0.00 MB

     Dynamical RAM for          nlocal pot:       1.17 MB

     Dynamical RAM for                qrad:       0.65 MB

     Dynamical RAM for          rho,v,vnew:       0.49 MB

     Dynamical RAM for               rhoin:       0.16 MB

     Dynamical RAM for            rho*nmix:       0.60 MB

     Dynamical RAM for           G-vectors:       0.08 MB

     Dynamical RAM for          h,s,v(r/c):       0.53 MB

     Dynamical RAM for          <psi|beta>:       0.58 MB

     Dynamical RAM for                 psi:       0.71 MB

     Dynamical RAM for                hpsi:       0.71 MB

     Dynamical RAM for      wfcinit/wfcrot:       1.24 MB

     Estimated static dynamical RAM per process >       3.37 MB

     Estimated max dynamical RAM per process >       6.49 MB

     Estimated total dynamical RAM >     594.05 MB
     Generating pointlists ...
     new r_m :   0.0893 (alat units)  1.2040 (a.u.) for type    1
     new r_m :   0.0890 (alat units)  1.1993 (a.u.) for type    2

     Initial potential from superposition of free atoms

     starting charge     252.5655, renormalised to     254.0000
     Starting wfcs are random

     total cpu time spent up to now is        2.7 secs

     Self-consistent Calculation

     iteration #  1     ecut=    50.00 Ry     beta= 0.70
     Davidson diagonalization with overlap

---- Real-time Memory Report at c_bands before calling an iterative solver
           157 MiB given to the printing process from OS
             0 MiB allocation reported by mallinfo(arena+hblkhd)
        174353 MiB available memory on the node where the printing process lives
------------------
     ethr =  1.00E-02,  avg # of iterations = 12.0

     total cpu time spent up to now is        3.3 secs

     total energy              =    -723.26270752 Ry
     estimated scf accuracy    <       3.60772840 Ry

     total magnetization       =     2.00 Bohr mag/cell
     absolute magnetization    =     2.00 Bohr mag/cell

     iteration #  2     ecut=    50.00 Ry     beta= 0.70
     Davidson diagonalization with overlap

---- Real-time Memory Report at c_bands before calling an iterative solver
           163 MiB given to the printing process from OS
             0 MiB allocation reported by mallinfo(arena+hblkhd)
        174303 MiB available memory on the node where the printing process lives
------------------
     ethr =  1.42E-03,  avg # of iterations = 14.5

     total cpu time spent up to now is        4.1 secs

     total energy              =    -723.64425613 Ry
     estimated scf accuracy    <       0.36704533 Ry

     total magnetization       =     2.00 Bohr mag/cell
     absolute magnetization    =     2.06 Bohr mag/cell

     iteration #  3     ecut=    50.00 Ry     beta= 0.70
     Davidson diagonalization with overlap

---- Real-time Memory Report at c_bands before calling an iterative solver
           163 MiB given to the printing process from OS
             0 MiB allocation reported by mallinfo(arena+hblkhd)
        174300 MiB available memory on the node where the printing process lives
------------------
     c_bands:  2 eigenvalues not converged
     ethr =  1.45E-04,  avg # of iterations = 20.0

     total cpu time spent up to now is        6.3 secs

     total energy              =    -723.67951930 Ry
     estimated scf accuracy    <       0.79172285 Ry

     total magnetization       =     2.00 Bohr mag/cell
     absolute magnetization    =     2.10 Bohr mag/cell

     iteration #  4     ecut=    50.00 Ry     beta= 0.70
     Davidson diagonalization with overlap

---- Real-time Memory Report at c_bands before calling an iterative solver
           164 MiB given to the printing process from OS
             0 MiB allocation reported by mallinfo(arena+hblkhd)
        174303 MiB available memory on the node where the printing process lives
------------------
     ethr =  1.45E-04,  avg # of iterations = 15.0

     total cpu time spent up to now is        7.9 secs

     total energy              =    -723.83861261 Ry
     estimated scf accuracy    <       0.00788188 Ry

     total magnetization       =     2.00 Bohr mag/cell
     absolute magnetization    =     2.15 Bohr mag/cell

     iteration #  5     ecut=    50.00 Ry     beta= 0.70
     Davidson diagonalization with overlap

---- Real-time Memory Report at c_bands before calling an iterative solver
           165 MiB given to the printing process from OS
             0 MiB allocation reported by mallinfo(arena+hblkhd)
        174305 MiB available memory on the node where the printing process lives
------------------
     ethr =  3.10E-06,  avg # of iterations = 29.0

     total cpu time spent up to now is        8.5 secs

     total energy              =    -723.84192132 Ry
     estimated scf accuracy    <       0.00394693 Ry

     total magnetization       =     2.00 Bohr mag/cell
     absolute magnetization    =     2.17 Bohr mag/cell

     iteration #  6     ecut=    50.00 Ry     beta= 0.70
     Davidson diagonalization with overlap

---- Real-time Memory Report at c_bands before calling an iterative solver
           165 MiB given to the printing process from OS
             0 MiB allocation reported by mallinfo(arena+hblkhd)
        174305 MiB available memory on the node where the printing process lives
------------------
     c_bands:  3 eigenvalues not converged
     ethr =  1.55E-06,  avg # of iterations = 20.0

     total cpu time spent up to now is        8.9 secs

     total energy              =    -723.84265724 Ry
     estimated scf accuracy    <       0.00054375 Ry

     total magnetization       =     2.00 Bohr mag/cell
     absolute magnetization    =     2.19 Bohr mag/cell

     iteration #  7     ecut=    50.00 Ry     beta= 0.70
     Davidson diagonalization with overlap

---- Real-time Memory Report at c_bands before calling an iterative solver
           165 MiB given to the printing process from OS
             0 MiB allocation reported by mallinfo(arena+hblkhd)
        174299 MiB available memory on the node where the printing process lives
------------------
     c_bands:  1 eigenvalues not converged
     ethr =  2.14E-07,  avg # of iterations = 20.0

     total cpu time spent up to now is        9.5 secs

     total energy              =    -723.84281773 Ry
     estimated scf accuracy    <       0.00005102 Ry

     total magnetization       =     2.00 Bohr mag/cell
     absolute magnetization    =     2.20 Bohr mag/cell

     iteration #  8     ecut=    50.00 Ry     beta= 0.70
     Davidson diagonalization with overlap

---- Real-time Memory Report at c_bands before calling an iterative solver
           165 MiB given to the printing process from OS
             0 MiB allocation reported by mallinfo(arena+hblkhd)
        174299 MiB available memory on the node where the printing process lives
------------------
     c_bands:  1 eigenvalues not converged
     ethr =  2.01E-08,  avg # of iterations = 20.0

     total cpu time spent up to now is       10.1 secs

     total energy              =    -723.84283750 Ry
     estimated scf accuracy    <       0.00001197 Ry

     total magnetization       =     2.00 Bohr mag/cell
     absolute magnetization    =     2.21 Bohr mag/cell

     iteration #  9     ecut=    50.00 Ry     beta= 0.70
     Davidson diagonalization with overlap

---- Real-time Memory Report at c_bands before calling an iterative solver
           165 MiB given to the printing process from OS
             0 MiB allocation reported by mallinfo(arena+hblkhd)
        174294 MiB available memory on the node where the printing process lives
------------------
     c_bands:  1 eigenvalues not converged
     ethr =  4.71E-09,  avg # of iterations = 20.0

     total cpu time spent up to now is       10.7 secs

     total energy              =    -723.84284240 Ry
     estimated scf accuracy    <       0.00000177 Ry

     total magnetization       =     2.00 Bohr mag/cell
     absolute magnetization    =     2.21 Bohr mag/cell

     iteration # 10     ecut=    50.00 Ry     beta= 0.70
     Davidson diagonalization with overlap

---- Real-time Memory Report at c_bands before calling an iterative solver
           165 MiB given to the printing process from OS
             0 MiB allocation reported by mallinfo(arena+hblkhd)
        174297 MiB available memory on the node where the printing process lives
------------------
     c_bands:  1 eigenvalues not converged
     ethr =  6.97E-10,  avg # of iterations = 20.0

     total cpu time spent up to now is       11.3 secs

     total energy              =    -723.84284359 Ry
     estimated scf accuracy    <       0.00000064 Ry

     total magnetization       =     2.00 Bohr mag/cell
     absolute magnetization    =     2.22 Bohr mag/cell

     iteration # 11     ecut=    50.00 Ry     beta= 0.70
     Davidson diagonalization with overlap

---- Real-time Memory Report at c_bands before calling an iterative solver
           165 MiB given to the printing process from OS
             0 MiB allocation reported by mallinfo(arena+hblkhd)
        174302 MiB available memory on the node where the printing process lives
------------------
     c_bands:  1 eigenvalues not converged
     ethr =  2.52E-10,  avg # of iterations = 20.0

     total cpu time spent up to now is       11.9 secs

     total energy              =    -723.84284387 Ry
     estimated scf accuracy    <       0.00000015 Ry

     total magnetization       =     2.00 Bohr mag/cell
     absolute magnetization    =     2.22 Bohr mag/cell

     iteration # 12     ecut=    50.00 Ry     beta= 0.70
     Davidson diagonalization with overlap

---- Real-time Memory Report at c_bands before calling an iterative solver
           165 MiB given to the printing process from OS
             0 MiB allocation reported by mallinfo(arena+hblkhd)
        174303 MiB available memory on the node where the printing process lives
------------------
     c_bands:  1 eigenvalues not converged
     ethr =  5.92E-11,  avg # of iterations = 20.0

     total cpu time spent up to now is       12.5 secs

     total energy              =    -723.84284394 Ry
     estimated scf accuracy    <       0.00000005 Ry

     total magnetization       =     2.00 Bohr mag/cell
     absolute magnetization    =     2.22 Bohr mag/cell

     iteration # 13     ecut=    50.00 Ry     beta= 0.70
     Davidson diagonalization with overlap

---- Real-time Memory Report at c_bands before calling an iterative solver
           165 MiB given to the printing process from OS
             0 MiB allocation reported by mallinfo(arena+hblkhd)
        174301 MiB available memory on the node where the printing process lives
------------------
     c_bands:  1 eigenvalues not converged
     ethr =  1.80E-11,  avg # of iterations = 20.0

     total cpu time spent up to now is       13.2 secs

     total energy              =    -723.84284396 Ry
     estimated scf accuracy    <       0.00000001 Ry

     total magnetization       =     2.00 Bohr mag/cell
     absolute magnetization    =     2.22 Bohr mag/cell

     iteration # 14     ecut=    50.00 Ry     beta= 0.70
     Davidson diagonalization with overlap

---- Real-time Memory Report at c_bands before calling an iterative solver
           165 MiB given to the printing process from OS
             0 MiB allocation reported by mallinfo(arena+hblkhd)
        174300 MiB available memory on the node where the printing process lives
------------------
     c_bands:  1 eigenvalues not converged
     ethr =  4.57E-12,  avg # of iterations = 20.0
 
     Magnetic moment per site  (integrated on atomic sphere of radius R)
     atom   1 (R=0.089)  charge=  3.0643  magn=  0.0033
     atom   2 (R=0.089)  charge=  1.9367  magn=  0.2838
     atom   3 (R=0.089)  charge=  1.9970  magn= -0.0081
     atom   4 (R=0.089)  charge=  1.9367  magn=  0.2837
     atom   5 (R=0.089)  charge=  1.9970  magn= -0.0081
     atom   6 (R=0.089)  charge=  1.9390  magn=  0.2834
     atom   7 (R=0.089)  charge=  1.9969  magn= -0.0081
     atom   8 (R=0.089)  charge=  2.0043  magn=  0.0061
     atom   9 (R=0.089)  charge=  2.0035  magn= -0.0016
     atom  10 (R=0.089)  charge=  2.0070  magn=  0.0042
     atom  11 (R=0.089)  charge=  1.9948  magn=  0.0015
     atom  12 (R=0.089)  charge=  2.0048  magn=  0.0042
     atom  13 (R=0.089)  charge=  1.9955  magn=  0.0018
     atom  14 (R=0.089)  charge=  2.0036  magn=  0.0064
     atom  15 (R=0.089)  charge=  2.0057  magn= -0.0016
     atom  16 (R=0.089)  charge=  2.0022  magn=  0.0062
     atom  17 (R=0.089)  charge=  2.0033  magn= -0.0016
     atom  18 (R=0.089)  charge=  2.0047  magn=  0.0042
     atom  19 (R=0.089)  charge=  1.9954  magn=  0.0019
     atom  20 (R=0.089)  charge=  2.0036  magn=  0.0063
     atom  21 (R=0.089)  charge=  2.0056  magn= -0.0016
     atom  22 (R=0.089)  charge=  2.0047  magn=  0.0042
     atom  23 (R=0.089)  charge=  1.9954  magn=  0.0018
     atom  24 (R=0.089)  charge=  2.0048  magn=  0.0148
     atom  25 (R=0.089)  charge=  2.0060  magn=  0.0083
     atom  26 (R=0.089)  charge=  2.0083  magn=  0.0027
     atom  27 (R=0.089)  charge=  1.9600  magn=  0.0017
     atom  28 (R=0.089)  charge=  2.0029  magn=  0.0190
     atom  29 (R=0.089)  charge=  2.0045  magn= -0.0010
     atom  30 (R=0.089)  charge=  2.0050  magn=  0.0183
     atom  31 (R=0.089)  charge=  2.0046  magn= -0.0010
     atom  32 (R=0.089)  charge=  2.0043  magn=  0.0061
     atom  33 (R=0.089)  charge=  2.0034  magn= -0.0016
     atom  34 (R=0.089)  charge=  2.0035  magn=  0.0064
     atom  35 (R=0.089)  charge=  2.0056  magn= -0.0016
     atom  36 (R=0.089)  charge=  2.0048  magn=  0.0042
     atom  37 (R=0.089)  charge=  1.9955  magn=  0.0018
     atom  38 (R=0.089)  charge=  2.0048  magn=  0.0042
     atom  39 (R=0.089)  charge=  1.9955  magn=  0.0018
     atom  40 (R=0.089)  charge=  2.0048  magn=  0.0148
     atom  41 (R=0.089)  charge=  2.0062  magn=  0.0083
     atom  42 (R=0.089)  charge=  2.0050  magn=  0.0183
     atom  43 (R=0.089)  charge=  2.0046  magn= -0.0010
     atom  44 (R=0.089)  charge=  2.0083  magn=  0.0027
     atom  45 (R=0.089)  charge=  1.9601  magn=  0.0017
     atom  46 (R=0.089)  charge=  2.0050  magn=  0.0183
     atom  47 (R=0.089)  charge=  2.0046  magn= -0.0010
     atom  48 (R=0.089)  charge=  2.0048  magn=  0.0148
     atom  49 (R=0.089)  charge=  2.0061  magn=  0.0083
     atom  50 (R=0.089)  charge=  2.0050  magn=  0.0183
     atom  51 (R=0.089)  charge=  2.0046  magn= -0.0010
     atom  52 (R=0.089)  charge=  2.0050  magn=  0.0184
     atom  53 (R=0.089)  charge=  2.0046  magn= -0.0010
     atom  54 (R=0.089)  charge=  2.0083  magn=  0.0027
     atom  55 (R=0.089)  charge=  1.9600  magn=  0.0017
     atom  56 (R=0.089)  charge=  2.0055  magn=  0.0009
     atom  57 (R=0.089)  charge=  2.0057  magn=  0.0010
     atom  58 (R=0.089)  charge=  2.0055  magn=  0.0017
     atom  59 (R=0.089)  charge=  2.0060  magn= -0.0008
     atom  60 (R=0.089)  charge=  2.0055  magn=  0.0016
     atom  61 (R=0.089)  charge=  2.0059  magn= -0.0008
     atom  62 (R=0.089)  charge=  2.0055  magn=  0.0016
     atom  63 (R=0.089)  charge=  2.0060  magn= -0.0008

     total cpu time spent up to now is       13.7 secs

     End of self-consistent calculation

 ------ SPIN UP ------------


          k = 0.0000 0.0000 0.0000 (  7386 PWs)   bands (ev):

    -8.4771  -6.5770  -6.2448  -6.2409  -6.1477  -6.1457  -5.8440  -4.6777
    -4.0866  -4.0840  -4.0560  -4.0527  -4.0409  -3.9817  -3.9788  -3.9309
    -3.7856  -3.7814  -3.3449  -2.9069  -2.6018  -2.5983  -1.9304  -0.3385
    -0.2915  -0.2894  -0.2525   0.0161   0.2400   0.2414   0.2950   0.2967
     0.3651   0.6388   0.9482   0.9492   0.9609   1.0107   1.0140   1.0898
     1.1006   1.1014   1.4485   1.4555   2.9632   4.0884   4.1981   4.1994
     4.2684   4.2707   4.2864   4.3308   4.3355   4.3386   4.4453   4.4506
     4.5817   4.5823   4.6340   4.6836   4.6851   4.7223   4.7410   4.7873
     4.7945   4.8796   4.8957   4.8976   5.1860   5.3528   5.3565   5.3870
     5.3892   5.4039   5.4081   5.5366   5.5414   6.0243   6.0269   6.0540
     6.7052   6.7068   6.7686   7.1224   7.1414   7.1440   7.2730   8.4529
     8.4556   8.4618   8.5525   8.5573   8.7661   8.7676   8.8560   8.8579
     8.8785   8.9135   8.9996   9.0072   9.0360   9.3190   9.3213   9.3646
     9.9158   9.9191   9.9334   9.9504   9.9528   9.9540  10.0019  10.0048
    10.0139  10.0150  10.0283  10.0468  10.1913  10.1997  10.3810  10.4083
    10.4473  10.4555  12.3032  12.4997  12.5044  13.9226  14.8518  14.8564
    17.2026  17.4354  17.4388  17.5384  17.5399  17.5406  17.7518  17.9190
    17.9211  18.0010  18.0088  18.3151  18.8195  18.8233  18.9147  20.4874
    20.8768  20.8829  20.9407  20.9432  20.9444  20.9978  21.0001  21.0491

     occupation numbers 
     1.0000   1.0000   1.0000   1.0000   1.0000   1.0000   1.0000   1.0000
     1.0000   1.0000   1.0000   1.0000   1.0000   1.0000   1.0000   1.0000
     1.0000   1.0000   1.0000   1.0000   1.0000   1.0000   1.0000   1.0000
     1.0000   1.0000   1.0000   1.0000   1.0000   1.0000   1.0000   1.0000
     1.0000   1.0000   1.0000   1.0000   1.0000   1.0000   1.0000   1.0000
     1.0000   1.0000   1.0000   1.0000   1.0000   1.0000   1.0000   1.0000
     1.0000   1.0000   1.0000   1.0000   1.0000   1.0000   1.0000   1.0000
     1.0000   1.0000   1.0000   1.0000   1.0000   1.0000   1.0000   1.0000
     1.0000   1.0000   1.0000   1.0000   1.0000   1.0000   1.0000   1.0000
     1.0000   1.0000   1.0000   1.0000   1.0000   1.0000   1.0000   1.0000
     1.0000   1.0000   1.0000   1.0000   1.0000   1.0000   1.0000   1.0000
     1.0000   1.0000   1.0000   1.0000   1.0000   1.0000   1.0000   1.0000
     1.0000   1.0000   1.0000   1.0000   1.0000   1.0000   1.0000   1.0000
     1.0000   1.0000   1.0000   1.0000   1.0000   1.0000   1.0000   1.0000
     1.0000   1.0000   1.0000   1.0000   1.0000   1.0000   1.0000   1.0000
     1.0000   1.0000   1.0000   1.0000   1.0000   1.0000   1.0000   1.0000
     0.0000   0.0000   0.0000   0.0000   0.0000   0.0000   0.0000   0.0000
     0.0000   0.0000   0.0000   0.0000   0.0000   0.0000   0.0000   0.0000
     0.0000   0.0000   0.0000   0.0000   0.0000   0.0000   0.0000   0.0000

 ------ SPIN DOWN ----------


          k = 0.0000 0.0000 0.0000 (  7386 PWs)   bands (ev):

    -8.4567  -6.5656  -6.2288  -6.2249  -6.1197  -6.1178  -5.8118  -4.6626
    -4.0716  -4.0692  -4.0421  -4.0390  -4.0201  -3.9620  -3.9591  -3.9220
    -3.7260  -3.7221  -3.3034  -2.8923  -2.5502  -2.5468  -1.7968  -0.3218
    -0.2739  -0.2720  -0.2313   0.0734   0.2555   0.2566   0.3229   0.3242
     0.3851   0.6742   0.9600   0.9606   0.9874   1.0287   1.0324   1.1080
     1.1155   1.1160   1.6152   1.6223   3.0977   4.1261   4.2161   4.2172
     4.2792   4.2814   4.2996   4.3516   4.3594   4.3629   4.5116   4.5165
     4.5959   4.5964   4.6421   4.6962   4.6978   4.7378   4.7733   4.8184
     4.8257   4.8899   4.9304   4.9329   5.2593   5.3676   5.3711   5.4126
     5.4141   5.4158   5.4290   5.5892   5.5942   6.0852   6.0876   6.0937
     6.7286   6.7302   6.8018   7.1658   7.2327   7.2357   7.4974   8.4735
     8.4760   8.4934   8.5898   8.5946   8.7923   8.7939   8.8654   8.8673
     8.8937   8.9409   9.0467   9.0543   9.0815   9.3554   9.3576   9.4075
     9.9448   9.9470   9.9523   9.9585   9.9652   9.9664  10.0235  10.0237
    10.0380  10.0424  10.0460  10.0763  10.2241  10.2323  10.4943  10.5236
    10.5315  10.9140  12.5437  12.6461  12.6521  14.3899  16.3800  16.3839
    17.2358  17.4509  17.4541  17.5554  17.5768  17.5785  17.7791  17.9462
    17.9485  18.0470  18.0546  18.4113  18.8740  18.8777  18.9623  20.5389
    20.9078  20.9150  20.9550  20.9557  20.9579  21.0224  21.0242  21.0580

     occupation numbers 
     1.0000   1.0000   1.0000   1.0000   1.0000   1.0000   1.0000   1.0000
     1.0000   1.0000   1.0000   1.0000   1.0000   1.0000   1.0000   1.0000
     1.0000   1.0000   1.0000   1.0000   1.0000   1.0000   1.0000   1.0000
     1.0000   1.0000   1.0000   1.0000   1.0000   1.0000   1.0000   1.0000
     1.0000   1.0000   1.0000   1.0000   1.0000   1.0000   1.0000   1.0000
     1.0000   1.0000   1.0000   1.0000   1.0000   1.0000   1.0000   1.0000
     1.0000   1.0000   1.0000   1.0000   1.0000   1.0000   1.0000   1.0000
     1.0000   1.0000   1.0000   1.0000   1.0000   1.0000   1.0000   1.0000
     1.0000   1.0000   1.0000   1.0000   1.0000   1.0000   1.0000   1.0000
     1.0000   1.0000   1.0000   1.0000   1.0000   1.0000   1.0000   1.0000
     1.0000   1.0000   1.0000   1.0000   1.0000   1.0000   1.0000   1.0000
     1.0000   1.0000   1.0000   1.0000   1.0000   1.0000   1.0000   1.0000
     1.0000   1.0000   1.0000   1.0000   1.0000   1.0000   1.0000   1.0000
     1.0000   1.0000   1.0000   1.0000   1.0000   1.0000   1.0000   1.0000
     1.0000   1.0000   1.0000   1.0000   1.0000   1.0000   1.0000   1.0000
     1.0000   1.0000   1.0000   1.0000   1.0000   1.0000   0.0000   0.0000
     0.0000   0.0000   0.0000   0.0000   0.0000   0.0000   0.0000   0.0000
     0.0000   0.0000   0.0000   0.0000   0.0000   0.0000   0.0000   0.0000
     0.0000   0.0000   0.0000   0.0000   0.0000   0.0000   0.0000   0.0000

     highest occupied, lowest unoccupied level (ev):    14.8564   16.3800

!    total energy              =    -723.84284397 Ry
     estimated scf accuracy    <          3.9E-09 Ry

     The total energy is the sum of the following terms:
     one-electron contribution =     239.42346986 Ry
     hartree contribution      =      67.05621205 Ry
     xc contribution           =    -226.46803529 Ry
     ewald contribution        =    -803.85449060 Ry

     total magnetization       =     2.00 Bohr mag/cell
     absolute magnetization    =     2.22 Bohr mag/cell

     convergence has been achieved in  14 iterations

     Forces acting on atoms (cartesian axes, Ry/au):

     atom    1 type  1   force =    -0.07547014   -0.07540180   -0.07552839
     atom    2 type  2   force =    -0.04407581    0.07368611    0.07369764
     atom    3 type  2   force =    -0.01698954   -0.02906197   -0.02903607
     atom    4 type  2   force =     0.07360548   -0.04400029    0.07370622
     atom    5 type  2   force =    -0.02906000   -0.01701397   -0.02901714
     atom    6 type  2   force =     0.07505652    0.07001293   -0.04364996
     atom    7 type  2   force =    -0.02954279   -0.02856312   -0.01730313
     atom    8 type  2   force =    -0.00318162   -0.00330983    0.00011570
     atom    9 type  2   force =    -0.00049923   -0.00073843   -0.00335340
     atom   10 type  2   force =     0.00925587   -0.00822190    0.00816076
     atom   11 type  2   force =     0.00468549   -0.01562268    0.03511114
     atom   12 type  2   force =    -0.00423292    0.01031359    0.00935343
     atom   13 type  2   force =    -0.03152877    0.00408302    0.03423822
     atom   14 type  2   force =     0.00319228    0.00327464   -0.00099272
     atom   15 type  2   force =    -0.00234974   -0.00204871    0.00203534
     atom   16 type  2   force =    -0.00243529   -0.00363112   -0.00415734
     atom   17 type  2   force =     0.00016080   -0.00327854   -0.00080815
     atom   18 type  2   force =     0.01019304    0.00925212   -0.00425994
     atom   19 type  2   force =     0.00463314    0.03373044   -0.03205260
     atom   20 type  2   force =     0.00320269   -0.00095080    0.00324502
     atom   21 type  2   force =    -0.00262036    0.00227438   -0.00262756
     atom   22 type  2   force =    -0.00416677    0.00934483    0.01032008
     atom   23 type  2   force =    -0.03203854    0.03379576    0.00464284
     atom   24 type  2   force =     0.00740371    0.00794538    0.00780059
     atom   25 type  2   force =    -0.00063875   -0.00034604    0.00096609
     atom   26 type  2   force =     0.00326957   -0.00219558   -0.00229623
     atom   27 type  2   force =    -0.03927585    0.01843611    0.01847027
     atom   28 type  2   force =     0.00019849    0.00202183   -0.00517517
     atom   29 type  2   force =    -0.00501354   -0.00345678   -0.00336418
     atom   30 type  2   force =     0.00105699   -0.00566096    0.00552767
     atom   31 type  2   force =    -0.00434055   -0.00362833   -0.00285967
     atom   32 type  2   force =     0.00031799   -0.00336067   -0.00336960
     atom   33 type  2   force =    -0.00271077   -0.00017556   -0.00020250
     atom   34 type  2   force =    -0.00110140    0.00309034    0.00312617
     atom   35 type  2   force =     0.00229583   -0.00247580   -0.00263949
     atom   36 type  2   force =     0.00926748    0.01029499   -0.00417128
     atom   37 type  2   force =     0.03378683    0.00464466   -0.03203993
     atom   38 type  2   force =     0.00934614   -0.00410991    0.01028295
     atom   39 type  2   force =     0.03346876   -0.03152399    0.00498199
     atom   40 type  2   force =     0.00787467    0.00742697    0.00782674
     atom   41 type  2   force =     0.00026600   -0.00035588    0.00030884
     atom   42 type  2   force =     0.00546169    0.00107433   -0.00565648
     atom   43 type  2   force =    -0.00285676   -0.00437250   -0.00368719
     atom   44 type  2   force =    -0.00232529    0.00330158   -0.00217142
     atom   45 type  2   force =     0.01780467   -0.03991856    0.01816371
     atom   46 type  2   force =    -0.00557166    0.00083427    0.00556480
     atom   47 type  2   force =    -0.00331977   -0.00372672   -0.00249568
     atom   48 type  2   force =     0.00789546    0.00791649    0.00735674
     atom   49 type  2   force =     0.00029093    0.00025395   -0.00031208
     atom   50 type  2   force =     0.00546236   -0.00562565    0.00093408
     atom   51 type  2   force =    -0.00285607   -0.00368633   -0.00434763
     atom   52 type  2   force =    -0.00573649    0.00537521    0.00107252
     atom   53 type  2   force =    -0.00370691   -0.00286735   -0.00436471
     atom   54 type  2   force =    -0.00218895   -0.00229040    0.00338911
     atom   55 type  2   force =     0.01846944    0.01853934   -0.03927308
     atom   56 type  2   force =    -0.00029110   -0.00049328   -0.00047602
     atom   57 type  2   force =    -0.00106011   -0.00104620   -0.00106475
     atom   58 type  2   force =     0.00047822    0.00151199    0.00145520
     atom   59 type  2   force =     0.00237673    0.00331601    0.00338496
     atom   60 type  2   force =     0.00149170    0.00062650    0.00154823
     atom   61 type  2   force =     0.00398646    0.00180092    0.00302186
     atom   62 type  2   force =     0.00156555    0.00157249    0.00055138
     atom   63 type  2   force =     0.00336451    0.00340849    0.00239319
     The non-local contrib.  to forces
     atom    1 type  1   force =    -1.06635304   -1.06595605   -1.06620506
     atom    2 type  2   force =    -0.34683970    0.37350737    0.37387718
     atom    3 type  2   force =     0.05601162    0.04981641    0.04977392
     atom    4 type  2   force =     0.37395988   -0.34717209    0.37406079
     atom    5 type  2   force =     0.04989133    0.05608056    0.04977122
     atom    6 type  2   force =     0.37243729    0.36914029   -0.34552138
     atom    7 type  2   force =     0.04856830    0.04912611    0.05487980
     atom    8 type  2   force =    -0.00988544   -0.00994189    0.05427139
     atom    9 type  2   force =    -0.00354589   -0.00418242    0.01641074
     atom   10 type  2   force =    -0.03159910   -0.02694840   -0.01733693
     atom   11 type  2   force =    -0.06904075    0.05007037   -0.04386712
     atom   12 type  2   force =    -0.02323866   -0.03038752   -0.01614625
     atom   13 type  2   force =     0.03061276   -0.06894914   -0.04490429
     atom   14 type  2   force =     0.00254581    0.00261223    0.05545247
     atom   15 type  2   force =     0.01741451    0.01603268    0.00639337
     atom   16 type  2   force =    -0.00942089    0.05119784   -0.01025036
     atom   17 type  2   force =    -0.00348486    0.01627550   -0.00399217
     atom   18 type  2   force =    -0.03063481   -0.01635152   -0.02346831
     atom   19 type  2   force =    -0.06826594   -0.04506792    0.02990661
     atom   20 type  2   force =     0.00299159    0.05535996    0.00266456
     atom   21 type  2   force =     0.01640538    0.00731562    0.01642402
     atom   22 type  2   force =    -0.02321718   -0.01601271   -0.03055994
     atom   23 type  2   force =     0.03000230   -0.04473174   -0.06816351
     atom   24 type  2   force =    -0.04629669    0.03886513    0.03909810
     atom   25 type  2   force =    -0.01403836    0.01621893    0.01742039
     atom   26 type  2   force =    -0.02910597   -0.02102011   -0.02122573
     atom   27 type  2   force =    -0.14163391    0.13433565    0.13416590
     atom   28 type  2   force =     0.04509337    0.03203393   -0.02526341
     atom   29 type  2   force =     0.00089580    0.01459262   -0.00554587
     atom   30 type  2   force =     0.04495489   -0.02529753    0.03483698
     atom   31 type  2   force =     0.00134951   -0.00548864    0.01532462
     atom   32 type  2   force =     0.05499804   -0.01006193   -0.00960110
     atom   33 type  2   force =     0.01692868   -0.00345047   -0.00343112
     atom   34 type  2   force =     0.05524620    0.00294041    0.00237266
     atom   35 type  2   force =     0.00734059    0.01610796    0.01654827
     atom   36 type  2   force =    -0.01618549   -0.03062346   -0.02319323
     atom   37 type  2   force =    -0.04487329   -0.06816951    0.03000143
     atom   38 type  2   force =    -0.01626252   -0.02335126   -0.03075427
     atom   39 type  2   force =    -0.04569840    0.02949368   -0.06724483
     atom   40 type  2   force =     0.03911411   -0.04613027    0.03907563
     atom   41 type  2   force =     0.01695647   -0.01399859    0.01679315
     atom   42 type  2   force =     0.03479381    0.04476967   -0.02514099
     atom   43 type  2   force =     0.01532705    0.00141473   -0.00559305
     atom   44 type  2   force =    -0.02143269   -0.02909597   -0.02121368
     atom   45 type  2   force =     0.13363873   -0.14221968    0.13410014
     atom   46 type  2   force =    -0.02469675    0.04506075    0.03505376
     atom   47 type  2   force =    -0.00456299    0.00094390    0.01634728
     atom   48 type  2   force =     0.03889756    0.03890357   -0.04594739
     atom   49 type  2   force =     0.01685768    0.01685841   -0.01412324
     atom   50 type  2   force =     0.03466962   -0.02521814    0.04484132
     atom   51 type  2   force =     0.01530794   -0.00557635    0.00138411
     atom   52 type  2   force =    -0.02553417    0.03480319    0.04518168
     atom   53 type  2   force =    -0.00556663    0.01530971    0.00142620
     atom   54 type  2   force =    -0.02099912   -0.02139698   -0.02899614
     atom   55 type  2   force =     0.13423540    0.13434910   -0.14168186
     atom   56 type  2   force =     0.01460395    0.01433715    0.01349789
     atom   57 type  2   force =     0.00431024    0.00427124    0.00431154
     atom   58 type  2   force =     0.00929247   -0.00643047   -0.00634276
     atom   59 type  2   force =     0.01438991   -0.01805817   -0.01775269
     atom   60 type  2   force =    -0.00621283    0.00932018   -0.00651844
     atom   61 type  2   force =    -0.01714968    0.01362417   -0.01769419
     atom   62 type  2   force =    -0.00629745   -0.00632397    0.00942517
     atom   63 type  2   force =    -0.01774468   -0.01756082    0.01428811
     The ionic contribution  to forces
     atom    1 type  1   force =     2.60276549    2.59631359    2.60891597
     atom    2 type  2   force =     2.08370212   -1.87466186   -1.87440944
     atom    3 type  2   force =     0.03105908   -0.77642934   -0.77926396
     atom    4 type  2   force =    -1.87631224    2.08249001   -1.87565838
     atom    5 type  2   force =    -0.77858445    0.03092952   -0.77926396
     atom    6 type  2   force =    -1.85114506   -1.87772898    2.11036961
     atom    7 type  2   force =    -0.77928890   -0.77391710    0.03103414
     atom    8 type  2   force =     0.27803313    0.27638040   -0.57776207
     atom    9 type  2   force =     0.06964074    0.06534252   -0.15241925
     atom   10 type  2   force =     0.25286595   -0.07161937    0.34305084
     atom   11 type  2   force =     0.07025579   -0.62064727    0.76934083
     atom   12 type  2   force =    -0.06827230    0.27094127    0.36628768
     atom   13 type  2   force =    -0.67890272    0.06534252    0.76168123
     atom   14 type  2   force =    -0.23064243   -0.22943266   -0.57901101
     atom   15 type  2   force =    -0.15986458   -0.15449279   -0.02793576
     atom   16 type  2   force =     0.30405466   -0.57787601    0.25307130
     atom   17 type  2   force =     0.06964074   -0.14847547    0.06144862
     atom   18 type  2   force =     0.27908656    0.36655468   -0.07190149
     atom   19 type  2   force =     0.06964074    0.75945507   -0.68717738
     atom   20 type  2   force =    -0.23258931   -0.57443317   -0.23405932
     atom   21 type  2   force =    -0.16051796   -0.02810639   -0.15983964
     atom   22 type  2   force =    -0.07315168    0.36115371    0.27614379
     atom   23 type  2   force =    -0.68716991    0.75867408    0.06964822
     atom   24 type  2   force =     0.12521272   -0.20608686   -0.20578562
     atom   25 type  2   force =     0.03105908   -0.05638889   -0.04386589
     atom   26 type  2   force =     0.12665550   -0.00719260    0.00282075
     atom   27 type  2   force =     0.52116815    0.30120191    0.31015382
     atom   28 type  2   force =    -0.10277790   -0.20952970    0.18677365
     atom   29 type  2   force =    -0.14393445   -0.05638889    0.15674126
     atom   30 type  2   force =    -0.07780981    0.15908878   -0.20706305
     atom   31 type  2   force =    -0.13573485    0.15373412   -0.05206548
     atom   32 type  2   force =    -0.57539465    0.27638040    0.27909283
     atom   33 type  2   force =    -0.14414459    0.06951119    0.07032025
     atom   34 type  2   force =    -0.57605370   -0.23051324   -0.23108823
     atom   35 type  2   force =    -0.02796070   -0.15866973   -0.15983964
     atom   36 type  2   force =     0.36836491    0.27747297   -0.07034952
     atom   37 type  2   force =     0.76100172    0.06951119   -0.68717738
     atom   38 type  2   force =     0.36631522   -0.06855225    0.27953344
     atom   39 type  2   force =     0.76170616   -0.68183053    0.06961581
     atom   40 type  2   force =    -0.20784909    0.12314630   -0.20861501
     atom   41 type  2   force =    -0.05205801    0.03092952   -0.05273752
     atom   42 type  2   force =    -0.20579940   -0.07510599    0.16031151
     atom   43 type  2   force =    -0.05205801   -0.13290771    0.15674126
     atom   44 type  2   force =    -0.00078215    0.12205373   -0.00012829
     atom   45 type  2   force =     0.30187917    0.51686992    0.31015382
     atom   46 type  2   force =     0.16075731   -0.07618657   -0.20875671
     atom   47 type  2   force =     0.15676620   -0.13039547   -0.05203307
     atom   48 type  2   force =    -0.21067848   -0.20608686    0.12325989
     atom   49 type  2   force =    -0.05205801   -0.05220370    0.03038076
     atom   50 type  2   force =    -0.20861090    0.16018373   -0.07766507
     atom   51 type  2   force =    -0.05205801    0.15564714   -0.13574233
     atom   52 type  2   force =     0.16181072   -0.20714493   -0.07781498
     atom   53 type  2   force =     0.15741958   -0.05220370   -0.13574233
     atom   54 type  2   force =     0.00157056   -0.00179163    0.12371272
     atom   55 type  2   force =     0.31014635    0.30714668    0.52117562
     atom   56 type  2   force =    -0.11237155   -0.11075568   -0.11131405
     atom   57 type  2   force =    -0.02796070   -0.02810639   -0.02728238
     atom   58 type  2   force =    -0.11301180    0.06269952    0.06541630
     atom   59 type  2   force =    -0.14414459    0.11593344    0.11815959
     atom   60 type  2   force =     0.06733914   -0.10969761    0.06586913
     atom   61 type  2   force =     0.12635172   -0.14847547    0.11815959
     atom   62 type  2   force =     0.06527156    0.06379448   -0.11146395
     atom   63 type  2   force =     0.11815212    0.11515245   -0.14415206
     The local contribution  to forces
     atom    1 type  1   force =    -1.61192129   -1.60576216   -1.61821617
     atom    2 type  2   force =    -1.78096733    1.57481115    1.57421944
     atom    3 type  2   force =    -0.10409234    0.69749902    0.70041550
     atom    4 type  2   force =     1.57593484   -1.77932874    1.57529974
     atom    5 type  2   force =     0.69961643   -0.10404018    0.70044844
     atom    6 type  2   force =     1.55374191    1.57857587   -1.80848587
     atom    7 type  2   force =     0.70116339    0.69618870   -0.10320578
     atom    8 type  2   force =    -0.27135768   -0.26976296    0.52355680
     atom    9 type  2   force =    -0.06661801   -0.06191850    0.13260324
     atom   10 type  2   force =    -0.21204623    0.09032150   -0.31758279
     atom   11 type  2   force =     0.00343763    0.55491833   -0.69036931
     atom   12 type  2   force =     0.08726642   -0.23026387   -0.34082035
     atom   13 type  2   force =     0.61675449    0.00766153   -0.68255169
     atom   14 type  2   force =     0.23126824    0.23006443    0.52251398
     atom   15 type  2   force =     0.14009445    0.13637614    0.02353240
     atom   16 type  2   force =    -0.29710182    0.52298847   -0.24696987
     atom   17 type  2   force =    -0.06601978    0.12886402   -0.05825957
     atom   18 type  2   force =    -0.23829050   -0.34098743    0.09110416
     atom   19 type  2   force =     0.00323141   -0.68067520    0.62519314
     atom   20 type  2   force =     0.23277804    0.51806315    0.23463077
     atom   21 type  2   force =     0.14148283    0.02301435    0.14076697
     atom   22 type  2   force =     0.09219156   -0.33583550   -0.23526520
     atom   23 type  2   force =     0.62511996   -0.68017119    0.00315714
     atom   24 type  2   force =    -0.07154988    0.17511352    0.17444427
     atom   25 type  2   force =    -0.01768489    0.03977633    0.02736917
     atom   26 type  2   force =    -0.09431705    0.02597566    0.01607503
     atom   27 type  2   force =    -0.41883541   -0.41712394   -0.42585761
     atom   28 type  2   force =     0.05787215    0.17947530   -0.16671514
     atom   29 type  2   force =     0.13802342    0.03829490   -0.15457688
     atom   30 type  2   force =     0.03389880   -0.13948832    0.17771771
     atom   31 type  2   force =     0.13004032   -0.15190486    0.03384185
     atom   32 type  2   force =     0.52070634   -0.26970314   -0.27286141
     atom   33 type  2   force =     0.12449437   -0.06625568   -0.06708612
     atom   34 type  2   force =     0.51969276    0.23063420    0.23183527
     atom   35 type  2   force =     0.02290687    0.14004720    0.14062866
     atom   36 type  2   force =    -0.34292349   -0.23656764    0.08936206
     atom   37 type  2   force =    -0.68235621    0.00329270    0.62509899
     atom   38 type  2   force =    -0.34071644    0.08776749   -0.23848798
     atom   39 type  2   force =    -0.68255428    0.62076319    0.00262302
     atom   40 type  2   force =     0.17659893   -0.06961217    0.17732858
     atom   41 type  2   force =     0.03535437   -0.01730960    0.03620996
     atom   42 type  2   force =     0.17646191    0.03138658   -0.14085955
     atom   43 type  2   force =     0.03386447    0.12709101   -0.15485234
     atom   44 type  2   force =     0.01986573   -0.08968385    0.01914077
     atom   45 type  2   force =    -0.41773573   -0.41459084   -0.42609088
     atom   46 type  2   force =    -0.14164535    0.03193755    0.17922416
     atom   47 type  2   force =    -0.15555563    0.12569135    0.03314513
     atom   48 type  2   force =     0.17966917    0.17505637   -0.06996064
     atom   49 type  2   force =     0.03547951    0.03555012   -0.01657254
     atom   50 type  2   force =     0.17939576   -0.14062902    0.03375050
     atom   51 type  2   force =     0.03388142   -0.15378527    0.12999183
     atom   52 type  2   force =    -0.14202449    0.17766220    0.03369990
     atom   53 type  2   force =    -0.15559015    0.03397282    0.12993094
     atom   54 type  2   force =     0.01721477    0.02085924   -0.09133370
     atom   55 type  2   force =    -0.42593471   -0.42297167   -0.41876680
     atom   56 type  2   force =     0.09747204    0.09587956    0.09730643
     atom   57 type  2   force =     0.02257961    0.02274217    0.02187095
     atom   58 type  2   force =     0.10419341   -0.05479881   -0.05764852
     atom   59 type  2   force =     0.13211580   -0.09459422   -0.09703993
     atom   60 type  2   force =    -0.05965826    0.10096079   -0.05783680
     atom   61 type  2   force =    -0.10525281    0.13660091   -0.09746206
     atom   62 type  2   force =    -0.05743067   -0.05594156    0.10255825
     atom   63 type  2   force =    -0.09707740   -0.09421633    0.13221440
     The core correction contribution to forces
     atom    1 type  1   force =     0.00000000    0.00000000    0.00000000
     atom    2 type  2   force =     0.00000000    0.00000000    0.00000000
     atom    3 type  2   force =     0.00000000    0.00000000    0.00000000
     atom    4 type  2   force =     0.00000000    0.00000000    0.00000000
     atom    5 type  2   force =     0.00000000    0.00000000    0.00000000
     atom    6 type  2   force =     0.00000000    0.00000000    0.00000000
     atom    7 type  2   force =     0.00000000    0.00000000    0.00000000
     atom    8 type  2   force =     0.00000000    0.00000000    0.00000000
     atom    9 type  2   force =     0.00000000    0.00000000    0.00000000
     atom   10 type  2   force =     0.00000000    0.00000000    0.00000000
     atom   11 type  2   force =     0.00000000    0.00000000    0.00000000
     atom   12 type  2   force =     0.00000000    0.00000000    0.00000000
     atom   13 type  2   force =     0.00000000    0.00000000    0.00000000
     atom   14 type  2   force =     0.00000000    0.00000000    0.00000000
     atom   15 type  2   force =     0.00000000    0.00000000    0.00000000
     atom   16 type  2   force =     0.00000000    0.00000000    0.00000000
     atom   17 type  2   force =     0.00000000    0.00000000    0.00000000
     atom   18 type  2   force =     0.00000000    0.00000000    0.00000000
     atom   19 type  2   force =     0.00000000    0.00000000    0.00000000
     atom   20 type  2   force =     0.00000000    0.00000000    0.00000000
     atom   21 type  2   force =     0.00000000    0.00000000    0.00000000
     atom   22 type  2   force =     0.00000000    0.00000000    0.00000000
     atom   23 type  2   force =     0.00000000    0.00000000    0.00000000
     atom   24 type  2   force =     0.00000000    0.00000000    0.00000000
     atom   25 type  2   force =     0.00000000    0.00000000    0.00000000
     atom   26 type  2   force =     0.00000000    0.00000000    0.00000000
     atom   27 type  2   force =     0.00000000    0.00000000    0.00000000
     atom   28 type  2   force =     0.00000000    0.00000000    0.00000000
     atom   29 type  2   force =     0.00000000    0.00000000    0.00000000
     atom   30 type  2   force =     0.00000000    0.00000000    0.00000000
     atom   31 type  2   force =     0.00000000    0.00000000    0.00000000
     atom   32 type  2   force =     0.00000000    0.00000000    0.00000000
     atom   33 type  2   force =     0.00000000    0.00000000    0.00000000
     atom   34 type  2   force =     0.00000000    0.00000000    0.00000000
     atom   35 type  2   force =     0.00000000    0.00000000    0.00000000
     atom   36 type  2   force =     0.00000000    0.00000000    0.00000000
     atom   37 type  2   force =     0.00000000    0.00000000    0.00000000
     atom   38 type  2   force =     0.00000000    0.00000000    0.00000000
     atom   39 type  2   force =     0.00000000    0.00000000    0.00000000
     atom   40 type  2   force =     0.00000000    0.00000000    0.00000000
     atom   41 type  2   force =     0.00000000    0.00000000    0.00000000
     atom   42 type  2   force =     0.00000000    0.00000000    0.00000000
     atom   43 type  2   force =     0.00000000    0.00000000    0.00000000
     atom   44 type  2   force =     0.00000000    0.00000000    0.00000000
     atom   45 type  2   force =     0.00000000    0.00000000    0.00000000
     atom   46 type  2   force =     0.00000000    0.00000000    0.00000000
     atom   47 type  2   force =     0.00000000    0.00000000    0.00000000
     atom   48 type  2   force =     0.00000000    0.00000000    0.00000000
     atom   49 type  2   force =     0.00000000    0.00000000    0.00000000
     atom   50 type  2   force =     0.00000000    0.00000000    0.00000000
     atom   51 type  2   force =     0.00000000    0.00000000    0.00000000
     atom   52 type  2   force =     0.00000000    0.00000000    0.00000000
     atom   53 type  2   force =     0.00000000    0.00000000    0.00000000
     atom   54 type  2   force =     0.00000000    0.00000000    0.00000000
     atom   55 type  2   force =     0.00000000    0.00000000    0.00000000
     atom   56 type  2   force =     0.00000000    0.00000000    0.00000000
     atom   57 type  2   force =     0.00000000    0.00000000    0.00000000
     atom   58 type  2   force =     0.00000000    0.00000000    0.00000000
     atom   59 type  2   force =     0.00000000    0.00000000    0.00000000
     atom   60 type  2   force =     0.00000000    0.00000000    0.00000000
     atom   61 type  2   force =     0.00000000    0.00000000    0.00000000
     atom   62 type  2   force =     0.00000000    0.00000000    0.00000000
     atom   63 type  2   force =     0.00000000    0.00000000    0.00000000
     The Hubbard contrib.    to forces
     atom    1 type  1   force =     0.00000000    0.00000000    0.00000000
     atom    2 type  2   force =     0.00000000    0.00000000    0.00000000
     atom    3 type  2   force =     0.00000000    0.00000000    0.00000000
     atom    4 type  2   force =     0.00000000    0.00000000    0.00000000
     atom    5 type  2   force =     0.00000000    0.00000000    0.00000000
     atom    6 type  2   force =     0.00000000    0.00000000    0.00000000
     atom    7 type  2   force =     0.00000000    0.00000000    0.00000000
     atom    8 type  2   force =     0.00000000    0.00000000    0.00000000
     atom    9 type  2   force =     0.00000000    0.00000000    0.00000000
     atom   10 type  2   force =     0.00000000    0.00000000    0.00000000
     atom   11 type  2   force =     0.00000000    0.00000000    0.00000000
     atom   12 type  2   force =     0.00000000    0.00000000    0.00000000
     atom   13 type  2   force =     0.00000000    0.00000000    0.00000000
     atom   14 type  2   force =     0.00000000    0.00000000    0.00000000
     atom   15 type  2   force =     0.00000000    0.00000000    0.00000000
     atom   16 type  2   force =     0.00000000    0.00000000    0.00000000
     atom   17 type  2   force =     0.00000000    0.00000000    0.00000000
     atom   18 type  2   force =     0.00000000    0.00000000    0.00000000
     atom   19 type  2   force =     0.00000000    0.00000000    0.00000000
     atom   20 type  2   force =     0.00000000    0.00000000    0.00000000
     atom   21 type  2   force =     0.00000000    0.00000000    0.00000000
     atom   22 type  2   force =     0.00000000    0.00000000    0.00000000
     atom   23 type  2   force =     0.00000000    0.00000000    0.00000000
     atom   24 type  2   force =     0.00000000    0.00000000    0.00000000
     atom   25 type  2   force =     0.00000000    0.00000000    0.00000000
     atom   26 type  2   force =     0.00000000    0.00000000    0.00000000
     atom   27 type  2   force =     0.00000000    0.00000000    0.00000000
     atom   28 type  2   force =     0.00000000    0.00000000    0.00000000
     atom   29 type  2   force =     0.00000000    0.00000000    0.00000000
     atom   30 type  2   force =     0.00000000    0.00000000    0.00000000
     atom   31 type  2   force =     0.00000000    0.00000000    0.00000000
     atom   32 type  2   force =     0.00000000    0.00000000    0.00000000
     atom   33 type  2   force =     0.00000000    0.00000000    0.00000000
     atom   34 type  2   force =     0.00000000    0.00000000    0.00000000
     atom   35 type  2   force =     0.00000000    0.00000000    0.00000000
     atom   36 type  2   force =     0.00000000    0.00000000    0.00000000
     atom   37 type  2   force =     0.00000000    0.00000000    0.00000000
     atom   38 type  2   force =     0.00000000    0.00000000    0.00000000
     atom   39 type  2   force =     0.00000000    0.00000000    0.00000000
     atom   40 type  2   force =     0.00000000    0.00000000    0.00000000
     atom   41 type  2   force =     0.00000000    0.00000000    0.00000000
     atom   42 type  2   force =     0.00000000    0.00000000    0.00000000
     atom   43 type  2   force =     0.00000000    0.00000000    0.00000000
     atom   44 type  2   force =     0.00000000    0.00000000    0.00000000
     atom   45 type  2   force =     0.00000000    0.00000000    0.00000000
     atom   46 type  2   force =     0.00000000    0.00000000    0.00000000
     atom   47 type  2   force =     0.00000000    0.00000000    0.00000000
     atom   48 type  2   force =     0.00000000    0.00000000    0.00000000
     atom   49 type  2   force =     0.00000000    0.00000000    0.00000000
     atom   50 type  2   force =     0.00000000    0.00000000    0.00000000
     atom   51 type  2   force =     0.00000000    0.00000000    0.00000000
     atom   52 type  2   force =     0.00000000    0.00000000    0.00000000
     atom   53 type  2   force =     0.00000000    0.00000000    0.00000000
     atom   54 type  2   force =     0.00000000    0.00000000    0.00000000
     atom   55 type  2   force =     0.00000000    0.00000000    0.00000000
     atom   56 type  2   force =     0.00000000    0.00000000    0.00000000
     atom   57 type  2   force =     0.00000000    0.00000000    0.00000000
     atom   58 type  2   force =     0.00000000    0.00000000    0.00000000
     atom   59 type  2   force =     0.00000000    0.00000000    0.00000000
     atom   60 type  2   force =     0.00000000    0.00000000    0.00000000
     atom   61 type  2   force =     0.00000000    0.00000000    0.00000000
     atom   62 type  2   force =     0.00000000    0.00000000    0.00000000
     atom   63 type  2   force =     0.00000000    0.00000000    0.00000000
     The SCF correction term to forces
     atom    1 type  1   force =     0.00001978   -0.00003082   -0.00004218
     atom    2 type  2   force =     0.00001018   -0.00000418   -0.00000860
     atom    3 type  2   force =     0.00001320    0.00001831    0.00001940
     atom    4 type  2   force =     0.00000408   -0.00002311   -0.00001498
     atom    5 type  2   force =    -0.00000223   -0.00001751    0.00000811
     atom    6 type  2   force =     0.00000347   -0.00000789   -0.00003137
     atom    7 type  2   force =    -0.00000450    0.00000554   -0.00003034
     atom    8 type  2   force =     0.00000947   -0.00001902    0.00003052
     atom    9 type  2   force =     0.00000501   -0.00001367    0.00003281
     atom   10 type  2   force =     0.00001634   -0.00000927    0.00001057
     atom   11 type  2   force =     0.00001390    0.00000226   -0.00001232
     atom   12 type  2   force =    -0.00000729   -0.00000992    0.00001328
     atom   13 type  2   force =    -0.00001221   -0.00000553   -0.00000609
     atom   14 type  2   force =     0.00000175   -0.00000300    0.00003279
     atom   15 type  2   force =    -0.00001303    0.00000162    0.00002628
     atom   16 type  2   force =     0.00001385    0.00002494   -0.00002746
     atom   17 type  2   force =     0.00000578    0.00002377   -0.00002409
     atom   18 type  2   force =     0.00001287    0.00000275   -0.00001336
     atom   19 type  2   force =     0.00000802   -0.00001515    0.00000598
     atom   20 type  2   force =     0.00000345    0.00002562   -0.00001004
     atom   21 type  2   force =    -0.00000952    0.00001717    0.00000204
     atom   22 type  2   force =    -0.00000838    0.00000569   -0.00001762
     atom   23 type  2   force =    -0.00000980   -0.00000903   -0.00001805
     atom   24 type  2   force =     0.00001865    0.00001995    0.00002480
     atom   25 type  2   force =     0.00000651    0.00001395    0.00002337
     atom   26 type  2   force =     0.00001819    0.00000783    0.00001466
     atom   27 type  2   force =     0.00000641   -0.00001115   -0.00001090
     atom   28 type  2   force =    -0.00000803    0.00000865    0.00001068
     atom   29 type  2   force =    -0.00001721    0.00001095   -0.00000175
     atom   30 type  2   force =    -0.00000580    0.00000247    0.00001698
     atom   31 type  2   force =    -0.00001444   -0.00000259    0.00002028
     atom   32 type  2   force =    -0.00001065   -0.00000964   -0.00001898
     atom   33 type  2   force =    -0.00000813   -0.00001424   -0.00002458
     atom   34 type  2   force =    -0.00000556   -0.00000466   -0.00001258
     atom   35 type  2   force =    -0.00000984    0.00000514    0.00000417
     atom   36 type  2   force =    -0.00000736   -0.00002051   -0.00000964
     atom   37 type  2   force =    -0.00000430   -0.00002335    0.00001798
     atom   38 type  2   force =    -0.00000903   -0.00000752   -0.00002729
     atom   39 type  2   force =    -0.00000364    0.00001603   -0.00003107
     atom   40 type  2   force =    -0.00000819   -0.00001053    0.00001849
     atom   41 type  2   force =    -0.00000574   -0.00001085    0.00002420
     atom   42 type  2   force =    -0.00001354   -0.00000956    0.00001350
     atom   43 type  2   force =    -0.00000918   -0.00000417   -0.00000210
     atom   44 type  2   force =     0.00000490   -0.00000598    0.00001072
     atom   45 type  2   force =     0.00000359   -0.00001160   -0.00001843
     atom   46 type  2   force =    -0.00000577   -0.00001109    0.00002453
     atom   47 type  2   force =     0.00001374   -0.00000014    0.00002593
     atom   48 type  2   force =    -0.00001170    0.00000977   -0.00001418
     atom   49 type  2   force =    -0.00000716    0.00001548   -0.00001611
     atom   50 type  2   force =    -0.00001103    0.00000415   -0.00001172
     atom   51 type  2   force =    -0.00000632   -0.00000548   -0.00000030
     atom   52 type  2   force =    -0.00000746    0.00002111   -0.00001314
     atom   53 type  2   force =     0.00001137    0.00002019    0.00000142
     atom   54 type  2   force =     0.00000593    0.00000534   -0.00001284
     atom   55 type  2   force =     0.00000348   -0.00001841   -0.00001909
     atom   56 type  2   force =    -0.00001446    0.00001205    0.00001465
     atom   57 type  2   force =    -0.00000818    0.00001314    0.00001608
     atom   58 type  2   force =    -0.00001477    0.00000811    0.00001112
     atom   59 type  2   force =    -0.00000330    0.00000132   -0.00000107
     atom   60 type  2   force =     0.00000473    0.00000949    0.00001529
     atom   61 type  2   force =     0.00001832    0.00001768   -0.00000053
     atom   62 type  2   force =     0.00000319    0.00000990    0.00001286
     atom   63 type  2   force =     0.00001555   -0.00000044    0.00002370

     Total force =     0.287966     Total SCF correction =     0.000200

     Writing all to output data dir ./pwscf.save/ :
     XML data file, charge density, pseudopotentials, collected wavefunctions
 
     init_run     :      0.60s CPU      0.66s WALL (       1 calls)
     electrons    :     10.93s CPU     11.15s WALL (       1 calls)
     forces       :      0.30s CPU      0.30s WALL (       1 calls)

     Called by init_run:
     wfcinit      :      0.11s CPU      0.14s WALL (       1 calls)
     wfcinit:wfcr :      0.10s CPU      0.11s WALL (       1 calls)
     potinit      :      0.40s CPU      0.40s WALL (       1 calls)
     hinit0       :      0.02s CPU      0.03s WALL (       1 calls)

     Called by electrons:
     c_bands      :      8.52s CPU      8.67s WALL (      14 calls)
     sum_band     :      1.06s CPU      1.07s WALL (      14 calls)
     v_of_rho     :      0.81s CPU      0.81s WALL (      15 calls)
     v_h          :      0.13s CPU      0.13s WALL (      15 calls)
     v_xc         :      0.67s CPU      0.68s WALL (      15 calls)
     mix_rho      :      0.17s CPU      0.17s WALL (      14 calls)

     Called by c_bands:
     init_us_2    :      0.02s CPU      0.02s WALL (      30 calls)
     regterg      :      8.35s CPU      8.49s WALL (      15 calls)

     Called by sum_band:
     sum_band:wei :      0.07s CPU      0.07s WALL (      14 calls)
     sum_band:loo :      0.88s CPU      0.89s WALL (      14 calls)
     sum_band:buf :      0.00s CPU      0.00s WALL (      14 calls)
     sum_band:ini :      0.01s CPU      0.01s WALL (      14 calls)

     Called by *egterg:
     rdiaghg      :      4.34s CPU      4.44s WALL (     285 calls)
     regterg:over :      0.29s CPU      0.30s WALL (     270 calls)
     regterg:upda :      0.14s CPU      0.14s WALL (     270 calls)
     regterg:last :      0.14s CPU      0.14s WALL (      56 calls)
     rdiaghg:chol :      0.15s CPU      0.15s WALL (     285 calls)
     rdiaghg:inve :      0.03s CPU      0.03s WALL (     285 calls)
     rdiaghg:para :      0.40s CPU      0.42s WALL (     570 calls)
     h_psi        :      3.36s CPU      3.40s WALL (     286 calls)
     g_psi        :      0.00s CPU      0.00s WALL (     270 calls)

     Called by h_psi:
     h_psi:calbec :      0.79s CPU      0.79s WALL (     286 calls)
     vloc_psi     :      2.46s CPU      2.49s WALL (     286 calls)
                                        0.00s GPU  (     286 calls)
     add_vuspsi   :      0.11s CPU      0.11s WALL (     286 calls)

     General routines
     calbec       :      1.03s CPU      1.03s WALL (     290 calls)
     fft          :      0.50s CPU      0.51s WALL (     196 calls)
     ffts         :      0.02s CPU      0.02s WALL (      14 calls)
     fftw         :      3.23s CPU      3.26s WALL (   10530 calls)
 
     Parallel routines
 
     PWSCF        :     14.20s CPU     14.69s WALL

 
   This run was terminated on:  22:46:35  15Nov2025            

=------------------------------------------------------------------------------=
   JOB DONE.
=------------------------------------------------------------------------------=
