
     Program PWSCF v.7.5 starts on 15Nov2025 at 22:58:50 

     This program is part of the open-source Quantum ESPRESSO suite
     for quantum simulation of materials; please cite
         "P. Giannozzi et al., J. Phys.:Condens. Matter 21 395502 (2009);
         "P. Giannozzi et al., J. Phys.:Condens. Matter 29 465901 (2017);
         "P. Giannozzi et al., J. Chem. Phys. 152 154105 (2020);
          URL http://www.quantum-espresso.org", 
     in publications or presentations arising from this work. More details at
     http://www.quantum-espresso.org/quote

     Parallel version (MPI), running on    96 processors

     MPI processes distributed on     2 nodes
     175231 MiB available memory on the printing compute node when the environment starts
 
     Reading input from run-supercell-068.in

     Current dimensions of program PWSCF are:
     Max number of different atomic species (ntypx) = 10
     Max number of k-points (npk) =  40000
     Max angular momentum in pseudopotentials (lmaxx) =  4

     gamma-point specific algorithms are used
     Message from routine setup:
     using ibrav=0 with symmetry is DISCOURAGED, use correct ibrav instead
 
     K-points division:     npool     =       2
     R & G space division:  proc/nbgrp/npool/nimage =      48
     Subspace diagonalization in iterative solution of the eigenvalue problem:
     one sub-group per band group will be used
     scalapack distributed-memory algorithm (size of sub-group:  2*  2 procs)

 
     Parallelization info
     --------------------
     sticks:   dense  smooth     PW     G-vecs:    dense   smooth      PW
     Min          59      59     14                 2432     2432     302
     Max          62      62     16                 2442     2442     316
     Sum        2885    2885    725               116921   116921   14771
 
     Using Slab Decomposition
 


     bravais-lattice index     =            0
     lattice parameter (alat)  =      13.4813  a.u.
     unit-cell volume          =    2450.1683 (a.u.)^3
     number of atoms/cell      =           63
     number of atomic types    =            2
     number of electrons       =       254.00 (up: 128.00, down: 126.00)
     number of Kohn-Sham states=          152
     kinetic-energy cutoff     =      50.0000  Ry
     charge density cutoff     =     200.0000  Ry
     scf convergence threshold =      1.0E-08
     mixing beta               =       0.7000
     number of iterations used =            8  plain     mixing
     Exchange-correlation= PBE
                           (   1   4   3   4   0   0   0)

     celldm(1)=  13.481306  celldm(2)=   0.000000  celldm(3)=   0.000000
     celldm(4)=   0.000000  celldm(5)=   0.000000  celldm(6)=   0.000000

     crystal axes: (cart. coord. in units of alat)
               a(1) = (   1.000000   0.000000   0.000000 )  
               a(2) = (   0.000000   1.000000   0.000000 )  
               a(3) = (   0.000000   0.000000   1.000000 )  

     reciprocal axes: (cart. coord. in units 2 pi/alat)
               b(1) = (  1.000000  0.000000  0.000000 )  
               b(2) = (  0.000000  1.000000  0.000000 )  
               b(3) = (  0.000000  0.000000  1.000000 )  


     PseudoPot. # 1 for N  read from file:
     ./N_ONCV_PBE-1.2.upf
     MD5 check sum: 5312fdf34e96954e02a33bdc911c617a
     Pseudo is Norm-conserving, Zval =  5.0
     Generated using ONCVPSP code by D. R. Hamann
     Using radial grid of  602 points,  4 beta functions with: 
                l(1) =   0
                l(2) =   0
                l(3) =   1
                l(4) =   1

     PseudoPot. # 2 for C  read from file:
     ./C_ONCV_PBE-1.2.upf
     MD5 check sum: d60b57d9bdca4133f5fde4b584ee909d
     Pseudo is Norm-conserving, Zval =  4.0
     Generated using ONCVPSP code by D. R. Hamann
     Using radial grid of  602 points,  4 beta functions with: 
                l(1) =   0
                l(2) =   0
                l(3) =   1
                l(4) =   1

     atomic species   valence    mass     pseudopotential
     N                 5.00    14.00670     N ( 1.00)
     C                 4.00    12.01070     C ( 1.00)

     Starting magnetic structure 
     atomic species   magnetization
     N               0.000
     C               0.000

      2 Sym. Ops. (no inversion) found


                                    s                        frac. trans.

      isym =  1     identity                                     

 cryst.   s( 1) = (     1          0          0      )
                  (     0          1          0      )
                  (     0          0          1      )

 cart.    s( 1) = (  1.0000000  0.0000000  0.0000000 )
                  (  0.0000000  1.0000000  0.0000000 )
                  (  0.0000000  0.0000000  1.0000000 )


      isym =  2     inv. 180 deg rotation - cart. axis [0,1,-1]  

 cryst.   s( 2) = (     1          0          0      )
                  (     0          0          1      )
                  (     0          1          0      )

 cart.    s( 2) = (  1.0000000  0.0000000  0.0000000 )
                  (  0.0000000  0.0000000  1.0000000 )
                  (  0.0000000  1.0000000  0.0000000 )


   Cartesian axes

     site n.     atom                  positions (alat units)
         1        N      tau(   1) = (   0.0000000   0.0000000   0.0000000  )
         2        C      tau(   2) = (   0.0000000   0.2500000   0.2500000  )
         3        C      tau(   3) = (   0.1250000   0.3750000   0.3750000  )
         4        C      tau(   4) = (   0.2500000   0.0000000   0.2500000  )
         5        C      tau(   5) = (   0.3750000   0.1250000   0.3750000  )
         6        C      tau(   6) = (   0.2500000   0.2500000   0.0000000  )
         7        C      tau(   7) = (   0.3750000   0.3750000   0.1250000  )
         8        C      tau(   8) = (   0.0000000   0.0000000   0.5000000  )
         9        C      tau(   9) = (   0.1250000   0.1250000   0.6250000  )
        10        C      tau(  10) = (   0.0000000   0.2500000   0.7500000  )
        11        C      tau(  11) = (   0.1250000   0.3750000   0.8750000  )
        12        C      tau(  12) = (   0.2500000   0.0000000   0.7500000  )
        13        C      tau(  13) = (   0.3750000   0.1250000   0.8750000  )
        14        C      tau(  14) = (   0.2500000   0.2500000   0.5000000  )
        15        C      tau(  15) = (   0.3750000   0.3750000   0.6250000  )
        16        C      tau(  16) = (   0.0000000   0.5000000   0.0000000  )
        17        C      tau(  17) = (   0.1250000   0.6250000   0.1250000  )
        18        C      tau(  18) = (   0.0000000   0.7500000   0.2500000  )
        19        C      tau(  19) = (   0.1250000   0.8750000   0.3750000  )
        20        C      tau(  20) = (   0.2500000   0.5000000   0.2500000  )
        21        C      tau(  21) = (   0.3750000   0.6250000   0.3750000  )
        22        C      tau(  22) = (   0.2500000   0.7500000   0.0000000  )
        23        C      tau(  23) = (   0.3750000   0.8750000   0.1250000  )
        24        C      tau(  24) = (   0.0000000   0.5000000   0.5000000  )
        25        C      tau(  25) = (   0.1250000   0.6250000   0.6250000  )
        26        C      tau(  26) = (   0.0000000   0.7500000   0.7500000  )
        27        C      tau(  27) = (   0.1250000   0.8750000   0.8750000  )
        28        C      tau(  28) = (   0.2500000   0.5000000   0.7500000  )
        29        C      tau(  29) = (   0.3750000   0.6250000   0.8750000  )
        30        C      tau(  30) = (   0.2500000   0.7500000   0.5000000  )
        31        C      tau(  31) = (   0.3750000   0.8750000   0.6250000  )
        32        C      tau(  32) = (   0.5000000   0.0000000   0.0000000  )
        33        C      tau(  33) = (   0.6250000   0.1250000   0.1250000  )
        34        C      tau(  34) = (   0.5000000   0.2500000   0.2500000  )
        35        C      tau(  35) = (   0.6250000   0.3750000   0.3750000  )
        36        C      tau(  36) = (   0.7500000   0.0000000   0.2500000  )
        37        C      tau(  37) = (   0.8750000   0.1250000   0.3750000  )
        38        C      tau(  38) = (   0.7500000   0.2500000   0.0000000  )
        39        C      tau(  39) = (   0.8750000   0.3750000   0.1250000  )
        40        C      tau(  40) = (   0.5000000   0.0000000   0.5000000  )
        41        C      tau(  41) = (   0.6250000   0.1250000   0.6250000  )
        42        C      tau(  42) = (   0.5000000   0.2500000   0.7500000  )
        43        C      tau(  43) = (   0.6250000   0.3750000   0.8750000  )
        44        C      tau(  44) = (   0.7500000   0.0000000   0.7500000  )
        45        C      tau(  45) = (   0.8750000   0.1250000   0.8750000  )
        46        C      tau(  46) = (   0.7500000   0.2500000   0.5000000  )
        47        C      tau(  47) = (   0.8750000   0.3750000   0.6250000  )
        48        C      tau(  48) = (   0.5000000   0.5000000   0.0000000  )
        49        C      tau(  49) = (   0.6250000   0.6250000   0.1250000  )
        50        C      tau(  50) = (   0.5000000   0.7500000   0.2500000  )
        51        C      tau(  51) = (   0.6250000   0.8750000   0.3750000  )
        52        C      tau(  52) = (   0.7500000   0.5000000   0.2500000  )
        53        C      tau(  53) = (   0.8750000   0.6250000   0.3750000  )
        54        C      tau(  54) = (   0.7500000   0.7500000   0.0000000  )
        55        C      tau(  55) = (   0.8750000   0.8750000   0.1250000  )
        56        C      tau(  56) = (   0.4985165   0.5000000   0.5000000  )
        57        C      tau(  57) = (   0.6250000   0.6250000   0.6250000  )
        58        C      tau(  58) = (   0.5000000   0.7500000   0.7500000  )
        59        C      tau(  59) = (   0.6250000   0.8750000   0.8750000  )
        60        C      tau(  60) = (   0.7500000   0.5000000   0.7500000  )
        61        C      tau(  61) = (   0.8750000   0.6250000   0.8750000  )
        62        C      tau(  62) = (   0.7500000   0.7500000   0.5000000  )
        63        C      tau(  63) = (   0.8750000   0.8750000   0.6250000  )

   Crystallographic axes

     site n.     atom                  positions (cryst. coord.)
         1        N      tau(   1) = (  0.0000000  0.0000000  0.0000000  )
         2        C      tau(   2) = (  0.0000000  0.2500000  0.2500000  )
         3        C      tau(   3) = (  0.1250000  0.3750000  0.3750000  )
         4        C      tau(   4) = (  0.2500000  0.0000000  0.2500000  )
         5        C      tau(   5) = (  0.3750000  0.1250000  0.3750000  )
         6        C      tau(   6) = (  0.2500000  0.2500000  0.0000000  )
         7        C      tau(   7) = (  0.3750000  0.3750000  0.1250000  )
         8        C      tau(   8) = (  0.0000000  0.0000000  0.5000000  )
         9        C      tau(   9) = (  0.1250000  0.1250000  0.6250000  )
        10        C      tau(  10) = (  0.0000000  0.2500000  0.7500000  )
        11        C      tau(  11) = (  0.1250000  0.3750000  0.8750000  )
        12        C      tau(  12) = (  0.2500000  0.0000000  0.7500000  )
        13        C      tau(  13) = (  0.3750000  0.1250000  0.8750000  )
        14        C      tau(  14) = (  0.2500000  0.2500000  0.5000000  )
        15        C      tau(  15) = (  0.3750000  0.3750000  0.6250000  )
        16        C      tau(  16) = (  0.0000000  0.5000000  0.0000000  )
        17        C      tau(  17) = (  0.1250000  0.6250000  0.1250000  )
        18        C      tau(  18) = (  0.0000000  0.7500000  0.2500000  )
        19        C      tau(  19) = (  0.1250000  0.8750000  0.3750000  )
        20        C      tau(  20) = (  0.2500000  0.5000000  0.2500000  )
        21        C      tau(  21) = (  0.3750000  0.6250000  0.3750000  )
        22        C      tau(  22) = (  0.2500000  0.7500000  0.0000000  )
        23        C      tau(  23) = (  0.3750000  0.8750000  0.1250000  )
        24        C      tau(  24) = (  0.0000000  0.5000000  0.5000000  )
        25        C      tau(  25) = (  0.1250000  0.6250000  0.6250000  )
        26        C      tau(  26) = (  0.0000000  0.7500000  0.7500000  )
        27        C      tau(  27) = (  0.1250000  0.8750000  0.8750000  )
        28        C      tau(  28) = (  0.2500000  0.5000000  0.7500000  )
        29        C      tau(  29) = (  0.3750000  0.6250000  0.8750000  )
        30        C      tau(  30) = (  0.2500000  0.7500000  0.5000000  )
        31        C      tau(  31) = (  0.3750000  0.8750000  0.6250000  )
        32        C      tau(  32) = (  0.5000000  0.0000000  0.0000000  )
        33        C      tau(  33) = (  0.6250000  0.1250000  0.1250000  )
        34        C      tau(  34) = (  0.5000000  0.2500000  0.2500000  )
        35        C      tau(  35) = (  0.6250000  0.3750000  0.3750000  )
        36        C      tau(  36) = (  0.7500000  0.0000000  0.2500000  )
        37        C      tau(  37) = (  0.8750000  0.1250000  0.3750000  )
        38        C      tau(  38) = (  0.7500000  0.2500000  0.0000000  )
        39        C      tau(  39) = (  0.8750000  0.3750000  0.1250000  )
        40        C      tau(  40) = (  0.5000000  0.0000000  0.5000000  )
        41        C      tau(  41) = (  0.6250000  0.1250000  0.6250000  )
        42        C      tau(  42) = (  0.5000000  0.2500000  0.7500000  )
        43        C      tau(  43) = (  0.6250000  0.3750000  0.8750000  )
        44        C      tau(  44) = (  0.7500000  0.0000000  0.7500000  )
        45        C      tau(  45) = (  0.8750000  0.1250000  0.8750000  )
        46        C      tau(  46) = (  0.7500000  0.2500000  0.5000000  )
        47        C      tau(  47) = (  0.8750000  0.3750000  0.6250000  )
        48        C      tau(  48) = (  0.5000000  0.5000000  0.0000000  )
        49        C      tau(  49) = (  0.6250000  0.6250000  0.1250000  )
        50        C      tau(  50) = (  0.5000000  0.7500000  0.2500000  )
        51        C      tau(  51) = (  0.6250000  0.8750000  0.3750000  )
        52        C      tau(  52) = (  0.7500000  0.5000000  0.2500000  )
        53        C      tau(  53) = (  0.8750000  0.6250000  0.3750000  )
        54        C      tau(  54) = (  0.7500000  0.7500000  0.0000000  )
        55        C      tau(  55) = (  0.8750000  0.8750000  0.1250000  )
        56        C      tau(  56) = (  0.4985165  0.5000000  0.5000000  )
        57        C      tau(  57) = (  0.6250000  0.6250000  0.6250000  )
        58        C      tau(  58) = (  0.5000000  0.7500000  0.7500000  )
        59        C      tau(  59) = (  0.6250000  0.8750000  0.8750000  )
        60        C      tau(  60) = (  0.7500000  0.5000000  0.7500000  )
        61        C      tau(  61) = (  0.8750000  0.6250000  0.8750000  )
        62        C      tau(  62) = (  0.7500000  0.7500000  0.5000000  )
        63        C      tau(  63) = (  0.8750000  0.8750000  0.6250000  )

     number of k points=     1
                       cart. coord. in units 2pi/alat
        k(    1) = (   0.0000000   0.0000000   0.0000000), wk =   1.0000000

                       cryst. coord.
        k(    1) = (   0.0000000   0.0000000   0.0000000), wk =   1.0000000

     Dense  grid:    58461 G-vectors     FFT dimensions: (  64,  64,  64)

     Dynamical RAM for                 wfc:       0.35 MB

     Dynamical RAM for     wfc (w. buffer):       0.35 MB

     Dynamical RAM for           str. fact:       0.04 MB

     Dynamical RAM for           local pot:       0.00 MB

     Dynamical RAM for          nlocal pot:       1.17 MB

     Dynamical RAM for                qrad:       0.65 MB

     Dynamical RAM for          rho,v,vnew:       0.49 MB

     Dynamical RAM for               rhoin:       0.16 MB

     Dynamical RAM for            rho*nmix:       0.60 MB

     Dynamical RAM for           G-vectors:       0.08 MB

     Dynamical RAM for          h,s,v(r/c):       0.53 MB

     Dynamical RAM for          <psi|beta>:       0.58 MB

     Dynamical RAM for                 psi:       0.71 MB

     Dynamical RAM for                hpsi:       0.71 MB

     Dynamical RAM for      wfcinit/wfcrot:       1.24 MB

     Estimated static dynamical RAM per process >       3.37 MB

     Estimated max dynamical RAM per process >       6.49 MB

     Estimated total dynamical RAM >     594.05 MB
     Generating pointlists ...
     new r_m :   0.0893 (alat units)  1.2040 (a.u.) for type    1
     new r_m :   0.0890 (alat units)  1.1993 (a.u.) for type    2

     Initial potential from superposition of free atoms

     starting charge     252.5655, renormalised to     254.0000
     Starting wfcs are random

     total cpu time spent up to now is        1.1 secs

     Self-consistent Calculation

     iteration #  1     ecut=    50.00 Ry     beta= 0.70
     Davidson diagonalization with overlap

---- Real-time Memory Report at c_bands before calling an iterative solver
           158 MiB given to the printing process from OS
             0 MiB allocation reported by mallinfo(arena+hblkhd)
        174243 MiB available memory on the node where the printing process lives
------------------
     ethr =  1.00E-02,  avg # of iterations = 12.0

     total cpu time spent up to now is        1.8 secs

     total energy              =    -723.25767084 Ry
     estimated scf accuracy    <       3.60973264 Ry

     total magnetization       =     2.00 Bohr mag/cell
     absolute magnetization    =     2.00 Bohr mag/cell

     iteration #  2     ecut=    50.00 Ry     beta= 0.70
     Davidson diagonalization with overlap

---- Real-time Memory Report at c_bands before calling an iterative solver
           163 MiB given to the printing process from OS
             0 MiB allocation reported by mallinfo(arena+hblkhd)
        174189 MiB available memory on the node where the printing process lives
------------------
     ethr =  1.42E-03,  avg # of iterations = 12.5

     total cpu time spent up to now is        3.1 secs

     total energy              =    -723.64071039 Ry
     estimated scf accuracy    <       0.37154553 Ry

     total magnetization       =     2.00 Bohr mag/cell
     absolute magnetization    =     2.06 Bohr mag/cell

     iteration #  3     ecut=    50.00 Ry     beta= 0.70
     Davidson diagonalization with overlap

---- Real-time Memory Report at c_bands before calling an iterative solver
           164 MiB given to the printing process from OS
             0 MiB allocation reported by mallinfo(arena+hblkhd)
        174191 MiB available memory on the node where the printing process lives
------------------
     c_bands:  3 eigenvalues not converged
     ethr =  1.46E-04,  avg # of iterations = 20.0

     total cpu time spent up to now is        4.1 secs

     total energy              =    -723.67740834 Ry
     estimated scf accuracy    <       0.79630471 Ry

     total magnetization       =     2.00 Bohr mag/cell
     absolute magnetization    =     2.10 Bohr mag/cell

     iteration #  4     ecut=    50.00 Ry     beta= 0.70
     Davidson diagonalization with overlap

---- Real-time Memory Report at c_bands before calling an iterative solver
           165 MiB given to the printing process from OS
             0 MiB allocation reported by mallinfo(arena+hblkhd)
        174196 MiB available memory on the node where the printing process lives
------------------
     ethr =  1.46E-04,  avg # of iterations = 15.0

     total cpu time spent up to now is        4.7 secs

     total energy              =    -723.83792240 Ry
     estimated scf accuracy    <       0.00807663 Ry

     total magnetization       =     2.00 Bohr mag/cell
     absolute magnetization    =     2.15 Bohr mag/cell

     iteration #  5     ecut=    50.00 Ry     beta= 0.70
     Davidson diagonalization with overlap

---- Real-time Memory Report at c_bands before calling an iterative solver
           165 MiB given to the printing process from OS
             0 MiB allocation reported by mallinfo(arena+hblkhd)
        174192 MiB available memory on the node where the printing process lives
------------------
     ethr =  3.18E-06,  avg # of iterations = 27.0

     total cpu time spent up to now is        5.2 secs

     total energy              =    -723.84127146 Ry
     estimated scf accuracy    <       0.00400742 Ry

     total magnetization       =     2.00 Bohr mag/cell
     absolute magnetization    =     2.17 Bohr mag/cell

     iteration #  6     ecut=    50.00 Ry     beta= 0.70
     Davidson diagonalization with overlap

---- Real-time Memory Report at c_bands before calling an iterative solver
           165 MiB given to the printing process from OS
             0 MiB allocation reported by mallinfo(arena+hblkhd)
        174187 MiB available memory on the node where the printing process lives
------------------
     c_bands:  1 eigenvalues not converged
     ethr =  1.58E-06,  avg # of iterations = 20.0

     total cpu time spent up to now is        5.7 secs

     total energy              =    -723.84201189 Ry
     estimated scf accuracy    <       0.00053989 Ry

     total magnetization       =     2.00 Bohr mag/cell
     absolute magnetization    =     2.19 Bohr mag/cell

     iteration #  7     ecut=    50.00 Ry     beta= 0.70
     Davidson diagonalization with overlap

---- Real-time Memory Report at c_bands before calling an iterative solver
           165 MiB given to the printing process from OS
             0 MiB allocation reported by mallinfo(arena+hblkhd)
        174192 MiB available memory on the node where the printing process lives
------------------
     c_bands:  2 eigenvalues not converged
     ethr =  2.13E-07,  avg # of iterations = 20.0

     total cpu time spent up to now is        6.2 secs

     total energy              =    -723.84217216 Ry
     estimated scf accuracy    <       0.00005382 Ry

     total magnetization       =     2.00 Bohr mag/cell
     absolute magnetization    =     2.20 Bohr mag/cell

     iteration #  8     ecut=    50.00 Ry     beta= 0.70
     Davidson diagonalization with overlap

---- Real-time Memory Report at c_bands before calling an iterative solver
           165 MiB given to the printing process from OS
             0 MiB allocation reported by mallinfo(arena+hblkhd)
        174182 MiB available memory on the node where the printing process lives
------------------
     ethr =  2.12E-08,  avg # of iterations = 18.5

     total cpu time spent up to now is        6.7 secs

     total energy              =    -723.84219202 Ry
     estimated scf accuracy    <       0.00001265 Ry

     total magnetization       =     2.00 Bohr mag/cell
     absolute magnetization    =     2.20 Bohr mag/cell

     iteration #  9     ecut=    50.00 Ry     beta= 0.70
     Davidson diagonalization with overlap

---- Real-time Memory Report at c_bands before calling an iterative solver
           165 MiB given to the printing process from OS
             0 MiB allocation reported by mallinfo(arena+hblkhd)
        174183 MiB available memory on the node where the printing process lives
------------------
     c_bands:  1 eigenvalues not converged
     ethr =  4.98E-09,  avg # of iterations = 20.0

     total cpu time spent up to now is        7.3 secs

     total energy              =    -723.84219698 Ry
     estimated scf accuracy    <       0.00000190 Ry

     total magnetization       =     2.00 Bohr mag/cell
     absolute magnetization    =     2.21 Bohr mag/cell

     iteration # 10     ecut=    50.00 Ry     beta= 0.70
     Davidson diagonalization with overlap

---- Real-time Memory Report at c_bands before calling an iterative solver
           166 MiB given to the printing process from OS
             0 MiB allocation reported by mallinfo(arena+hblkhd)
        174177 MiB available memory on the node where the printing process lives
------------------
     c_bands:  1 eigenvalues not converged
     ethr =  7.47E-10,  avg # of iterations = 20.0

     total cpu time spent up to now is        8.4 secs

     total energy              =    -723.84219821 Ry
     estimated scf accuracy    <       0.00000066 Ry

     total magnetization       =     2.00 Bohr mag/cell
     absolute magnetization    =     2.21 Bohr mag/cell

     iteration # 11     ecut=    50.00 Ry     beta= 0.70
     Davidson diagonalization with overlap

---- Real-time Memory Report at c_bands before calling an iterative solver
           166 MiB given to the printing process from OS
             0 MiB allocation reported by mallinfo(arena+hblkhd)
        174185 MiB available memory on the node where the printing process lives
------------------
     c_bands:  1 eigenvalues not converged
     ethr =  2.59E-10,  avg # of iterations = 20.0

     total cpu time spent up to now is        9.1 secs

     total energy              =    -723.84219850 Ry
     estimated scf accuracy    <       0.00000017 Ry

     total magnetization       =     2.00 Bohr mag/cell
     absolute magnetization    =     2.22 Bohr mag/cell

     iteration # 12     ecut=    50.00 Ry     beta= 0.70
     Davidson diagonalization with overlap

---- Real-time Memory Report at c_bands before calling an iterative solver
           166 MiB given to the printing process from OS
             0 MiB allocation reported by mallinfo(arena+hblkhd)
        174188 MiB available memory on the node where the printing process lives
------------------
     c_bands:  1 eigenvalues not converged
     ethr =  6.61E-11,  avg # of iterations = 19.0

     total cpu time spent up to now is       10.3 secs

     total energy              =    -723.84219857 Ry
     estimated scf accuracy    <       0.00000005 Ry

     total magnetization       =     2.00 Bohr mag/cell
     absolute magnetization    =     2.22 Bohr mag/cell

     iteration # 13     ecut=    50.00 Ry     beta= 0.70
     Davidson diagonalization with overlap

---- Real-time Memory Report at c_bands before calling an iterative solver
           166 MiB given to the printing process from OS
             0 MiB allocation reported by mallinfo(arena+hblkhd)
        174186 MiB available memory on the node where the printing process lives
------------------
     c_bands:  2 eigenvalues not converged
     ethr =  2.04E-11,  avg # of iterations = 20.0

     total cpu time spent up to now is       10.9 secs

     total energy              =    -723.84219860 Ry
     estimated scf accuracy    <       0.00000001 Ry

     total magnetization       =     2.00 Bohr mag/cell
     absolute magnetization    =     2.22 Bohr mag/cell

     iteration # 14     ecut=    50.00 Ry     beta= 0.70
     Davidson diagonalization with overlap

---- Real-time Memory Report at c_bands before calling an iterative solver
           166 MiB given to the printing process from OS
             0 MiB allocation reported by mallinfo(arena+hblkhd)
        174186 MiB available memory on the node where the printing process lives
------------------
     c_bands:  2 eigenvalues not converged
     ethr =  4.91E-12,  avg # of iterations = 20.0
 
     Magnetic moment per site  (integrated on atomic sphere of radius R)
     atom   1 (R=0.089)  charge=  3.0643  magn=  0.0033
     atom   2 (R=0.089)  charge=  1.9366  magn=  0.2838
     atom   3 (R=0.089)  charge=  1.9970  magn= -0.0081
     atom   4 (R=0.089)  charge=  1.9366  magn=  0.2838
     atom   5 (R=0.089)  charge=  1.9970  magn= -0.0081
     atom   6 (R=0.089)  charge=  1.9366  magn=  0.2838
     atom   7 (R=0.089)  charge=  1.9970  magn= -0.0081
     atom   8 (R=0.089)  charge=  2.0043  magn=  0.0061
     atom   9 (R=0.089)  charge=  2.0035  magn= -0.0016
     atom  10 (R=0.089)  charge=  2.0048  magn=  0.0042
     atom  11 (R=0.089)  charge=  1.9955  magn=  0.0018
     atom  12 (R=0.089)  charge=  2.0048  magn=  0.0042
     atom  13 (R=0.089)  charge=  1.9954  magn=  0.0018
     atom  14 (R=0.089)  charge=  2.0037  magn=  0.0064
     atom  15 (R=0.089)  charge=  2.0079  magn= -0.0016
     atom  16 (R=0.089)  charge=  2.0043  magn=  0.0061
     atom  17 (R=0.089)  charge=  2.0035  magn= -0.0016
     atom  18 (R=0.089)  charge=  2.0048  magn=  0.0042
     atom  19 (R=0.089)  charge=  1.9955  magn=  0.0018
     atom  20 (R=0.089)  charge=  2.0037  magn=  0.0064
     atom  21 (R=0.089)  charge=  2.0079  magn= -0.0016
     atom  22 (R=0.089)  charge=  2.0048  magn=  0.0042
     atom  23 (R=0.089)  charge=  1.9954  magn=  0.0018
     atom  24 (R=0.089)  charge=  2.0048  magn=  0.0148
     atom  25 (R=0.089)  charge=  2.0062  magn=  0.0083
     atom  26 (R=0.089)  charge=  2.0083  magn=  0.0027
     atom  27 (R=0.089)  charge=  1.9600  magn=  0.0017
     atom  28 (R=0.089)  charge=  2.0051  magn=  0.0183
     atom  29 (R=0.089)  charge=  2.0046  magn= -0.0010
     atom  30 (R=0.089)  charge=  2.0051  magn=  0.0183
     atom  31 (R=0.089)  charge=  2.0046  magn= -0.0010
     atom  32 (R=0.089)  charge=  2.0043  magn=  0.0061
     atom  33 (R=0.089)  charge=  2.0035  magn= -0.0016
     atom  34 (R=0.089)  charge=  2.0036  magn=  0.0064
     atom  35 (R=0.089)  charge=  2.0034  magn= -0.0016
     atom  36 (R=0.089)  charge=  2.0048  magn=  0.0042
     atom  37 (R=0.089)  charge=  1.9954  magn=  0.0019
     atom  38 (R=0.089)  charge=  2.0048  magn=  0.0042
     atom  39 (R=0.089)  charge=  1.9954  magn=  0.0018
     atom  40 (R=0.089)  charge=  2.0048  magn=  0.0148
     atom  41 (R=0.089)  charge=  2.0061  magn=  0.0083
     atom  42 (R=0.089)  charge=  2.0049  magn=  0.0183
     atom  43 (R=0.089)  charge=  2.0046  magn= -0.0010
     atom  44 (R=0.089)  charge=  2.0083  magn=  0.0027
     atom  45 (R=0.089)  charge=  1.9600  magn=  0.0017
     atom  46 (R=0.089)  charge=  2.0049  magn=  0.0183
     atom  47 (R=0.089)  charge=  2.0046  magn= -0.0010
     atom  48 (R=0.089)  charge=  2.0048  magn=  0.0148
     atom  49 (R=0.089)  charge=  2.0061  magn=  0.0083
     atom  50 (R=0.089)  charge=  2.0049  magn=  0.0183
     atom  51 (R=0.089)  charge=  2.0046  magn= -0.0010
     atom  52 (R=0.089)  charge=  2.0049  magn=  0.0183
     atom  53 (R=0.089)  charge=  2.0046  magn= -0.0010
     atom  54 (R=0.089)  charge=  2.0083  magn=  0.0027
     atom  55 (R=0.089)  charge=  1.9600  magn=  0.0017
     atom  56 (R=0.089)  charge=  2.0052  magn=  0.0009
     atom  57 (R=0.089)  charge=  2.0035  magn=  0.0010
     atom  58 (R=0.089)  charge=  2.0056  magn=  0.0016
     atom  59 (R=0.089)  charge=  2.0060  magn= -0.0008
     atom  60 (R=0.089)  charge=  2.0054  magn=  0.0016
     atom  61 (R=0.089)  charge=  2.0060  magn= -0.0008
     atom  62 (R=0.089)  charge=  2.0054  magn=  0.0016
     atom  63 (R=0.089)  charge=  2.0060  magn= -0.0008

     total cpu time spent up to now is       11.7 secs

     End of self-consistent calculation

 ------ SPIN UP ------------


          k = 0.0000 0.0000 0.0000 (  7386 PWs)   bands (ev):

    -8.4772  -6.5776  -6.2438  -6.2435  -6.1479  -6.1472  -5.8402  -4.6805
    -4.0884  -4.0851  -4.0536  -4.0536  -4.0439  -3.9825  -3.9817  -3.9303
    -3.7826  -3.7819  -3.3417  -2.9084  -2.6008  -2.5982  -1.9288  -0.3395
    -0.2908  -0.2905  -0.2491   0.0139   0.2378   0.2413   0.2943   0.2958
     0.3673   0.6427   0.9432   0.9506   0.9587   1.0100   1.0106   1.0906
     1.0995   1.1016   1.4550   1.4556   2.9638   4.0960   4.1908   4.2007
     4.2685   4.2690   4.2856   4.3311   4.3360   4.3368   4.4486   4.4495
     4.5788   4.5797   4.6310   4.6850   4.6860   4.7205   4.7395   4.7913
     4.7918   4.8776   4.8979   4.9015   5.1869   5.3477   5.3564   5.3833
     5.3884   5.4053   5.4092   5.5391   5.5404   6.0241   6.0251   6.0546
     6.7039   6.7062   6.7683   7.1318   7.1436   7.1436   7.2725   8.4444
     8.4594   8.4620   8.5545   8.5555   8.7647   8.7665   8.8560   8.8566
     8.8738   8.9151   9.0058   9.0062   9.0370   9.3185   9.3211   9.3734
     9.9076   9.9219   9.9346   9.9510   9.9519   9.9538  10.0017  10.0029
    10.0134  10.0137  10.0393  10.0405  10.1849  10.1939  10.3807  10.4117
    10.4548  10.4562  12.3086  12.4969  12.5034  13.9253  14.8518  14.8524
    17.2037  17.4322  17.4426  17.5379  17.5404  17.5432  17.7438  17.9204
    17.9248  17.9980  18.0057  18.3157  18.8218  18.8251  18.9103  20.4873
    20.8801  20.8934  20.9414  20.9422  20.9424  20.9982  20.9983  21.0389

     occupation numbers 
     1.0000   1.0000   1.0000   1.0000   1.0000   1.0000   1.0000   1.0000
     1.0000   1.0000   1.0000   1.0000   1.0000   1.0000   1.0000   1.0000
     1.0000   1.0000   1.0000   1.0000   1.0000   1.0000   1.0000   1.0000
     1.0000   1.0000   1.0000   1.0000   1.0000   1.0000   1.0000   1.0000
     1.0000   1.0000   1.0000   1.0000   1.0000   1.0000   1.0000   1.0000
     1.0000   1.0000   1.0000   1.0000   1.0000   1.0000   1.0000   1.0000
     1.0000   1.0000   1.0000   1.0000   1.0000   1.0000   1.0000   1.0000
     1.0000   1.0000   1.0000   1.0000   1.0000   1.0000   1.0000   1.0000
     1.0000   1.0000   1.0000   1.0000   1.0000   1.0000   1.0000   1.0000
     1.0000   1.0000   1.0000   1.0000   1.0000   1.0000   1.0000   1.0000
     1.0000   1.0000   1.0000   1.0000   1.0000   1.0000   1.0000   1.0000
     1.0000   1.0000   1.0000   1.0000   1.0000   1.0000   1.0000   1.0000
     1.0000   1.0000   1.0000   1.0000   1.0000   1.0000   1.0000   1.0000
     1.0000   1.0000   1.0000   1.0000   1.0000   1.0000   1.0000   1.0000
     1.0000   1.0000   1.0000   1.0000   1.0000   1.0000   1.0000   1.0000
     1.0000   1.0000   1.0000   1.0000   1.0000   1.0000   1.0000   1.0000
     0.0000   0.0000   0.0000   0.0000   0.0000   0.0000   0.0000   0.0000
     0.0000   0.0000   0.0000   0.0000   0.0000   0.0000   0.0000   0.0000
     0.0000   0.0000   0.0000   0.0000   0.0000   0.0000   0.0000   0.0000

 ------ SPIN DOWN ----------


          k = 0.0000 0.0000 0.0000 (  7386 PWs)   bands (ev):

    -8.4568  -6.5662  -6.2279  -6.2276  -6.1199  -6.1192  -5.8082  -4.6652
    -4.0736  -4.0702  -4.0401  -4.0400  -4.0229  -3.9629  -3.9620  -3.9214
    -3.7233  -3.7225  -3.3006  -2.8938  -2.5492  -2.5466  -1.7955  -0.3229
    -0.2732  -0.2729  -0.2278   0.0713   0.2529   0.2565   0.3220   0.3235
     0.3869   0.6789   0.9546   0.9622   0.9859   1.0281   1.0287   1.1083
     1.1143   1.1161   1.6218   1.6224   3.0979   4.1342   4.2088   4.2183
     4.2793   4.2797   4.2987   4.3520   4.3601   4.3607   4.5151   4.5157
     4.5932   4.5942   4.6391   4.6977   4.6990   4.7363   4.7718   4.8220
     4.8228   4.8877   4.9327   4.9355   5.2600   5.3630   5.3716   5.4085
     5.4135   5.4157   5.4305   5.5917   5.5933   6.0846   6.0860   6.0942
     6.7273   6.7296   6.8015   7.1750   7.2349   7.2351   7.4963   8.4655
     8.4803   8.4936   8.5916   8.5927   8.7911   8.7926   8.8652   8.8660
     8.8891   8.9426   9.0527   9.0531   9.0834   9.3545   9.3574   9.4158
     9.9371   9.9507   9.9534   9.9585   9.9647   9.9656  10.0216  10.0221
    10.0413  10.0432  10.0502  10.0695  10.2188  10.2265  10.4987  10.5309
    10.5323  10.9147  12.5498  12.6432  12.6503  14.3921  16.3821  16.3821
    17.2365  17.4473  17.4577  17.5535  17.5790  17.5816  17.7710  17.9480
    17.9520  18.0438  18.0522  18.4120  18.8761  18.8791  18.9581  20.5387
    20.9109  20.9252  20.9541  20.9565  20.9567  21.0224  21.0227  21.0478

     occupation numbers 
     1.0000   1.0000   1.0000   1.0000   1.0000   1.0000   1.0000   1.0000
     1.0000   1.0000   1.0000   1.0000   1.0000   1.0000   1.0000   1.0000
     1.0000   1.0000   1.0000   1.0000   1.0000   1.0000   1.0000   1.0000
     1.0000   1.0000   1.0000   1.0000   1.0000   1.0000   1.0000   1.0000
     1.0000   1.0000   1.0000   1.0000   1.0000   1.0000   1.0000   1.0000
     1.0000   1.0000   1.0000   1.0000   1.0000   1.0000   1.0000   1.0000
     1.0000   1.0000   1.0000   1.0000   1.0000   1.0000   1.0000   1.0000
     1.0000   1.0000   1.0000   1.0000   1.0000   1.0000   1.0000   1.0000
     1.0000   1.0000   1.0000   1.0000   1.0000   1.0000   1.0000   1.0000
     1.0000   1.0000   1.0000   1.0000   1.0000   1.0000   1.0000   1.0000
     1.0000   1.0000   1.0000   1.0000   1.0000   1.0000   1.0000   1.0000
     1.0000   1.0000   1.0000   1.0000   1.0000   1.0000   1.0000   1.0000
     1.0000   1.0000   1.0000   1.0000   1.0000   1.0000   1.0000   1.0000
     1.0000   1.0000   1.0000   1.0000   1.0000   1.0000   1.0000   1.0000
     1.0000   1.0000   1.0000   1.0000   1.0000   1.0000   1.0000   1.0000
     1.0000   1.0000   1.0000   1.0000   1.0000   1.0000   0.0000   0.0000
     0.0000   0.0000   0.0000   0.0000   0.0000   0.0000   0.0000   0.0000
     0.0000   0.0000   0.0000   0.0000   0.0000   0.0000   0.0000   0.0000
     0.0000   0.0000   0.0000   0.0000   0.0000   0.0000   0.0000   0.0000

     highest occupied, lowest unoccupied level (ev):    14.8524   16.3821

!    total energy              =    -723.84219860 Ry
     estimated scf accuracy    <          4.4E-09 Ry

     The total energy is the sum of the following terms:
     one-electron contribution =     239.40281407 Ry
     hartree contribution      =      67.06618191 Ry
     xc contribution           =    -226.46822649 Ry
     ewald contribution        =    -803.84296809 Ry

     total magnetization       =     2.00 Bohr mag/cell
     absolute magnetization    =     2.22 Bohr mag/cell

     convergence has been achieved in  14 iterations

     Forces acting on atoms (cartesian axes, Ry/au):

     atom    1 type  1   force =    -0.07549339   -0.07548151   -0.07548151
     atom    2 type  2   force =    -0.04390280    0.07361579    0.07361579
     atom    3 type  2   force =    -0.01694985   -0.02899139   -0.02899139
     atom    4 type  2   force =     0.07362196   -0.04395061    0.07365296
     atom    5 type  2   force =    -0.02893407   -0.01694285   -0.02905009
     atom    6 type  2   force =     0.07362196    0.07365296   -0.04395061
     atom    7 type  2   force =    -0.02893407   -0.02905009   -0.01694285
     atom    8 type  2   force =    -0.00329505   -0.00326135    0.00018804
     atom    9 type  2   force =    -0.00021290   -0.00024111   -0.00280588
     atom   10 type  2   force =     0.01033147   -0.00417866    0.00927476
     atom   11 type  2   force =     0.00460560   -0.03194496    0.03380877
     atom   12 type  2   force =    -0.00419719    0.01025210    0.00925883
     atom   13 type  2   force =    -0.03214791    0.00473254    0.03365506
     atom   14 type  2   force =     0.00261427    0.00254790   -0.00070213
     atom   15 type  2   force =    -0.00669945   -0.00361914    0.00326280
     atom   16 type  2   force =    -0.00329505    0.00018804   -0.00326135
     atom   17 type  2   force =    -0.00021290   -0.00280588   -0.00024111
     atom   18 type  2   force =     0.01033147    0.00927476   -0.00417866
     atom   19 type  2   force =     0.00460560    0.03380877   -0.03194496
     atom   20 type  2   force =     0.00261427   -0.00070213    0.00254790
     atom   21 type  2   force =    -0.00669945    0.00326280   -0.00361914
     atom   22 type  2   force =    -0.00419719    0.00925883    0.01025210
     atom   23 type  2   force =    -0.03214791    0.03365506    0.00473254
     atom   24 type  2   force =     0.00736943    0.00785034    0.00785034
     atom   25 type  2   force =    -0.00030160    0.00023614    0.00023614
     atom   26 type  2   force =     0.00337993   -0.00223850   -0.00223850
     atom   27 type  2   force =    -0.03927291    0.01851140    0.01851140
     atom   28 type  2   force =     0.00038701    0.00514681   -0.00501126
     atom   29 type  2   force =    -0.00426026   -0.00284451   -0.00373445
     atom   30 type  2   force =     0.00038701   -0.00501126    0.00514681
     atom   31 type  2   force =    -0.00426026   -0.00373445   -0.00284451
     atom   32 type  2   force =     0.00039138   -0.00326672   -0.00326672
     atom   33 type  2   force =    -0.00283855   -0.00025488   -0.00025488
     atom   34 type  2   force =    -0.00042012    0.00284995    0.00284995
     atom   35 type  2   force =    -0.00166269   -0.00177798   -0.00177798
     atom   36 type  2   force =     0.00928114    0.01027631   -0.00422426
     atom   37 type  2   force =     0.03370992    0.00472196   -0.03213293
     atom   38 type  2   force =     0.00928114   -0.00422426    0.01027631
     atom   39 type  2   force =     0.03370992   -0.03213293    0.00472196
     atom   40 type  2   force =     0.00781732    0.00739648    0.00784474
     atom   41 type  2   force =     0.00037108   -0.00038540    0.00026925
     atom   42 type  2   force =     0.00610808    0.00129434   -0.00599189
     atom   43 type  2   force =    -0.00276123   -0.00434399   -0.00363075
     atom   44 type  2   force =    -0.00225660    0.00330143   -0.00223030
     atom   45 type  2   force =     0.01851489   -0.03927753    0.01845915
     atom   46 type  2   force =    -0.00622771    0.00158899    0.00583145
     atom   47 type  2   force =    -0.00364277   -0.00440318   -0.00280491
     atom   48 type  2   force =     0.00781732    0.00784474    0.00739648
     atom   49 type  2   force =     0.00037108    0.00026925   -0.00038540
     atom   50 type  2   force =     0.00610808   -0.00599189    0.00129434
     atom   51 type  2   force =    -0.00276123   -0.00363075   -0.00434399
     atom   52 type  2   force =    -0.00622771    0.00583145    0.00158899
     atom   53 type  2   force =    -0.00364277   -0.00280491   -0.00440318
     atom   54 type  2   force =    -0.00225660   -0.00223030    0.00330143
     atom   55 type  2   force =     0.01851489    0.01845915   -0.03927753
     atom   56 type  2   force =     0.01729774   -0.00036208   -0.00036208
     atom   57 type  2   force =    -0.00500637   -0.00190252   -0.00190252
     atom   58 type  2   force =     0.00114986    0.00188915    0.00188915
     atom   59 type  2   force =     0.00224782    0.00344528    0.00344528
     atom   60 type  2   force =     0.00097774    0.00018412    0.00090673
     atom   61 type  2   force =     0.00330072    0.00246197    0.00327218
     atom   62 type  2   force =     0.00097774    0.00090673    0.00018412
     atom   63 type  2   force =     0.00330072    0.00327218    0.00246197
     The non-local contrib.  to forces
     atom    1 type  1   force =    -1.06629907   -1.06631818   -1.06631818
     atom    2 type  2   force =    -0.34686961    0.37379859    0.37379859
     atom    3 type  2   force =     0.05622966    0.04989293    0.04989293
     atom    4 type  2   force =     0.37376649   -0.34699054    0.37364295
     atom    5 type  2   force =     0.04968720    0.05594400    0.04998391
     atom    6 type  2   force =     0.37376649    0.37364295   -0.34699054
     atom    7 type  2   force =     0.04968720    0.04998391    0.05594400
     atom    8 type  2   force =    -0.01014500   -0.00978284    0.05452713
     atom    9 type  2   force =    -0.00367103   -0.00376852    0.01696625
     atom   10 type  2   force =    -0.03045284   -0.02324092   -0.01618571
     atom   11 type  2   force =    -0.06839221    0.02993159   -0.04454788
     atom   12 type  2   force =    -0.02317235   -0.03053514   -0.01614121
     atom   13 type  2   force =     0.03018800   -0.06776695   -0.04526031
     atom   14 type  2   force =     0.00207046    0.00224489    0.05560783
     atom   15 type  2   force =     0.01264274    0.01562770    0.00810839
     atom   16 type  2   force =    -0.01014500    0.05452713   -0.00978284
     atom   17 type  2   force =    -0.00367103    0.01696625   -0.00376852
     atom   18 type  2   force =    -0.03045284   -0.01618571   -0.02324092
     atom   19 type  2   force =    -0.06839221   -0.04454788    0.02993159
     atom   20 type  2   force =     0.00207046    0.05560783    0.00224489
     atom   21 type  2   force =     0.01264274    0.00810839    0.01562770
     atom   22 type  2   force =    -0.02317235   -0.01614121   -0.03053514
     atom   23 type  2   force =     0.03018800   -0.04526031   -0.06776695
     atom   24 type  2   force =    -0.04595306    0.03906004    0.03906004
     atom   25 type  2   force =    -0.01388207    0.01684402    0.01684402
     atom   26 type  2   force =    -0.02886427   -0.02124622   -0.02124622
     atom   27 type  2   force =    -0.14162173    0.13415855    0.13415855
     atom   28 type  2   force =     0.04416675    0.03460482   -0.02468128
     atom   29 type  2   force =     0.00124859    0.01510973   -0.00551283
     atom   30 type  2   force =     0.04416675   -0.02468128    0.03460482
     atom   31 type  2   force =     0.00124859   -0.00551283    0.01510973
     atom   32 type  2   force =     0.05413542   -0.00980049   -0.00980049
     atom   33 type  2   force =     0.01719506   -0.00397940   -0.00397940
     atom   34 type  2   force =     0.05516620    0.00172152    0.00172152
     atom   35 type  2   force =     0.00354848    0.01721764    0.01721764
     atom   36 type  2   force =    -0.01617662   -0.03067019   -0.02314127
     atom   37 type  2   force =    -0.04495715   -0.06799261    0.02999485
     atom   38 type  2   force =    -0.01617662   -0.02314127   -0.03067019
     atom   39 type  2   force =    -0.04495715    0.02999485   -0.06799261
     atom   40 type  2   force =     0.03906668   -0.04609488    0.03905023
     atom   41 type  2   force =     0.01675526   -0.01394460    0.01705042
     atom   42 type  2   force =     0.03417988    0.04593305   -0.02628108
     atom   43 type  2   force =     0.01514467    0.00122553   -0.00571775
     atom   44 type  2   force =    -0.02118210   -0.02894227   -0.02131526
     atom   45 type  2   force =     0.13415395   -0.14161377    0.13416404
     atom   46 type  2   force =    -0.02586453    0.04533650    0.03463038
     atom   47 type  2   force =    -0.00543922    0.00134100    0.01532856
     atom   48 type  2   force =     0.03906668    0.03905023   -0.04609488
     atom   49 type  2   force =     0.01675526    0.01705042   -0.01394460
     atom   50 type  2   force =     0.03417988   -0.02628108    0.04593305
     atom   51 type  2   force =     0.01514467   -0.00571775    0.00122553
     atom   52 type  2   force =    -0.02586453    0.03463038    0.04533650
     atom   53 type  2   force =    -0.00543922    0.01532856    0.00134100
     atom   54 type  2   force =    -0.02118210   -0.02131526   -0.02894227
     atom   55 type  2   force =     0.13415395    0.13416404   -0.14161377
     atom   56 type  2   force =     0.03486911    0.01402891    0.01402891
     atom   57 type  2   force =     0.00063528    0.00355447    0.00355447
     atom   58 type  2   force =     0.00903440   -0.00524753   -0.00524753
     atom   59 type  2   force =     0.01457134   -0.01721144   -0.01721144
     atom   60 type  2   force =    -0.00699105    0.00940908   -0.00683457
     atom   61 type  2   force =    -0.01785929    0.01429012   -0.01796357
     atom   62 type  2   force =    -0.00699105   -0.00683457    0.00940908
     atom   63 type  2   force =    -0.01785929   -0.01796357    0.01429012
     The ionic contribution  to forces
     atom    1 type  1   force =     2.60447307    2.60584073    2.60584073
     atom    2 type  2   force =     2.08166544   -1.87684956   -1.87684956
     atom    3 type  2   force =     0.02343736   -0.78172415   -0.78172415
     atom    4 type  2   force =    -1.87697165    2.08467258   -1.87752160
     atom    5 type  2   force =    -0.77708372    0.02862642   -0.78023442
     atom    6 type  2   force =    -1.87697165   -1.87752160    2.08467258
     atom    7 type  2   force =    -0.77708372   -0.78023442    0.02862642
     atom    8 type  2   force =     0.27633683    0.27856298   -0.57657836
     atom    9 type  2   force =     0.06745817    0.06845703   -0.14361474
     atom   10 type  2   force =     0.27555583   -0.07073996    0.36875534
     atom   11 type  2   force =     0.06745817   -0.68770723    0.76286494
     atom   12 type  2   force =    -0.07086204    0.27856298    0.36942738
     atom   13 type  2   force =    -0.68607773    0.06911608    0.76220589
     atom   14 type  2   force =    -0.23591112   -0.23988755   -0.57657836
     atom   15 type  2   force =    -0.16072653   -0.18553667   -0.00226367
     atom   16 type  2   force =     0.27633683   -0.57657836    0.27856298
     atom   17 type  2   force =     0.06745817   -0.14361474    0.06845703
     atom   18 type  2   force =     0.27555583    0.36875534   -0.07073996
     atom   19 type  2   force =     0.06745817    0.76286494   -0.68770723
     atom   20 type  2   force =    -0.23591112   -0.57657836   -0.23988755
     atom   21 type  2   force =    -0.16072653   -0.00226367   -0.18553667
     atom   22 type  2   force =    -0.07086204    0.36942738    0.27856298
     atom   23 type  2   force =    -0.68607773    0.76220589    0.06911608
     atom   24 type  2   force =     0.11528440   -0.20823205   -0.20823205
     atom   25 type  2   force =     0.02343736   -0.04959782   -0.04959782
     atom   26 type  2   force =     0.12122916    0.00040903    0.00040903
     atom   27 type  2   force =     0.52007813    0.31053679    0.31053679
     atom   28 type  2   force =    -0.08158445   -0.20823205    0.16955662
     atom   29 type  2   force =    -0.13356209   -0.05108755    0.15917391
     atom   30 type  2   force =    -0.08158445    0.16955662   -0.20823205
     atom   31 type  2   force =    -0.13356209    0.15917391   -0.05108755
     atom   32 type  2   force =    -0.57540845    0.27856298    0.27856298
     atom   33 type  2   force =    -0.14305747    0.07016950    0.07016950
     atom   34 type  2   force =    -0.57123151   -0.23158796   -0.23158796
     atom   35 type  2   force =    -0.02925834   -0.13434796   -0.13434796
     atom   36 type  2   force =     0.36860218    0.27856298   -0.07005416
     atom   37 type  2   force =     0.75948803    0.07080975   -0.68665379
     atom   38 type  2   force =     0.36860218   -0.07005416    0.27856298
     atom   39 type  2   force =     0.75948803   -0.68665379    0.07080975
     atom   40 type  2   force =    -0.20539744    0.12423631   -0.20823205
     atom   41 type  2   force =    -0.04991282    0.03350551   -0.05303443
     atom   42 type  2   force =    -0.20288520   -0.07726129    0.16125703
     atom   43 type  2   force =    -0.04991282   -0.13476591    0.15429483
     atom   44 type  2   force =     0.00025587    0.12423631   -0.00027676
     atom   45 type  2   force =     0.30905559    0.52154700    0.30977497
     atom   46 type  2   force =     0.15695109   -0.06909410   -0.20823205
     atom   47 type  2   force =     0.14914710   -0.13332313   -0.05447721
     atom   48 type  2   force =    -0.20539744   -0.20823205    0.12423631
     atom   49 type  2   force =    -0.04991282   -0.05303443    0.03350551
     atom   50 type  2   force =    -0.20288520    0.16125703   -0.07726129
     atom   51 type  2   force =    -0.04991282    0.15429483   -0.13476591
     atom   52 type  2   force =     0.15695109   -0.20823205   -0.06909410
     atom   53 type  2   force =     0.14914710   -0.05447721   -0.13332313
     atom   54 type  2   force =     0.00025587   -0.00027676    0.12423631
     atom   55 type  2   force =     0.30905559    0.30977497    0.52154700
     atom   56 type  2   force =    -0.04373637   -0.11222576   -0.11222576
     atom   57 type  2   force =    -0.02925834   -0.05345238   -0.05345238
     atom   58 type  2   force =    -0.10649595    0.06486778    0.06486778
     atom   59 type  2   force =    -0.14305747    0.11763084    0.11763084
     atom   60 type  2   force =     0.06056183   -0.11184280    0.05670059
     atom   61 type  2   force =     0.11596640   -0.14466818    0.11699059
     atom   62 type  2   force =     0.06056183    0.05670059   -0.11184280
     atom   63 type  2   force =     0.11596640    0.11699059   -0.14466818
     The local contribution  to forces
     atom    1 type  1   force =    -1.61371798   -1.61498346   -1.61497939
     atom    2 type  2   force =    -1.77873996    1.57665461    1.57665646
     atom    3 type  2   force =    -0.09665897    0.70280143    0.70279960
     atom    4 type  2   force =     1.57679424   -1.78161914    1.57752511
     atom    5 type  2   force =     0.69843405   -0.10150900    0.70117193
     atom    6 type  2   force =     1.57679746    1.57752443   -1.78161824
     atom    7 type  2   force =     0.69843470    0.70117369   -0.10150155
     atom    8 type  2   force =    -0.26952916   -0.27203405    0.52219041
     atom    9 type  2   force =    -0.06403436   -0.06493107    0.12379223
     atom   10 type  2   force =    -0.23481911    0.08979312   -0.34331999
     atom   11 type  2   force =     0.00549814    0.62580820   -0.68450882
     atom   12 type  2   force =     0.08981699   -0.23777989   -0.34405521
     atom   13 type  2   force =     0.62372368    0.00337471   -0.68329841
     atom   14 type  2   force =     0.23642445    0.24017620    0.52021511
     atom   15 type  2   force =     0.14136609    0.16626769   -0.00262377
     atom   16 type  2   force =    -0.26953117    0.52219190   -0.27202985
     atom   17 type  2   force =    -0.06403496    0.12379544   -0.06492440
     atom   18 type  2   force =    -0.23481681   -0.34331735    0.08979542
     atom   19 type  2   force =     0.00550241   -0.68450790    0.62580627
     atom   20 type  2   force =     0.23642324    0.52021914    0.24018029
     atom   21 type  2   force =     0.14136283   -0.00261983    0.16626690
     atom   22 type  2   force =     0.08981787   -0.34405120   -0.23777616
     atom   23 type  2   force =     0.62372281   -0.68329637    0.00338131
     atom   24 type  2   force =    -0.06201143    0.17698078    0.17697749
     atom   25 type  2   force =    -0.00989126    0.03295465    0.03294960
     atom   26 type  2   force =    -0.08903435    0.01857269    0.01856830
     atom   27 type  2   force =    -0.41776397   -0.42618664   -0.42618806
     atom   28 type  2   force =     0.03778456    0.17874469   -0.14991223
     atom   29 type  2   force =     0.12803978    0.03310144   -0.15740999
     atom   30 type  2   force =     0.03778310   -0.14990820    0.17873977
     atom   31 type  2   force =     0.12803739   -0.15740815    0.03309717
     atom   32 type  2   force =     0.52163852   -0.27203328   -0.27202838
     atom   33 type  2   force =     0.12299151   -0.06644527   -0.06643950
     atom   34 type  2   force =     0.51561304    0.23270504    0.23270882
     atom   35 type  2   force =     0.02401841    0.11532632    0.11532700
     atom   36 type  2   force =    -0.34317645   -0.23760919    0.08896191
     atom   37 type  2   force =    -0.68085268    0.00191437    0.62448902
     atom   38 type  2   force =    -0.34317476    0.08896096   -0.23760618
     atom   39 type  2   force =    -0.68085224    0.62449045    0.00191767
     atom   40 type  2   force =     0.17412050   -0.07074797    0.17698949
     atom   41 type  2   force =     0.03349453   -0.01995040    0.03621279
     atom   42 type  2   force =     0.17479089    0.03261413   -0.14099578
     atom   43 type  2   force =     0.03197490    0.12917997   -0.15222082
     atom   44 type  2   force =     0.01862434   -0.09200036    0.01933580
     atom   45 type  2   force =    -0.42473396   -0.41921475   -0.42547586
     atom   46 type  2   force =    -0.13734765    0.02533975    0.17938844
     atom   47 type  2   force =    -0.14740028    0.12755854    0.03629905
     atom   48 type  2   force =     0.17412276    0.17699461   -0.07074726
     atom   49 type  2   force =     0.03349537    0.03621716   -0.01994803
     atom   50 type  2   force =     0.17478911   -0.14099039    0.03261472
     atom   51 type  2   force =     0.03197339   -0.15221809    0.12917705
     atom   52 type  2   force =    -0.13734645    0.17938982    0.02534061
     atom   53 type  2   force =    -0.14739862    0.03630132    0.12755808
     atom   54 type  2   force =     0.01862300    0.01933845   -0.09199710
     atom   55 type  2   force =    -0.42473449   -0.42547554   -0.41921092
     atom   56 type  2   force =     0.02614371    0.09780158    0.09780083
     atom   57 type  2   force =     0.02358575    0.04796346    0.04796325
     atom   58 type  2   force =     0.09859077   -0.05775672   -0.05775727
     atom   59 type  2   force =     0.13069629   -0.09699015   -0.09698892
     atom   60 type  2   force =    -0.05263850    0.10258832   -0.04898953
     atom   61 type  2   force =    -0.09486096    0.13280113   -0.09576910
     atom   62 type  2   force =    -0.05263684   -0.04898739    0.10258701
     atom   63 type  2   force =    -0.09485944   -0.09576901    0.13279939
     The core correction contribution to forces
     atom    1 type  1   force =     0.00000000    0.00000000    0.00000000
     atom    2 type  2   force =     0.00000000    0.00000000    0.00000000
     atom    3 type  2   force =     0.00000000    0.00000000    0.00000000
     atom    4 type  2   force =     0.00000000    0.00000000    0.00000000
     atom    5 type  2   force =     0.00000000    0.00000000    0.00000000
     atom    6 type  2   force =     0.00000000    0.00000000    0.00000000
     atom    7 type  2   force =     0.00000000    0.00000000    0.00000000
     atom    8 type  2   force =     0.00000000    0.00000000    0.00000000
     atom    9 type  2   force =     0.00000000    0.00000000    0.00000000
     atom   10 type  2   force =     0.00000000    0.00000000    0.00000000
     atom   11 type  2   force =     0.00000000    0.00000000    0.00000000
     atom   12 type  2   force =     0.00000000    0.00000000    0.00000000
     atom   13 type  2   force =     0.00000000    0.00000000    0.00000000
     atom   14 type  2   force =     0.00000000    0.00000000    0.00000000
     atom   15 type  2   force =     0.00000000    0.00000000    0.00000000
     atom   16 type  2   force =     0.00000000    0.00000000    0.00000000
     atom   17 type  2   force =     0.00000000    0.00000000    0.00000000
     atom   18 type  2   force =     0.00000000    0.00000000    0.00000000
     atom   19 type  2   force =     0.00000000    0.00000000    0.00000000
     atom   20 type  2   force =     0.00000000    0.00000000    0.00000000
     atom   21 type  2   force =     0.00000000    0.00000000    0.00000000
     atom   22 type  2   force =     0.00000000    0.00000000    0.00000000
     atom   23 type  2   force =     0.00000000    0.00000000    0.00000000
     atom   24 type  2   force =     0.00000000    0.00000000    0.00000000
     atom   25 type  2   force =     0.00000000    0.00000000    0.00000000
     atom   26 type  2   force =     0.00000000    0.00000000    0.00000000
     atom   27 type  2   force =     0.00000000    0.00000000    0.00000000
     atom   28 type  2   force =     0.00000000    0.00000000    0.00000000
     atom   29 type  2   force =     0.00000000    0.00000000    0.00000000
     atom   30 type  2   force =     0.00000000    0.00000000    0.00000000
     atom   31 type  2   force =     0.00000000    0.00000000    0.00000000
     atom   32 type  2   force =     0.00000000    0.00000000    0.00000000
     atom   33 type  2   force =     0.00000000    0.00000000    0.00000000
     atom   34 type  2   force =     0.00000000    0.00000000    0.00000000
     atom   35 type  2   force =     0.00000000    0.00000000    0.00000000
     atom   36 type  2   force =     0.00000000    0.00000000    0.00000000
     atom   37 type  2   force =     0.00000000    0.00000000    0.00000000
     atom   38 type  2   force =     0.00000000    0.00000000    0.00000000
     atom   39 type  2   force =     0.00000000    0.00000000    0.00000000
     atom   40 type  2   force =     0.00000000    0.00000000    0.00000000
     atom   41 type  2   force =     0.00000000    0.00000000    0.00000000
     atom   42 type  2   force =     0.00000000    0.00000000    0.00000000
     atom   43 type  2   force =     0.00000000    0.00000000    0.00000000
     atom   44 type  2   force =     0.00000000    0.00000000    0.00000000
     atom   45 type  2   force =     0.00000000    0.00000000    0.00000000
     atom   46 type  2   force =     0.00000000    0.00000000    0.00000000
     atom   47 type  2   force =     0.00000000    0.00000000    0.00000000
     atom   48 type  2   force =     0.00000000    0.00000000    0.00000000
     atom   49 type  2   force =     0.00000000    0.00000000    0.00000000
     atom   50 type  2   force =     0.00000000    0.00000000    0.00000000
     atom   51 type  2   force =     0.00000000    0.00000000    0.00000000
     atom   52 type  2   force =     0.00000000    0.00000000    0.00000000
     atom   53 type  2   force =     0.00000000    0.00000000    0.00000000
     atom   54 type  2   force =     0.00000000    0.00000000    0.00000000
     atom   55 type  2   force =     0.00000000    0.00000000    0.00000000
     atom   56 type  2   force =     0.00000000    0.00000000    0.00000000
     atom   57 type  2   force =     0.00000000    0.00000000    0.00000000
     atom   58 type  2   force =     0.00000000    0.00000000    0.00000000
     atom   59 type  2   force =     0.00000000    0.00000000    0.00000000
     atom   60 type  2   force =     0.00000000    0.00000000    0.00000000
     atom   61 type  2   force =     0.00000000    0.00000000    0.00000000
     atom   62 type  2   force =     0.00000000    0.00000000    0.00000000
     atom   63 type  2   force =     0.00000000    0.00000000    0.00000000
     The Hubbard contrib.    to forces
     atom    1 type  1   force =     0.00000000    0.00000000    0.00000000
     atom    2 type  2   force =     0.00000000    0.00000000    0.00000000
     atom    3 type  2   force =     0.00000000    0.00000000    0.00000000
     atom    4 type  2   force =     0.00000000    0.00000000    0.00000000
     atom    5 type  2   force =     0.00000000    0.00000000    0.00000000
     atom    6 type  2   force =     0.00000000    0.00000000    0.00000000
     atom    7 type  2   force =     0.00000000    0.00000000    0.00000000
     atom    8 type  2   force =     0.00000000    0.00000000    0.00000000
     atom    9 type  2   force =     0.00000000    0.00000000    0.00000000
     atom   10 type  2   force =     0.00000000    0.00000000    0.00000000
     atom   11 type  2   force =     0.00000000    0.00000000    0.00000000
     atom   12 type  2   force =     0.00000000    0.00000000    0.00000000
     atom   13 type  2   force =     0.00000000    0.00000000    0.00000000
     atom   14 type  2   force =     0.00000000    0.00000000    0.00000000
     atom   15 type  2   force =     0.00000000    0.00000000    0.00000000
     atom   16 type  2   force =     0.00000000    0.00000000    0.00000000
     atom   17 type  2   force =     0.00000000    0.00000000    0.00000000
     atom   18 type  2   force =     0.00000000    0.00000000    0.00000000
     atom   19 type  2   force =     0.00000000    0.00000000    0.00000000
     atom   20 type  2   force =     0.00000000    0.00000000    0.00000000
     atom   21 type  2   force =     0.00000000    0.00000000    0.00000000
     atom   22 type  2   force =     0.00000000    0.00000000    0.00000000
     atom   23 type  2   force =     0.00000000    0.00000000    0.00000000
     atom   24 type  2   force =     0.00000000    0.00000000    0.00000000
     atom   25 type  2   force =     0.00000000    0.00000000    0.00000000
     atom   26 type  2   force =     0.00000000    0.00000000    0.00000000
     atom   27 type  2   force =     0.00000000    0.00000000    0.00000000
     atom   28 type  2   force =     0.00000000    0.00000000    0.00000000
     atom   29 type  2   force =     0.00000000    0.00000000    0.00000000
     atom   30 type  2   force =     0.00000000    0.00000000    0.00000000
     atom   31 type  2   force =     0.00000000    0.00000000    0.00000000
     atom   32 type  2   force =     0.00000000    0.00000000    0.00000000
     atom   33 type  2   force =     0.00000000    0.00000000    0.00000000
     atom   34 type  2   force =     0.00000000    0.00000000    0.00000000
     atom   35 type  2   force =     0.00000000    0.00000000    0.00000000
     atom   36 type  2   force =     0.00000000    0.00000000    0.00000000
     atom   37 type  2   force =     0.00000000    0.00000000    0.00000000
     atom   38 type  2   force =     0.00000000    0.00000000    0.00000000
     atom   39 type  2   force =     0.00000000    0.00000000    0.00000000
     atom   40 type  2   force =     0.00000000    0.00000000    0.00000000
     atom   41 type  2   force =     0.00000000    0.00000000    0.00000000
     atom   42 type  2   force =     0.00000000    0.00000000    0.00000000
     atom   43 type  2   force =     0.00000000    0.00000000    0.00000000
     atom   44 type  2   force =     0.00000000    0.00000000    0.00000000
     atom   45 type  2   force =     0.00000000    0.00000000    0.00000000
     atom   46 type  2   force =     0.00000000    0.00000000    0.00000000
     atom   47 type  2   force =     0.00000000    0.00000000    0.00000000
     atom   48 type  2   force =     0.00000000    0.00000000    0.00000000
     atom   49 type  2   force =     0.00000000    0.00000000    0.00000000
     atom   50 type  2   force =     0.00000000    0.00000000    0.00000000
     atom   51 type  2   force =     0.00000000    0.00000000    0.00000000
     atom   52 type  2   force =     0.00000000    0.00000000    0.00000000
     atom   53 type  2   force =     0.00000000    0.00000000    0.00000000
     atom   54 type  2   force =     0.00000000    0.00000000    0.00000000
     atom   55 type  2   force =     0.00000000    0.00000000    0.00000000
     atom   56 type  2   force =     0.00000000    0.00000000    0.00000000
     atom   57 type  2   force =     0.00000000    0.00000000    0.00000000
     atom   58 type  2   force =     0.00000000    0.00000000    0.00000000
     atom   59 type  2   force =     0.00000000    0.00000000    0.00000000
     atom   60 type  2   force =     0.00000000    0.00000000    0.00000000
     atom   61 type  2   force =     0.00000000    0.00000000    0.00000000
     atom   62 type  2   force =     0.00000000    0.00000000    0.00000000
     atom   63 type  2   force =     0.00000000    0.00000000    0.00000000
     The SCF correction term to forces
     atom    1 type  1   force =     0.00001671   -0.00003760   -0.00004294
     atom    2 type  2   force =     0.00000746   -0.00000546   -0.00000733
     atom    3 type  2   force =     0.00000823    0.00002095    0.00002242
     atom    4 type  2   force =    -0.00000262   -0.00002937   -0.00001318
     atom    5 type  2   force =    -0.00000489   -0.00002122    0.00001113
     atom    6 type  2   force =    -0.00000258   -0.00000841   -0.00003380
     atom    7 type  2   force =    -0.00000668    0.00000883   -0.00003004
     atom    8 type  2   force =     0.00000791   -0.00002434    0.00003157
     atom    9 type  2   force =     0.00000036   -0.00001570    0.00003336
     atom   10 type  2   force =     0.00001390   -0.00000801    0.00000824
     atom   11 type  2   force =     0.00000778    0.00000452   -0.00001667
     atom   12 type  2   force =    -0.00001350   -0.00001306    0.00001071
     atom   13 type  2   force =    -0.00001617   -0.00000798   -0.00000913
     atom   14 type  2   force =    -0.00000353   -0.00000270    0.00003614
     atom   15 type  2   force =    -0.00001552    0.00000473    0.00002475
     atom   16 type  2   force =     0.00001092    0.00002940   -0.00002998
     atom   17 type  2   force =     0.00000114    0.00002891   -0.00002335
     atom   18 type  2   force =     0.00001121    0.00000409   -0.00001135
     atom   19 type  2   force =     0.00000323   -0.00001845    0.00000710
     atom   20 type  2   force =    -0.00000202    0.00003116   -0.00000794
     atom   21 type  2   force =    -0.00001247    0.00001975    0.00000505
     atom   22 type  2   force =    -0.00001470    0.00000577   -0.00001762
     atom   23 type  2   force =    -0.00001440   -0.00001238   -0.00001647
     atom   24 type  2   force =     0.00001566    0.00002391    0.00002727
     atom   25 type  2   force =     0.00000050    0.00001714    0.00002325
     atom   26 type  2   force =     0.00001552    0.00000803    0.00001310
     atom   27 type  2   force =     0.00000079   -0.00001510   -0.00001332
     atom   28 type  2   force =    -0.00001386    0.00001142    0.00000842
     atom   29 type  2   force =    -0.00002051    0.00001379   -0.00000338
     atom   30 type  2   force =    -0.00001212    0.00000355    0.00001696
     atom   31 type  2   force =    -0.00001792   -0.00000483    0.00001897
     atom   32 type  2   force =    -0.00000798   -0.00001310   -0.00001893
     atom   33 type  2   force =    -0.00000152   -0.00001695   -0.00002350
     atom   34 type  2   force =    -0.00000172   -0.00000529   -0.00001106
     atom   35 type  2   force =    -0.00000509    0.00000815    0.00000795
     atom   36 type  2   force =    -0.00000195   -0.00002456   -0.00000832
     atom   37 type  2   force =    -0.00000248   -0.00002648    0.00001944
     atom   38 type  2   force =    -0.00000342   -0.00000747   -0.00002829
     atom   39 type  2   force =    -0.00000227    0.00001786   -0.00003118
     atom   40 type  2   force =    -0.00000592   -0.00001442    0.00001966
     atom   41 type  2   force =     0.00000026   -0.00001291    0.00002287
     atom   42 type  2   force =    -0.00001147   -0.00000901    0.00001033
     atom   43 type  2   force =    -0.00000199   -0.00000112   -0.00000450
     atom   44 type  2   force =     0.00001139   -0.00000946    0.00000865
     atom   45 type  2   force =     0.00000567   -0.00001301   -0.00002144
     atom   46 type  2   force =    -0.00000047   -0.00001077    0.00002723
     atom   47 type  2   force =     0.00001586    0.00000241    0.00002733
     atom   48 type  2   force =    -0.00000893    0.00001409   -0.00001550
     atom   49 type  2   force =    -0.00000060    0.00001842   -0.00001654
     atom   50 type  2   force =    -0.00000947    0.00000491   -0.00000994
     atom   51 type  2   force =    -0.00000018   -0.00000751    0.00000162
     atom   52 type  2   force =    -0.00000170    0.00002551   -0.00001168
     atom   53 type  2   force =     0.00001399    0.00002452    0.00000361
     atom   54 type  2   force =     0.00001280    0.00000530   -0.00001355
     atom   55 type  2   force =     0.00000575   -0.00002215   -0.00001808
     atom   56 type  2   force =    -0.00001257    0.00001515    0.00001674
     atom   57 type  2   force =    -0.00000292    0.00001397    0.00001485
     atom   58 type  2   force =    -0.00001323    0.00000754    0.00000900
     atom   59 type  2   force =     0.00000380   -0.00000182   -0.00000261
     atom   60 type  2   force =     0.00001162    0.00001187    0.00001305
     atom   61 type  2   force =     0.00002084    0.00002088   -0.00000305
     atom   62 type  2   force =     0.00000990    0.00001004    0.00001322
     atom   63 type  2   force =     0.00001905   -0.00000380    0.00002339

     Total force =     0.290400     Total SCF correction =     0.000214

     Writing all to output data dir ./pwscf.save/ :
     XML data file, charge density, pseudopotentials, collected wavefunctions
 
     init_run     :      0.21s CPU      0.59s WALL (       1 calls)
     electrons    :     10.51s CPU     10.69s WALL (       1 calls)
     forces       :      0.38s CPU      0.38s WALL (       1 calls)

     Called by init_run:
     wfcinit      :      0.09s CPU      0.10s WALL (       1 calls)
     wfcinit:wfcr :      0.09s CPU      0.09s WALL (       1 calls)
     potinit      :      0.04s CPU      0.05s WALL (       1 calls)
     hinit0       :      0.02s CPU      0.38s WALL (       1 calls)

     Called by electrons:
     c_bands      :      8.90s CPU      9.06s WALL (      14 calls)
     sum_band     :      0.79s CPU      0.80s WALL (      14 calls)
     v_of_rho     :      0.24s CPU      0.25s WALL (      15 calls)
     v_h          :      0.01s CPU      0.01s WALL (      15 calls)
     v_xc         :      0.23s CPU      0.24s WALL (      15 calls)
     mix_rho      :      0.12s CPU      0.12s WALL (      14 calls)

     Called by c_bands:
     init_us_2    :      0.02s CPU      0.02s WALL (      30 calls)
     regterg      :      7.58s CPU      7.73s WALL (      15 calls)

     Called by sum_band:
     sum_band:wei :      0.04s CPU      0.04s WALL (      14 calls)
     sum_band:loo :      0.16s CPU      0.17s WALL (      14 calls)
     sum_band:buf :      0.00s CPU      0.00s WALL (      14 calls)
     sum_band:ini :      0.01s CPU      0.01s WALL (      14 calls)

     Called by *egterg:
     rdiaghg      :      4.09s CPU      4.19s WALL (     277 calls)
     regterg:over :      0.38s CPU      0.39s WALL (     262 calls)
     regterg:upda :      0.28s CPU      0.28s WALL (     262 calls)
     regterg:last :      0.14s CPU      0.15s WALL (      56 calls)
     rdiaghg:chol :      0.15s CPU      0.15s WALL (     277 calls)
     rdiaghg:inve :      0.03s CPU      0.03s WALL (     277 calls)
     rdiaghg:para :      0.42s CPU      0.44s WALL (     554 calls)
     h_psi        :      2.52s CPU      2.55s WALL (     278 calls)
     g_psi        :      0.00s CPU      0.00s WALL (     262 calls)

     Called by h_psi:
     h_psi:calbec :      0.44s CPU      0.45s WALL (     278 calls)
     vloc_psi     :      1.96s CPU      1.99s WALL (     278 calls)
                                        0.00s GPU  (     278 calls)
     add_vuspsi   :      0.10s CPU      0.11s WALL (     278 calls)

     General routines
     calbec       :      0.53s CPU      0.53s WALL (     282 calls)
     fft          :      0.12s CPU      0.48s WALL (     196 calls)
     ffts         :      0.01s CPU      0.01s WALL (      14 calls)
     fftw         :      2.01s CPU      2.04s WALL (   10514 calls)
 
     Parallel routines
 
     PWSCF        :     13.24s CPU     13.98s WALL

 
   This run was terminated on:  22:59: 4  15Nov2025            

=------------------------------------------------------------------------------=
   JOB DONE.
=------------------------------------------------------------------------------=
