
     Program PWSCF v.7.5 starts on 15Nov2025 at 22:59:22 

     This program is part of the open-source Quantum ESPRESSO suite
     for quantum simulation of materials; please cite
         "P. Giannozzi et al., J. Phys.:Condens. Matter 21 395502 (2009);
         "P. Giannozzi et al., J. Phys.:Condens. Matter 29 465901 (2017);
         "P. Giannozzi et al., J. Chem. Phys. 152 154105 (2020);
          URL http://www.quantum-espresso.org", 
     in publications or presentations arising from this work. More details at
     http://www.quantum-espresso.org/quote

     Parallel version (MPI), running on    96 processors

     MPI processes distributed on     2 nodes
     175228 MiB available memory on the printing compute node when the environment starts
 
     Reading input from run-supercell-070.in

     Current dimensions of program PWSCF are:
     Max number of different atomic species (ntypx) = 10
     Max number of k-points (npk) =  40000
     Max angular momentum in pseudopotentials (lmaxx) =  4

     gamma-point specific algorithms are used
     Message from routine setup:
     using ibrav=0 with symmetry is DISCOURAGED, use correct ibrav instead
 
     K-points division:     npool     =       2
     R & G space division:  proc/nbgrp/npool/nimage =      48
     Subspace diagonalization in iterative solution of the eigenvalue problem:
     one sub-group per band group will be used
     scalapack distributed-memory algorithm (size of sub-group:  2*  2 procs)

 
     Parallelization info
     --------------------
     sticks:   dense  smooth     PW     G-vecs:    dense   smooth      PW
     Min          59      59     14                 2432     2432     302
     Max          62      62     16                 2442     2442     316
     Sum        2885    2885    725               116921   116921   14771
 
     Using Slab Decomposition
 


     bravais-lattice index     =            0
     lattice parameter (alat)  =      13.4813  a.u.
     unit-cell volume          =    2450.1683 (a.u.)^3
     number of atoms/cell      =           63
     number of atomic types    =            2
     number of electrons       =       254.00 (up: 128.00, down: 126.00)
     number of Kohn-Sham states=          152
     kinetic-energy cutoff     =      50.0000  Ry
     charge density cutoff     =     200.0000  Ry
     scf convergence threshold =      1.0E-08
     mixing beta               =       0.7000
     number of iterations used =            8  plain     mixing
     Exchange-correlation= PBE
                           (   1   4   3   4   0   0   0)

     celldm(1)=  13.481306  celldm(2)=   0.000000  celldm(3)=   0.000000
     celldm(4)=   0.000000  celldm(5)=   0.000000  celldm(6)=   0.000000

     crystal axes: (cart. coord. in units of alat)
               a(1) = (   1.000000   0.000000   0.000000 )  
               a(2) = (   0.000000   1.000000   0.000000 )  
               a(3) = (   0.000000   0.000000   1.000000 )  

     reciprocal axes: (cart. coord. in units 2 pi/alat)
               b(1) = (  1.000000  0.000000  0.000000 )  
               b(2) = (  0.000000  1.000000  0.000000 )  
               b(3) = (  0.000000  0.000000  1.000000 )  


     PseudoPot. # 1 for N  read from file:
     ./N_ONCV_PBE-1.2.upf
     MD5 check sum: 5312fdf34e96954e02a33bdc911c617a
     Pseudo is Norm-conserving, Zval =  5.0
     Generated using ONCVPSP code by D. R. Hamann
     Using radial grid of  602 points,  4 beta functions with: 
                l(1) =   0
                l(2) =   0
                l(3) =   1
                l(4) =   1

     PseudoPot. # 2 for C  read from file:
     ./C_ONCV_PBE-1.2.upf
     MD5 check sum: d60b57d9bdca4133f5fde4b584ee909d
     Pseudo is Norm-conserving, Zval =  4.0
     Generated using ONCVPSP code by D. R. Hamann
     Using radial grid of  602 points,  4 beta functions with: 
                l(1) =   0
                l(2) =   0
                l(3) =   1
                l(4) =   1

     atomic species   valence    mass     pseudopotential
     N                 5.00    14.00670     N ( 1.00)
     C                 4.00    12.01070     C ( 1.00)

     Starting magnetic structure 
     atomic species   magnetization
     N               0.000
     C               0.000

      2 Sym. Ops. (no inversion) found


                                    s                        frac. trans.

      isym =  1     identity                                     

 cryst.   s( 1) = (     1          0          0      )
                  (     0          1          0      )
                  (     0          0          1      )

 cart.    s( 1) = (  1.0000000  0.0000000  0.0000000 )
                  (  0.0000000  1.0000000  0.0000000 )
                  (  0.0000000  0.0000000  1.0000000 )


      isym =  2     inv. 180 deg rotation - cart. axis [0,1,-1]  

 cryst.   s( 2) = (     1          0          0      )
                  (     0          0          1      )
                  (     0          1          0      )

 cart.    s( 2) = (  1.0000000  0.0000000  0.0000000 )
                  (  0.0000000  0.0000000  1.0000000 )
                  (  0.0000000  1.0000000  0.0000000 )


   Cartesian axes

     site n.     atom                  positions (alat units)
         1        N      tau(   1) = (   0.0000000   0.0000000   0.0000000  )
         2        C      tau(   2) = (   0.0000000   0.2500000   0.2500000  )
         3        C      tau(   3) = (   0.1250000   0.3750000   0.3750000  )
         4        C      tau(   4) = (   0.2500000   0.0000000   0.2500000  )
         5        C      tau(   5) = (   0.3750000   0.1250000   0.3750000  )
         6        C      tau(   6) = (   0.2500000   0.2500000   0.0000000  )
         7        C      tau(   7) = (   0.3750000   0.3750000   0.1250000  )
         8        C      tau(   8) = (   0.0000000   0.0000000   0.5000000  )
         9        C      tau(   9) = (   0.1250000   0.1250000   0.6250000  )
        10        C      tau(  10) = (   0.0000000   0.2500000   0.7500000  )
        11        C      tau(  11) = (   0.1250000   0.3750000   0.8750000  )
        12        C      tau(  12) = (   0.2500000   0.0000000   0.7500000  )
        13        C      tau(  13) = (   0.3750000   0.1250000   0.8750000  )
        14        C      tau(  14) = (   0.2500000   0.2500000   0.5000000  )
        15        C      tau(  15) = (   0.3750000   0.3750000   0.6250000  )
        16        C      tau(  16) = (   0.0000000   0.5000000   0.0000000  )
        17        C      tau(  17) = (   0.1250000   0.6250000   0.1250000  )
        18        C      tau(  18) = (   0.0000000   0.7500000   0.2500000  )
        19        C      tau(  19) = (   0.1250000   0.8750000   0.3750000  )
        20        C      tau(  20) = (   0.2500000   0.5000000   0.2500000  )
        21        C      tau(  21) = (   0.3750000   0.6250000   0.3750000  )
        22        C      tau(  22) = (   0.2500000   0.7500000   0.0000000  )
        23        C      tau(  23) = (   0.3750000   0.8750000   0.1250000  )
        24        C      tau(  24) = (   0.0000000   0.5000000   0.5000000  )
        25        C      tau(  25) = (   0.1250000   0.6250000   0.6250000  )
        26        C      tau(  26) = (   0.0000000   0.7500000   0.7500000  )
        27        C      tau(  27) = (   0.1250000   0.8750000   0.8750000  )
        28        C      tau(  28) = (   0.2500000   0.5000000   0.7500000  )
        29        C      tau(  29) = (   0.3750000   0.6250000   0.8750000  )
        30        C      tau(  30) = (   0.2500000   0.7500000   0.5000000  )
        31        C      tau(  31) = (   0.3750000   0.8750000   0.6250000  )
        32        C      tau(  32) = (   0.5000000   0.0000000   0.0000000  )
        33        C      tau(  33) = (   0.6250000   0.1250000   0.1250000  )
        34        C      tau(  34) = (   0.5000000   0.2500000   0.2500000  )
        35        C      tau(  35) = (   0.6250000   0.3750000   0.3750000  )
        36        C      tau(  36) = (   0.7500000   0.0000000   0.2500000  )
        37        C      tau(  37) = (   0.8750000   0.1250000   0.3750000  )
        38        C      tau(  38) = (   0.7500000   0.2500000   0.0000000  )
        39        C      tau(  39) = (   0.8750000   0.3750000   0.1250000  )
        40        C      tau(  40) = (   0.5000000   0.0000000   0.5000000  )
        41        C      tau(  41) = (   0.6250000   0.1250000   0.6250000  )
        42        C      tau(  42) = (   0.5000000   0.2500000   0.7500000  )
        43        C      tau(  43) = (   0.6250000   0.3750000   0.8750000  )
        44        C      tau(  44) = (   0.7500000   0.0000000   0.7500000  )
        45        C      tau(  45) = (   0.8750000   0.1250000   0.8750000  )
        46        C      tau(  46) = (   0.7500000   0.2500000   0.5000000  )
        47        C      tau(  47) = (   0.8750000   0.3750000   0.6250000  )
        48        C      tau(  48) = (   0.5000000   0.5000000   0.0000000  )
        49        C      tau(  49) = (   0.6250000   0.6250000   0.1250000  )
        50        C      tau(  50) = (   0.5000000   0.7500000   0.2500000  )
        51        C      tau(  51) = (   0.6250000   0.8750000   0.3750000  )
        52        C      tau(  52) = (   0.7500000   0.5000000   0.2500000  )
        53        C      tau(  53) = (   0.8750000   0.6250000   0.3750000  )
        54        C      tau(  54) = (   0.7500000   0.7500000   0.0000000  )
        55        C      tau(  55) = (   0.8750000   0.8750000   0.1250000  )
        56        C      tau(  56) = (   0.5000000   0.5000000   0.5000000  )
        57        C      tau(  57) = (   0.6235165   0.6250000   0.6250000  )
        58        C      tau(  58) = (   0.5000000   0.7500000   0.7500000  )
        59        C      tau(  59) = (   0.6250000   0.8750000   0.8750000  )
        60        C      tau(  60) = (   0.7500000   0.5000000   0.7500000  )
        61        C      tau(  61) = (   0.8750000   0.6250000   0.8750000  )
        62        C      tau(  62) = (   0.7500000   0.7500000   0.5000000  )
        63        C      tau(  63) = (   0.8750000   0.8750000   0.6250000  )

   Crystallographic axes

     site n.     atom                  positions (cryst. coord.)
         1        N      tau(   1) = (  0.0000000  0.0000000  0.0000000  )
         2        C      tau(   2) = (  0.0000000  0.2500000  0.2500000  )
         3        C      tau(   3) = (  0.1250000  0.3750000  0.3750000  )
         4        C      tau(   4) = (  0.2500000  0.0000000  0.2500000  )
         5        C      tau(   5) = (  0.3750000  0.1250000  0.3750000  )
         6        C      tau(   6) = (  0.2500000  0.2500000  0.0000000  )
         7        C      tau(   7) = (  0.3750000  0.3750000  0.1250000  )
         8        C      tau(   8) = (  0.0000000  0.0000000  0.5000000  )
         9        C      tau(   9) = (  0.1250000  0.1250000  0.6250000  )
        10        C      tau(  10) = (  0.0000000  0.2500000  0.7500000  )
        11        C      tau(  11) = (  0.1250000  0.3750000  0.8750000  )
        12        C      tau(  12) = (  0.2500000  0.0000000  0.7500000  )
        13        C      tau(  13) = (  0.3750000  0.1250000  0.8750000  )
        14        C      tau(  14) = (  0.2500000  0.2500000  0.5000000  )
        15        C      tau(  15) = (  0.3750000  0.3750000  0.6250000  )
        16        C      tau(  16) = (  0.0000000  0.5000000  0.0000000  )
        17        C      tau(  17) = (  0.1250000  0.6250000  0.1250000  )
        18        C      tau(  18) = (  0.0000000  0.7500000  0.2500000  )
        19        C      tau(  19) = (  0.1250000  0.8750000  0.3750000  )
        20        C      tau(  20) = (  0.2500000  0.5000000  0.2500000  )
        21        C      tau(  21) = (  0.3750000  0.6250000  0.3750000  )
        22        C      tau(  22) = (  0.2500000  0.7500000  0.0000000  )
        23        C      tau(  23) = (  0.3750000  0.8750000  0.1250000  )
        24        C      tau(  24) = (  0.0000000  0.5000000  0.5000000  )
        25        C      tau(  25) = (  0.1250000  0.6250000  0.6250000  )
        26        C      tau(  26) = (  0.0000000  0.7500000  0.7500000  )
        27        C      tau(  27) = (  0.1250000  0.8750000  0.8750000  )
        28        C      tau(  28) = (  0.2500000  0.5000000  0.7500000  )
        29        C      tau(  29) = (  0.3750000  0.6250000  0.8750000  )
        30        C      tau(  30) = (  0.2500000  0.7500000  0.5000000  )
        31        C      tau(  31) = (  0.3750000  0.8750000  0.6250000  )
        32        C      tau(  32) = (  0.5000000  0.0000000  0.0000000  )
        33        C      tau(  33) = (  0.6250000  0.1250000  0.1250000  )
        34        C      tau(  34) = (  0.5000000  0.2500000  0.2500000  )
        35        C      tau(  35) = (  0.6250000  0.3750000  0.3750000  )
        36        C      tau(  36) = (  0.7500000  0.0000000  0.2500000  )
        37        C      tau(  37) = (  0.8750000  0.1250000  0.3750000  )
        38        C      tau(  38) = (  0.7500000  0.2500000  0.0000000  )
        39        C      tau(  39) = (  0.8750000  0.3750000  0.1250000  )
        40        C      tau(  40) = (  0.5000000  0.0000000  0.5000000  )
        41        C      tau(  41) = (  0.6250000  0.1250000  0.6250000  )
        42        C      tau(  42) = (  0.5000000  0.2500000  0.7500000  )
        43        C      tau(  43) = (  0.6250000  0.3750000  0.8750000  )
        44        C      tau(  44) = (  0.7500000  0.0000000  0.7500000  )
        45        C      tau(  45) = (  0.8750000  0.1250000  0.8750000  )
        46        C      tau(  46) = (  0.7500000  0.2500000  0.5000000  )
        47        C      tau(  47) = (  0.8750000  0.3750000  0.6250000  )
        48        C      tau(  48) = (  0.5000000  0.5000000  0.0000000  )
        49        C      tau(  49) = (  0.6250000  0.6250000  0.1250000  )
        50        C      tau(  50) = (  0.5000000  0.7500000  0.2500000  )
        51        C      tau(  51) = (  0.6250000  0.8750000  0.3750000  )
        52        C      tau(  52) = (  0.7500000  0.5000000  0.2500000  )
        53        C      tau(  53) = (  0.8750000  0.6250000  0.3750000  )
        54        C      tau(  54) = (  0.7500000  0.7500000  0.0000000  )
        55        C      tau(  55) = (  0.8750000  0.8750000  0.1250000  )
        56        C      tau(  56) = (  0.5000000  0.5000000  0.5000000  )
        57        C      tau(  57) = (  0.6235165  0.6250000  0.6250000  )
        58        C      tau(  58) = (  0.5000000  0.7500000  0.7500000  )
        59        C      tau(  59) = (  0.6250000  0.8750000  0.8750000  )
        60        C      tau(  60) = (  0.7500000  0.5000000  0.7500000  )
        61        C      tau(  61) = (  0.8750000  0.6250000  0.8750000  )
        62        C      tau(  62) = (  0.7500000  0.7500000  0.5000000  )
        63        C      tau(  63) = (  0.8750000  0.8750000  0.6250000  )

     number of k points=     1
                       cart. coord. in units 2pi/alat
        k(    1) = (   0.0000000   0.0000000   0.0000000), wk =   1.0000000

                       cryst. coord.
        k(    1) = (   0.0000000   0.0000000   0.0000000), wk =   1.0000000

     Dense  grid:    58461 G-vectors     FFT dimensions: (  64,  64,  64)

     Dynamical RAM for                 wfc:       0.35 MB

     Dynamical RAM for     wfc (w. buffer):       0.35 MB

     Dynamical RAM for           str. fact:       0.04 MB

     Dynamical RAM for           local pot:       0.00 MB

     Dynamical RAM for          nlocal pot:       1.17 MB

     Dynamical RAM for                qrad:       0.65 MB

     Dynamical RAM for          rho,v,vnew:       0.49 MB

     Dynamical RAM for               rhoin:       0.16 MB

     Dynamical RAM for            rho*nmix:       0.60 MB

     Dynamical RAM for           G-vectors:       0.08 MB

     Dynamical RAM for          h,s,v(r/c):       0.53 MB

     Dynamical RAM for          <psi|beta>:       0.58 MB

     Dynamical RAM for                 psi:       0.71 MB

     Dynamical RAM for                hpsi:       0.71 MB

     Dynamical RAM for      wfcinit/wfcrot:       1.24 MB

     Estimated static dynamical RAM per process >       3.37 MB

     Estimated max dynamical RAM per process >       6.49 MB

     Estimated total dynamical RAM >     594.05 MB
     Generating pointlists ...
     new r_m :   0.0893 (alat units)  1.2040 (a.u.) for type    1
     new r_m :   0.0890 (alat units)  1.1993 (a.u.) for type    2

     Initial potential from superposition of free atoms

     starting charge     252.5655, renormalised to     254.0000
     Starting wfcs are random

     total cpu time spent up to now is        1.1 secs

     Self-consistent Calculation

     iteration #  1     ecut=    50.00 Ry     beta= 0.70
     Davidson diagonalization with overlap

---- Real-time Memory Report at c_bands before calling an iterative solver
           159 MiB given to the printing process from OS
             0 MiB allocation reported by mallinfo(arena+hblkhd)
        174270 MiB available memory on the node where the printing process lives
------------------
     ethr =  1.00E-02,  avg # of iterations = 13.0

     total cpu time spent up to now is        1.9 secs

     total energy              =    -723.25618546 Ry
     estimated scf accuracy    <       3.60956653 Ry

     total magnetization       =     2.00 Bohr mag/cell
     absolute magnetization    =     2.00 Bohr mag/cell

     iteration #  2     ecut=    50.00 Ry     beta= 0.70
     Davidson diagonalization with overlap

---- Real-time Memory Report at c_bands before calling an iterative solver
           164 MiB given to the printing process from OS
             0 MiB allocation reported by mallinfo(arena+hblkhd)
        174189 MiB available memory on the node where the printing process lives
------------------
     ethr =  1.42E-03,  avg # of iterations = 13.0

     total cpu time spent up to now is        2.9 secs

     total energy              =    -723.63548711 Ry
     estimated scf accuracy    <       0.38231665 Ry

     total magnetization       =     2.00 Bohr mag/cell
     absolute magnetization    =     2.06 Bohr mag/cell

     iteration #  3     ecut=    50.00 Ry     beta= 0.70
     Davidson diagonalization with overlap

---- Real-time Memory Report at c_bands before calling an iterative solver
           165 MiB given to the printing process from OS
             0 MiB allocation reported by mallinfo(arena+hblkhd)
        174203 MiB available memory on the node where the printing process lives
------------------
     c_bands:  2 eigenvalues not converged
     ethr =  1.51E-04,  avg # of iterations = 20.0

     total cpu time spent up to now is        5.2 secs

     total energy              =    -723.67161752 Ry
     estimated scf accuracy    <       0.83239081 Ry

     total magnetization       =     2.00 Bohr mag/cell
     absolute magnetization    =     2.10 Bohr mag/cell

     iteration #  4     ecut=    50.00 Ry     beta= 0.70
     Davidson diagonalization with overlap

---- Real-time Memory Report at c_bands before calling an iterative solver
           165 MiB given to the printing process from OS
             0 MiB allocation reported by mallinfo(arena+hblkhd)
        174209 MiB available memory on the node where the printing process lives
------------------
     ethr =  1.51E-04,  avg # of iterations = 17.0

     total cpu time spent up to now is        6.5 secs

     total energy              =    -723.83791826 Ry
     estimated scf accuracy    <       0.00797833 Ry

     total magnetization       =     2.00 Bohr mag/cell
     absolute magnetization    =     2.15 Bohr mag/cell

     iteration #  5     ecut=    50.00 Ry     beta= 0.70
     Davidson diagonalization with overlap

---- Real-time Memory Report at c_bands before calling an iterative solver
           165 MiB given to the printing process from OS
             0 MiB allocation reported by mallinfo(arena+hblkhd)
        174202 MiB available memory on the node where the printing process lives
------------------
     ethr =  3.14E-06,  avg # of iterations = 31.5

     total cpu time spent up to now is        7.2 secs

     total energy              =    -723.84130370 Ry
     estimated scf accuracy    <       0.00384084 Ry

     total magnetization       =     2.00 Bohr mag/cell
     absolute magnetization    =     2.17 Bohr mag/cell

     iteration #  6     ecut=    50.00 Ry     beta= 0.70
     Davidson diagonalization with overlap

---- Real-time Memory Report at c_bands before calling an iterative solver
           166 MiB given to the printing process from OS
             0 MiB allocation reported by mallinfo(arena+hblkhd)
        174207 MiB available memory on the node where the printing process lives
------------------
     c_bands:  2 eigenvalues not converged
     ethr =  1.51E-06,  avg # of iterations = 20.0

     total cpu time spent up to now is        8.3 secs

     total energy              =    -723.84202598 Ry
     estimated scf accuracy    <       0.00054775 Ry

     total magnetization       =     2.00 Bohr mag/cell
     absolute magnetization    =     2.19 Bohr mag/cell

     iteration #  7     ecut=    50.00 Ry     beta= 0.70
     Davidson diagonalization with overlap

---- Real-time Memory Report at c_bands before calling an iterative solver
           166 MiB given to the printing process from OS
             0 MiB allocation reported by mallinfo(arena+hblkhd)
        174201 MiB available memory on the node where the printing process lives
------------------
     c_bands:  2 eigenvalues not converged
     ethr =  2.16E-07,  avg # of iterations = 20.0

     total cpu time spent up to now is        9.2 secs

     total energy              =    -723.84218526 Ry
     estimated scf accuracy    <       0.00005137 Ry

     total magnetization       =     2.00 Bohr mag/cell
     absolute magnetization    =     2.20 Bohr mag/cell

     iteration #  8     ecut=    50.00 Ry     beta= 0.70
     Davidson diagonalization with overlap

---- Real-time Memory Report at c_bands before calling an iterative solver
           166 MiB given to the printing process from OS
             0 MiB allocation reported by mallinfo(arena+hblkhd)
        174200 MiB available memory on the node where the printing process lives
------------------
     c_bands:  2 eigenvalues not converged
     ethr =  2.02E-08,  avg # of iterations = 20.0

     total cpu time spent up to now is       10.5 secs

     total energy              =    -723.84220553 Ry
     estimated scf accuracy    <       0.00001188 Ry

     total magnetization       =     2.00 Bohr mag/cell
     absolute magnetization    =     2.20 Bohr mag/cell

     iteration #  9     ecut=    50.00 Ry     beta= 0.70
     Davidson diagonalization with overlap

---- Real-time Memory Report at c_bands before calling an iterative solver
           166 MiB given to the printing process from OS
             0 MiB allocation reported by mallinfo(arena+hblkhd)
        174197 MiB available memory on the node where the printing process lives
------------------
     c_bands:  2 eigenvalues not converged
     ethr =  4.68E-09,  avg # of iterations = 20.0

     total cpu time spent up to now is       11.0 secs

     total energy              =    -723.84221040 Ry
     estimated scf accuracy    <       0.00000180 Ry

     total magnetization       =     2.00 Bohr mag/cell
     absolute magnetization    =     2.21 Bohr mag/cell

     iteration # 10     ecut=    50.00 Ry     beta= 0.70
     Davidson diagonalization with overlap

---- Real-time Memory Report at c_bands before calling an iterative solver
           166 MiB given to the printing process from OS
             0 MiB allocation reported by mallinfo(arena+hblkhd)
        174193 MiB available memory on the node where the printing process lives
------------------
     c_bands:  2 eigenvalues not converged
     ethr =  7.07E-10,  avg # of iterations = 20.0

     total cpu time spent up to now is       11.6 secs

     total energy              =    -723.84221161 Ry
     estimated scf accuracy    <       0.00000065 Ry

     total magnetization       =     2.00 Bohr mag/cell
     absolute magnetization    =     2.21 Bohr mag/cell

     iteration # 11     ecut=    50.00 Ry     beta= 0.70
     Davidson diagonalization with overlap

---- Real-time Memory Report at c_bands before calling an iterative solver
           166 MiB given to the printing process from OS
             0 MiB allocation reported by mallinfo(arena+hblkhd)
        174201 MiB available memory on the node where the printing process lives
------------------
     c_bands:  1 eigenvalues not converged
     ethr =  2.57E-10,  avg # of iterations = 20.0

     total cpu time spent up to now is       12.2 secs

     total energy              =    -723.84221190 Ry
     estimated scf accuracy    <       0.00000014 Ry

     total magnetization       =     2.00 Bohr mag/cell
     absolute magnetization    =     2.22 Bohr mag/cell

     iteration # 12     ecut=    50.00 Ry     beta= 0.70
     Davidson diagonalization with overlap

---- Real-time Memory Report at c_bands before calling an iterative solver
           166 MiB given to the printing process from OS
             0 MiB allocation reported by mallinfo(arena+hblkhd)
        174201 MiB available memory on the node where the printing process lives
------------------
     c_bands:  1 eigenvalues not converged
     ethr =  5.47E-11,  avg # of iterations = 20.0

     total cpu time spent up to now is       12.8 secs

     total energy              =    -723.84221197 Ry
     estimated scf accuracy    <       0.00000004 Ry

     total magnetization       =     2.00 Bohr mag/cell
     absolute magnetization    =     2.22 Bohr mag/cell

     iteration # 13     ecut=    50.00 Ry     beta= 0.70
     Davidson diagonalization with overlap

---- Real-time Memory Report at c_bands before calling an iterative solver
           166 MiB given to the printing process from OS
             0 MiB allocation reported by mallinfo(arena+hblkhd)
        174200 MiB available memory on the node where the printing process lives
------------------
     c_bands:  2 eigenvalues not converged
     ethr =  1.67E-11,  avg # of iterations = 20.0

     total cpu time spent up to now is       13.4 secs

     total energy              =    -723.84221199 Ry
     estimated scf accuracy    <       0.00000001 Ry

     total magnetization       =     2.00 Bohr mag/cell
     absolute magnetization    =     2.22 Bohr mag/cell

     iteration # 14     ecut=    50.00 Ry     beta= 0.70
     Davidson diagonalization with overlap

---- Real-time Memory Report at c_bands before calling an iterative solver
           166 MiB given to the printing process from OS
             0 MiB allocation reported by mallinfo(arena+hblkhd)
        174199 MiB available memory on the node where the printing process lives
------------------
     c_bands:  1 eigenvalues not converged
     ethr =  4.49E-12,  avg # of iterations = 20.0
 
     Magnetic moment per site  (integrated on atomic sphere of radius R)
     atom   1 (R=0.089)  charge=  3.0642  magn=  0.0033
     atom   2 (R=0.089)  charge=  1.9366  magn=  0.2838
     atom   3 (R=0.089)  charge=  1.9970  magn= -0.0081
     atom   4 (R=0.089)  charge=  1.9366  magn=  0.2838
     atom   5 (R=0.089)  charge=  1.9970  magn= -0.0081
     atom   6 (R=0.089)  charge=  1.9366  magn=  0.2838
     atom   7 (R=0.089)  charge=  1.9970  magn= -0.0081
     atom   8 (R=0.089)  charge=  2.0043  magn=  0.0061
     atom   9 (R=0.089)  charge=  2.0034  magn= -0.0016
     atom  10 (R=0.089)  charge=  2.0047  magn=  0.0042
     atom  11 (R=0.089)  charge=  1.9954  magn=  0.0018
     atom  12 (R=0.089)  charge=  2.0048  magn=  0.0042
     atom  13 (R=0.089)  charge=  1.9954  magn=  0.0018
     atom  14 (R=0.089)  charge=  2.0036  magn=  0.0064
     atom  15 (R=0.089)  charge=  2.0057  magn= -0.0016
     atom  16 (R=0.089)  charge=  2.0043  magn=  0.0061
     atom  17 (R=0.089)  charge=  2.0034  magn= -0.0016
     atom  18 (R=0.089)  charge=  2.0047  magn=  0.0042
     atom  19 (R=0.089)  charge=  1.9954  magn=  0.0018
     atom  20 (R=0.089)  charge=  2.0036  magn=  0.0064
     atom  21 (R=0.089)  charge=  2.0057  magn= -0.0016
     atom  22 (R=0.089)  charge=  2.0048  magn=  0.0042
     atom  23 (R=0.089)  charge=  1.9954  magn=  0.0019
     atom  24 (R=0.089)  charge=  2.0048  magn=  0.0148
     atom  25 (R=0.089)  charge=  2.0062  magn=  0.0083
     atom  26 (R=0.089)  charge=  2.0083  magn=  0.0027
     atom  27 (R=0.089)  charge=  1.9600  magn=  0.0017
     atom  28 (R=0.089)  charge=  2.0050  magn=  0.0183
     atom  29 (R=0.089)  charge=  2.0047  magn= -0.0010
     atom  30 (R=0.089)  charge=  2.0050  magn=  0.0183
     atom  31 (R=0.089)  charge=  2.0047  magn= -0.0010
     atom  32 (R=0.089)  charge=  2.0043  magn=  0.0061
     atom  33 (R=0.089)  charge=  2.0034  magn= -0.0016
     atom  34 (R=0.089)  charge=  2.0035  magn=  0.0064
     atom  35 (R=0.089)  charge=  2.0055  magn= -0.0016
     atom  36 (R=0.089)  charge=  2.0048  magn=  0.0042
     atom  37 (R=0.089)  charge=  1.9954  magn=  0.0019
     atom  38 (R=0.089)  charge=  2.0048  magn=  0.0042
     atom  39 (R=0.089)  charge=  1.9954  magn=  0.0018
     atom  40 (R=0.089)  charge=  2.0048  magn=  0.0148
     atom  41 (R=0.089)  charge=  2.0062  magn=  0.0083
     atom  42 (R=0.089)  charge=  2.0050  magn=  0.0183
     atom  43 (R=0.089)  charge=  2.0047  magn= -0.0010
     atom  44 (R=0.089)  charge=  2.0083  magn=  0.0027
     atom  45 (R=0.089)  charge=  1.9600  magn=  0.0017
     atom  46 (R=0.089)  charge=  2.0050  magn=  0.0183
     atom  47 (R=0.089)  charge=  2.0045  magn= -0.0010
     atom  48 (R=0.089)  charge=  2.0048  magn=  0.0148
     atom  49 (R=0.089)  charge=  2.0062  magn=  0.0083
     atom  50 (R=0.089)  charge=  2.0050  magn=  0.0183
     atom  51 (R=0.089)  charge=  2.0047  magn= -0.0010
     atom  52 (R=0.089)  charge=  2.0050  magn=  0.0183
     atom  53 (R=0.089)  charge=  2.0045  magn= -0.0010
     atom  54 (R=0.089)  charge=  2.0083  magn=  0.0027
     atom  55 (R=0.089)  charge=  1.9600  magn=  0.0017
     atom  56 (R=0.089)  charge=  2.0077  magn=  0.0009
     atom  57 (R=0.089)  charge=  2.0055  magn=  0.0010
     atom  58 (R=0.089)  charge=  2.0078  magn=  0.0016
     atom  59 (R=0.089)  charge=  2.0059  magn= -0.0008
     atom  60 (R=0.089)  charge=  2.0033  magn=  0.0016
     atom  61 (R=0.089)  charge=  2.0059  magn= -0.0008
     atom  62 (R=0.089)  charge=  2.0033  magn=  0.0016
     atom  63 (R=0.089)  charge=  2.0059  magn= -0.0008

     total cpu time spent up to now is       14.3 secs

     End of self-consistent calculation

 ------ SPIN UP ------------


          k = 0.0000 0.0000 0.0000 (  7386 PWs)   bands (ev):

    -8.4774  -6.5787  -6.2435  -6.2433  -6.1480  -6.1467  -5.8391  -4.6847
    -4.0859  -4.0859  -4.0538  -4.0536  -4.0435  -3.9823  -3.9821  -3.9301
    -3.7839  -3.7792  -3.3411  -2.9113  -2.5990  -2.5980  -1.9283  -0.3377
    -0.2908  -0.2907  -0.2518   0.0141   0.2387   0.2403   0.2944   0.2996
     0.3672   0.6312   0.9488   0.9488   0.9592   1.0101   1.0103   1.0910
     1.1006   1.1011   1.4532   1.4609   2.9651   4.0803   4.1973   4.1980
     4.2683   4.2683   4.2860   4.3319   4.3363   4.3368   4.4441   4.4574
     4.5819   4.5821   4.6311   4.6852   4.6853   4.7210   4.7398   4.7918
     4.7918   4.8786   4.8967   4.8977   5.1879   5.3530   5.3530   5.3872
     5.3876   5.4052   5.4067   5.5393   5.5408   6.0252   6.0258   6.0546
     6.7051   6.7061   6.7685   7.1203   7.1398   7.1515   7.2723   8.4538
     8.4541   8.4594   8.5551   8.5566   8.7658   8.7672   8.8568   8.8572
     8.8741   8.9153   9.0062   9.0070   9.0326   9.3154   9.3329   9.3616
     9.9167   9.9173   9.9350   9.9510   9.9511   9.9532  10.0006  10.0090
    10.0097  10.0217  10.0232  10.0409  10.1915  10.1921  10.3805  10.4120
    10.4557  10.4557  12.3042  12.4999  12.5061  13.9231  14.8526  14.8534
    17.2051  17.4343  17.4355  17.5252  17.5412  17.5534  17.7521  17.9195
    17.9207  18.0030  18.0031  18.3158  18.8201  18.8235  18.9128  20.4873
    20.8819  20.8846  20.9424  20.9429  20.9430  20.9913  21.0055  21.0410

     occupation numbers 
     1.0000   1.0000   1.0000   1.0000   1.0000   1.0000   1.0000   1.0000
     1.0000   1.0000   1.0000   1.0000   1.0000   1.0000   1.0000   1.0000
     1.0000   1.0000   1.0000   1.0000   1.0000   1.0000   1.0000   1.0000
     1.0000   1.0000   1.0000   1.0000   1.0000   1.0000   1.0000   1.0000
     1.0000   1.0000   1.0000   1.0000   1.0000   1.0000   1.0000   1.0000
     1.0000   1.0000   1.0000   1.0000   1.0000   1.0000   1.0000   1.0000
     1.0000   1.0000   1.0000   1.0000   1.0000   1.0000   1.0000   1.0000
     1.0000   1.0000   1.0000   1.0000   1.0000   1.0000   1.0000   1.0000
     1.0000   1.0000   1.0000   1.0000   1.0000   1.0000   1.0000   1.0000
     1.0000   1.0000   1.0000   1.0000   1.0000   1.0000   1.0000   1.0000
     1.0000   1.0000   1.0000   1.0000   1.0000   1.0000   1.0000   1.0000
     1.0000   1.0000   1.0000   1.0000   1.0000   1.0000   1.0000   1.0000
     1.0000   1.0000   1.0000   1.0000   1.0000   1.0000   1.0000   1.0000
     1.0000   1.0000   1.0000   1.0000   1.0000   1.0000   1.0000   1.0000
     1.0000   1.0000   1.0000   1.0000   1.0000   1.0000   1.0000   1.0000
     1.0000   1.0000   1.0000   1.0000   1.0000   1.0000   1.0000   1.0000
     0.0000   0.0000   0.0000   0.0000   0.0000   0.0000   0.0000   0.0000
     0.0000   0.0000   0.0000   0.0000   0.0000   0.0000   0.0000   0.0000
     0.0000   0.0000   0.0000   0.0000   0.0000   0.0000   0.0000   0.0000

 ------ SPIN DOWN ----------


          k = 0.0000 0.0000 0.0000 (  7386 PWs)   bands (ev):

    -8.4570  -6.5673  -6.2276  -6.2274  -6.1200  -6.1187  -5.8069  -4.6697
    -4.0711  -4.0710  -4.0402  -4.0400  -4.0225  -3.9628  -3.9624  -3.9212
    -3.7247  -3.7197  -3.2997  -2.8969  -2.5474  -2.5465  -1.7950  -0.3213
    -0.2732  -0.2732  -0.2303   0.0714   0.2542   0.2555   0.3215   0.3275
     0.3876   0.6665   0.9602   0.9602   0.9864   1.0283   1.0284   1.1086
     1.1152   1.1157   1.6200   1.6278   3.0998   4.1180   4.2154   4.2159
     4.2791   4.2792   4.2991   4.3527   4.3602   4.3607   4.5100   4.5230
     4.5964   4.5966   4.6392   4.6977   4.6979   4.7366   4.7721   4.8228
     4.8234   4.8890   4.9316   4.9322   5.2610   5.3677   5.3678   5.4128
     5.4132   5.4156   5.4277   5.5920   5.5936   6.0860   6.0865   6.0942
     6.7285   6.7295   6.8017   7.1634   7.2311   7.2437   7.4960   8.4742
     8.4744   8.4914   8.5926   8.5938   8.7921   8.7935   8.8661   8.8665
     8.8894   8.9428   9.0531   9.0538   9.0766   9.3519   9.3692   9.4056
     9.9454   9.9464   9.9538   9.9587   9.9636   9.9658  10.0156  10.0302
    10.0374  10.0441  10.0447  10.0699  10.2245  10.2250  10.4990  10.5317
    10.5317  10.9144  12.5448  12.6466  12.6531  14.3909  16.3824  16.3826
    17.2382  17.4500  17.4510  17.5614  17.5631  17.5863  17.7797  17.9468
    17.9480  18.0490  18.0491  18.4121  18.8747  18.8777  18.9604  20.5388
    20.9131  20.9157  20.9543  20.9570  20.9572  21.0139  21.0313  21.0590

     occupation numbers 
     1.0000   1.0000   1.0000   1.0000   1.0000   1.0000   1.0000   1.0000
     1.0000   1.0000   1.0000   1.0000   1.0000   1.0000   1.0000   1.0000
     1.0000   1.0000   1.0000   1.0000   1.0000   1.0000   1.0000   1.0000
     1.0000   1.0000   1.0000   1.0000   1.0000   1.0000   1.0000   1.0000
     1.0000   1.0000   1.0000   1.0000   1.0000   1.0000   1.0000   1.0000
     1.0000   1.0000   1.0000   1.0000   1.0000   1.0000   1.0000   1.0000
     1.0000   1.0000   1.0000   1.0000   1.0000   1.0000   1.0000   1.0000
     1.0000   1.0000   1.0000   1.0000   1.0000   1.0000   1.0000   1.0000
     1.0000   1.0000   1.0000   1.0000   1.0000   1.0000   1.0000   1.0000
     1.0000   1.0000   1.0000   1.0000   1.0000   1.0000   1.0000   1.0000
     1.0000   1.0000   1.0000   1.0000   1.0000   1.0000   1.0000   1.0000
     1.0000   1.0000   1.0000   1.0000   1.0000   1.0000   1.0000   1.0000
     1.0000   1.0000   1.0000   1.0000   1.0000   1.0000   1.0000   1.0000
     1.0000   1.0000   1.0000   1.0000   1.0000   1.0000   1.0000   1.0000
     1.0000   1.0000   1.0000   1.0000   1.0000   1.0000   1.0000   1.0000
     1.0000   1.0000   1.0000   1.0000   1.0000   1.0000   0.0000   0.0000
     0.0000   0.0000   0.0000   0.0000   0.0000   0.0000   0.0000   0.0000
     0.0000   0.0000   0.0000   0.0000   0.0000   0.0000   0.0000   0.0000
     0.0000   0.0000   0.0000   0.0000   0.0000   0.0000   0.0000   0.0000

     highest occupied, lowest unoccupied level (ev):    14.8534   16.3824

!    total energy              =    -723.84221200 Ry
     estimated scf accuracy    <          3.5E-09 Ry

     The total energy is the sum of the following terms:
     one-electron contribution =     239.39968566 Ry
     hartree contribution      =      67.06758560 Ry
     xc contribution           =    -226.46819279 Ry
     ewald contribution        =    -803.84129047 Ry

     total magnetization       =     2.00 Bohr mag/cell
     absolute magnetization    =     2.22 Bohr mag/cell

     convergence has been achieved in  14 iterations

     Forces acting on atoms (cartesian axes, Ry/au):

     atom    1 type  1   force =    -0.07545002   -0.07549970   -0.07549970
     atom    2 type  2   force =    -0.04393566    0.07364975    0.07364975
     atom    3 type  2   force =    -0.01692723   -0.02901627   -0.02901627
     atom    4 type  2   force =     0.07365468   -0.04394965    0.07361115
     atom    5 type  2   force =    -0.02904954   -0.01700558   -0.02901858
     atom    6 type  2   force =     0.07365468    0.07361115   -0.04394965
     atom    7 type  2   force =    -0.02904954   -0.02901858   -0.01700558
     atom    8 type  2   force =    -0.00331117   -0.00334462    0.00008937
     atom    9 type  2   force =    -0.00018855   -0.00016825   -0.00270851
     atom   10 type  2   force =     0.01022081   -0.00411345    0.00937824
     atom   11 type  2   force =     0.00471617   -0.03206313    0.03377494
     atom   12 type  2   force =    -0.00424670    0.01034627    0.00919363
     atom   13 type  2   force =    -0.03204793    0.00467385    0.03372237
     atom   14 type  2   force =     0.00314502    0.00311152   -0.00094627
     atom   15 type  2   force =    -0.00322125   -0.00329084    0.00194612
     atom   16 type  2   force =    -0.00331117    0.00008937   -0.00334462
     atom   17 type  2   force =    -0.00018855   -0.00270851   -0.00016825
     atom   18 type  2   force =     0.01022081    0.00937824   -0.00411345
     atom   19 type  2   force =     0.00471617    0.03377494   -0.03206313
     atom   20 type  2   force =     0.00314502   -0.00094627    0.00311152
     atom   21 type  2   force =    -0.00322125    0.00194612   -0.00329084
     atom   22 type  2   force =    -0.00424670    0.00919363    0.01034627
     atom   23 type  2   force =    -0.03204793    0.03372237    0.00467385
     atom   24 type  2   force =     0.00743400    0.00779120    0.00779120
     atom   25 type  2   force =    -0.00035759    0.00027837    0.00027837
     atom   26 type  2   force =     0.00335655   -0.00219845   -0.00219845
     atom   27 type  2   force =    -0.03923888    0.01846889    0.01846889
     atom   28 type  2   force =     0.00100423    0.00554515   -0.00571416
     atom   29 type  2   force =    -0.00492472   -0.00250690   -0.00303822
     atom   30 type  2   force =     0.00100423   -0.00571416    0.00554515
     atom   31 type  2   force =    -0.00492472   -0.00303822   -0.00250690
     atom   32 type  2   force =     0.00006331   -0.00335097   -0.00335097
     atom   33 type  2   force =    -0.00251280   -0.00016884   -0.00016884
     atom   34 type  2   force =    -0.00116358    0.00328523    0.00328523
     atom   35 type  2   force =     0.00292152   -0.00230113   -0.00230113
     atom   36 type  2   force =     0.00917076    0.01035282   -0.00428969
     atom   37 type  2   force =     0.03374303    0.00463672   -0.03206888
     atom   38 type  2   force =     0.00917076   -0.00428969    0.01035282
     atom   39 type  2   force =     0.03374303   -0.03206888    0.00463672
     atom   40 type  2   force =     0.00793997    0.00733865    0.00783412
     atom   41 type  2   force =     0.00025686   -0.00033500    0.00027781
     atom   42 type  2   force =     0.00558272    0.00101267   -0.00564044
     atom   43 type  2   force =    -0.00224353   -0.00468924   -0.00334052
     atom   44 type  2   force =    -0.00216132    0.00336579   -0.00226868
     atom   45 type  2   force =     0.01847574   -0.03928202    0.01852026
     atom   46 type  2   force =    -0.00556364    0.00090667    0.00549693
     atom   47 type  2   force =    -0.00424190   -0.00372573   -0.00320098
     atom   48 type  2   force =     0.00793997    0.00783412    0.00733865
     atom   49 type  2   force =     0.00025686    0.00027781   -0.00033500
     atom   50 type  2   force =     0.00558272   -0.00564044    0.00101267
     atom   51 type  2   force =    -0.00224353   -0.00334052   -0.00468924
     atom   52 type  2   force =    -0.00556364    0.00549693    0.00090667
     atom   53 type  2   force =    -0.00424190   -0.00320098   -0.00372573
     atom   54 type  2   force =    -0.00216132   -0.00226868    0.00336579
     atom   55 type  2   force =     0.01847574    0.01852026   -0.03928202
     atom   56 type  2   force =    -0.00445205   -0.00134356   -0.00134356
     atom   57 type  2   force =     0.01664009   -0.00103003   -0.00103003
     atom   58 type  2   force =    -0.00352109    0.00250704    0.00250704
     atom   59 type  2   force =     0.00300029    0.00299680    0.00299680
     atom   60 type  2   force =    -0.00241693    0.00139951    0.00066638
     atom   61 type  2   force =     0.00277872    0.00272834    0.00271177
     atom   62 type  2   force =    -0.00241693    0.00066638    0.00139951
     atom   63 type  2   force =     0.00277872    0.00271177    0.00272834
     The non-local contrib.  to forces
     atom    1 type  1   force =    -1.06633651   -1.06633808   -1.06633808
     atom    2 type  2   force =    -0.34701094    0.37375344    0.37375344
     atom    3 type  2   force =     0.05618535    0.04980959    0.04980959
     atom    4 type  2   force =     0.37376288   -0.34703363    0.37376336
     atom    5 type  2   force =     0.04987656    0.05611957    0.04975121
     atom    6 type  2   force =     0.37376288    0.37376336   -0.34703363
     atom    7 type  2   force =     0.04987656    0.04975121    0.05611957
     atom    8 type  2   force =    -0.00996371   -0.01007022    0.05456412
     atom    9 type  2   force =    -0.00385171   -0.00351979    0.01693891
     atom   10 type  2   force =    -0.03076983   -0.02292670   -0.01624678
     atom   11 type  2   force =    -0.06812205    0.02999174   -0.04483578
     atom   12 type  2   force =    -0.02338974   -0.03032447   -0.01619196
     atom   13 type  2   force =     0.03001470   -0.06831376   -0.04473473
     atom   14 type  2   force =     0.00259788    0.00248445    0.05555059
     atom   15 type  2   force =     0.01582114    0.01597973    0.00727770
     atom   16 type  2   force =    -0.00996371    0.05456412   -0.01007022
     atom   17 type  2   force =    -0.00385171    0.01693891   -0.00351979
     atom   18 type  2   force =    -0.03076983   -0.01624678   -0.02292670
     atom   19 type  2   force =    -0.06812205   -0.04483578    0.02999174
     atom   20 type  2   force =     0.00259788    0.05555059    0.00248445
     atom   21 type  2   force =     0.01582114    0.00727770    0.01597973
     atom   22 type  2   force =    -0.02338974   -0.01619196   -0.03032447
     atom   23 type  2   force =     0.03001470   -0.04473473   -0.06831376
     atom   24 type  2   force =    -0.04592723    0.03899869    0.03899869
     atom   25 type  2   force =    -0.01388419    0.01688307    0.01688307
     atom   26 type  2   force =    -0.02883461   -0.02116089   -0.02116089
     atom   27 type  2   force =    -0.14150203    0.13419770    0.13419770
     atom   28 type  2   force =     0.04502484    0.03467409   -0.02526885
     atom   29 type  2   force =     0.00071433    0.01529329   -0.00510376
     atom   30 type  2   force =     0.04502484   -0.02526885    0.03467409
     atom   31 type  2   force =     0.00071433   -0.00510376    0.01529329
     atom   32 type  2   force =     0.05478876   -0.01024831   -0.01024831
     atom   33 type  2   force =     0.01653487   -0.00350973   -0.00350973
     atom   34 type  2   force =     0.05582648    0.00324259    0.00324259
     atom   35 type  2   force =     0.00692071    0.01759023    0.01759023
     atom   36 type  2   force =    -0.01596724   -0.03013171   -0.02368599
     atom   37 type  2   force =    -0.04476539   -0.06818334    0.03003796
     atom   38 type  2   force =    -0.01596724   -0.02368599   -0.03013171
     atom   39 type  2   force =    -0.04476539    0.03003796   -0.06818334
     atom   40 type  2   force =     0.03892107   -0.04601492    0.03921640
     atom   41 type  2   force =     0.01691541   -0.01404382    0.01688604
     atom   42 type  2   force =     0.03447104    0.04474760   -0.02536168
     atom   43 type  2   force =     0.01487913    0.00035043   -0.00456129
     atom   44 type  2   force =    -0.02136758   -0.02912016   -0.02105913
     atom   45 type  2   force =     0.13419123   -0.14167058    0.13406746
     atom   46 type  2   force =    -0.02533768    0.04493218    0.03444292
     atom   47 type  2   force =    -0.00629610    0.00191019    0.01526860
     atom   48 type  2   force =     0.03892107    0.03921640   -0.04601492
     atom   49 type  2   force =     0.01691541    0.01688604   -0.01404382
     atom   50 type  2   force =     0.03447104   -0.02536168    0.04474760
     atom   51 type  2   force =     0.01487913   -0.00456129    0.00035043
     atom   52 type  2   force =    -0.02533768    0.03444292    0.04493218
     atom   53 type  2   force =    -0.00629610    0.01526860    0.00191019
     atom   54 type  2   force =    -0.02136758   -0.02105913   -0.02912016
     atom   55 type  2   force =     0.13419123    0.13406746   -0.14167058
     atom   56 type  2   force =     0.01017903    0.01319611    0.01319611
     atom   57 type  2   force =     0.02527509    0.00425102    0.00425102
     atom   58 type  2   force =     0.00565082   -0.00551018   -0.00551018
     atom   59 type  2   force =     0.01394442   -0.01878034   -0.01878034
     atom   60 type  2   force =    -0.01001371    0.01017150   -0.00705744
     atom   61 type  2   force =    -0.01838138    0.01435447   -0.01822439
     atom   62 type  2   force =    -0.01001371   -0.00705744    0.01017150
     atom   63 type  2   force =    -0.01838138   -0.01822439    0.01435447
     The ionic contribution  to forces
     atom    1 type  1   force =     2.60446794    2.60536717    2.60536717
     atom    2 type  2   force =     2.08357435   -1.87646324   -1.87646324
     atom    3 type  2   force =     0.02805193   -0.77927143   -0.77927143
     atom    4 type  2   force =    -1.87793210    2.08505555   -1.87722505
     atom    5 type  2   force =    -0.77939351    0.03105908   -0.77994347
     atom    6 type  2   force =    -1.87793210   -1.87722505    2.08505555
     atom    7 type  2   force =    -0.77939351   -0.77994347    0.03105908
     atom    8 type  2   force =     0.27636979    0.27739397   -0.57605478
     atom    9 type  2   force =     0.06741459    0.06964074   -0.14414459
     atom   10 type  2   force =     0.27636979   -0.06956348    0.36822428
     atom   11 type  2   force =     0.06663360   -0.68718485    0.76168870
     atom   12 type  2   force =    -0.07291506    0.27974669    0.36927772
     atom   13 type  2   force =    -0.68730694    0.06964074    0.76236073
     atom   14 type  2   force =    -0.23379547   -0.23279660   -0.57710821
     atom   15 type  2   force =    -0.16413786   -0.16811429   -0.02796070
     atom   16 type  2   force =     0.27636979   -0.57605478    0.27739397
     atom   17 type  2   force =     0.06741459   -0.14414459    0.06964074
     atom   18 type  2   force =     0.27636979    0.36822428   -0.06956348
     atom   19 type  2   force =     0.06663360    0.76168870   -0.68718485
     atom   20 type  2   force =    -0.23379547   -0.57710821   -0.23279660
     atom   21 type  2   force =    -0.16413786   -0.02796070   -0.16811429
     atom   22 type  2   force =    -0.07291506    0.36927772    0.27974669
     atom   23 type  2   force =    -0.68730694    0.76236073    0.06964074
     atom   24 type  2   force =     0.11664215   -0.20581286   -0.20581286
     atom   25 type  2   force =     0.02210717   -0.05205801   -0.05205801
     atom   26 type  2   force =     0.11664215   -0.00201763   -0.00201763
     atom   27 type  2   force =     0.51816100    0.31016130    0.31016130
     atom   28 type  2   force =    -0.08490794   -0.21069224    0.16374216
     atom   29 type  2   force =    -0.14004055   -0.05205801    0.16501592
     atom   30 type  2   force =    -0.08490794    0.16374216   -0.21069224
     atom   31 type  2   force =    -0.14004055    0.16501592   -0.05205801
     atom   32 type  2   force =    -0.57547871    0.27908764    0.27908764
     atom   33 type  2   force =    -0.14297468    0.06964074    0.06964074
     atom   34 type  2   force =    -0.57547871   -0.23213755   -0.23213755
     atom   35 type  2   force =    -0.02261385   -0.15981470   -0.15981470
     atom   36 type  2   force =     0.36983499    0.27803423   -0.07020373
     atom   37 type  2   force =     0.76153554    0.06964074   -0.68649906
     atom   38 type  2   force =     0.36983499   -0.07020373    0.27803423
     atom   39 type  2   force =     0.76153554   -0.68649906    0.06964074
     atom   40 type  2   force =    -0.20605182    0.12666896   -0.20920251
     atom   41 type  2   force =    -0.04922340    0.03105908   -0.05205801
     atom   42 type  2   force =    -0.20605182   -0.07971888    0.16225243
     atom   43 type  2   force =    -0.04671116   -0.13571739    0.15671632
     atom   44 type  2   force =     0.00254675    0.12178988   -0.00057486
     atom   45 type  2   force =     0.31000814    0.52116815    0.30947550
     atom   46 type  2   force =     0.16342716   -0.07483980   -0.20725564
     atom   47 type  2   force =     0.15241038   -0.12755020   -0.05205801
     atom   48 type  2   force =    -0.20605182   -0.20920251    0.12666896
     atom   49 type  2   force =    -0.04922340   -0.05205801    0.03105908
     atom   50 type  2   force =    -0.20605182    0.16225243   -0.07971888
     atom   51 type  2   force =    -0.04671116    0.15671632   -0.13571739
     atom   52 type  2   force =     0.16342716   -0.20725564   -0.07483980
     atom   53 type  2   force =     0.15241038   -0.05205801   -0.12755020
     atom   54 type  2   force =     0.00254675   -0.00057486    0.12178988
     atom   55 type  2   force =     0.31000814    0.30947550    0.52116815
     atom   56 type  2   force =    -0.11272969   -0.13753983   -0.13753983
     atom   57 type  2   force =     0.04014264   -0.02786599   -0.02786599
     atom   58 type  2   force =    -0.11272969    0.09058974    0.09058974
     atom   59 type  2   force =    -0.13879774    0.11813466    0.11813466
     atom   60 type  2   force =     0.06359507   -0.08635112    0.03940103
     atom   61 type  2   force =     0.11382871   -0.14414459    0.10996747
     atom   62 type  2   force =     0.06359507    0.03940103   -0.08635112
     atom   63 type  2   force =     0.11382871    0.10996747   -0.14414459
     The local contribution  to forces
     atom    1 type  1   force =    -1.61363447   -1.61452382   -1.61450720
     atom    2 type  2   force =    -1.78054265    1.57634494    1.57635414
     atom    3 type  2   force =    -0.10121241    0.70041377    0.70041178
     atom    4 type  2   force =     1.57778026   -1.78196861    1.57706798
     atom    5 type  2   force =     0.70043239   -0.10419057    0.70114912
     atom    6 type  2   force =     1.57778788    1.57706529   -1.78196425
     atom    7 type  2   force =     0.70043569    0.70115331   -0.10417021
     atom    8 type  2   force =    -0.26975854   -0.27066972    0.52153343
     atom    9 type  2   force =    -0.06379193   -0.06629844    0.12444608
     atom   10 type  2   force =    -0.23542738    0.08836616   -0.34263004
     atom   11 type  2   force =     0.00615466    0.62511366   -0.68308705
     atom   12 type  2   force =     0.09202875   -0.23908922   -0.34392630
     atom   13 type  2   force =     0.62521987    0.00332843   -0.68391861
     atom   14 type  2   force =     0.23430281    0.23340671    0.52056215
     atom   15 type  2   force =     0.14507047    0.14882680    0.02258468
     atom   16 type  2   force =    -0.26976296    0.52154330   -0.27066025
     atom   17 type  2   force =    -0.06379272    0.12445962   -0.06628307
     atom   18 type  2   force =    -0.23542376   -0.34262032    0.08837188
     atom   19 type  2   force =     0.00616382   -0.68308294    0.62510768
     atom   20 type  2   force =     0.23430207    0.52057418    0.23341790
     atom   21 type  2   force =     0.14506616    0.02259886    0.14882491
     atom   22 type  2   force =     0.09202931   -0.34391513   -0.23907712
     atom   23 type  2   force =     0.62521732   -0.68391494    0.00334813
     atom   24 type  2   force =    -0.06332991    0.17457172    0.17456243
     atom   25 type  2   force =    -0.00862063    0.03542522    0.03541171
     atom   26 type  2   force =    -0.08449996    0.02095597    0.02094683
     atom   27 type  2   force =    -0.41593878   -0.42589986   -0.42589976
     atom   28 type  2   force =     0.04085745    0.18154225   -0.14421795
     atom   29 type  2   force =     0.13437972    0.03423358   -0.16296847
     atom   30 type  2   force =     0.04085659   -0.14420635    0.18152912
     atom   31 type  2   force =     0.13437623   -0.16296762    0.03421907
     atom   32 type  2   force =     0.52072913   -0.27220352   -0.27218967
     atom   33 type  2   force =     0.12390238   -0.06630922   -0.06629297
     atom   34 type  2   force =     0.51845909    0.23216476    0.23217576
     atom   35 type  2   force =     0.01859190    0.13990127    0.13990227
     atom   36 type  2   force =    -0.34472165   -0.23755158    0.08959228
     atom   37 type  2   force =    -0.68305469    0.00318018    0.62436014
     atom   38 type  2   force =    -0.34471962    0.08958663   -0.23754194
     atom   39 type  2   force =    -0.68305553    0.62436313    0.00319164
     atom   40 type  2   force =     0.17504144   -0.07332671    0.17778377
     atom   41 type  2   force =     0.03253861   -0.01736085    0.03540826
     atom   42 type  2   force =     0.17714205    0.03597280   -0.14256525
     atom   43 type  2   force =     0.02956491    0.13066460   -0.15551284
     atom   44 type  2   force =     0.01662442   -0.08931863    0.01933627
     atom   45 type  2   force =    -0.42575953   -0.41879102   -0.42502558
     atom   46 type  2   force =    -0.14367764    0.03080428    0.17826815
     atom   47 type  2   force =    -0.15039903    0.12189632    0.03354337
     atom   48 type  2   force =     0.17504673    0.17779841   -0.07331962
     atom   49 type  2   force =     0.03253946    0.03542144   -0.01735181
     atom   50 type  2   force =     0.17713787   -0.14255059    0.03597809
     atom   51 type  2   force =     0.02956085   -0.15550944    0.13065906
     atom   52 type  2   force =    -0.14367572    0.17827546    0.03080961
     atom   53 type  2   force =    -0.15039709    0.03355315    0.12189471
     atom   54 type  2   force =     0.01662286    0.01934429   -0.08930882
     atom   55 type  2   force =    -0.42575918   -0.42502517   -0.41877912
     atom   56 type  2   force =     0.09807594    0.12297499    0.12296847
     atom   57 type  2   force =    -0.04880377    0.02255803    0.02254963
     atom   58 type  2   force =     0.10353470   -0.08259690   -0.08260292
     atom   59 type  2   force =     0.12782478   -0.09637698   -0.09637473
     atom   60 type  2   force =    -0.05603380    0.07755543   -0.03171133
     atom   61 type  2   force =    -0.09271530    0.13248741   -0.08904803
     atom   62 type  2   force =    -0.05603262   -0.03170401    0.07754848
     atom   63 type  2   force =    -0.09271388   -0.08904900    0.13247815
     The core correction contribution to forces
     atom    1 type  1   force =     0.00000000    0.00000000    0.00000000
     atom    2 type  2   force =     0.00000000    0.00000000    0.00000000
     atom    3 type  2   force =     0.00000000    0.00000000    0.00000000
     atom    4 type  2   force =     0.00000000    0.00000000    0.00000000
     atom    5 type  2   force =     0.00000000    0.00000000    0.00000000
     atom    6 type  2   force =     0.00000000    0.00000000    0.00000000
     atom    7 type  2   force =     0.00000000    0.00000000    0.00000000
     atom    8 type  2   force =     0.00000000    0.00000000    0.00000000
     atom    9 type  2   force =     0.00000000    0.00000000    0.00000000
     atom   10 type  2   force =     0.00000000    0.00000000    0.00000000
     atom   11 type  2   force =     0.00000000    0.00000000    0.00000000
     atom   12 type  2   force =     0.00000000    0.00000000    0.00000000
     atom   13 type  2   force =     0.00000000    0.00000000    0.00000000
     atom   14 type  2   force =     0.00000000    0.00000000    0.00000000
     atom   15 type  2   force =     0.00000000    0.00000000    0.00000000
     atom   16 type  2   force =     0.00000000    0.00000000    0.00000000
     atom   17 type  2   force =     0.00000000    0.00000000    0.00000000
     atom   18 type  2   force =     0.00000000    0.00000000    0.00000000
     atom   19 type  2   force =     0.00000000    0.00000000    0.00000000
     atom   20 type  2   force =     0.00000000    0.00000000    0.00000000
     atom   21 type  2   force =     0.00000000    0.00000000    0.00000000
     atom   22 type  2   force =     0.00000000    0.00000000    0.00000000
     atom   23 type  2   force =     0.00000000    0.00000000    0.00000000
     atom   24 type  2   force =     0.00000000    0.00000000    0.00000000
     atom   25 type  2   force =     0.00000000    0.00000000    0.00000000
     atom   26 type  2   force =     0.00000000    0.00000000    0.00000000
     atom   27 type  2   force =     0.00000000    0.00000000    0.00000000
     atom   28 type  2   force =     0.00000000    0.00000000    0.00000000
     atom   29 type  2   force =     0.00000000    0.00000000    0.00000000
     atom   30 type  2   force =     0.00000000    0.00000000    0.00000000
     atom   31 type  2   force =     0.00000000    0.00000000    0.00000000
     atom   32 type  2   force =     0.00000000    0.00000000    0.00000000
     atom   33 type  2   force =     0.00000000    0.00000000    0.00000000
     atom   34 type  2   force =     0.00000000    0.00000000    0.00000000
     atom   35 type  2   force =     0.00000000    0.00000000    0.00000000
     atom   36 type  2   force =     0.00000000    0.00000000    0.00000000
     atom   37 type  2   force =     0.00000000    0.00000000    0.00000000
     atom   38 type  2   force =     0.00000000    0.00000000    0.00000000
     atom   39 type  2   force =     0.00000000    0.00000000    0.00000000
     atom   40 type  2   force =     0.00000000    0.00000000    0.00000000
     atom   41 type  2   force =     0.00000000    0.00000000    0.00000000
     atom   42 type  2   force =     0.00000000    0.00000000    0.00000000
     atom   43 type  2   force =     0.00000000    0.00000000    0.00000000
     atom   44 type  2   force =     0.00000000    0.00000000    0.00000000
     atom   45 type  2   force =     0.00000000    0.00000000    0.00000000
     atom   46 type  2   force =     0.00000000    0.00000000    0.00000000
     atom   47 type  2   force =     0.00000000    0.00000000    0.00000000
     atom   48 type  2   force =     0.00000000    0.00000000    0.00000000
     atom   49 type  2   force =     0.00000000    0.00000000    0.00000000
     atom   50 type  2   force =     0.00000000    0.00000000    0.00000000
     atom   51 type  2   force =     0.00000000    0.00000000    0.00000000
     atom   52 type  2   force =     0.00000000    0.00000000    0.00000000
     atom   53 type  2   force =     0.00000000    0.00000000    0.00000000
     atom   54 type  2   force =     0.00000000    0.00000000    0.00000000
     atom   55 type  2   force =     0.00000000    0.00000000    0.00000000
     atom   56 type  2   force =     0.00000000    0.00000000    0.00000000
     atom   57 type  2   force =     0.00000000    0.00000000    0.00000000
     atom   58 type  2   force =     0.00000000    0.00000000    0.00000000
     atom   59 type  2   force =     0.00000000    0.00000000    0.00000000
     atom   60 type  2   force =     0.00000000    0.00000000    0.00000000
     atom   61 type  2   force =     0.00000000    0.00000000    0.00000000
     atom   62 type  2   force =     0.00000000    0.00000000    0.00000000
     atom   63 type  2   force =     0.00000000    0.00000000    0.00000000
     The Hubbard contrib.    to forces
     atom    1 type  1   force =     0.00000000    0.00000000    0.00000000
     atom    2 type  2   force =     0.00000000    0.00000000    0.00000000
     atom    3 type  2   force =     0.00000000    0.00000000    0.00000000
     atom    4 type  2   force =     0.00000000    0.00000000    0.00000000
     atom    5 type  2   force =     0.00000000    0.00000000    0.00000000
     atom    6 type  2   force =     0.00000000    0.00000000    0.00000000
     atom    7 type  2   force =     0.00000000    0.00000000    0.00000000
     atom    8 type  2   force =     0.00000000    0.00000000    0.00000000
     atom    9 type  2   force =     0.00000000    0.00000000    0.00000000
     atom   10 type  2   force =     0.00000000    0.00000000    0.00000000
     atom   11 type  2   force =     0.00000000    0.00000000    0.00000000
     atom   12 type  2   force =     0.00000000    0.00000000    0.00000000
     atom   13 type  2   force =     0.00000000    0.00000000    0.00000000
     atom   14 type  2   force =     0.00000000    0.00000000    0.00000000
     atom   15 type  2   force =     0.00000000    0.00000000    0.00000000
     atom   16 type  2   force =     0.00000000    0.00000000    0.00000000
     atom   17 type  2   force =     0.00000000    0.00000000    0.00000000
     atom   18 type  2   force =     0.00000000    0.00000000    0.00000000
     atom   19 type  2   force =     0.00000000    0.00000000    0.00000000
     atom   20 type  2   force =     0.00000000    0.00000000    0.00000000
     atom   21 type  2   force =     0.00000000    0.00000000    0.00000000
     atom   22 type  2   force =     0.00000000    0.00000000    0.00000000
     atom   23 type  2   force =     0.00000000    0.00000000    0.00000000
     atom   24 type  2   force =     0.00000000    0.00000000    0.00000000
     atom   25 type  2   force =     0.00000000    0.00000000    0.00000000
     atom   26 type  2   force =     0.00000000    0.00000000    0.00000000
     atom   27 type  2   force =     0.00000000    0.00000000    0.00000000
     atom   28 type  2   force =     0.00000000    0.00000000    0.00000000
     atom   29 type  2   force =     0.00000000    0.00000000    0.00000000
     atom   30 type  2   force =     0.00000000    0.00000000    0.00000000
     atom   31 type  2   force =     0.00000000    0.00000000    0.00000000
     atom   32 type  2   force =     0.00000000    0.00000000    0.00000000
     atom   33 type  2   force =     0.00000000    0.00000000    0.00000000
     atom   34 type  2   force =     0.00000000    0.00000000    0.00000000
     atom   35 type  2   force =     0.00000000    0.00000000    0.00000000
     atom   36 type  2   force =     0.00000000    0.00000000    0.00000000
     atom   37 type  2   force =     0.00000000    0.00000000    0.00000000
     atom   38 type  2   force =     0.00000000    0.00000000    0.00000000
     atom   39 type  2   force =     0.00000000    0.00000000    0.00000000
     atom   40 type  2   force =     0.00000000    0.00000000    0.00000000
     atom   41 type  2   force =     0.00000000    0.00000000    0.00000000
     atom   42 type  2   force =     0.00000000    0.00000000    0.00000000
     atom   43 type  2   force =     0.00000000    0.00000000    0.00000000
     atom   44 type  2   force =     0.00000000    0.00000000    0.00000000
     atom   45 type  2   force =     0.00000000    0.00000000    0.00000000
     atom   46 type  2   force =     0.00000000    0.00000000    0.00000000
     atom   47 type  2   force =     0.00000000    0.00000000    0.00000000
     atom   48 type  2   force =     0.00000000    0.00000000    0.00000000
     atom   49 type  2   force =     0.00000000    0.00000000    0.00000000
     atom   50 type  2   force =     0.00000000    0.00000000    0.00000000
     atom   51 type  2   force =     0.00000000    0.00000000    0.00000000
     atom   52 type  2   force =     0.00000000    0.00000000    0.00000000
     atom   53 type  2   force =     0.00000000    0.00000000    0.00000000
     atom   54 type  2   force =     0.00000000    0.00000000    0.00000000
     atom   55 type  2   force =     0.00000000    0.00000000    0.00000000
     atom   56 type  2   force =     0.00000000    0.00000000    0.00000000
     atom   57 type  2   force =     0.00000000    0.00000000    0.00000000
     atom   58 type  2   force =     0.00000000    0.00000000    0.00000000
     atom   59 type  2   force =     0.00000000    0.00000000    0.00000000
     atom   60 type  2   force =     0.00000000    0.00000000    0.00000000
     atom   61 type  2   force =     0.00000000    0.00000000    0.00000000
     atom   62 type  2   force =     0.00000000    0.00000000    0.00000000
     atom   63 type  2   force =     0.00000000    0.00000000    0.00000000
     The SCF correction term to forces
     atom    1 type  1   force =     0.00001905   -0.00002131   -0.00004134
     atom    2 type  2   force =     0.00000961   -0.00000267   -0.00001341
     atom    3 type  2   force =     0.00001393    0.00001392    0.00001557
     atom    4 type  2   force =     0.00000558   -0.00001620   -0.00001840
     atom    5 type  2   force =     0.00000209   -0.00000952    0.00000763
     atom    6 type  2   force =     0.00000615   -0.00000528   -0.00003018
     atom    7 type  2   force =    -0.00000329    0.00000120   -0.00003426
     atom    8 type  2   force =     0.00000682   -0.00001485    0.00002983
     atom    9 type  2   force =     0.00000641   -0.00000724    0.00003484
     atom   10 type  2   force =     0.00001474   -0.00000604    0.00001437
     atom   11 type  2   force =     0.00001661   -0.00000256   -0.00000845
     atom   12 type  2   force =    -0.00000421   -0.00000321    0.00001751
     atom   13 type  2   force =    -0.00001040    0.00000304   -0.00000251
     atom   14 type  2   force =     0.00000515    0.00000031    0.00003278
     atom   15 type  2   force =    -0.00000866   -0.00000101    0.00002843
     atom   16 type  2   force =     0.00001224    0.00001740   -0.00002802
     atom   17 type  2   force =     0.00000743    0.00001770   -0.00002577
     atom   18 type  2   force =     0.00001016    0.00000136   -0.00001465
     atom   19 type  2   force =     0.00000621   -0.00001362    0.00000508
     atom   20 type  2   force =     0.00000724    0.00001749   -0.00001368
     atom   21 type  2   force =    -0.00000496    0.00001015    0.00000064
     atom   22 type  2   force =    -0.00000558    0.00000355   -0.00001845
     atom   23 type  2   force =    -0.00000614   -0.00000730   -0.00002197
     atom   24 type  2   force =     0.00001502    0.00001489    0.00002559
     atom   25 type  2   force =     0.00000609    0.00000826    0.00002533
     atom   26 type  2   force =     0.00001501    0.00000503    0.00001623
     atom   27 type  2   force =     0.00000696   -0.00000829   -0.00000841
     atom   28 type  2   force =    -0.00000416    0.00000192    0.00001370
     atom   29 type  2   force =    -0.00001223    0.00000451   -0.00000026
     atom   30 type  2   force =    -0.00000316   -0.00000043    0.00001721
     atom   31 type  2   force =    -0.00000866   -0.00000049    0.00002239
     atom   32 type  2   force =    -0.00000984   -0.00000300   -0.00002049
     atom   33 type  2   force =    -0.00000935   -0.00000702   -0.00002661
     atom   34 type  2   force =    -0.00000441   -0.00000035   -0.00001588
     atom   35 type  2   force =    -0.00001121    0.00000371    0.00000332
     atom   36 type  2   force =    -0.00000922   -0.00001478   -0.00001095
     atom   37 type  2   force =    -0.00000647   -0.00001698    0.00001433
     atom   38 type  2   force =    -0.00001143   -0.00000398   -0.00002720
     atom   39 type  2   force =    -0.00000550    0.00001074   -0.00003231
     atom   40 type  2   force =    -0.00000452   -0.00000568    0.00001957
     atom   41 type  2   force =    -0.00000794   -0.00000529    0.00002503
     atom   42 type  2   force =    -0.00001264   -0.00000594    0.00001691
     atom   43 type  2   force =    -0.00001066   -0.00000522   -0.00000092
     atom   44 type  2   force =     0.00000131   -0.00000208    0.00001207
     atom   45 type  2   force =     0.00000204   -0.00000470   -0.00001505
     atom   46 type  2   force =    -0.00000952   -0.00000714    0.00002432
     atom   47 type  2   force =     0.00000905   -0.00000045    0.00002841
     atom   48 type  2   force =    -0.00001017    0.00000261   -0.00001488
     atom   49 type  2   force =    -0.00000836    0.00000873   -0.00001866
     atom   50 type  2   force =    -0.00000822    0.00000045   -0.00001316
     atom   51 type  2   force =    -0.00000603   -0.00000400    0.00000090
     atom   52 type  2   force =    -0.00001131    0.00001526   -0.00001427
     atom   53 type  2   force =     0.00000675    0.00001584    0.00000188
     atom   54 type  2   force =     0.00000248    0.00000190   -0.00001441
     atom   55 type  2   force =     0.00000147   -0.00001572   -0.00002043
     atom   56 type  2   force =    -0.00001130    0.00000594    0.00001482
     atom   57 type  2   force =    -0.00000784    0.00000761    0.00001850
     atom   58 type  2   force =    -0.00001089    0.00000513    0.00001355
     atom   59 type  2   force =    -0.00000515    0.00000147   -0.00000089
     atom   60 type  2   force =     0.00000132    0.00000457    0.00001733
     atom   61 type  2   force =     0.00001295    0.00001153   -0.00000107
     atom   62 type  2   force =     0.00000057    0.00000748    0.00001367
     atom   63 type  2   force =     0.00001105   -0.00000061    0.00002374

     Total force =     0.290282     Total SCF correction =     0.000186

     Writing all to output data dir ./pwscf.save/ :
     XML data file, charge density, pseudopotentials, collected wavefunctions
 
     init_run     :      0.28s CPU      0.57s WALL (       1 calls)
     electrons    :     13.10s CPU     13.36s WALL (       1 calls)
     forces       :      0.12s CPU      0.12s WALL (       1 calls)

     Called by init_run:
     wfcinit      :      0.09s CPU      0.11s WALL (       1 calls)
     wfcinit:wfcr :      0.09s CPU      0.09s WALL (       1 calls)
     potinit      :      0.08s CPU      0.11s WALL (       1 calls)
     hinit0       :      0.02s CPU      0.27s WALL (       1 calls)

     Called by electrons:
     c_bands      :     10.68s CPU     10.87s WALL (      14 calls)
     sum_band     :      1.52s CPU      1.53s WALL (      14 calls)
     v_of_rho     :      0.19s CPU      0.20s WALL (      15 calls)
     v_h          :      0.00s CPU      0.00s WALL (      15 calls)
     v_xc         :      0.18s CPU      0.19s WALL (      15 calls)
     mix_rho      :      0.07s CPU      0.07s WALL (      14 calls)

     Called by c_bands:
     init_us_2    :      0.02s CPU      0.03s WALL (      30 calls)
     regterg      :      7.46s CPU      7.63s WALL (      15 calls)

     Called by sum_band:
     sum_band:wei :      0.05s CPU      0.05s WALL (      14 calls)
     sum_band:loo :      0.70s CPU      0.71s WALL (      14 calls)
     sum_band:buf :      0.00s CPU      0.00s WALL (      14 calls)
     sum_band:ini :      0.01s CPU      0.01s WALL (      14 calls)

     Called by *egterg:
     rdiaghg      :      4.62s CPU      4.73s WALL (     291 calls)
     regterg:over :      0.37s CPU      0.38s WALL (     276 calls)
     regterg:upda :      0.17s CPU      0.17s WALL (     276 calls)
     regterg:last :      0.15s CPU      0.15s WALL (      55 calls)
     rdiaghg:chol :      0.16s CPU      0.17s WALL (     291 calls)
     rdiaghg:inve :      0.03s CPU      0.03s WALL (     291 calls)
     rdiaghg:para :      0.49s CPU      0.52s WALL (     582 calls)
     h_psi        :      2.09s CPU      2.14s WALL (     292 calls)
     g_psi        :      0.00s CPU      0.00s WALL (     276 calls)

     Called by h_psi:
     h_psi:calbec :      0.32s CPU      0.33s WALL (     292 calls)
     vloc_psi     :      1.66s CPU      1.69s WALL (     292 calls)
                                        0.00s GPU  (     292 calls)
     add_vuspsi   :      0.11s CPU      0.12s WALL (     292 calls)

     General routines
     calbec       :      0.39s CPU      0.40s WALL (     296 calls)
     fft          :      0.14s CPU      0.29s WALL (     196 calls)
     ffts         :      0.02s CPU      0.02s WALL (      14 calls)
     fftw         :      2.25s CPU      2.28s WALL (   10602 calls)
 
     Parallel routines
 
     PWSCF        :     14.67s CPU     16.08s WALL

 
   This run was terminated on:  22:59:38  15Nov2025            

=------------------------------------------------------------------------------=
   JOB DONE.
=------------------------------------------------------------------------------=
