
     Program PWSCF v.7.5 starts on  4Dec2025 at 23:26:23 

     This program is part of the open-source Quantum ESPRESSO suite
     for quantum simulation of materials; please cite
         "P. Giannozzi et al., J. Phys.:Condens. Matter 21 395502 (2009);
         "P. Giannozzi et al., J. Phys.:Condens. Matter 29 465901 (2017);
         "P. Giannozzi et al., J. Chem. Phys. 152 154105 (2020);
          URL http://www.quantum-espresso.org", 
     in publications or presentations arising from this work. More details at
     http://www.quantum-espresso.org/quote

     Parallel version (MPI), running on    96 processors

     MPI processes distributed on     2 nodes
     174320 MiB available memory on the printing compute node when the environment starts
 
     Reading input from pw.in

     Current dimensions of program PWSCF are:
     Max number of different atomic species (ntypx) = 10
     Max number of k-points (npk) =  40000
     Max angular momentum in pseudopotentials (lmaxx) =  4

     gamma-point specific algorithms are used
 
     K-points division:     npool     =       2
     R & G space division:  proc/nbgrp/npool/nimage =      48
     Subspace diagonalization in iterative solution of the eigenvalue problem:
     one sub-group per band group will be used
     scalapack distributed-memory algorithm (size of sub-group:  6*  6 procs)

 
     Parallelization info
     --------------------
     sticks:   dense  smooth     PW     G-vecs:    dense   smooth      PW
     Min         384     384     96                39496    39496    4936
     Max         386     386     98                39521    39521    4949
     Sum       18505   18505   4637              1896521  1896521  237129
 
     Using Slab Decomposition
 


     bravais-lattice index     =            0
     lattice parameter (alat)  =      26.9702  a.u.
     unit-cell volume          =   19617.8366 (a.u.)^3
     number of atoms/cell      =          511
     number of atomic types    =            2
     number of electrons       =      2046.00 (up:1024.00, down:1022.00)
     number of Kohn-Sham states=         1032
     kinetic-energy cutoff     =      80.0000  Ry
     charge density cutoff     =     320.0000  Ry
     scf convergence threshold =      1.0E-10
     mixing beta               =       0.7000
     number of iterations used =            8  plain     mixing
     Exchange-correlation= PBE
                           (   1   4   3   4   0   0   0)

     celldm(1)=  26.970171  celldm(2)=   0.000000  celldm(3)=   0.000000
     celldm(4)=   0.000000  celldm(5)=   0.000000  celldm(6)=   0.000000

     crystal axes: (cart. coord. in units of alat)
               a(1) = (   1.000000   0.000000   0.000000 )  
               a(2) = (   0.000000   1.000000   0.000000 )  
               a(3) = (   0.000000   0.000000   1.000000 )  

     reciprocal axes: (cart. coord. in units 2 pi/alat)
               b(1) = (  1.000000  0.000000  0.000000 )  
               b(2) = (  0.000000  1.000000  0.000000 )  
               b(3) = (  0.000000  0.000000  1.000000 )  


     PseudoPot. # 1 for C  read from file:
     ./C_ONCV_PBE-1.2.upf
     MD5 check sum: d60b57d9bdca4133f5fde4b584ee909d
     Pseudo is Norm-conserving, Zval =  4.0
     Generated using ONCVPSP code by D. R. Hamann
     Using radial grid of  602 points,  4 beta functions with: 
                l(1) =   0
                l(2) =   0
                l(3) =   1
                l(4) =   1

     PseudoPot. # 2 for N  read from file:
     ./N_ONCV_PBE-1.2.upf
     MD5 check sum: 5312fdf34e96954e02a33bdc911c617a
     Pseudo is Norm-conserving, Zval =  5.0
     Generated using ONCVPSP code by D. R. Hamann
     Using radial grid of  602 points,  4 beta functions with: 
                l(1) =   0
                l(2) =   0
                l(3) =   1
                l(4) =   1

     atomic species   valence    mass     pseudopotential
     C                 4.00    12.01100     C ( 1.00)
     N                 5.00    14.00670     N ( 1.00)

     Starting magnetic structure 
     atomic species   magnetization
     C               0.000
     N               0.000

     No symmetry found


                                    s                        frac. trans.

      isym =  1     identity                                     

 cryst.   s( 1) = (     1          0          0      )
                  (     0          1          0      )
                  (     0          0          1      )

 cart.    s( 1) = (  1.0000000  0.0000000  0.0000000 )
                  (  0.0000000  1.0000000  0.0000000 )
                  (  0.0000000  0.0000000  1.0000000 )


   Cartesian axes

     site n.     atom                  positions (alat units)
         1        C      tau(   1) = (  -0.0000326  -0.0000239   0.0000003  )
         2        C      tau(   2) = (  -0.0000507   0.0000160   0.2500133  )
         3        C      tau(   3) = (  -0.0001339  -0.0000472   0.5000079  )
         4        C      tau(   4) = (  -0.0000218  -0.0000672   0.7499941  )
         5        C      tau(   5) = (  -0.0000518   0.2499893   0.0000417  )
         6        C      tau(   6) = (   0.0000121   0.2500323   0.2500574  )
         7        C      tau(   7) = (  -0.0000431   0.2500404   0.5000550  )
         8        C      tau(   8) = (  -0.0001230   0.2499574   0.7500361  )
         9        C      tau(   9) = (  -0.0001340   0.4999834  -0.0000184  )
        10        C      tau(  10) = (  -0.0000436   0.5000287   0.2500684  )
        11        C      tau(  11) = (   0.0000392   0.4999847   0.5000126  )
        12        C      tau(  12) = (   0.0000040   0.4999448   0.7499516  )
        13        C      tau(  13) = (  -0.0000213   0.7499698  -0.0000394  )
        14        C      tau(  14) = (  -0.0001222   0.7500089   0.2499855  )
        15        C      tau(  15) = (   0.0000039   0.7499238   0.4999713  )
        16        C      tau(  16) = (   0.0000706   0.7499116   0.7499385  )
        17        C      tau(  17) = (   0.2499485  -0.0000460  -0.0000153  )
        18        C      tau(  18) = (   0.2499112   0.0000987   0.2499671  )
        19        C      tau(  19) = (   0.2499635  -0.0000625   0.5000064  )
        20        C      tau(  20) = (   0.2499483  -0.0002181   0.7500117  )
        21        C      tau(  21) = (   0.2499089   0.2499360   0.0001308  )
        22        C      tau(  22) = (   0.2501317   0.2502136   0.2502446  )
        23        C      tau(  23) = (   0.2495740   0.2494838   0.5003288  )
        24        C      tau(  24) = (   0.2499196   0.2498186   0.7501503  )
        25        C      tau(  25) = (   0.2499640   0.4999774  -0.0000304  )
        26        C      tau(  26) = (   0.2495743   0.5002946   0.2495169  )
        27        C      tau(  27) = (   0.2508714   0.4999260   0.4999615  )
        28        C      tau(  28) = (   0.2496409   0.4995979   0.7504508  )
        29        C      tau(  29) = (   0.2499503   0.7499803  -0.0001796  )
        30        C      tau(  30) = (   0.2499235   0.7501134   0.2498573  )
        31        C      tau(  31) = (   0.2496406   0.7504163   0.4996322  )
        32        C      tau(  32) = (   0.2502822   0.7496341   0.7496697  )
        33        C      tau(  33) = (   0.4999523  -0.0000527  -0.0000223  )
        34        C      tau(  34) = (   0.4999627   0.0000474   0.2499966  )
        35        C      tau(  35) = (   0.4999722  -0.0000259   0.5000134  )
        36        C      tau(  36) = (   0.4999724  -0.0001300   0.7500210  )
        37        C      tau(  37) = (   0.4999619   0.2499688   0.0000754  )
        38        C      tau(  38) = (   0.4999443   0.2497857   0.2498155  )
        39        C      tau(  39) = (   0.4999079   0.2501970   0.5001765  )
        40        C      tau(  40) = (   0.4997304   0.2490523   0.7509577  )
        41        C      tau(  41) = (   0.4999730   0.4999863   0.0000025  )
        42        C      tau(  42) = (   0.4999095   0.5001419   0.2502310  )
        43        C      tau(  43) = (   0.5000029   0.4998138   0.7497961  )
        44        C      tau(  44) = (   0.4999739   0.7499915  -0.0000969  )
        45        C      tau(  45) = (   0.4997330   0.7509270   0.2490837  )
        46        C      tau(  46) = (   0.5000042   0.7497651   0.4998453  )
        47        C      tau(  47) = (   0.5000475   0.7499467   0.7499768  )
        48        C      tau(  48) = (   0.7499797  -0.0000089   0.0000150  )
        49        C      tau(  49) = (   0.7499752  -0.0000176   0.2500169  )
        50        C      tau(  50) = (   0.7499658  -0.0000119   0.5000191  )
        51        C      tau(  51) = (   0.7499896  -0.0000213   0.7500187  )
        52        C      tau(  52) = (   0.7499748   0.2499938   0.0000065  )
        53        C      tau(  53) = (   0.7499620   0.2500048   0.2500295  )
        54        C      tau(  54) = (   0.7501553   0.2497221   0.5000290  )
        55        C      tau(  55) = (   0.7497836   0.2501333   0.7499143  )
        56        C      tau(  56) = (   0.7499659   0.4999958   0.0000131  )
        57        C      tau(  57) = (   0.7501545   0.4999992   0.2497534  )
        58        C      tau(  58) = (   0.7495746   0.5000238   0.5000557  )
        59        C      tau(  59) = (   0.7500288   0.5000131   0.7501437  )
        60        C      tau(  60) = (   0.7499900   0.7499948   0.0000040  )
        61        C      tau(  61) = (   0.7497815   0.7498848   0.2501635  )
        62        C      tau(  62) = (   0.7500279   0.7501157   0.5000409  )
        63        C      tau(  63) = (   0.7500517   0.7500324   0.7500573  )
        64        C      tau(  64) = (  -0.0000246   0.1250116   0.1250355  )
        65        C      tau(  65) = (  -0.0000266   0.1250252   0.3750317  )
        66        C      tau(  66) = (  -0.0001261   0.1249727   0.6250424  )
        67        C      tau(  67) = (  -0.0000615   0.1249620   0.8750182  )
        68        C      tau(  68) = (  -0.0000275   0.3750075   0.1250517  )
        69        C      tau(  69) = (   0.0000067   0.3750508   0.3750780  )
        70        C      tau(  70) = (  -0.0000225   0.3749895   0.6250084  )
        71        C      tau(  71) = (  -0.0001141   0.3749604   0.8750180  )
        72        C      tau(  72) = (  -0.0001255   0.6250167   0.1250021  )
        73        C      tau(  73) = (  -0.0000228   0.6249810   0.3750174  )
        74        C      tau(  74) = (   0.0000711   0.6249131   0.6249410  )
        75        C      tau(  75) = (   0.0000151   0.6249563   0.8749316  )
        76        C      tau(  76) = (  -0.0000605   0.8749932   0.1249879  )
        77        C      tau(  77) = (  -0.0001129   0.8749903   0.3749861  )
        78        C      tau(  78) = (   0.0000147   0.8749032   0.6249812  )
        79        C      tau(  79) = (   0.0000170   0.8749376   0.8749629  )
        80        C      tau(  80) = (   0.2499568   0.1250602   0.1250896  )
        81        C      tau(  81) = (   0.2500060   0.1250364   0.3750928  )
        82        C      tau(  82) = (   0.2498345   0.1247375   0.6251315  )
        83        C      tau(  83) = (   0.2499210   0.1248614   0.8750816  )
        84        C      tau(  84) = (   0.2500066   0.3750633   0.1250663  )
        85        C      tau(  85) = (   0.2506674   0.3754513   0.3754849  )
        86        C      tau(  86) = (   0.2499863   0.3747732   0.6251959  )
        87        C      tau(  87) = (   0.2498271   0.3748388   0.8752220  )
        88        C      tau(  88) = (   0.2498378   0.6250970   0.1247761  )
        89        C      tau(  89) = (   0.2499882   0.6251584   0.3748111  )
        90        C      tau(  90) = (   0.2508280   0.6243829   0.6244173  )
        91        C      tau(  91) = (   0.2501822   0.6248646   0.8747627  )
        92        C      tau(  92) = (   0.2499243   0.8750488   0.1248971  )
        93        C      tau(  93) = (   0.2498301   0.8751864   0.3748734  )
        94        C      tau(  94) = (   0.2501824   0.8747261   0.6248965  )
        95        C      tau(  95) = (   0.2500023   0.8748307   0.8748642  )
        96        C      tau(  96) = (   0.4999732   0.1249281   0.1249551  )
        97        C      tau(  97) = (   0.4999682   0.1250413   0.3750802  )
        98        C      tau(  98) = (   0.4999199   0.1249020   0.6250880  )
        99        C      tau(  99) = (   0.4998976   0.1246162   0.8753560  )
       100        C      tau( 100) = (   0.4999686   0.3750521   0.1250696  )
       101        C      tau( 101) = (   0.4999195   0.3755088   0.3755433  )
       102        C      tau( 102) = (   0.4984578   0.3744827   0.6254545  )
       103        C      tau( 103) = (   0.4999469   0.3749434   0.8750441  )
       104        C      tau( 104) = (   0.4999234   0.6250553   0.1249361  )
       105        C      tau( 105) = (   0.4984596   0.6254234   0.3745144  )
       106        C      tau( 106) = (   0.5017467   0.6240518   0.6240826  )
       107        C      tau( 107) = (   0.5000223   0.6249014   0.8749292  )
       108        C      tau( 108) = (   0.4998994   0.8753244   0.1246492  )
       109        C      tau( 109) = (   0.4999485   0.8750149   0.3749734  )
       110        C      tau( 110) = (   0.5000219   0.8748991   0.6249297  )
       111        C      tau( 111) = (   0.4999980   0.8749314   0.8749612  )
       112        C      tau( 112) = (   0.7499807   0.1249980   0.1250210  )
       113        C      tau( 113) = (   0.7500073   0.1249459   0.3750237  )
       114        C      tau( 114) = (   0.7498951   0.1249997   0.6250277  )
       115        C      tau( 115) = (   0.7499434   0.1250202   0.8749863  )
       116        C      tau( 116) = (   0.7500066   0.3749997   0.1249713  )
       117        C      tau( 117) = (   0.7500205   0.3749517   0.3749809  )
       118        C      tau( 118) = (   0.7492181   0.3755079   0.6249338  )
       119        C      tau( 119) = (   0.7499013   0.3750022   0.8749729  )
       120        C      tau( 120) = (   0.7498951   0.6250015   0.1250274  )
       121        C      tau( 121) = (   0.7492191   0.6249029   0.3755392  )
       122        C      tau( 122) = (   0.7501458   0.6251209   0.6251502  )
       123        C      tau( 123) = (   0.7500327   0.6250089   0.8750664  )
       124        C      tau( 124) = (   0.7499433   0.8749611   0.1250457  )
       125        C      tau( 125) = (   0.7499008   0.8749472   0.3750274  )
       126        C      tau( 126) = (   0.7500319   0.8750409   0.6250325  )
       127        C      tau( 127) = (   0.7500109   0.8749905   0.8750143  )
       128        C      tau( 128) = (   0.1249488   0.0000214   0.1249986  )
       129        C      tau( 129) = (   0.1248985   0.0000422   0.3749943  )
       130        C      tau( 130) = (   0.1249487  -0.0001546   0.6250147  )
       131        C      tau( 131) = (   0.1249672  -0.0000989   0.8749849  )
       132        C      tau( 132) = (   0.1249975   0.2500393   0.1251148  )
       133        C      tau( 133) = (   0.1250814   0.2501297   0.3751184  )
       134        C      tau( 134) = (   0.1248663   0.2498518   0.6251050  )
       135        C      tau( 135) = (   0.1249060   0.2499234   0.8750696  )
       136        C      tau( 136) = (   0.1247645   0.5000689   0.1248214  )
       137        C      tau( 137) = (   0.1251857   0.5000609   0.3750716  )
       138        C      tau( 138) = (   0.1252283   0.4998624   0.6249052  )
       139        C      tau( 139) = (   0.1248009   0.4998791   0.8751495  )
       140        C      tau( 140) = (   0.1249200   0.7500185   0.1249216  )
       141        C      tau( 141) = (   0.1248828   0.7500868   0.3749094  )
       142        C      tau( 142) = (   0.1251761   0.7497512   0.6248567  )
       143        C      tau( 143) = (   0.1250741   0.7498739   0.8748370  )
       144        C      tau( 144) = (   0.3749306   0.0000755   0.1249420  )
       145        C      tau( 145) = (   0.3749623   0.0000280   0.3749995  )
       146        C      tau( 146) = (   0.3749728  -0.0001318   0.6250131  )
       147        C      tau( 147) = (   0.3749465  -0.0001886   0.8750205  )
       148        C      tau( 148) = (   0.3749680   0.2500714   0.1250979  )
       149        C      tau( 149) = (   0.3752012   0.2503002   0.3754337  )
       150        C      tau( 150) = (   0.3748831   0.2495356   0.6254131  )
       151        C      tau( 151) = (   0.3748839   0.2497097   0.8753154  )
       152        C      tau( 152) = (   0.3749741   0.5000819   0.1250049  )
       153        C      tau( 153) = (   0.3760497   0.5013009   0.3754666  )
       154        C      tau( 154) = (   0.3761623   0.4982675   0.6243642  )
       155        C      tau( 155) = (   0.3750505   0.4998666   0.8749368  )
       156        C      tau( 156) = (   0.3748977   0.7502172   0.1246949  )
       157        C      tau( 157) = (   0.3748684   0.7504522   0.3745814  )
       158        C      tau( 158) = (   0.3756370   0.7492213   0.6246042  )
       159        C      tau( 159) = (   0.3750407   0.7498120   0.8747950  )
       160        C      tau( 160) = (   0.6249893  -0.0000064   0.1250118  )
       161        C      tau( 161) = (   0.6249704   0.0000099   0.3750180  )
       162        C      tau( 162) = (   0.6249759  -0.0000409   0.6250147  )
       163        C      tau( 163) = (   0.6249931  -0.0000575   0.8750187  )
       164        C      tau( 164) = (   0.6249752   0.2499626   0.1249824  )
       165        C      tau( 165) = (   0.6249544   0.2498756   0.3750300  )
       166        C      tau( 166) = (   0.6245897   0.2501734   0.6249039  )
       167        C      tau( 167) = (   0.6249588   0.2500688   0.8749927  )
       168        C      tau( 168) = (   0.6249290   0.5000187   0.1250300  )
       169        C      tau( 169) = (   0.6241835   0.4996765   0.3753869  )
       170        C      tau( 170) = (   0.6240970   0.5017521   0.6244352  )
       171        C      tau( 171) = (   0.6249638   0.4999725   0.8750102  )
       172        C      tau( 172) = (   0.6249414   0.7499978   0.1249409  )
       173        C      tau( 173) = (   0.6247305   0.7495246   0.3754511  )
       174        C      tau( 174) = (   0.6250984   0.7502190   0.6250975  )
       175        C      tau( 175) = (   0.6250216   0.7500082   0.8750375  )
       176        C      tau( 176) = (   0.8749653  -0.0000121   0.1250165  )
       177        C      tau( 177) = (   0.8749504  -0.0000231   0.3750144  )
       178        C      tau( 178) = (   0.8749654  -0.0000250   0.6250171  )
       179        C      tau( 179) = (   0.8749790  -0.0000133   0.8750030  )
       180        C      tau( 180) = (   0.8749776   0.2500054   0.1250289  )
       181        C      tau( 181) = (   0.8750204   0.2499700   0.3750311  )
       182        C      tau( 182) = (   0.8747694   0.2501665   0.6250340  )
       183        C      tau( 183) = (   0.8749058   0.2499983   0.8749884  )
       184        C      tau( 184) = (   0.8750170   0.4999909   0.1249599  )
       185        C      tau( 185) = (   0.8748354   0.5000104   0.3751073  )
       186        C      tau( 186) = (   0.8749052   0.5000002   0.6249856  )
       187        C      tau( 187) = (   0.8749803   0.4999949   0.8750072  )
       188        C      tau( 188) = (   0.8749012   0.7499752   0.1250490  )
       189        C      tau( 189) = (   0.8748443   0.7499102   0.3750393  )
       190        C      tau( 190) = (   0.8750594   0.7500002   0.6250179  )
       191        C      tau( 191) = (   0.8750259   0.7499786   0.8749974  )
       192        C      tau( 192) = (   0.1249475   0.1249716   0.0000486  )
       193        C      tau( 193) = (   0.1249981   0.1250867   0.2500658  )
       194        C      tau( 194) = (   0.1247629   0.1247887   0.5000986  )
       195        C      tau( 195) = (   0.1249173   0.1248886   0.7500475  )
       196        C      tau( 196) = (   0.1248969   0.3749669   0.0000724  )
       197        C      tau( 197) = (   0.1250813   0.3750896   0.2501593  )
       198        C      tau( 198) = (   0.1251860   0.3750404   0.5000921  )
       199        C      tau( 199) = (   0.1248801   0.3748770   0.7501197  )
       200        C      tau( 200) = (   0.1249500   0.6249868  -0.0001204  )
       201        C      tau( 201) = (   0.1248690   0.6250734   0.2498856  )
       202        C      tau( 202) = (   0.1252281   0.6248725   0.4998947  )
       203        C      tau( 203) = (   0.1251761   0.6248251   0.7497849  )
       204        C      tau( 204) = (   0.1249683   0.8749578  -0.0000692  )
       205        C      tau( 205) = (   0.1249090   0.8750395   0.2499535  )
       206        C      tau( 206) = (   0.1248028   0.8751163   0.4999092  )
       207        C      tau( 207) = (   0.1250739   0.8748039   0.7499030  )
       208        C      tau( 208) = (   0.3749292   0.1249091   0.0001079  )
       209        C      tau( 209) = (   0.3749682   0.1250690   0.2500999  )
       210        C      tau( 210) = (   0.3749719   0.1249723   0.5001142  )
       211        C      tau( 211) = (   0.3748946   0.1246556   0.7502532  )
       212        C      tau( 212) = (   0.3749618   0.3749706   0.0000577  )
       213        C      tau( 213) = (   0.3752017   0.3753994   0.2503343  )
       214        C      tau( 214) = (   0.3760484   0.3754332   0.5013344  )
       215        C      tau( 215) = (   0.3748663   0.3745470   0.7504855  )
       216        C      tau( 216) = (   0.3749746   0.6249828  -0.0000968  )
       217        C      tau( 217) = (   0.3748858   0.6253780   0.2495710  )
       218        C      tau( 218) = (   0.3761632   0.6243320   0.4983003  )
       219        C      tau( 219) = (   0.3756371   0.6245712   0.7492547  )
       220        C      tau( 220) = (   0.3749479   0.8749876  -0.0001518  )
       221        C      tau( 221) = (   0.3748866   0.8752801   0.2497459  )
       222        C      tau( 222) = (   0.3750509   0.8749052   0.4998979  )
       223        C      tau( 223) = (   0.3750403   0.8747592   0.7498441  )
       224        C      tau( 224) = (   0.6249890   0.1249865   0.0000190  )
       225        C      tau( 225) = (   0.6249756   0.1249570   0.2499875  )
       226        C      tau( 226) = (   0.6249280   0.1250020   0.5000462  )
       227        C      tau( 227) = (   0.6249397   0.1249105   0.7500271  )
       228        C      tau( 228) = (   0.6249701   0.3749931   0.0000354  )
       229        C      tau( 229) = (   0.6249547   0.3750007   0.2499052  )
       230        C      tau( 230) = (   0.6241812   0.3753550   0.4997089  )
       231        C      tau( 231) = (   0.6247290   0.3754214   0.7495537  )
       232        C      tau( 232) = (   0.6249769   0.6249893  -0.0000138  )
       233        C      tau( 233) = (   0.6245909   0.6248703   0.2502073  )
       234        C      tau( 234) = (   0.6240982   0.6244057   0.5017817  )
       235        C      tau( 235) = (   0.6250989   0.6250684   0.7502493  )
       236        C      tau( 236) = (   0.6249934   0.8749921  -0.0000300  )
       237        C      tau( 237) = (   0.6249595   0.8749660   0.2500964  )
       238        C      tau( 238) = (   0.6249637   0.8749835   0.4999988  )
       239        C      tau( 239) = (   0.6250213   0.8750110   0.7500334  )
       240        C      tau( 240) = (   0.8749650   0.1249935   0.0000114  )
       241        C      tau( 241) = (   0.8749780   0.1250053   0.2500280  )
       242        C      tau( 242) = (   0.8750183   0.1249329   0.5000150  )
       243        C      tau( 243) = (   0.8749018   0.1250219   0.7500004  )
       244        C      tau( 244) = (   0.8749498   0.3749919   0.0000019  )
       245        C      tau( 245) = (   0.8750201   0.3750058   0.2499962  )
       246        C      tau( 246) = (   0.8748359   0.3750771   0.5000394  )
       247        C      tau( 247) = (   0.8748460   0.3750117   0.7499377  )
       248        C      tau( 248) = (   0.8749658   0.6249942   0.0000009  )
       249        C      tau( 249) = (   0.8747673   0.6250056   0.2501969  )
       250        C      tau( 250) = (   0.8749047   0.6249578   0.5000284  )
       251        C      tau( 251) = (   0.8750599   0.6249931   0.7500258  )
       252        C      tau( 252) = (   0.8749792   0.8749796   0.0000109  )
       253        C      tau( 253) = (   0.8749055   0.8749626   0.2500231  )
       254        C      tau( 254) = (   0.8749798   0.8749816   0.5000183  )
       255        C      tau( 255) = (   0.8750256   0.8749729   0.7500018  )
       256        C      tau( 256) = (   0.1874459   0.0625745   0.1875312  )
       257        C      tau( 257) = (   0.1874151   0.0624642   0.4375370  )
       258        C      tau( 258) = (   0.1874062   0.0622957   0.6875458  )
       259        C      tau( 259) = (   0.1874402   0.0624232   0.9375269  )
       260        C      tau( 260) = (   0.1875485   0.3125847   0.1876453  )
       261        C      tau( 261) = (   0.1877085   0.3125752   0.4376695  )
       262        C      tau( 262) = (   0.1873954   0.3123654   0.6876155  )
       263        C      tau( 263) = (   0.1873777   0.3124219   0.9376458  )
       264        C      tau( 264) = (   0.1871362   0.5625254   0.1871291  )
       265        C      tau( 265) = (   0.1878198   0.5624675   0.4374686  )
       266        C      tau( 266) = (   0.1878062   0.5622589   0.6873346  )
       267        C      tau( 267) = (   0.1874983   0.5624274   0.9374082  )
       268        C      tau( 268) = (   0.1874186   0.8125505   0.1874130  )
       269        C      tau( 269) = (   0.1871601   0.8128380   0.4374592  )
       270        C      tau( 270) = (   0.1876681   0.8122278   0.6873369  )
       271        C      tau( 271) = (   0.1874858   0.8124125   0.9373603  )
       272        C      tau( 272) = (   0.4374488   0.0625389   0.1875118  )
       273        C      tau( 273) = (   0.4374444   0.0624958   0.4375430  )
       274        C      tau( 274) = (   0.4374422   0.0623382   0.6875807  )
       275        C      tau( 275) = (   0.4374717   0.0622790   0.9376571  )
       276        C      tau( 276) = (   0.4374371   0.3126149   0.1876075  )
       277        C      tau( 277) = (   0.4376454   0.3129023   0.4381287  )
       278        C      tau( 278) = (   0.4377247   0.3109412   0.6891381  )
       279        C      tau( 279) = (   0.4374392   0.3124054   0.9376038  )
       280        C      tau( 280) = (   0.4374263   0.5626283   0.1874269  )
       281        C      tau( 281) = (   0.4383311   0.5614875   0.6865012  )
       282        C      tau( 282) = (   0.4374735   0.5624404   0.9374579  )
       283        C      tau( 283) = (   0.4374933   0.8131250   0.1868675  )
       284        C      tau( 284) = (   0.4374499   0.8125417   0.4373373  )
       285        C      tau( 285) = (   0.4375927   0.8122205   0.6872921  )
       286        C      tau( 286) = (   0.4374863   0.8124140   0.9373645  )
       287        C      tau( 287) = (   0.6874829   0.0624802   0.1875078  )
       288        C      tau( 288) = (   0.6874606   0.0624945   0.4375416  )
       289        C      tau( 289) = (   0.6874730   0.0624456   0.6875515  )
       290        C      tau( 290) = (   0.6874719   0.0624906   0.9375052  )
       291        C      tau( 291) = (   0.6874836   0.3124977   0.1874507  )
       292        C      tau( 292) = (   0.6880590   0.3118453   0.4376705  )
       293        C      tau( 293) = (   0.6870943   0.3126973   0.6873696  )
       294        C      tau( 294) = (   0.6874616   0.3124857   0.9375236  )
       295        C      tau( 295) = (   0.6873721   0.5625727   0.1875232  )
       296        C      tau( 296) = (   0.6863980   0.5619671   0.4383366  )
       297        C      tau( 297) = (   0.6877953   0.5626937   0.6879461  )
       298        C      tau( 298) = (   0.6874820   0.5624833   0.9375168  )
       299        C      tau( 299) = (   0.6873996   0.8124493   0.1875601  )
       300        C      tau( 300) = (   0.6873845   0.8124233   0.4375236  )
       301        C      tau( 301) = (   0.6875778   0.8126137   0.6875814  )
       302        C      tau( 302) = (   0.6875105   0.8125085   0.9375136  )
       303        C      tau( 303) = (   0.9374656   0.0625056   0.1875217  )
       304        C      tau( 304) = (   0.9374669   0.0624721   0.4375352  )
       305        C      tau( 305) = (   0.9374262   0.0624797   0.6875113  )
       306        C      tau( 306) = (   0.9374634   0.0624802   0.9375118  )
       307        C      tau( 307) = (   0.9375030   0.3125060   0.1875334  )
       308        C      tau( 308) = (   0.9374467   0.3125374   0.4375512  )
       309        C      tau( 309) = (   0.9373947   0.3125227   0.6874995  )
       310        C      tau( 310) = (   0.9374191   0.3124879   0.9375098  )
       311        C      tau( 311) = (   0.9373799   0.5624938   0.1875907  )
       312        C      tau( 312) = (   0.9374513   0.5624852   0.4375292  )
       313        C      tau( 313) = (   0.9375098   0.5624672   0.6874711  )
       314        C      tau( 314) = (   0.9374592   0.5624810   0.9374705  )
       315        C      tau( 315) = (   0.9374072   0.8124866   0.1875086  )
       316        C      tau( 316) = (   0.9374238   0.8124334   0.4375166  )
       317        C      tau( 317) = (   0.9375497   0.8124577   0.6874968  )
       318        C      tau( 318) = (   0.9375010   0.8124727   0.9374882  )
       319        C      tau( 319) = (   0.0624552   0.0624951   0.0625205  )
       320        C      tau( 320) = (   0.0624595   0.0625548   0.3125277  )
       321        C      tau( 321) = (   0.0623247   0.0623531   0.5625101  )
       322        C      tau( 322) = (   0.0624486   0.0624243   0.8125133  )
       323        C      tau( 323) = (   0.0624583   0.3125025   0.0625826  )
       324        C      tau( 324) = (   0.0625260   0.3125460   0.3125736  )
       325        C      tau( 325) = (   0.0625223   0.3124935   0.5625351  )
       326        C      tau( 326) = (   0.0623768   0.3124408   0.8125495  )
       327        C      tau( 327) = (   0.0623260   0.5624827   0.0623853  )
       328        C      tau( 328) = (   0.0625224   0.5625065   0.3125232  )
       329        C      tau( 329) = (   0.0626396   0.5624274   0.5624577  )
       330        C      tau( 330) = (   0.0625263   0.5624248   0.8124350  )
       331        C      tau( 331) = (   0.0624505   0.8124871   0.0624533  )
       332        C      tau( 332) = (   0.0623793   0.8125199   0.3124698  )
       333        C      tau( 333) = (   0.0625267   0.8124045   0.5624531  )
       334        C      tau( 334) = (   0.0625537   0.8123886   0.8124173  )
       335        C      tau( 335) = (   0.3124379   0.0625141   0.0625455  )
       336        C      tau( 336) = (   0.3124373   0.0625432   0.3125265  )
       337        C      tau( 337) = (   0.3124359   0.0623935   0.5625502  )
       338        C      tau( 338) = (   0.3124202   0.0622506   0.8125873  )
       339        C      tau( 339) = (   0.3124368   0.3124977   0.0625726  )
       340        C      tau( 340) = (   0.3127362   0.3128148   0.3128491  )
       341        C      tau( 341) = (   0.3118699   0.3115627   0.5625505  )
       342        C      tau( 342) = (   0.3123738   0.3122558   0.8128710  )
       343        C      tau( 343) = (   0.3124382   0.5625189   0.0624281  )
       344        C      tau( 344) = (   0.3118708   0.5625154   0.3115967  )
       345        C      tau( 345) = (   0.3138666   0.5617281   0.5617612  )
       346        C      tau( 346) = (   0.3127034   0.5622057   0.8122256  )
       347        C      tau( 347) = (   0.3124236   0.8125527   0.0622902  )
       348        C      tau( 348) = (   0.3123770   0.8128347   0.3122929  )
       349        C      tau( 349) = (   0.3127038   0.8121907   0.5622389  )
       350        C      tau( 350) = (   0.3125606   0.8122567   0.8122915  )
       351        C      tau( 351) = (   0.5624682   0.0624484   0.0624747  )
       352        C      tau( 352) = (   0.5624524   0.0625230   0.3125291  )
       353        C      tau( 353) = (   0.5624555   0.0624582   0.5625585  )
       354        C      tau( 354) = (   0.5624638   0.0623558   0.8125950  )
       355        C      tau( 355) = (   0.5624521   0.3125032   0.0625492  )
       356        C      tau( 356) = (   0.5623657   0.3119650   0.3119961  )
       357        C      tau( 357) = (   0.5618633   0.3127239   0.5626590  )
       358        C      tau( 358) = (   0.5623232   0.3124574   0.8125060  )
       359        C      tau( 359) = (   0.5624572   0.5625309   0.0624869  )
       360        C      tau( 360) = (   0.5618648   0.5626248   0.3127578  )
       361        C      tau( 361) = (   0.5624824   0.5623870   0.8125239  )
       362        C      tau( 362) = (   0.5624657   0.8125653   0.0623876  )
       363        C      tau( 363) = (   0.5623251   0.8124770   0.3124869  )
       364        C      tau( 364) = (   0.5624829   0.8124950   0.5624157  )
       365        C      tau( 365) = (   0.5625339   0.8124814   0.8125085  )
       366        C      tau( 366) = (   0.8124739   0.0624939   0.0625170  )
       367        C      tau( 367) = (   0.8124772   0.0624733   0.3125179  )
       368        C      tau( 368) = (   0.8124589   0.0624857   0.5625317  )
       369        C      tau( 369) = (   0.8124538   0.0625048   0.8125061  )
       370        C      tau( 370) = (   0.8124767   0.3124954   0.0624975  )
       371        C      tau( 371) = (   0.8125491   0.3124815   0.3125076  )
       372        C      tau( 372) = (   0.8121447   0.3127311   0.5624763  )
       373        C      tau( 373) = (   0.8123672   0.3125148   0.8124577  )
       374        C      tau( 374) = (   0.8124589   0.5625081   0.0625116  )
       375        C      tau( 375) = (   0.8121438   0.5624457   0.3127630  )
       376        C      tau( 376) = (   0.8123996   0.5624969   0.5625258  )
       377        C      tau( 377) = (   0.8125460   0.5625165   0.8125739  )
       378        C      tau( 378) = (   0.8124539   0.8124821   0.0625300  )
       379        C      tau( 379) = (   0.8123659   0.8124306   0.3125415  )
       380        C      tau( 380) = (   0.8125454   0.8125482   0.5625408  )
       381        C      tau( 381) = (   0.8125409   0.8125061   0.8125298  )
       382        C      tau( 382) = (   0.0624917   0.1875383   0.1875641  )
       383        C      tau( 383) = (   0.0624664   0.1875160   0.4375586  )
       384        C      tau( 384) = (   0.0623748   0.1874276   0.6875488  )
       385        C      tau( 385) = (   0.0624332   0.1874632   0.9375449  )
       386        C      tau( 386) = (   0.0624662   0.4375315   0.1875449  )
       387        C      tau( 387) = (   0.0626008   0.4375151   0.4375443  )
       388        C      tau( 388) = (   0.0625481   0.4374503   0.6874820  )
       389        C      tau( 389) = (   0.0623288   0.4374848   0.9375891  )
       390        C      tau( 390) = (   0.0623770   0.6875204   0.1874589  )
       391        C      tau( 391) = (   0.0625484   0.6874523   0.4374797  )
       392        C      tau( 392) = (   0.0626036   0.6873859   0.6874162  )
       393        C      tau( 393) = (   0.0625060   0.6874473   0.9373944  )
       394        C      tau( 394) = (   0.0624354   0.9375179   0.1874897  )
       395        C      tau( 395) = (   0.0623306   0.9375588   0.4375120  )
       396        C      tau( 396) = (   0.0625055   0.9373629   0.6874737  )
       397        C      tau( 397) = (   0.0624748   0.9374483   0.9374747  )
       398        C      tau( 398) = (   0.3124860   0.1876106   0.1876396  )
       399        C      tau( 399) = (   0.3124409   0.1874991   0.4376791  )
       400        C      tau( 400) = (   0.3123899   0.1871259   0.6877101  )
       401        C      tau( 401) = (   0.3124012   0.1873557   0.9376881  )
       402        C      tau( 402) = (   0.3124424   0.4376456   0.1875315  )
       403        C      tau( 403) = (   0.3137575   0.4380663   0.4380999  )
       404        C      tau( 404) = (   0.3118706   0.4374420   0.6885039  )
       405        C      tau( 405) = (   0.3124460   0.4374289   0.9375281  )
       406        C      tau( 406) = (   0.3123936   0.6876731   0.1871654  )
       407        C      tau( 407) = (   0.3118713   0.6884706   0.4374764  )
       408        C      tau( 408) = (   0.3129517   0.6869896   0.6870241  )
       409        C      tau( 409) = (   0.3125068   0.6874151   0.9373394  )
       410        C      tau( 410) = (   0.3124047   0.9376535   0.1873914  )
       411        C      tau( 411) = (   0.3124471   0.9374967   0.4374592  )
       412        C      tau( 412) = (   0.3125060   0.9373022   0.6874460  )
       413        C      tau( 413) = (   0.3124555   0.9373855   0.9374193  )
       414        C      tau( 414) = (   0.5624467   0.1873563   0.1873830  )
       415        C      tau( 415) = (   0.5623973   0.1875135   0.4376411  )
       416        C      tau( 416) = (   0.5623522   0.1873225   0.6877238  )
       417        C      tau( 417) = (   0.5624488   0.1874382   0.9375731  )
       418        C      tau( 418) = (   0.5623986   0.4376111   0.1875429  )
       419        C      tau( 419) = (   0.5616691   0.4378780   0.6868108  )
       420        C      tau( 420) = (   0.5624667   0.4374487   0.9375321  )
       421        C      tau( 421) = (   0.5623559   0.6876903   0.1873569  )
       422        C      tau( 422) = (   0.5616712   0.6867815   0.4379085  )
       423        C      tau( 423) = (   0.5627536   0.6877231   0.6877542  )
       424        C      tau( 424) = (   0.5624861   0.6874679   0.9374602  )
       425        C      tau( 425) = (   0.5624502   0.9375456   0.1874663  )
       426        C      tau( 426) = (   0.5624672   0.9375052   0.4374753  )
       427        C      tau( 427) = (   0.5624855   0.9374316   0.6874941  )
       428        C      tau( 428) = (   0.5624876   0.9374538   0.9374819  )
       429        C      tau( 429) = (   0.8124763   0.1875038   0.1875269  )
       430        C      tau( 430) = (   0.8126273   0.1873346   0.4375600  )
       431        C      tau( 431) = (   0.8123405   0.1875758   0.6874973  )
       432        C      tau( 432) = (   0.8124480   0.1874958   0.9374990  )
       433        C      tau( 433) = (   0.8126261   0.4375342   0.1873627  )
       434        C      tau( 434) = (   0.8123220   0.4375233   0.4375537  )
       435        C      tau( 435) = (   0.8122713   0.4375798   0.6874548  )
       436        C      tau( 436) = (   0.8124452   0.4374964   0.9374902  )
       437        C      tau( 437) = (   0.8123390   0.6874701   0.1876049  )
       438        C      tau( 438) = (   0.8122700   0.6874259   0.4376093  )
       439        C      tau( 439) = (   0.8126258   0.6875605   0.6875864  )
       440        C      tau( 440) = (   0.8125139   0.6875037   0.9375249  )
       441        C      tau( 441) = (   0.8124483   0.9374747   0.1875195  )
       442        C      tau( 442) = (   0.8124451   0.9374653   0.4375194  )
       443        C      tau( 443) = (   0.8125133   0.9375000   0.6875266  )
       444        C      tau( 444) = (   0.8124893   0.9374914   0.9375149  )
       445        C      tau( 445) = (   0.1874445   0.1875028   0.0626043  )
       446        C      tau( 446) = (   0.1875482   0.1876156   0.3126133  )
       447        C      tau( 447) = (   0.1871349   0.1870939   0.5625592  )
       448        C      tau( 448) = (   0.1874147   0.1873777   0.8125834  )
       449        C      tau( 449) = (   0.1874155   0.4375086   0.0624949  )
       450        C      tau( 450) = (   0.1877084   0.4376366   0.3126077  )
       451        C      tau( 451) = (   0.1878200   0.4374333   0.5625028  )
       452        C      tau( 452) = (   0.1871586   0.4374251   0.8128729  )
       453        C      tau( 453) = (   0.1874093   0.6875143   0.0623335  )
       454        C      tau( 454) = (   0.1873988   0.6875795   0.3124024  )
       455        C      tau( 455) = (   0.1878061   0.6872995   0.5622933  )
       456        C      tau( 456) = (   0.1876678   0.6873042   0.8122636  )
       457        C      tau( 457) = (   0.1874423   0.9374972   0.0624544  )
       458        C      tau( 458) = (   0.1873812   0.9376127   0.3124535  )
       459        C      tau( 459) = (   0.1874988   0.9373744   0.5624566  )
       460        C      tau( 460) = (   0.1874847   0.9373257   0.8124429  )
       461        C      tau( 461) = (   0.4374481   0.1874835   0.0625673  )
       462        C      tau( 462) = (   0.4374365   0.1875778   0.3126447  )
       463        C      tau( 463) = (   0.4374230   0.1873919   0.5626634  )
       464        C      tau( 464) = (   0.4374905   0.1868343   0.8131568  )
       465        C      tau( 465) = (   0.4374453   0.4375145   0.0625247  )
       466        C      tau( 466) = (   0.4376462   0.4380936   0.3129373  )
       467        C      tau( 467) = (   0.4374480   0.4373043   0.8125733  )
       468        C      tau( 468) = (   0.4374454   0.6875482   0.0623745  )
       469        C      tau( 469) = (   0.4377272   0.6891062   0.3109738  )
       470        C      tau( 470) = (   0.4383317   0.6864697   0.5615194  )
       471        C      tau( 471) = (   0.4375925   0.6872611   0.8122536  )
       472        C      tau( 472) = (   0.4374737   0.9376241   0.0623141  )
       473        C      tau( 473) = (   0.4374411   0.9375733   0.3124361  )
       474        C      tau( 474) = (   0.4374732   0.9374273   0.5624689  )
       475        C      tau( 475) = (   0.4374853   0.9373303   0.8124444  )
       476        C      tau( 476) = (   0.6874825   0.1874842   0.0625042  )
       477        C      tau( 477) = (   0.6874838   0.1874249   0.3125231  )
       478        C      tau( 478) = (   0.6873710   0.1874935   0.5626019  )
       479        C      tau( 479) = (   0.6873994   0.1875318   0.8124767  )
       480        C      tau( 480) = (   0.6874608   0.4375172   0.0625199  )
       481        C      tau( 481) = (   0.6880599   0.4376400   0.3118751  )
       482        C      tau( 482) = (   0.6863965   0.4383056   0.5619981  )
       483        C      tau( 483) = (   0.6873847   0.4374966   0.8124505  )
       484        C      tau( 484) = (   0.6874740   0.6875258   0.0624728  )
       485        C      tau( 485) = (   0.6870946   0.6873375   0.3127299  )
       486        C      tau( 486) = (   0.6877954   0.6879162   0.5627239  )
       487        C      tau( 487) = (   0.6875783   0.6875560   0.8126405  )
       488        C      tau( 488) = (   0.6874721   0.9374804   0.0625157  )
       489        C      tau( 489) = (   0.6874620   0.9374986   0.3125104  )
       490        C      tau( 490) = (   0.6874817   0.9374914   0.5625074  )
       491        C      tau( 491) = (   0.6875103   0.9374883   0.8125329  )
       492        C      tau( 492) = (   0.9374651   0.1874987   0.0625294  )
       493        C      tau( 493) = (   0.9375035   0.1875084   0.3125298  )
       494        C      tau( 494) = (   0.9373812   0.1875622   0.5625194  )
       495        C      tau( 495) = (   0.9374066   0.1874826   0.8125121  )
       496        C      tau( 496) = (   0.9374660   0.4375119   0.0624986  )
       497        C      tau( 497) = (   0.9374464   0.4375247   0.3125649  )
       498        C      tau( 498) = (   0.9374515   0.4375013   0.5625125  )
       499        C      tau( 499) = (   0.9374242   0.4374914   0.8124601  )
       500        C      tau( 500) = (   0.9374267   0.6874872   0.0625070  )
       501        C      tau( 501) = (   0.9373936   0.6874726   0.3125506  )
       502        C      tau( 502) = (   0.9375097   0.6874443   0.5624936  )
       503        C      tau( 503) = (   0.9375499   0.6874722   0.8124838  )
       504        C      tau( 504) = (   0.9374640   0.9374881   0.0625041  )
       505        C      tau( 505) = (   0.9374200   0.9374840   0.3125117  )
       506        C      tau( 506) = (   0.9374588   0.9374436   0.5625045  )
       507        C      tau( 507) = (   0.9375007   0.9374631   0.8124963  )
       508        C      tau( 508) = (   0.5685039   0.4314642   0.4314953  )
       509        C      tau( 509) = (   0.4328016   0.4304106   0.5696143  )
       510        C      tau( 510) = (   0.4328027   0.5695835   0.4304419  )
       511        N      tau( 511) = (   0.5661467   0.5659448   0.5659742  )

   Crystallographic axes

     site n.     atom                  positions (cryst. coord.)
         1        C      tau(   1) = ( -0.0000326 -0.0000239  0.0000003  )
         2        C      tau(   2) = ( -0.0000507  0.0000160  0.2500133  )
         3        C      tau(   3) = ( -0.0001339 -0.0000472  0.5000079  )
         4        C      tau(   4) = ( -0.0000218 -0.0000672  0.7499941  )
         5        C      tau(   5) = ( -0.0000518  0.2499893  0.0000417  )
         6        C      tau(   6) = (  0.0000121  0.2500323  0.2500574  )
         7        C      tau(   7) = ( -0.0000431  0.2500404  0.5000550  )
         8        C      tau(   8) = ( -0.0001230  0.2499574  0.7500361  )
         9        C      tau(   9) = ( -0.0001340  0.4999834 -0.0000184  )
        10        C      tau(  10) = ( -0.0000436  0.5000287  0.2500684  )
        11        C      tau(  11) = (  0.0000392  0.4999847  0.5000126  )
        12        C      tau(  12) = (  0.0000040  0.4999448  0.7499516  )
        13        C      tau(  13) = ( -0.0000213  0.7499698 -0.0000394  )
        14        C      tau(  14) = ( -0.0001222  0.7500089  0.2499855  )
        15        C      tau(  15) = (  0.0000039  0.7499238  0.4999713  )
        16        C      tau(  16) = (  0.0000706  0.7499116  0.7499385  )
        17        C      tau(  17) = (  0.2499485 -0.0000460 -0.0000153  )
        18        C      tau(  18) = (  0.2499112  0.0000987  0.2499671  )
        19        C      tau(  19) = (  0.2499635 -0.0000625  0.5000064  )
        20        C      tau(  20) = (  0.2499483 -0.0002181  0.7500117  )
        21        C      tau(  21) = (  0.2499089  0.2499360  0.0001308  )
        22        C      tau(  22) = (  0.2501317  0.2502136  0.2502446  )
        23        C      tau(  23) = (  0.2495740  0.2494838  0.5003288  )
        24        C      tau(  24) = (  0.2499196  0.2498186  0.7501503  )
        25        C      tau(  25) = (  0.2499640  0.4999774 -0.0000304  )
        26        C      tau(  26) = (  0.2495743  0.5002946  0.2495169  )
        27        C      tau(  27) = (  0.2508714  0.4999260  0.4999615  )
        28        C      tau(  28) = (  0.2496409  0.4995979  0.7504508  )
        29        C      tau(  29) = (  0.2499503  0.7499803 -0.0001796  )
        30        C      tau(  30) = (  0.2499235  0.7501134  0.2498573  )
        31        C      tau(  31) = (  0.2496406  0.7504163  0.4996322  )
        32        C      tau(  32) = (  0.2502822  0.7496341  0.7496697  )
        33        C      tau(  33) = (  0.4999523 -0.0000527 -0.0000223  )
        34        C      tau(  34) = (  0.4999627  0.0000474  0.2499966  )
        35        C      tau(  35) = (  0.4999722 -0.0000259  0.5000134  )
        36        C      tau(  36) = (  0.4999724 -0.0001300  0.7500210  )
        37        C      tau(  37) = (  0.4999619  0.2499688  0.0000754  )
        38        C      tau(  38) = (  0.4999443  0.2497857  0.2498155  )
        39        C      tau(  39) = (  0.4999079  0.2501970  0.5001765  )
        40        C      tau(  40) = (  0.4997304  0.2490523  0.7509577  )
        41        C      tau(  41) = (  0.4999730  0.4999863  0.0000025  )
        42        C      tau(  42) = (  0.4999095  0.5001419  0.2502310  )
        43        C      tau(  43) = (  0.5000029  0.4998138  0.7497961  )
        44        C      tau(  44) = (  0.4999739  0.7499915 -0.0000969  )
        45        C      tau(  45) = (  0.4997330  0.7509270  0.2490837  )
        46        C      tau(  46) = (  0.5000042  0.7497651  0.4998453  )
        47        C      tau(  47) = (  0.5000475  0.7499467  0.7499768  )
        48        C      tau(  48) = (  0.7499797 -0.0000089  0.0000150  )
        49        C      tau(  49) = (  0.7499752 -0.0000176  0.2500169  )
        50        C      tau(  50) = (  0.7499658 -0.0000119  0.5000191  )
        51        C      tau(  51) = (  0.7499896 -0.0000213  0.7500187  )
        52        C      tau(  52) = (  0.7499748  0.2499938  0.0000065  )
        53        C      tau(  53) = (  0.7499620  0.2500048  0.2500295  )
        54        C      tau(  54) = (  0.7501553  0.2497221  0.5000290  )
        55        C      tau(  55) = (  0.7497836  0.2501333  0.7499143  )
        56        C      tau(  56) = (  0.7499659  0.4999958  0.0000131  )
        57        C      tau(  57) = (  0.7501545  0.4999992  0.2497534  )
        58        C      tau(  58) = (  0.7495746  0.5000238  0.5000557  )
        59        C      tau(  59) = (  0.7500288  0.5000131  0.7501437  )
        60        C      tau(  60) = (  0.7499900  0.7499948  0.0000040  )
        61        C      tau(  61) = (  0.7497815  0.7498848  0.2501635  )
        62        C      tau(  62) = (  0.7500279  0.7501157  0.5000409  )
        63        C      tau(  63) = (  0.7500517  0.7500324  0.7500573  )
        64        C      tau(  64) = ( -0.0000246  0.1250116  0.1250355  )
        65        C      tau(  65) = ( -0.0000266  0.1250252  0.3750317  )
        66        C      tau(  66) = ( -0.0001261  0.1249727  0.6250424  )
        67        C      tau(  67) = ( -0.0000615  0.1249620  0.8750182  )
        68        C      tau(  68) = ( -0.0000275  0.3750075  0.1250517  )
        69        C      tau(  69) = (  0.0000067  0.3750508  0.3750780  )
        70        C      tau(  70) = ( -0.0000225  0.3749895  0.6250084  )
        71        C      tau(  71) = ( -0.0001141  0.3749604  0.8750180  )
        72        C      tau(  72) = ( -0.0001255  0.6250167  0.1250021  )
        73        C      tau(  73) = ( -0.0000228  0.6249810  0.3750174  )
        74        C      tau(  74) = (  0.0000711  0.6249131  0.6249410  )
        75        C      tau(  75) = (  0.0000151  0.6249563  0.8749316  )
        76        C      tau(  76) = ( -0.0000605  0.8749932  0.1249879  )
        77        C      tau(  77) = ( -0.0001129  0.8749903  0.3749861  )
        78        C      tau(  78) = (  0.0000147  0.8749032  0.6249812  )
        79        C      tau(  79) = (  0.0000170  0.8749376  0.8749629  )
        80        C      tau(  80) = (  0.2499568  0.1250602  0.1250896  )
        81        C      tau(  81) = (  0.2500060  0.1250364  0.3750928  )
        82        C      tau(  82) = (  0.2498345  0.1247375  0.6251315  )
        83        C      tau(  83) = (  0.2499210  0.1248614  0.8750816  )
        84        C      tau(  84) = (  0.2500066  0.3750633  0.1250663  )
        85        C      tau(  85) = (  0.2506674  0.3754513  0.3754849  )
        86        C      tau(  86) = (  0.2499863  0.3747732  0.6251959  )
        87        C      tau(  87) = (  0.2498271  0.3748388  0.8752220  )
        88        C      tau(  88) = (  0.2498378  0.6250970  0.1247761  )
        89        C      tau(  89) = (  0.2499882  0.6251584  0.3748111  )
        90        C      tau(  90) = (  0.2508280  0.6243829  0.6244173  )
        91        C      tau(  91) = (  0.2501822  0.6248646  0.8747627  )
        92        C      tau(  92) = (  0.2499243  0.8750488  0.1248971  )
        93        C      tau(  93) = (  0.2498301  0.8751864  0.3748734  )
        94        C      tau(  94) = (  0.2501824  0.8747261  0.6248965  )
        95        C      tau(  95) = (  0.2500023  0.8748307  0.8748642  )
        96        C      tau(  96) = (  0.4999732  0.1249281  0.1249551  )
        97        C      tau(  97) = (  0.4999682  0.1250413  0.3750802  )
        98        C      tau(  98) = (  0.4999199  0.1249020  0.6250880  )
        99        C      tau(  99) = (  0.4998976  0.1246162  0.8753560  )
       100        C      tau( 100) = (  0.4999686  0.3750521  0.1250696  )
       101        C      tau( 101) = (  0.4999195  0.3755088  0.3755433  )
       102        C      tau( 102) = (  0.4984578  0.3744827  0.6254545  )
       103        C      tau( 103) = (  0.4999469  0.3749434  0.8750441  )
       104        C      tau( 104) = (  0.4999234  0.6250553  0.1249361  )
       105        C      tau( 105) = (  0.4984596  0.6254234  0.3745144  )
       106        C      tau( 106) = (  0.5017467  0.6240518  0.6240826  )
       107        C      tau( 107) = (  0.5000223  0.6249014  0.8749292  )
       108        C      tau( 108) = (  0.4998994  0.8753244  0.1246492  )
       109        C      tau( 109) = (  0.4999485  0.8750149  0.3749734  )
       110        C      tau( 110) = (  0.5000219  0.8748991  0.6249297  )
       111        C      tau( 111) = (  0.4999980  0.8749314  0.8749612  )
       112        C      tau( 112) = (  0.7499807  0.1249980  0.1250210  )
       113        C      tau( 113) = (  0.7500073  0.1249459  0.3750237  )
       114        C      tau( 114) = (  0.7498951  0.1249997  0.6250277  )
       115        C      tau( 115) = (  0.7499434  0.1250202  0.8749863  )
       116        C      tau( 116) = (  0.7500066  0.3749997  0.1249713  )
       117        C      tau( 117) = (  0.7500205  0.3749517  0.3749809  )
       118        C      tau( 118) = (  0.7492181  0.3755079  0.6249338  )
       119        C      tau( 119) = (  0.7499013  0.3750022  0.8749729  )
       120        C      tau( 120) = (  0.7498951  0.6250015  0.1250274  )
       121        C      tau( 121) = (  0.7492191  0.6249029  0.3755392  )
       122        C      tau( 122) = (  0.7501458  0.6251209  0.6251502  )
       123        C      tau( 123) = (  0.7500327  0.6250089  0.8750664  )
       124        C      tau( 124) = (  0.7499433  0.8749611  0.1250457  )
       125        C      tau( 125) = (  0.7499008  0.8749472  0.3750274  )
       126        C      tau( 126) = (  0.7500319  0.8750409  0.6250325  )
       127        C      tau( 127) = (  0.7500109  0.8749905  0.8750143  )
       128        C      tau( 128) = (  0.1249488  0.0000214  0.1249986  )
       129        C      tau( 129) = (  0.1248985  0.0000422  0.3749943  )
       130        C      tau( 130) = (  0.1249487 -0.0001546  0.6250147  )
       131        C      tau( 131) = (  0.1249672 -0.0000989  0.8749849  )
       132        C      tau( 132) = (  0.1249975  0.2500393  0.1251148  )
       133        C      tau( 133) = (  0.1250814  0.2501297  0.3751184  )
       134        C      tau( 134) = (  0.1248663  0.2498518  0.6251050  )
       135        C      tau( 135) = (  0.1249060  0.2499234  0.8750696  )
       136        C      tau( 136) = (  0.1247645  0.5000689  0.1248214  )
       137        C      tau( 137) = (  0.1251857  0.5000609  0.3750716  )
       138        C      tau( 138) = (  0.1252283  0.4998624  0.6249052  )
       139        C      tau( 139) = (  0.1248009  0.4998791  0.8751495  )
       140        C      tau( 140) = (  0.1249200  0.7500185  0.1249216  )
       141        C      tau( 141) = (  0.1248828  0.7500868  0.3749094  )
       142        C      tau( 142) = (  0.1251761  0.7497512  0.6248567  )
       143        C      tau( 143) = (  0.1250741  0.7498739  0.8748370  )
       144        C      tau( 144) = (  0.3749306  0.0000755  0.1249420  )
       145        C      tau( 145) = (  0.3749623  0.0000280  0.3749995  )
       146        C      tau( 146) = (  0.3749728 -0.0001318  0.6250131  )
       147        C      tau( 147) = (  0.3749465 -0.0001886  0.8750205  )
       148        C      tau( 148) = (  0.3749680  0.2500714  0.1250979  )
       149        C      tau( 149) = (  0.3752012  0.2503002  0.3754337  )
       150        C      tau( 150) = (  0.3748831  0.2495356  0.6254131  )
       151        C      tau( 151) = (  0.3748839  0.2497097  0.8753154  )
       152        C      tau( 152) = (  0.3749741  0.5000819  0.1250049  )
       153        C      tau( 153) = (  0.3760497  0.5013009  0.3754666  )
       154        C      tau( 154) = (  0.3761623  0.4982675  0.6243642  )
       155        C      tau( 155) = (  0.3750505  0.4998666  0.8749368  )
       156        C      tau( 156) = (  0.3748977  0.7502172  0.1246949  )
       157        C      tau( 157) = (  0.3748684  0.7504522  0.3745814  )
       158        C      tau( 158) = (  0.3756370  0.7492213  0.6246042  )
       159        C      tau( 159) = (  0.3750407  0.7498120  0.8747950  )
       160        C      tau( 160) = (  0.6249893 -0.0000064  0.1250118  )
       161        C      tau( 161) = (  0.6249704  0.0000099  0.3750180  )
       162        C      tau( 162) = (  0.6249759 -0.0000409  0.6250147  )
       163        C      tau( 163) = (  0.6249931 -0.0000575  0.8750187  )
       164        C      tau( 164) = (  0.6249752  0.2499626  0.1249824  )
       165        C      tau( 165) = (  0.6249544  0.2498756  0.3750300  )
       166        C      tau( 166) = (  0.6245897  0.2501734  0.6249039  )
       167        C      tau( 167) = (  0.6249588  0.2500688  0.8749927  )
       168        C      tau( 168) = (  0.6249290  0.5000187  0.1250300  )
       169        C      tau( 169) = (  0.6241835  0.4996765  0.3753869  )
       170        C      tau( 170) = (  0.6240970  0.5017521  0.6244352  )
       171        C      tau( 171) = (  0.6249638  0.4999725  0.8750102  )
       172        C      tau( 172) = (  0.6249414  0.7499978  0.1249409  )
       173        C      tau( 173) = (  0.6247305  0.7495246  0.3754511  )
       174        C      tau( 174) = (  0.6250984  0.7502190  0.6250975  )
       175        C      tau( 175) = (  0.6250216  0.7500082  0.8750375  )
       176        C      tau( 176) = (  0.8749653 -0.0000121  0.1250165  )
       177        C      tau( 177) = (  0.8749504 -0.0000231  0.3750144  )
       178        C      tau( 178) = (  0.8749654 -0.0000250  0.6250171  )
       179        C      tau( 179) = (  0.8749790 -0.0000133  0.8750030  )
       180        C      tau( 180) = (  0.8749776  0.2500054  0.1250289  )
       181        C      tau( 181) = (  0.8750204  0.2499700  0.3750311  )
       182        C      tau( 182) = (  0.8747694  0.2501665  0.6250340  )
       183        C      tau( 183) = (  0.8749058  0.2499983  0.8749884  )
       184        C      tau( 184) = (  0.8750170  0.4999909  0.1249599  )
       185        C      tau( 185) = (  0.8748354  0.5000104  0.3751073  )
       186        C      tau( 186) = (  0.8749052  0.5000002  0.6249856  )
       187        C      tau( 187) = (  0.8749803  0.4999949  0.8750072  )
       188        C      tau( 188) = (  0.8749012  0.7499752  0.1250490  )
       189        C      tau( 189) = (  0.8748443  0.7499102  0.3750393  )
       190        C      tau( 190) = (  0.8750594  0.7500002  0.6250179  )
       191        C      tau( 191) = (  0.8750259  0.7499786  0.8749974  )
       192        C      tau( 192) = (  0.1249475  0.1249716  0.0000486  )
       193        C      tau( 193) = (  0.1249981  0.1250867  0.2500658  )
       194        C      tau( 194) = (  0.1247629  0.1247887  0.5000986  )
       195        C      tau( 195) = (  0.1249173  0.1248886  0.7500475  )
       196        C      tau( 196) = (  0.1248969  0.3749669  0.0000724  )
       197        C      tau( 197) = (  0.1250813  0.3750896  0.2501593  )
       198        C      tau( 198) = (  0.1251860  0.3750404  0.5000921  )
       199        C      tau( 199) = (  0.1248801  0.3748770  0.7501197  )
       200        C      tau( 200) = (  0.1249500  0.6249868 -0.0001204  )
       201        C      tau( 201) = (  0.1248690  0.6250734  0.2498856  )
       202        C      tau( 202) = (  0.1252281  0.6248725  0.4998947  )
       203        C      tau( 203) = (  0.1251761  0.6248251  0.7497849  )
       204        C      tau( 204) = (  0.1249683  0.8749578 -0.0000692  )
       205        C      tau( 205) = (  0.1249090  0.8750395  0.2499535  )
       206        C      tau( 206) = (  0.1248028  0.8751163  0.4999092  )
       207        C      tau( 207) = (  0.1250739  0.8748039  0.7499030  )
       208        C      tau( 208) = (  0.3749292  0.1249091  0.0001079  )
       209        C      tau( 209) = (  0.3749682  0.1250690  0.2500999  )
       210        C      tau( 210) = (  0.3749719  0.1249723  0.5001142  )
       211        C      tau( 211) = (  0.3748946  0.1246556  0.7502532  )
       212        C      tau( 212) = (  0.3749618  0.3749706  0.0000577  )
       213        C      tau( 213) = (  0.3752017  0.3753994  0.2503343  )
       214        C      tau( 214) = (  0.3760484  0.3754332  0.5013344  )
       215        C      tau( 215) = (  0.3748663  0.3745470  0.7504855  )
       216        C      tau( 216) = (  0.3749746  0.6249828 -0.0000968  )
       217        C      tau( 217) = (  0.3748858  0.6253780  0.2495710  )
       218        C      tau( 218) = (  0.3761632  0.6243320  0.4983003  )
       219        C      tau( 219) = (  0.3756371  0.6245712  0.7492547  )
       220        C      tau( 220) = (  0.3749479  0.8749876 -0.0001518  )
       221        C      tau( 221) = (  0.3748866  0.8752801  0.2497459  )
       222        C      tau( 222) = (  0.3750509  0.8749052  0.4998979  )
       223        C      tau( 223) = (  0.3750403  0.8747592  0.7498441  )
       224        C      tau( 224) = (  0.6249890  0.1249865  0.0000190  )
       225        C      tau( 225) = (  0.6249756  0.1249570  0.2499875  )
       226        C      tau( 226) = (  0.6249280  0.1250020  0.5000462  )
       227        C      tau( 227) = (  0.6249397  0.1249105  0.7500271  )
       228        C      tau( 228) = (  0.6249701  0.3749931  0.0000354  )
       229        C      tau( 229) = (  0.6249547  0.3750007  0.2499052  )
       230        C      tau( 230) = (  0.6241812  0.3753550  0.4997089  )
       231        C      tau( 231) = (  0.6247290  0.3754214  0.7495537  )
       232        C      tau( 232) = (  0.6249769  0.6249893 -0.0000138  )
       233        C      tau( 233) = (  0.6245909  0.6248703  0.2502073  )
       234        C      tau( 234) = (  0.6240982  0.6244057  0.5017817  )
       235        C      tau( 235) = (  0.6250989  0.6250684  0.7502493  )
       236        C      tau( 236) = (  0.6249934  0.8749921 -0.0000300  )
       237        C      tau( 237) = (  0.6249595  0.8749660  0.2500964  )
       238        C      tau( 238) = (  0.6249637  0.8749835  0.4999988  )
       239        C      tau( 239) = (  0.6250213  0.8750110  0.7500334  )
       240        C      tau( 240) = (  0.8749650  0.1249935  0.0000114  )
       241        C      tau( 241) = (  0.8749780  0.1250053  0.2500280  )
       242        C      tau( 242) = (  0.8750183  0.1249329  0.5000150  )
       243        C      tau( 243) = (  0.8749018  0.1250219  0.7500004  )
       244        C      tau( 244) = (  0.8749498  0.3749919  0.0000019  )
       245        C      tau( 245) = (  0.8750201  0.3750058  0.2499962  )
       246        C      tau( 246) = (  0.8748359  0.3750771  0.5000394  )
       247        C      tau( 247) = (  0.8748460  0.3750117  0.7499377  )
       248        C      tau( 248) = (  0.8749658  0.6249942  0.0000009  )
       249        C      tau( 249) = (  0.8747673  0.6250056  0.2501969  )
       250        C      tau( 250) = (  0.8749047  0.6249578  0.5000284  )
       251        C      tau( 251) = (  0.8750599  0.6249931  0.7500258  )
       252        C      tau( 252) = (  0.8749792  0.8749796  0.0000109  )
       253        C      tau( 253) = (  0.8749055  0.8749626  0.2500231  )
       254        C      tau( 254) = (  0.8749798  0.8749816  0.5000183  )
       255        C      tau( 255) = (  0.8750256  0.8749729  0.7500018  )
       256        C      tau( 256) = (  0.1874459  0.0625745  0.1875312  )
       257        C      tau( 257) = (  0.1874151  0.0624642  0.4375370  )
       258        C      tau( 258) = (  0.1874062  0.0622957  0.6875458  )
       259        C      tau( 259) = (  0.1874402  0.0624232  0.9375269  )
       260        C      tau( 260) = (  0.1875485  0.3125847  0.1876453  )
       261        C      tau( 261) = (  0.1877085  0.3125752  0.4376695  )
       262        C      tau( 262) = (  0.1873954  0.3123654  0.6876155  )
       263        C      tau( 263) = (  0.1873777  0.3124219  0.9376458  )
       264        C      tau( 264) = (  0.1871362  0.5625254  0.1871291  )
       265        C      tau( 265) = (  0.1878198  0.5624675  0.4374686  )
       266        C      tau( 266) = (  0.1878062  0.5622589  0.6873346  )
       267        C      tau( 267) = (  0.1874983  0.5624274  0.9374082  )
       268        C      tau( 268) = (  0.1874186  0.8125505  0.1874130  )
       269        C      tau( 269) = (  0.1871601  0.8128380  0.4374592  )
       270        C      tau( 270) = (  0.1876681  0.8122278  0.6873369  )
       271        C      tau( 271) = (  0.1874858  0.8124125  0.9373603  )
       272        C      tau( 272) = (  0.4374488  0.0625389  0.1875118  )
       273        C      tau( 273) = (  0.4374444  0.0624958  0.4375430  )
       274        C      tau( 274) = (  0.4374422  0.0623382  0.6875807  )
       275        C      tau( 275) = (  0.4374717  0.0622790  0.9376571  )
       276        C      tau( 276) = (  0.4374371  0.3126149  0.1876075  )
       277        C      tau( 277) = (  0.4376454  0.3129023  0.4381287  )
       278        C      tau( 278) = (  0.4377247  0.3109412  0.6891381  )
       279        C      tau( 279) = (  0.4374392  0.3124054  0.9376038  )
       280        C      tau( 280) = (  0.4374263  0.5626283  0.1874269  )
       281        C      tau( 281) = (  0.4383311  0.5614875  0.6865012  )
       282        C      tau( 282) = (  0.4374735  0.5624404  0.9374579  )
       283        C      tau( 283) = (  0.4374933  0.8131250  0.1868675  )
       284        C      tau( 284) = (  0.4374499  0.8125417  0.4373373  )
       285        C      tau( 285) = (  0.4375927  0.8122205  0.6872921  )
       286        C      tau( 286) = (  0.4374863  0.8124140  0.9373645  )
       287        C      tau( 287) = (  0.6874829  0.0624802  0.1875078  )
       288        C      tau( 288) = (  0.6874606  0.0624945  0.4375416  )
       289        C      tau( 289) = (  0.6874730  0.0624456  0.6875515  )
       290        C      tau( 290) = (  0.6874719  0.0624906  0.9375052  )
       291        C      tau( 291) = (  0.6874836  0.3124977  0.1874507  )
       292        C      tau( 292) = (  0.6880590  0.3118453  0.4376705  )
       293        C      tau( 293) = (  0.6870943  0.3126973  0.6873696  )
       294        C      tau( 294) = (  0.6874616  0.3124857  0.9375236  )
       295        C      tau( 295) = (  0.6873721  0.5625727  0.1875232  )
       296        C      tau( 296) = (  0.6863980  0.5619671  0.4383366  )
       297        C      tau( 297) = (  0.6877953  0.5626937  0.6879461  )
       298        C      tau( 298) = (  0.6874820  0.5624833  0.9375168  )
       299        C      tau( 299) = (  0.6873996  0.8124493  0.1875601  )
       300        C      tau( 300) = (  0.6873845  0.8124233  0.4375236  )
       301        C      tau( 301) = (  0.6875778  0.8126137  0.6875814  )
       302        C      tau( 302) = (  0.6875105  0.8125085  0.9375136  )
       303        C      tau( 303) = (  0.9374656  0.0625056  0.1875217  )
       304        C      tau( 304) = (  0.9374669  0.0624721  0.4375352  )
       305        C      tau( 305) = (  0.9374262  0.0624797  0.6875113  )
       306        C      tau( 306) = (  0.9374634  0.0624802  0.9375118  )
       307        C      tau( 307) = (  0.9375030  0.3125060  0.1875334  )
       308        C      tau( 308) = (  0.9374467  0.3125374  0.4375512  )
       309        C      tau( 309) = (  0.9373947  0.3125227  0.6874995  )
       310        C      tau( 310) = (  0.9374191  0.3124879  0.9375098  )
       311        C      tau( 311) = (  0.9373799  0.5624938  0.1875907  )
       312        C      tau( 312) = (  0.9374513  0.5624852  0.4375292  )
       313        C      tau( 313) = (  0.9375098  0.5624672  0.6874711  )
       314        C      tau( 314) = (  0.9374592  0.5624810  0.9374705  )
       315        C      tau( 315) = (  0.9374072  0.8124866  0.1875086  )
       316        C      tau( 316) = (  0.9374238  0.8124334  0.4375166  )
       317        C      tau( 317) = (  0.9375497  0.8124577  0.6874968  )
       318        C      tau( 318) = (  0.9375010  0.8124727  0.9374882  )
       319        C      tau( 319) = (  0.0624552  0.0624951  0.0625205  )
       320        C      tau( 320) = (  0.0624595  0.0625548  0.3125277  )
       321        C      tau( 321) = (  0.0623247  0.0623531  0.5625101  )
       322        C      tau( 322) = (  0.0624486  0.0624243  0.8125133  )
       323        C      tau( 323) = (  0.0624583  0.3125025  0.0625826  )
       324        C      tau( 324) = (  0.0625260  0.3125460  0.3125736  )
       325        C      tau( 325) = (  0.0625223  0.3124935  0.5625351  )
       326        C      tau( 326) = (  0.0623768  0.3124408  0.8125495  )
       327        C      tau( 327) = (  0.0623260  0.5624827  0.0623853  )
       328        C      tau( 328) = (  0.0625224  0.5625065  0.3125232  )
       329        C      tau( 329) = (  0.0626396  0.5624274  0.5624577  )
       330        C      tau( 330) = (  0.0625263  0.5624248  0.8124350  )
       331        C      tau( 331) = (  0.0624505  0.8124871  0.0624533  )
       332        C      tau( 332) = (  0.0623793  0.8125199  0.3124698  )
       333        C      tau( 333) = (  0.0625267  0.8124045  0.5624531  )
       334        C      tau( 334) = (  0.0625537  0.8123886  0.8124173  )
       335        C      tau( 335) = (  0.3124379  0.0625141  0.0625455  )
       336        C      tau( 336) = (  0.3124373  0.0625432  0.3125265  )
       337        C      tau( 337) = (  0.3124359  0.0623935  0.5625502  )
       338        C      tau( 338) = (  0.3124202  0.0622506  0.8125873  )
       339        C      tau( 339) = (  0.3124368  0.3124977  0.0625726  )
       340        C      tau( 340) = (  0.3127362  0.3128148  0.3128491  )
       341        C      tau( 341) = (  0.3118699  0.3115627  0.5625505  )
       342        C      tau( 342) = (  0.3123738  0.3122558  0.8128710  )
       343        C      tau( 343) = (  0.3124382  0.5625189  0.0624281  )
       344        C      tau( 344) = (  0.3118708  0.5625154  0.3115967  )
       345        C      tau( 345) = (  0.3138666  0.5617281  0.5617612  )
       346        C      tau( 346) = (  0.3127034  0.5622057  0.8122256  )
       347        C      tau( 347) = (  0.3124236  0.8125527  0.0622902  )
       348        C      tau( 348) = (  0.3123770  0.8128347  0.3122929  )
       349        C      tau( 349) = (  0.3127038  0.8121907  0.5622389  )
       350        C      tau( 350) = (  0.3125606  0.8122567  0.8122915  )
       351        C      tau( 351) = (  0.5624682  0.0624484  0.0624747  )
       352        C      tau( 352) = (  0.5624524  0.0625230  0.3125291  )
       353        C      tau( 353) = (  0.5624555  0.0624582  0.5625585  )
       354        C      tau( 354) = (  0.5624638  0.0623558  0.8125950  )
       355        C      tau( 355) = (  0.5624521  0.3125032  0.0625492  )
       356        C      tau( 356) = (  0.5623657  0.3119650  0.3119961  )
       357        C      tau( 357) = (  0.5618633  0.3127239  0.5626590  )
       358        C      tau( 358) = (  0.5623232  0.3124574  0.8125060  )
       359        C      tau( 359) = (  0.5624572  0.5625309  0.0624869  )
       360        C      tau( 360) = (  0.5618648  0.5626248  0.3127578  )
       361        C      tau( 361) = (  0.5624824  0.5623870  0.8125239  )
       362        C      tau( 362) = (  0.5624657  0.8125653  0.0623876  )
       363        C      tau( 363) = (  0.5623251  0.8124770  0.3124869  )
       364        C      tau( 364) = (  0.5624829  0.8124950  0.5624157  )
       365        C      tau( 365) = (  0.5625339  0.8124814  0.8125085  )
       366        C      tau( 366) = (  0.8124739  0.0624939  0.0625170  )
       367        C      tau( 367) = (  0.8124772  0.0624733  0.3125179  )
       368        C      tau( 368) = (  0.8124589  0.0624857  0.5625317  )
       369        C      tau( 369) = (  0.8124538  0.0625048  0.8125061  )
       370        C      tau( 370) = (  0.8124767  0.3124954  0.0624975  )
       371        C      tau( 371) = (  0.8125491  0.3124815  0.3125076  )
       372        C      tau( 372) = (  0.8121447  0.3127311  0.5624763  )
       373        C      tau( 373) = (  0.8123672  0.3125148  0.8124577  )
       374        C      tau( 374) = (  0.8124589  0.5625081  0.0625116  )
       375        C      tau( 375) = (  0.8121438  0.5624457  0.3127630  )
       376        C      tau( 376) = (  0.8123996  0.5624969  0.5625258  )
       377        C      tau( 377) = (  0.8125460  0.5625165  0.8125739  )
       378        C      tau( 378) = (  0.8124539  0.8124821  0.0625300  )
       379        C      tau( 379) = (  0.8123659  0.8124306  0.3125415  )
       380        C      tau( 380) = (  0.8125454  0.8125482  0.5625408  )
       381        C      tau( 381) = (  0.8125409  0.8125061  0.8125298  )
       382        C      tau( 382) = (  0.0624917  0.1875383  0.1875641  )
       383        C      tau( 383) = (  0.0624664  0.1875160  0.4375586  )
       384        C      tau( 384) = (  0.0623748  0.1874276  0.6875488  )
       385        C      tau( 385) = (  0.0624332  0.1874632  0.9375449  )
       386        C      tau( 386) = (  0.0624662  0.4375315  0.1875449  )
       387        C      tau( 387) = (  0.0626008  0.4375151  0.4375443  )
       388        C      tau( 388) = (  0.0625481  0.4374503  0.6874820  )
       389        C      tau( 389) = (  0.0623288  0.4374848  0.9375891  )
       390        C      tau( 390) = (  0.0623770  0.6875204  0.1874589  )
       391        C      tau( 391) = (  0.0625484  0.6874523  0.4374797  )
       392        C      tau( 392) = (  0.0626036  0.6873859  0.6874162  )
       393        C      tau( 393) = (  0.0625060  0.6874473  0.9373944  )
       394        C      tau( 394) = (  0.0624354  0.9375179  0.1874897  )
       395        C      tau( 395) = (  0.0623306  0.9375588  0.4375120  )
       396        C      tau( 396) = (  0.0625055  0.9373629  0.6874737  )
       397        C      tau( 397) = (  0.0624748  0.9374483  0.9374747  )
       398        C      tau( 398) = (  0.3124860  0.1876106  0.1876396  )
       399        C      tau( 399) = (  0.3124409  0.1874991  0.4376791  )
       400        C      tau( 400) = (  0.3123899  0.1871259  0.6877101  )
       401        C      tau( 401) = (  0.3124012  0.1873557  0.9376881  )
       402        C      tau( 402) = (  0.3124424  0.4376456  0.1875315  )
       403        C      tau( 403) = (  0.3137575  0.4380663  0.4380999  )
       404        C      tau( 404) = (  0.3118706  0.4374420  0.6885039  )
       405        C      tau( 405) = (  0.3124460  0.4374289  0.9375281  )
       406        C      tau( 406) = (  0.3123936  0.6876731  0.1871654  )
       407        C      tau( 407) = (  0.3118713  0.6884706  0.4374764  )
       408        C      tau( 408) = (  0.3129517  0.6869896  0.6870241  )
       409        C      tau( 409) = (  0.3125068  0.6874151  0.9373394  )
       410        C      tau( 410) = (  0.3124047  0.9376535  0.1873914  )
       411        C      tau( 411) = (  0.3124471  0.9374967  0.4374592  )
       412        C      tau( 412) = (  0.3125060  0.9373022  0.6874460  )
       413        C      tau( 413) = (  0.3124555  0.9373855  0.9374193  )
       414        C      tau( 414) = (  0.5624467  0.1873563  0.1873830  )
       415        C      tau( 415) = (  0.5623973  0.1875135  0.4376411  )
       416        C      tau( 416) = (  0.5623522  0.1873225  0.6877238  )
       417        C      tau( 417) = (  0.5624488  0.1874382  0.9375731  )
       418        C      tau( 418) = (  0.5623986  0.4376111  0.1875429  )
       419        C      tau( 419) = (  0.5616691  0.4378780  0.6868108  )
       420        C      tau( 420) = (  0.5624667  0.4374487  0.9375321  )
       421        C      tau( 421) = (  0.5623559  0.6876903  0.1873569  )
       422        C      tau( 422) = (  0.5616712  0.6867815  0.4379085  )
       423        C      tau( 423) = (  0.5627536  0.6877231  0.6877542  )
       424        C      tau( 424) = (  0.5624861  0.6874679  0.9374602  )
       425        C      tau( 425) = (  0.5624502  0.9375456  0.1874663  )
       426        C      tau( 426) = (  0.5624672  0.9375052  0.4374753  )
       427        C      tau( 427) = (  0.5624855  0.9374316  0.6874941  )
       428        C      tau( 428) = (  0.5624876  0.9374538  0.9374819  )
       429        C      tau( 429) = (  0.8124763  0.1875038  0.1875269  )
       430        C      tau( 430) = (  0.8126273  0.1873346  0.4375600  )
       431        C      tau( 431) = (  0.8123405  0.1875758  0.6874973  )
       432        C      tau( 432) = (  0.8124480  0.1874958  0.9374990  )
       433        C      tau( 433) = (  0.8126261  0.4375342  0.1873627  )
       434        C      tau( 434) = (  0.8123220  0.4375233  0.4375537  )
       435        C      tau( 435) = (  0.8122713  0.4375798  0.6874548  )
       436        C      tau( 436) = (  0.8124452  0.4374964  0.9374902  )
       437        C      tau( 437) = (  0.8123390  0.6874701  0.1876049  )
       438        C      tau( 438) = (  0.8122700  0.6874259  0.4376093  )
       439        C      tau( 439) = (  0.8126258  0.6875605  0.6875864  )
       440        C      tau( 440) = (  0.8125139  0.6875037  0.9375249  )
       441        C      tau( 441) = (  0.8124483  0.9374747  0.1875195  )
       442        C      tau( 442) = (  0.8124451  0.9374653  0.4375194  )
       443        C      tau( 443) = (  0.8125133  0.9375000  0.6875266  )
       444        C      tau( 444) = (  0.8124893  0.9374914  0.9375149  )
       445        C      tau( 445) = (  0.1874445  0.1875028  0.0626043  )
       446        C      tau( 446) = (  0.1875482  0.1876156  0.3126133  )
       447        C      tau( 447) = (  0.1871349  0.1870939  0.5625592  )
       448        C      tau( 448) = (  0.1874147  0.1873777  0.8125834  )
       449        C      tau( 449) = (  0.1874155  0.4375086  0.0624949  )
       450        C      tau( 450) = (  0.1877084  0.4376366  0.3126077  )
       451        C      tau( 451) = (  0.1878200  0.4374333  0.5625028  )
       452        C      tau( 452) = (  0.1871586  0.4374251  0.8128729  )
       453        C      tau( 453) = (  0.1874093  0.6875143  0.0623335  )
       454        C      tau( 454) = (  0.1873988  0.6875795  0.3124024  )
       455        C      tau( 455) = (  0.1878061  0.6872995  0.5622933  )
       456        C      tau( 456) = (  0.1876678  0.6873042  0.8122636  )
       457        C      tau( 457) = (  0.1874423  0.9374972  0.0624544  )
       458        C      tau( 458) = (  0.1873812  0.9376127  0.3124535  )
       459        C      tau( 459) = (  0.1874988  0.9373744  0.5624566  )
       460        C      tau( 460) = (  0.1874847  0.9373257  0.8124429  )
       461        C      tau( 461) = (  0.4374481  0.1874835  0.0625673  )
       462        C      tau( 462) = (  0.4374365  0.1875778  0.3126447  )
       463        C      tau( 463) = (  0.4374230  0.1873919  0.5626634  )
       464        C      tau( 464) = (  0.4374905  0.1868343  0.8131568  )
       465        C      tau( 465) = (  0.4374453  0.4375145  0.0625247  )
       466        C      tau( 466) = (  0.4376462  0.4380936  0.3129373  )
       467        C      tau( 467) = (  0.4374480  0.4373043  0.8125733  )
       468        C      tau( 468) = (  0.4374454  0.6875482  0.0623745  )
       469        C      tau( 469) = (  0.4377272  0.6891062  0.3109738  )
       470        C      tau( 470) = (  0.4383317  0.6864697  0.5615194  )
       471        C      tau( 471) = (  0.4375925  0.6872611  0.8122536  )
       472        C      tau( 472) = (  0.4374737  0.9376241  0.0623141  )
       473        C      tau( 473) = (  0.4374411  0.9375733  0.3124361  )
       474        C      tau( 474) = (  0.4374732  0.9374273  0.5624689  )
       475        C      tau( 475) = (  0.4374853  0.9373303  0.8124444  )
       476        C      tau( 476) = (  0.6874825  0.1874842  0.0625042  )
       477        C      tau( 477) = (  0.6874838  0.1874249  0.3125231  )
       478        C      tau( 478) = (  0.6873710  0.1874935  0.5626019  )
       479        C      tau( 479) = (  0.6873994  0.1875318  0.8124767  )
       480        C      tau( 480) = (  0.6874608  0.4375172  0.0625199  )
       481        C      tau( 481) = (  0.6880599  0.4376400  0.3118751  )
       482        C      tau( 482) = (  0.6863965  0.4383056  0.5619981  )
       483        C      tau( 483) = (  0.6873847  0.4374966  0.8124505  )
       484        C      tau( 484) = (  0.6874740  0.6875258  0.0624728  )
       485        C      tau( 485) = (  0.6870946  0.6873375  0.3127299  )
       486        C      tau( 486) = (  0.6877954  0.6879162  0.5627239  )
       487        C      tau( 487) = (  0.6875783  0.6875560  0.8126405  )
       488        C      tau( 488) = (  0.6874721  0.9374804  0.0625157  )
       489        C      tau( 489) = (  0.6874620  0.9374986  0.3125104  )
       490        C      tau( 490) = (  0.6874817  0.9374914  0.5625074  )
       491        C      tau( 491) = (  0.6875103  0.9374883  0.8125329  )
       492        C      tau( 492) = (  0.9374651  0.1874987  0.0625294  )
       493        C      tau( 493) = (  0.9375035  0.1875084  0.3125298  )
       494        C      tau( 494) = (  0.9373812  0.1875622  0.5625194  )
       495        C      tau( 495) = (  0.9374066  0.1874826  0.8125121  )
       496        C      tau( 496) = (  0.9374660  0.4375119  0.0624986  )
       497        C      tau( 497) = (  0.9374464  0.4375247  0.3125649  )
       498        C      tau( 498) = (  0.9374515  0.4375013  0.5625125  )
       499        C      tau( 499) = (  0.9374242  0.4374914  0.8124601  )
       500        C      tau( 500) = (  0.9374267  0.6874872  0.0625070  )
       501        C      tau( 501) = (  0.9373936  0.6874726  0.3125506  )
       502        C      tau( 502) = (  0.9375097  0.6874443  0.5624936  )
       503        C      tau( 503) = (  0.9375499  0.6874722  0.8124838  )
       504        C      tau( 504) = (  0.9374640  0.9374881  0.0625041  )
       505        C      tau( 505) = (  0.9374200  0.9374840  0.3125117  )
       506        C      tau( 506) = (  0.9374588  0.9374436  0.5625045  )
       507        C      tau( 507) = (  0.9375007  0.9374631  0.8124963  )
       508        C      tau( 508) = (  0.5685039  0.4314642  0.4314953  )
       509        C      tau( 509) = (  0.4328016  0.4304106  0.5696143  )
       510        C      tau( 510) = (  0.4328027  0.5695835  0.4304419  )
       511        N      tau( 511) = (  0.5661467  0.5659448  0.5659742  )

     number of k points=     1
                       cart. coord. in units 2pi/alat
        k(    1) = (   0.0000000   0.0000000   0.0000000), wk =   1.0000000

                       cryst. coord.
        k(    1) = (   0.0000000   0.0000000   0.0000000), wk =   1.0000000

     Dense  grid:   948261 G-vectors     FFT dimensions: ( 160, 160, 160)

     Occupations read from input 

      Spin-up

        1.0000   1.0000   1.0000   1.0000   1.0000   1.0000   1.0000   1.0000
        1.0000   1.0000   1.0000   1.0000   1.0000   1.0000   1.0000   1.0000
        1.0000   1.0000   1.0000   1.0000   1.0000   1.0000   1.0000   1.0000
        1.0000   1.0000   1.0000   1.0000   1.0000   1.0000   1.0000   1.0000
        1.0000   1.0000   1.0000   1.0000   1.0000   1.0000   1.0000   1.0000
        1.0000   1.0000   1.0000   1.0000   1.0000   1.0000   1.0000   1.0000
        1.0000   1.0000   1.0000   1.0000   1.0000   1.0000   1.0000   1.0000
        1.0000   1.0000   1.0000   1.0000   1.0000   1.0000   1.0000   1.0000
        1.0000   1.0000   1.0000   1.0000   1.0000   1.0000   1.0000   1.0000
        1.0000   1.0000   1.0000   1.0000   1.0000   1.0000   1.0000   1.0000
        1.0000   1.0000   1.0000   1.0000   1.0000   1.0000   1.0000   1.0000
        1.0000   1.0000   1.0000   1.0000   1.0000   1.0000   1.0000   1.0000
        1.0000   1.0000   1.0000   1.0000   1.0000   1.0000   1.0000   1.0000
        1.0000   1.0000   1.0000   1.0000   1.0000   1.0000   1.0000   1.0000
        1.0000   1.0000   1.0000   1.0000   1.0000   1.0000   1.0000   1.0000
        1.0000   1.0000   1.0000   1.0000   1.0000   1.0000   1.0000   1.0000
        1.0000   1.0000   1.0000   1.0000   1.0000   1.0000   1.0000   1.0000
        1.0000   1.0000   1.0000   1.0000   1.0000   1.0000   1.0000   1.0000
        1.0000   1.0000   1.0000   1.0000   1.0000   1.0000   1.0000   1.0000
        1.0000   1.0000   1.0000   1.0000   1.0000   1.0000   1.0000   1.0000
        1.0000   1.0000   1.0000   1.0000   1.0000   1.0000   1.0000   1.0000
        1.0000   1.0000   1.0000   1.0000   1.0000   1.0000   1.0000   1.0000
        1.0000   1.0000   1.0000   1.0000   1.0000   1.0000   1.0000   1.0000
        1.0000   1.0000   1.0000   1.0000   1.0000   1.0000   1.0000   1.0000
        1.0000   1.0000   1.0000   1.0000   1.0000   1.0000   1.0000   1.0000
        1.0000   1.0000   1.0000   1.0000   1.0000   1.0000   1.0000   1.0000
        1.0000   1.0000   1.0000   1.0000   1.0000   1.0000   1.0000   1.0000
        1.0000   1.0000   1.0000   1.0000   1.0000   1.0000   1.0000   1.0000
        1.0000   1.0000   1.0000   1.0000   1.0000   1.0000   1.0000   1.0000
        1.0000   1.0000   1.0000   1.0000   1.0000   1.0000   1.0000   1.0000
        1.0000   1.0000   1.0000   1.0000   1.0000   1.0000   1.0000   1.0000
        1.0000   1.0000   1.0000   1.0000   1.0000   1.0000   1.0000   1.0000
        1.0000   1.0000   1.0000   1.0000   1.0000   1.0000   1.0000   1.0000
        1.0000   1.0000   1.0000   1.0000   1.0000   1.0000   1.0000   1.0000
        1.0000   1.0000   1.0000   1.0000   1.0000   1.0000   1.0000   1.0000
        1.0000   1.0000   1.0000   1.0000   1.0000   1.0000   1.0000   1.0000
        1.0000   1.0000   1.0000   1.0000   1.0000   1.0000   1.0000   1.0000
        1.0000   1.0000   1.0000   1.0000   1.0000   1.0000   1.0000   1.0000
        1.0000   1.0000   1.0000   1.0000   1.0000   1.0000   1.0000   1.0000
        1.0000   1.0000   1.0000   1.0000   1.0000   1.0000   1.0000   1.0000
        1.0000   1.0000   1.0000   1.0000   1.0000   1.0000   1.0000   1.0000
        1.0000   1.0000   1.0000   1.0000   1.0000   1.0000   1.0000   1.0000
        1.0000   1.0000   1.0000   1.0000   1.0000   1.0000   1.0000   1.0000
        1.0000   1.0000   1.0000   1.0000   1.0000   1.0000   1.0000   1.0000
        1.0000   1.0000   1.0000   1.0000   1.0000   1.0000   1.0000   1.0000
        1.0000   1.0000   1.0000   1.0000   1.0000   1.0000   1.0000   1.0000
        1.0000   1.0000   1.0000   1.0000   1.0000   1.0000   1.0000   1.0000
        1.0000   1.0000   1.0000   1.0000   1.0000   1.0000   1.0000   1.0000
        1.0000   1.0000   1.0000   1.0000   1.0000   1.0000   1.0000   1.0000
        1.0000   1.0000   1.0000   1.0000   1.0000   1.0000   1.0000   1.0000
        1.0000   1.0000   1.0000   1.0000   1.0000   1.0000   1.0000   1.0000
        1.0000   1.0000   1.0000   1.0000   1.0000   1.0000   1.0000   1.0000
        1.0000   1.0000   1.0000   1.0000   1.0000   1.0000   1.0000   1.0000
        1.0000   1.0000   1.0000   1.0000   1.0000   1.0000   1.0000   1.0000
        1.0000   1.0000   1.0000   1.0000   1.0000   1.0000   1.0000   1.0000
        1.0000   1.0000   1.0000   1.0000   1.0000   1.0000   1.0000   1.0000
        1.0000   1.0000   1.0000   1.0000   1.0000   1.0000   1.0000   1.0000
        1.0000   1.0000   1.0000   1.0000   1.0000   1.0000   1.0000   1.0000
        1.0000   1.0000   1.0000   1.0000   1.0000   1.0000   1.0000   1.0000
        1.0000   1.0000   1.0000   1.0000   1.0000   1.0000   1.0000   1.0000
        1.0000   1.0000   1.0000   1.0000   1.0000   1.0000   1.0000   1.0000
        1.0000   1.0000   1.0000   1.0000   1.0000   1.0000   1.0000   1.0000
        1.0000   1.0000   1.0000   1.0000   1.0000   1.0000   1.0000   1.0000
        1.0000   1.0000   1.0000   1.0000   1.0000   1.0000   1.0000   1.0000
        1.0000   1.0000   1.0000   1.0000   1.0000   1.0000   1.0000   1.0000
        1.0000   1.0000   1.0000   1.0000   1.0000   1.0000   1.0000   1.0000
        1.0000   1.0000   1.0000   1.0000   1.0000   1.0000   1.0000   1.0000
        1.0000   1.0000   1.0000   1.0000   1.0000   1.0000   1.0000   1.0000
        1.0000   1.0000   1.0000   1.0000   1.0000   1.0000   1.0000   1.0000
        1.0000   1.0000   1.0000   1.0000   1.0000   1.0000   1.0000   1.0000
        1.0000   1.0000   1.0000   1.0000   1.0000   1.0000   1.0000   1.0000
        1.0000   1.0000   1.0000   1.0000   1.0000   1.0000   1.0000   1.0000
        1.0000   1.0000   1.0000   1.0000   1.0000   1.0000   1.0000   1.0000
        1.0000   1.0000   1.0000   1.0000   1.0000   1.0000   1.0000   1.0000
        1.0000   1.0000   1.0000   1.0000   1.0000   1.0000   1.0000   1.0000
        1.0000   1.0000   1.0000   1.0000   1.0000   1.0000   1.0000   1.0000
        1.0000   1.0000   1.0000   1.0000   1.0000   1.0000   1.0000   1.0000
        1.0000   1.0000   1.0000   1.0000   1.0000   1.0000   1.0000   1.0000
        1.0000   1.0000   1.0000   1.0000   1.0000   1.0000   1.0000   1.0000
        1.0000   1.0000   1.0000   1.0000   1.0000   1.0000   1.0000   1.0000
        1.0000   1.0000   1.0000   1.0000   1.0000   1.0000   1.0000   1.0000
        1.0000   1.0000   1.0000   1.0000   1.0000   1.0000   1.0000   1.0000
        1.0000   1.0000   1.0000   1.0000   1.0000   1.0000   1.0000   1.0000
        1.0000   1.0000   1.0000   1.0000   1.0000   1.0000   1.0000   1.0000
        1.0000   1.0000   1.0000   1.0000   1.0000   1.0000   1.0000   1.0000
        1.0000   1.0000   1.0000   1.0000   1.0000   1.0000   1.0000   1.0000
        1.0000   1.0000   1.0000   1.0000   1.0000   1.0000   1.0000   1.0000
        1.0000   1.0000   1.0000   1.0000   1.0000   1.0000   1.0000   1.0000
        1.0000   1.0000   1.0000   1.0000   1.0000   1.0000   1.0000   1.0000
        1.0000   1.0000   1.0000   1.0000   1.0000   1.0000   1.0000   1.0000
        1.0000   1.0000   1.0000   1.0000   1.0000   1.0000   1.0000   1.0000
        1.0000   1.0000   1.0000   1.0000   1.0000   1.0000   1.0000   1.0000
        1.0000   1.0000   1.0000   1.0000   1.0000   1.0000   1.0000   1.0000
        1.0000   1.0000   1.0000   1.0000   1.0000   1.0000   1.0000   1.0000
        1.0000   1.0000   1.0000   1.0000   1.0000   1.0000   1.0000   1.0000
        1.0000   1.0000   1.0000   1.0000   1.0000   1.0000   1.0000   1.0000
        1.0000   1.0000   1.0000   1.0000   1.0000   1.0000   1.0000   1.0000
        1.0000   1.0000   1.0000   1.0000   1.0000   1.0000   1.0000   1.0000
        1.0000   1.0000   1.0000   1.0000   1.0000   1.0000   1.0000   1.0000
        1.0000   1.0000   1.0000   1.0000   1.0000   1.0000   1.0000   1.0000
        1.0000   1.0000   1.0000   1.0000   1.0000   1.0000   1.0000   1.0000
        1.0000   1.0000   1.0000   1.0000   1.0000   1.0000   1.0000   1.0000
        1.0000   1.0000   1.0000   1.0000   1.0000   1.0000   1.0000   1.0000
        1.0000   1.0000   1.0000   1.0000   1.0000   1.0000   1.0000   1.0000
        1.0000   1.0000   1.0000   1.0000   1.0000   1.0000   1.0000   1.0000
        1.0000   1.0000   1.0000   1.0000   1.0000   1.0000   1.0000   1.0000
        1.0000   1.0000   1.0000   1.0000   1.0000   1.0000   1.0000   1.0000
        1.0000   1.0000   1.0000   1.0000   1.0000   1.0000   1.0000   1.0000
        1.0000   1.0000   1.0000   1.0000   1.0000   1.0000   1.0000   1.0000
        1.0000   1.0000   1.0000   1.0000   1.0000   1.0000   1.0000   1.0000
        1.0000   1.0000   1.0000   1.0000   1.0000   1.0000   1.0000   1.0000
        1.0000   1.0000   1.0000   1.0000   1.0000   1.0000   1.0000   1.0000
        1.0000   1.0000   1.0000   1.0000   1.0000   1.0000   1.0000   1.0000
        1.0000   1.0000   1.0000   1.0000   1.0000   1.0000   1.0000   1.0000
        1.0000   1.0000   1.0000   1.0000   1.0000   1.0000   1.0000   1.0000
        1.0000   1.0000   1.0000   1.0000   1.0000   1.0000   1.0000   1.0000
        1.0000   1.0000   1.0000   1.0000   1.0000   1.0000   1.0000   1.0000
        1.0000   1.0000   1.0000   1.0000   1.0000   1.0000   1.0000   1.0000
        1.0000   1.0000   1.0000   1.0000   1.0000   1.0000   1.0000   1.0000
        1.0000   1.0000   1.0000   1.0000   1.0000   1.0000   1.0000   1.0000
        1.0000   1.0000   1.0000   1.0000   1.0000   1.0000   1.0000   1.0000
        1.0000   1.0000   1.0000   1.0000   1.0000   1.0000   1.0000   1.0000
        1.0000   1.0000   1.0000   1.0000   1.0000   1.0000   1.0000   1.0000
        1.0000   1.0000   1.0000   1.0000   1.0000   1.0000   1.0000   1.0000
        1.0000   1.0000   1.0000   1.0000   1.0000   1.0000   1.0000   1.0000
        1.0000   1.0000   1.0000   1.0000   1.0000   1.0000   1.0000   1.0000
        1.0000   1.0000   1.0000   1.0000   1.0000   1.0000   1.0000   1.0000
        1.0000   1.0000   1.0000   1.0000   1.0000   1.0000   1.0000   1.0000
        0.0000   0.0000   0.0000   0.0000   0.0000   0.0000   0.0000   0.0000

      Spin-down

        1.0000   1.0000   1.0000   1.0000   1.0000   1.0000   1.0000   1.0000
        1.0000   1.0000   1.0000   1.0000   1.0000   1.0000   1.0000   1.0000
        1.0000   1.0000   1.0000   1.0000   1.0000   1.0000   1.0000   1.0000
        1.0000   1.0000   1.0000   1.0000   1.0000   1.0000   1.0000   1.0000
        1.0000   1.0000   1.0000   1.0000   1.0000   1.0000   1.0000   1.0000
        1.0000   1.0000   1.0000   1.0000   1.0000   1.0000   1.0000   1.0000
        1.0000   1.0000   1.0000   1.0000   1.0000   1.0000   1.0000   1.0000
        1.0000   1.0000   1.0000   1.0000   1.0000   1.0000   1.0000   1.0000
        1.0000   1.0000   1.0000   1.0000   1.0000   1.0000   1.0000   1.0000
        1.0000   1.0000   1.0000   1.0000   1.0000   1.0000   1.0000   1.0000
        1.0000   1.0000   1.0000   1.0000   1.0000   1.0000   1.0000   1.0000
        1.0000   1.0000   1.0000   1.0000   1.0000   1.0000   1.0000   1.0000
        1.0000   1.0000   1.0000   1.0000   1.0000   1.0000   1.0000   1.0000
        1.0000   1.0000   1.0000   1.0000   1.0000   1.0000   1.0000   1.0000
        1.0000   1.0000   1.0000   1.0000   1.0000   1.0000   1.0000   1.0000
        1.0000   1.0000   1.0000   1.0000   1.0000   1.0000   1.0000   1.0000
        1.0000   1.0000   1.0000   1.0000   1.0000   1.0000   1.0000   1.0000
        1.0000   1.0000   1.0000   1.0000   1.0000   1.0000   1.0000   1.0000
        1.0000   1.0000   1.0000   1.0000   1.0000   1.0000   1.0000   1.0000
        1.0000   1.0000   1.0000   1.0000   1.0000   1.0000   1.0000   1.0000
        1.0000   1.0000   1.0000   1.0000   1.0000   1.0000   1.0000   1.0000
        1.0000   1.0000   1.0000   1.0000   1.0000   1.0000   1.0000   1.0000
        1.0000   1.0000   1.0000   1.0000   1.0000   1.0000   1.0000   1.0000
        1.0000   1.0000   1.0000   1.0000   1.0000   1.0000   1.0000   1.0000
        1.0000   1.0000   1.0000   1.0000   1.0000   1.0000   1.0000   1.0000
        1.0000   1.0000   1.0000   1.0000   1.0000   1.0000   1.0000   1.0000
        1.0000   1.0000   1.0000   1.0000   1.0000   1.0000   1.0000   1.0000
        1.0000   1.0000   1.0000   1.0000   1.0000   1.0000   1.0000   1.0000
        1.0000   1.0000   1.0000   1.0000   1.0000   1.0000   1.0000   1.0000
        1.0000   1.0000   1.0000   1.0000   1.0000   1.0000   1.0000   1.0000
        1.0000   1.0000   1.0000   1.0000   1.0000   1.0000   1.0000   1.0000
        1.0000   1.0000   1.0000   1.0000   1.0000   1.0000   1.0000   1.0000
        1.0000   1.0000   1.0000   1.0000   1.0000   1.0000   1.0000   1.0000
        1.0000   1.0000   1.0000   1.0000   1.0000   1.0000   1.0000   1.0000
        1.0000   1.0000   1.0000   1.0000   1.0000   1.0000   1.0000   1.0000
        1.0000   1.0000   1.0000   1.0000   1.0000   1.0000   1.0000   1.0000
        1.0000   1.0000   1.0000   1.0000   1.0000   1.0000   1.0000   1.0000
        1.0000   1.0000   1.0000   1.0000   1.0000   1.0000   1.0000   1.0000
        1.0000   1.0000   1.0000   1.0000   1.0000   1.0000   1.0000   1.0000
        1.0000   1.0000   1.0000   1.0000   1.0000   1.0000   1.0000   1.0000
        1.0000   1.0000   1.0000   1.0000   1.0000   1.0000   1.0000   1.0000
        1.0000   1.0000   1.0000   1.0000   1.0000   1.0000   1.0000   1.0000
        1.0000   1.0000   1.0000   1.0000   1.0000   1.0000   1.0000   1.0000
        1.0000   1.0000   1.0000   1.0000   1.0000   1.0000   1.0000   1.0000
        1.0000   1.0000   1.0000   1.0000   1.0000   1.0000   1.0000   1.0000
        1.0000   1.0000   1.0000   1.0000   1.0000   1.0000   1.0000   1.0000
        1.0000   1.0000   1.0000   1.0000   1.0000   1.0000   1.0000   1.0000
        1.0000   1.0000   1.0000   1.0000   1.0000   1.0000   1.0000   1.0000
        1.0000   1.0000   1.0000   1.0000   1.0000   1.0000   1.0000   1.0000
        1.0000   1.0000   1.0000   1.0000   1.0000   1.0000   1.0000   1.0000
        1.0000   1.0000   1.0000   1.0000   1.0000   1.0000   1.0000   1.0000
        1.0000   1.0000   1.0000   1.0000   1.0000   1.0000   1.0000   1.0000
        1.0000   1.0000   1.0000   1.0000   1.0000   1.0000   1.0000   1.0000
        1.0000   1.0000   1.0000   1.0000   1.0000   1.0000   1.0000   1.0000
        1.0000   1.0000   1.0000   1.0000   1.0000   1.0000   1.0000   1.0000
        1.0000   1.0000   1.0000   1.0000   1.0000   1.0000   1.0000   1.0000
        1.0000   1.0000   1.0000   1.0000   1.0000   1.0000   1.0000   1.0000
        1.0000   1.0000   1.0000   1.0000   1.0000   1.0000   1.0000   1.0000
        1.0000   1.0000   1.0000   1.0000   1.0000   1.0000   1.0000   1.0000
        1.0000   1.0000   1.0000   1.0000   1.0000   1.0000   1.0000   1.0000
        1.0000   1.0000   1.0000   1.0000   1.0000   1.0000   1.0000   1.0000
        1.0000   1.0000   1.0000   1.0000   1.0000   1.0000   1.0000   1.0000
        1.0000   1.0000   1.0000   1.0000   1.0000   1.0000   1.0000   1.0000
        1.0000   1.0000   1.0000   1.0000   1.0000   1.0000   1.0000   1.0000
        1.0000   1.0000   1.0000   1.0000   1.0000   1.0000   1.0000   1.0000
        1.0000   1.0000   1.0000   1.0000   1.0000   1.0000   1.0000   1.0000
        1.0000   1.0000   1.0000   1.0000   1.0000   1.0000   1.0000   1.0000
        1.0000   1.0000   1.0000   1.0000   1.0000   1.0000   1.0000   1.0000
        1.0000   1.0000   1.0000   1.0000   1.0000   1.0000   1.0000   1.0000
        1.0000   1.0000   1.0000   1.0000   1.0000   1.0000   1.0000   1.0000
        1.0000   1.0000   1.0000   1.0000   1.0000   1.0000   1.0000   1.0000
        1.0000   1.0000   1.0000   1.0000   1.0000   1.0000   1.0000   1.0000
        1.0000   1.0000   1.0000   1.0000   1.0000   1.0000   1.0000   1.0000
        1.0000   1.0000   1.0000   1.0000   1.0000   1.0000   1.0000   1.0000
        1.0000   1.0000   1.0000   1.0000   1.0000   1.0000   1.0000   1.0000
        1.0000   1.0000   1.0000   1.0000   1.0000   1.0000   1.0000   1.0000
        1.0000   1.0000   1.0000   1.0000   1.0000   1.0000   1.0000   1.0000
        1.0000   1.0000   1.0000   1.0000   1.0000   1.0000   1.0000   1.0000
        1.0000   1.0000   1.0000   1.0000   1.0000   1.0000   1.0000   1.0000
        1.0000   1.0000   1.0000   1.0000   1.0000   1.0000   1.0000   1.0000
        1.0000   1.0000   1.0000   1.0000   1.0000   1.0000   1.0000   1.0000
        1.0000   1.0000   1.0000   1.0000   1.0000   1.0000   1.0000   1.0000
        1.0000   1.0000   1.0000   1.0000   1.0000   1.0000   1.0000   1.0000
        1.0000   1.0000   1.0000   1.0000   1.0000   1.0000   1.0000   1.0000
        1.0000   1.0000   1.0000   1.0000   1.0000   1.0000   1.0000   1.0000
        1.0000   1.0000   1.0000   1.0000   1.0000   1.0000   1.0000   1.0000
        1.0000   1.0000   1.0000   1.0000   1.0000   1.0000   1.0000   1.0000
        1.0000   1.0000   1.0000   1.0000   1.0000   1.0000   1.0000   1.0000
        1.0000   1.0000   1.0000   1.0000   1.0000   1.0000   1.0000   1.0000
        1.0000   1.0000   1.0000   1.0000   1.0000   1.0000   1.0000   1.0000
        1.0000   1.0000   1.0000   1.0000   1.0000   1.0000   1.0000   1.0000
        1.0000   1.0000   1.0000   1.0000   1.0000   1.0000   1.0000   1.0000
        1.0000   1.0000   1.0000   1.0000   1.0000   1.0000   1.0000   1.0000
        1.0000   1.0000   1.0000   1.0000   1.0000   1.0000   1.0000   1.0000
        1.0000   1.0000   1.0000   1.0000   1.0000   1.0000   1.0000   1.0000
        1.0000   1.0000   1.0000   1.0000   1.0000   1.0000   1.0000   1.0000
        1.0000   1.0000   1.0000   1.0000   1.0000   1.0000   1.0000   1.0000
        1.0000   1.0000   1.0000   1.0000   1.0000   1.0000   1.0000   1.0000
        1.0000   1.0000   1.0000   1.0000   1.0000   1.0000   1.0000   1.0000
        1.0000   1.0000   1.0000   1.0000   1.0000   1.0000   1.0000   1.0000
        1.0000   1.0000   1.0000   1.0000   1.0000   1.0000   1.0000   1.0000
        1.0000   1.0000   1.0000   1.0000   1.0000   1.0000   1.0000   1.0000
        1.0000   1.0000   1.0000   1.0000   1.0000   1.0000   1.0000   1.0000
        1.0000   1.0000   1.0000   1.0000   1.0000   1.0000   1.0000   1.0000
        1.0000   1.0000   1.0000   1.0000   1.0000   1.0000   1.0000   1.0000
        1.0000   1.0000   1.0000   1.0000   1.0000   1.0000   1.0000   1.0000
        1.0000   1.0000   1.0000   1.0000   1.0000   1.0000   1.0000   1.0000
        1.0000   1.0000   1.0000   1.0000   1.0000   1.0000   1.0000   1.0000
        1.0000   1.0000   1.0000   1.0000   1.0000   1.0000   1.0000   1.0000
        1.0000   1.0000   1.0000   1.0000   1.0000   1.0000   1.0000   1.0000
        1.0000   1.0000   1.0000   1.0000   1.0000   1.0000   1.0000   1.0000
        1.0000   1.0000   1.0000   1.0000   1.0000   1.0000   1.0000   1.0000
        1.0000   1.0000   1.0000   1.0000   1.0000   1.0000   1.0000   1.0000
        1.0000   1.0000   1.0000   1.0000   1.0000   1.0000   1.0000   1.0000
        1.0000   1.0000   1.0000   1.0000   1.0000   1.0000   1.0000   1.0000
        1.0000   1.0000   1.0000   1.0000   1.0000   1.0000   1.0000   1.0000
        1.0000   1.0000   1.0000   1.0000   1.0000   1.0000   1.0000   1.0000
        1.0000   1.0000   1.0000   1.0000   1.0000   1.0000   1.0000   1.0000
        1.0000   1.0000   1.0000   1.0000   1.0000   1.0000   1.0000   1.0000
        1.0000   1.0000   1.0000   1.0000   1.0000   1.0000   1.0000   1.0000
        1.0000   1.0000   1.0000   1.0000   1.0000   1.0000   1.0000   1.0000
        1.0000   1.0000   1.0000   1.0000   1.0000   1.0000   1.0000   1.0000
        1.0000   1.0000   1.0000   1.0000   1.0000   1.0000   1.0000   1.0000
        1.0000   1.0000   1.0000   1.0000   1.0000   1.0000   1.0000   1.0000
        1.0000   1.0000   1.0000   1.0000   1.0000   1.0000   1.0000   1.0000
        1.0000   1.0000   1.0000   1.0000   1.0000   1.0000   1.0000   1.0000
        1.0000   1.0000   1.0000   1.0000   1.0000   1.0000   1.0000   1.0000
        1.0000   1.0000   1.0000   1.0000   1.0000   0.0000   1.0000   0.0000
        0.0000   0.0000   0.0000   0.0000   0.0000   0.0000   0.0000   0.0000

     Dynamical RAM for                 wfc:      38.88 MB

     Dynamical RAM for     wfc (w. buffer):      38.88 MB

     Dynamical RAM for           str. fact:       0.60 MB

     Dynamical RAM for           local pot:       0.00 MB

     Dynamical RAM for          nlocal pot:     154.01 MB

     Dynamical RAM for                qrad:       0.82 MB

     Dynamical RAM for          rho,v,vnew:       6.50 MB

     Dynamical RAM for               rhoin:       2.17 MB

     Dynamical RAM for            rho*nmix:       9.65 MB

     Dynamical RAM for           G-vectors:       1.28 MB

     Dynamical RAM for          h,s,v(r/c):       2.71 MB

     Dynamical RAM for          <psi|beta>:      32.19 MB

     Dynamical RAM for                 psi:      77.76 MB

     Dynamical RAM for                hpsi:      77.76 MB

     Dynamical RAM for      wfcinit/wfcrot:     102.14 MB

     Estimated static dynamical RAM per process >     209.85 MB

     Estimated max dynamical RAM per process >     409.91 MB

     Estimated total dynamical RAM >      37.98 GB
     Generating pointlists ...
     new r_m :   0.0424 (alat units)  1.1431 (a.u.) for type    1
     new r_m :   0.0431 (alat units)  1.1613 (a.u.) for type    2

     Initial potential from superposition of free atoms

     starting charge    2041.4445, renormalised to    2046.0000
     Starting wfcs are random

     total cpu time spent up to now is       12.2 secs

     Self-consistent Calculation

     iteration #  1     ecut=    80.00 Ry     beta= 0.70
     Davidson diagonalization with overlap

---- Real-time Memory Report at c_bands before calling an iterative solver
           513 MiB given to the printing process from OS
             0 MiB allocation reported by mallinfo(arena+hblkhd)
        161539 MiB available memory on the node where the printing process lives
------------------
     ethr =  1.00E-02,  avg # of iterations = 13.0

     total cpu time spent up to now is       90.1 secs

     total energy              =   -5823.76274249 Ry
     estimated scf accuracy    <      29.19769006 Ry

     total magnetization       =     2.00 Bohr mag/cell
     absolute magnetization    =     2.00 Bohr mag/cell

     iteration #  2     ecut=    80.00 Ry     beta= 0.70
     Davidson diagonalization with overlap

---- Real-time Memory Report at c_bands before calling an iterative solver
           630 MiB given to the printing process from OS
             0 MiB allocation reported by mallinfo(arena+hblkhd)
        159983 MiB available memory on the node where the printing process lives
------------------
     ethr =  1.43E-03,  avg # of iterations = 15.0

     total cpu time spent up to now is      115.8 secs

     total energy              =   -5825.00003802 Ry
     estimated scf accuracy    <       5.44280700 Ry

     total magnetization       =     2.00 Bohr mag/cell
     absolute magnetization    =     2.17 Bohr mag/cell

     iteration #  3     ecut=    80.00 Ry     beta= 0.70
     Davidson diagonalization with overlap

---- Real-time Memory Report at c_bands before calling an iterative solver
           652 MiB given to the printing process from OS
             0 MiB allocation reported by mallinfo(arena+hblkhd)
        159724 MiB available memory on the node where the printing process lives
------------------
     ethr =  2.66E-04,  avg # of iterations = 12.5

     total cpu time spent up to now is      146.0 secs

     total energy              =   -5818.67259557 Ry
     estimated scf accuracy    <      73.71021555 Ry

     total magnetization       =     2.00 Bohr mag/cell
     absolute magnetization    =     2.32 Bohr mag/cell

     iteration #  4     ecut=    80.00 Ry     beta= 0.70
     Davidson diagonalization with overlap

---- Real-time Memory Report at c_bands before calling an iterative solver
           661 MiB given to the printing process from OS
             0 MiB allocation reported by mallinfo(arena+hblkhd)
        159546 MiB available memory on the node where the printing process lives
------------------
     c_bands:  2 eigenvalues not converged
     ethr =  2.66E-04,  avg # of iterations = 20.0

     total cpu time spent up to now is      178.6 secs

     total energy              =   -5828.77561047 Ry
     estimated scf accuracy    <       1.93543820 Ry

     total magnetization       =     2.00 Bohr mag/cell
     absolute magnetization    =     2.15 Bohr mag/cell

     iteration #  5     ecut=    80.00 Ry     beta= 0.70
     Davidson diagonalization with overlap

---- Real-time Memory Report at c_bands before calling an iterative solver
           665 MiB given to the printing process from OS
             0 MiB allocation reported by mallinfo(arena+hblkhd)
        159544 MiB available memory on the node where the printing process lives
------------------
     ethr =  9.46E-05,  avg # of iterations = 13.0

     total cpu time spent up to now is      199.9 secs

     total energy              =   -5828.94073908 Ry
     estimated scf accuracy    <       0.22886163 Ry

     total magnetization       =     2.00 Bohr mag/cell
     absolute magnetization    =     2.16 Bohr mag/cell

     iteration #  6     ecut=    80.00 Ry     beta= 0.70
     Davidson diagonalization with overlap

---- Real-time Memory Report at c_bands before calling an iterative solver
           665 MiB given to the printing process from OS
             0 MiB allocation reported by mallinfo(arena+hblkhd)
        159544 MiB available memory on the node where the printing process lives
------------------
     c_bands:  2 eigenvalues not converged
     ethr =  1.12E-05,  avg # of iterations = 20.0

     total cpu time spent up to now is      227.3 secs

     total energy              =   -5828.96559471 Ry
     estimated scf accuracy    <       0.06361883 Ry

     total magnetization       =     2.00 Bohr mag/cell
     absolute magnetization    =     2.16 Bohr mag/cell

     iteration #  7     ecut=    80.00 Ry     beta= 0.70
     Davidson diagonalization with overlap

---- Real-time Memory Report at c_bands before calling an iterative solver
           665 MiB given to the printing process from OS
             0 MiB allocation reported by mallinfo(arena+hblkhd)
        159543 MiB available memory on the node where the printing process lives
------------------
     c_bands:  1 eigenvalues not converged
     ethr =  3.11E-06,  avg # of iterations = 20.0

     total cpu time spent up to now is      251.6 secs

     total energy              =   -5828.97111910 Ry
     estimated scf accuracy    <       0.02875267 Ry

     total magnetization       =     2.00 Bohr mag/cell
     absolute magnetization    =     2.18 Bohr mag/cell

     iteration #  8     ecut=    80.00 Ry     beta= 0.70
     Davidson diagonalization with overlap

---- Real-time Memory Report at c_bands before calling an iterative solver
           665 MiB given to the printing process from OS
             0 MiB allocation reported by mallinfo(arena+hblkhd)
        159543 MiB available memory on the node where the printing process lives
------------------
     c_bands:  2 eigenvalues not converged
     ethr =  1.41E-06,  avg # of iterations = 20.0

     total cpu time spent up to now is      275.5 secs

     total energy              =   -5828.97236691 Ry
     estimated scf accuracy    <       0.05556342 Ry

     total magnetization       =     2.00 Bohr mag/cell
     absolute magnetization    =     2.21 Bohr mag/cell

     iteration #  9     ecut=    80.00 Ry     beta= 0.70
     Davidson diagonalization with overlap

---- Real-time Memory Report at c_bands before calling an iterative solver
           665 MiB given to the printing process from OS
             0 MiB allocation reported by mallinfo(arena+hblkhd)
        159543 MiB available memory on the node where the printing process lives
------------------
     c_bands:  1 eigenvalues not converged
     ethr =  1.41E-06,  avg # of iterations = 16.5

     total cpu time spent up to now is      294.7 secs

     total energy              =   -5828.97677767 Ry
     estimated scf accuracy    <       0.00832137 Ry

     total magnetization       =     2.00 Bohr mag/cell
     absolute magnetization    =     2.22 Bohr mag/cell

     iteration # 10     ecut=    80.00 Ry     beta= 0.70
     Davidson diagonalization with overlap

---- Real-time Memory Report at c_bands before calling an iterative solver
           665 MiB given to the printing process from OS
             0 MiB allocation reported by mallinfo(arena+hblkhd)
        159543 MiB available memory on the node where the printing process lives
------------------
     c_bands:  1 eigenvalues not converged
     ethr =  4.07E-07,  avg # of iterations = 16.5

     total cpu time spent up to now is      317.6 secs

     total energy              =   -5828.97713071 Ry
     estimated scf accuracy    <       0.00875839 Ry

     total magnetization       =     2.00 Bohr mag/cell
     absolute magnetization    =     2.23 Bohr mag/cell

     iteration # 11     ecut=    80.00 Ry     beta= 0.70
     Davidson diagonalization with overlap

---- Real-time Memory Report at c_bands before calling an iterative solver
           665 MiB given to the printing process from OS
             0 MiB allocation reported by mallinfo(arena+hblkhd)
        159542 MiB available memory on the node where the printing process lives
------------------
     ethr =  4.07E-07,  avg # of iterations = 11.0

     total cpu time spent up to now is      332.8 secs

     total energy              =   -5828.97787711 Ry
     estimated scf accuracy    <       0.00258243 Ry

     total magnetization       =     2.00 Bohr mag/cell
     absolute magnetization    =     2.24 Bohr mag/cell

     iteration # 12     ecut=    80.00 Ry     beta= 0.70
     Davidson diagonalization with overlap

---- Real-time Memory Report at c_bands before calling an iterative solver
           665 MiB given to the printing process from OS
             0 MiB allocation reported by mallinfo(arena+hblkhd)
        159542 MiB available memory on the node where the printing process lives
------------------
     ethr =  1.26E-07,  avg # of iterations = 10.5

     total cpu time spent up to now is      347.7 secs

     total energy              =   -5828.97783017 Ry
     estimated scf accuracy    <       0.00144401 Ry

     total magnetization       =     2.00 Bohr mag/cell
     absolute magnetization    =     2.25 Bohr mag/cell

     iteration # 13     ecut=    80.00 Ry     beta= 0.70
     Davidson diagonalization with overlap

---- Real-time Memory Report at c_bands before calling an iterative solver
           665 MiB given to the printing process from OS
             0 MiB allocation reported by mallinfo(arena+hblkhd)
        159537 MiB available memory on the node where the printing process lives
------------------
     ethr =  7.06E-08,  avg # of iterations = 12.5

     total cpu time spent up to now is      383.8 secs

     total energy              =   -5828.97801488 Ry
     estimated scf accuracy    <       0.00021803 Ry

     total magnetization       =     2.00 Bohr mag/cell
     absolute magnetization    =     2.26 Bohr mag/cell

     iteration # 14     ecut=    80.00 Ry     beta= 0.70
     Davidson diagonalization with overlap

---- Real-time Memory Report at c_bands before calling an iterative solver
           665 MiB given to the printing process from OS
             0 MiB allocation reported by mallinfo(arena+hblkhd)
        159530 MiB available memory on the node where the printing process lives
------------------
     c_bands:  1 eigenvalues not converged
     ethr =  1.07E-08,  avg # of iterations = 20.0

     total cpu time spent up to now is      413.2 secs

     total energy              =   -5828.97808119 Ry
     estimated scf accuracy    <       0.00010259 Ry

     total magnetization       =     2.00 Bohr mag/cell
     absolute magnetization    =     2.26 Bohr mag/cell

     iteration # 15     ecut=    80.00 Ry     beta= 0.70
     Davidson diagonalization with overlap

---- Real-time Memory Report at c_bands before calling an iterative solver
           665 MiB given to the printing process from OS
             0 MiB allocation reported by mallinfo(arena+hblkhd)
        159528 MiB available memory on the node where the printing process lives
------------------
     c_bands:  2 eigenvalues not converged
     ethr =  5.01E-09,  avg # of iterations = 16.5

     total cpu time spent up to now is      438.0 secs

     total energy              =   -5828.97810249 Ry
     estimated scf accuracy    <       0.00003096 Ry

     total magnetization       =     2.00 Bohr mag/cell
     absolute magnetization    =     2.27 Bohr mag/cell

     iteration # 16     ecut=    80.00 Ry     beta= 0.70
     Davidson diagonalization with overlap

---- Real-time Memory Report at c_bands before calling an iterative solver
           665 MiB given to the printing process from OS
             0 MiB allocation reported by mallinfo(arena+hblkhd)
        159528 MiB available memory on the node where the printing process lives
------------------
     c_bands:  1 eigenvalues not converged
     ethr =  1.51E-09,  avg # of iterations = 20.0

     total cpu time spent up to now is      465.6 secs

     total energy              =   -5828.97811357 Ry
     estimated scf accuracy    <       0.00000713 Ry

     total magnetization       =     2.00 Bohr mag/cell
     absolute magnetization    =     2.28 Bohr mag/cell

     iteration # 17     ecut=    80.00 Ry     beta= 0.70
     Davidson diagonalization with overlap

---- Real-time Memory Report at c_bands before calling an iterative solver
           665 MiB given to the printing process from OS
             0 MiB allocation reported by mallinfo(arena+hblkhd)
        159441 MiB available memory on the node where the printing process lives
------------------
     c_bands:  2 eigenvalues not converged
     ethr =  3.48E-10,  avg # of iterations = 20.0

     total cpu time spent up to now is      491.0 secs

     total energy              =   -5828.97811485 Ry
     estimated scf accuracy    <       0.00000204 Ry

     total magnetization       =     2.00 Bohr mag/cell
     absolute magnetization    =     2.28 Bohr mag/cell

     iteration # 18     ecut=    80.00 Ry     beta= 0.70
     Davidson diagonalization with overlap

---- Real-time Memory Report at c_bands before calling an iterative solver
           666 MiB given to the printing process from OS
             0 MiB allocation reported by mallinfo(arena+hblkhd)
        159441 MiB available memory on the node where the printing process lives
------------------
     ethr =  9.96E-11,  avg # of iterations = 13.5

     total cpu time spent up to now is      517.4 secs

     total energy              =   -5828.97811527 Ry
     estimated scf accuracy    <       0.00000081 Ry

     total magnetization       =     2.00 Bohr mag/cell
     absolute magnetization    =     2.28 Bohr mag/cell

     iteration # 19     ecut=    80.00 Ry     beta= 0.70
     Davidson diagonalization with overlap

---- Real-time Memory Report at c_bands before calling an iterative solver
           666 MiB given to the printing process from OS
             0 MiB allocation reported by mallinfo(arena+hblkhd)
        159442 MiB available memory on the node where the printing process lives
------------------
     c_bands:  2 eigenvalues not converged
     ethr =  3.93E-11,  avg # of iterations = 20.0

     total cpu time spent up to now is      542.5 secs

     total energy              =   -5828.97811531 Ry
     estimated scf accuracy    <       0.00000043 Ry

     total magnetization       =     2.00 Bohr mag/cell
     absolute magnetization    =     2.28 Bohr mag/cell

     iteration # 20     ecut=    80.00 Ry     beta= 0.70
     Davidson diagonalization with overlap

---- Real-time Memory Report at c_bands before calling an iterative solver
           666 MiB given to the printing process from OS
             0 MiB allocation reported by mallinfo(arena+hblkhd)
        159441 MiB available memory on the node where the printing process lives
------------------
     ethr =  2.11E-11,  avg # of iterations = 15.0

     total cpu time spent up to now is      569.4 secs

     total energy              =   -5828.97811537 Ry
     estimated scf accuracy    <       0.00000023 Ry

     total magnetization       =     2.00 Bohr mag/cell
     absolute magnetization    =     2.28 Bohr mag/cell

     iteration # 21     ecut=    80.00 Ry     beta= 0.70
     Davidson diagonalization with overlap

---- Real-time Memory Report at c_bands before calling an iterative solver
           666 MiB given to the printing process from OS
             0 MiB allocation reported by mallinfo(arena+hblkhd)
        159441 MiB available memory on the node where the printing process lives
------------------
     ethr =  1.11E-11,  avg # of iterations = 13.0

     total cpu time spent up to now is      595.2 secs

     total energy              =   -5828.97811543 Ry
     estimated scf accuracy    <       0.00000025 Ry

     total magnetization       =     2.00 Bohr mag/cell
     absolute magnetization    =     2.28 Bohr mag/cell

     iteration # 22     ecut=    80.00 Ry     beta= 0.70
     Davidson diagonalization with overlap

---- Real-time Memory Report at c_bands before calling an iterative solver
           666 MiB given to the printing process from OS
             0 MiB allocation reported by mallinfo(arena+hblkhd)
        159440 MiB available memory on the node where the printing process lives
------------------
     ethr =  1.11E-11,  avg # of iterations =  7.0

     total cpu time spent up to now is      609.5 secs

     total energy              =   -5828.97811544 Ry
     estimated scf accuracy    <       0.00000010 Ry

     total magnetization       =     2.00 Bohr mag/cell
     absolute magnetization    =     2.28 Bohr mag/cell

     iteration # 23     ecut=    80.00 Ry     beta= 0.70
     Davidson diagonalization with overlap

---- Real-time Memory Report at c_bands before calling an iterative solver
           666 MiB given to the printing process from OS
             0 MiB allocation reported by mallinfo(arena+hblkhd)
        159441 MiB available memory on the node where the printing process lives
------------------
     ethr =  4.89E-12,  avg # of iterations =  7.0

     total cpu time spent up to now is      624.0 secs

     total energy              =   -5828.97811544 Ry
     estimated scf accuracy    <       0.00000006 Ry

     total magnetization       =     2.00 Bohr mag/cell
     absolute magnetization    =     2.28 Bohr mag/cell

     iteration # 24     ecut=    80.00 Ry     beta= 0.70
     Davidson diagonalization with overlap

---- Real-time Memory Report at c_bands before calling an iterative solver
           666 MiB given to the printing process from OS
             0 MiB allocation reported by mallinfo(arena+hblkhd)
        159441 MiB available memory on the node where the printing process lives
------------------
     ethr =  2.70E-12,  avg # of iterations =  8.0

     total cpu time spent up to now is      647.3 secs

     total energy              =   -5828.97811544 Ry
     estimated scf accuracy    <       0.00000002 Ry

     total magnetization       =     2.00 Bohr mag/cell
     absolute magnetization    =     2.28 Bohr mag/cell

     iteration # 25     ecut=    80.00 Ry     beta= 0.70
     Davidson diagonalization with overlap

---- Real-time Memory Report at c_bands before calling an iterative solver
           666 MiB given to the printing process from OS
             0 MiB allocation reported by mallinfo(arena+hblkhd)
        159441 MiB available memory on the node where the printing process lives
------------------
     ethr =  1.09E-12,  avg # of iterations = 10.5

     total cpu time spent up to now is      663.9 secs

     total energy              =   -5828.97811544 Ry
     estimated scf accuracy    <       0.00000001 Ry

     total magnetization       =     2.00 Bohr mag/cell
     absolute magnetization    =     2.28 Bohr mag/cell

     iteration # 26     ecut=    80.00 Ry     beta= 0.70
     Davidson diagonalization with overlap

---- Real-time Memory Report at c_bands before calling an iterative solver
           666 MiB given to the printing process from OS
             0 MiB allocation reported by mallinfo(arena+hblkhd)
        159441 MiB available memory on the node where the printing process lives
------------------
     c_bands:  2 eigenvalues not converged
     ethr =  5.42E-13,  avg # of iterations = 16.5

     total cpu time spent up to now is      696.4 secs

     total energy              =   -5828.97811544 Ry
     estimated scf accuracy    <          1.8E-09 Ry

     total magnetization       =     2.00 Bohr mag/cell
     absolute magnetization    =     2.28 Bohr mag/cell

     iteration # 27     ecut=    80.00 Ry     beta= 0.70
     Davidson diagonalization with overlap

---- Real-time Memory Report at c_bands before calling an iterative solver
           666 MiB given to the printing process from OS
             0 MiB allocation reported by mallinfo(arena+hblkhd)
        159431 MiB available memory on the node where the printing process lives
------------------
     c_bands:  1 eigenvalues not converged
     ethr =  1.00E-13,  avg # of iterations = 20.0

     total cpu time spent up to now is      721.6 secs

     total energy              =   -5828.97811544 Ry
     estimated scf accuracy    <          3.5E-10 Ry

     total magnetization       =     2.00 Bohr mag/cell
     absolute magnetization    =     2.28 Bohr mag/cell

     iteration # 28     ecut=    80.00 Ry     beta= 0.70
     Davidson diagonalization with overlap

---- Real-time Memory Report at c_bands before calling an iterative solver
           666 MiB given to the printing process from OS
             0 MiB allocation reported by mallinfo(arena+hblkhd)
        159431 MiB available memory on the node where the printing process lives
------------------
     ethr =  1.00E-13,  avg # of iterations =  7.5

     total cpu time spent up to now is      737.5 secs

     total energy              =   -5828.97811545 Ry
     estimated scf accuracy    <          2.1E-10 Ry

     total magnetization       =     2.00 Bohr mag/cell
     absolute magnetization    =     2.28 Bohr mag/cell

     iteration # 29     ecut=    80.00 Ry     beta= 0.70
     Davidson diagonalization with overlap

---- Real-time Memory Report at c_bands before calling an iterative solver
           666 MiB given to the printing process from OS
             0 MiB allocation reported by mallinfo(arena+hblkhd)
        159429 MiB available memory on the node where the printing process lives
------------------
     ethr =  1.00E-13,  avg # of iterations =  6.0
 
     Magnetic moment per site  (integrated on atomic sphere of radius R)
     atom   1 (R=0.042)  charge=  1.7872  magn=  0.0000
     atom   2 (R=0.042)  charge=  1.7871  magn=  0.0000
     atom   3 (R=0.042)  charge=  1.7888  magn=  0.0002
     atom   4 (R=0.042)  charge=  1.7870  magn=  0.0000
     atom   5 (R=0.042)  charge=  1.7871  magn=  0.0000
     atom   6 (R=0.042)  charge=  1.7873  magn=  0.0000
     atom   7 (R=0.042)  charge=  1.7871  magn= -0.0000
     atom   8 (R=0.042)  charge=  1.7873  magn= -0.0000
     atom   9 (R=0.042)  charge=  1.7888  magn=  0.0002
     atom  10 (R=0.042)  charge=  1.7871  magn= -0.0000
     atom  11 (R=0.042)  charge=  1.7869  magn= -0.0000
     atom  12 (R=0.042)  charge=  1.7872  magn= -0.0000
     atom  13 (R=0.042)  charge=  1.7870  magn=  0.0000
     atom  14 (R=0.042)  charge=  1.7873  magn= -0.0000
     atom  15 (R=0.042)  charge=  1.7872  magn= -0.0000
     atom  16 (R=0.042)  charge=  1.7873  magn= -0.0000
     atom  17 (R=0.042)  charge=  1.7871  magn=  0.0000
     atom  18 (R=0.042)  charge=  1.7876  magn=  0.0000
     atom  19 (R=0.042)  charge=  1.7874  magn= -0.0000
     atom  20 (R=0.042)  charge=  1.7874  magn= -0.0000
     atom  21 (R=0.042)  charge=  1.7876  magn=  0.0000
     atom  22 (R=0.042)  charge=  1.7860  magn=  0.0003
     atom  23 (R=0.042)  charge=  1.7911  magn=  0.0027
     atom  24 (R=0.042)  charge=  1.7867  magn= -0.0001
     atom  25 (R=0.042)  charge=  1.7875  magn= -0.0000
     atom  26 (R=0.042)  charge=  1.7911  magn=  0.0027
     atom  27 (R=0.042)  charge=  1.7881  magn= -0.0008
     atom  28 (R=0.042)  charge=  1.7921  magn=  0.0020
     atom  29 (R=0.042)  charge=  1.7874  magn= -0.0000
     atom  30 (R=0.042)  charge=  1.7867  magn= -0.0001
     atom  31 (R=0.042)  charge=  1.7920  magn=  0.0020
     atom  32 (R=0.042)  charge=  1.7859  magn=  0.0001
     atom  33 (R=0.042)  charge=  1.7895  magn=  0.0002
     atom  34 (R=0.042)  charge=  1.7875  magn= -0.0000
     atom  35 (R=0.042)  charge=  1.7873  magn= -0.0000
     atom  36 (R=0.042)  charge=  1.7876  magn= -0.0000
     atom  37 (R=0.042)  charge=  1.7875  magn= -0.0000
     atom  38 (R=0.042)  charge=  1.7893  magn=  0.0042
     atom  39 (R=0.042)  charge=  1.7880  magn= -0.0009
     atom  40 (R=0.042)  charge=  1.7962  magn=  0.0006
     atom  41 (R=0.042)  charge=  1.7873  magn= -0.0000
     atom  42 (R=0.042)  charge=  1.7880  magn= -0.0009
     atom  43 (R=0.042)  charge=  1.7901  magn= -0.0005
     atom  44 (R=0.042)  charge=  1.7876  magn= -0.0000
     atom  45 (R=0.042)  charge=  1.7961  magn=  0.0006
     atom  46 (R=0.042)  charge=  1.7901  magn= -0.0005
     atom  47 (R=0.042)  charge=  1.7882  magn=  0.0007
     atom  48 (R=0.042)  charge=  1.7873  magn=  0.0000
     atom  49 (R=0.042)  charge=  1.7876  magn= -0.0000
     atom  50 (R=0.042)  charge=  1.7875  magn= -0.0000
     atom  51 (R=0.042)  charge=  1.7877  magn= -0.0000
     atom  52 (R=0.042)  charge=  1.7876  magn= -0.0000
     atom  53 (R=0.042)  charge=  1.7869  magn= -0.0001
     atom  54 (R=0.042)  charge=  1.7903  magn=  0.0036
     atom  55 (R=0.042)  charge=  1.7862  magn= -0.0000
     atom  56 (R=0.042)  charge=  1.7875  magn= -0.0000
     atom  57 (R=0.042)  charge=  1.7903  magn=  0.0036
     atom  58 (R=0.042)  charge=  1.7895  magn= -0.0008
     atom  59 (R=0.042)  charge=  1.7887  magn=  0.0006
     atom  60 (R=0.042)  charge=  1.7878  magn= -0.0000
     atom  61 (R=0.042)  charge=  1.7862  magn= -0.0000
     atom  62 (R=0.042)  charge=  1.7887  magn=  0.0006
     atom  63 (R=0.042)  charge=  1.7874  magn= -0.0000
     atom  64 (R=0.042)  charge=  1.7872  magn=  0.0000
     atom  65 (R=0.042)  charge=  1.7875  magn= -0.0000
     atom  66 (R=0.042)  charge=  1.7871  magn= -0.0000
     atom  67 (R=0.042)  charge=  1.7871  magn=  0.0000
     atom  68 (R=0.042)  charge=  1.7875  magn= -0.0000
     atom  69 (R=0.042)  charge=  1.7869  magn=  0.0000
     atom  70 (R=0.042)  charge=  1.7871  magn= -0.0000
     atom  71 (R=0.042)  charge=  1.7874  magn= -0.0000
     atom  72 (R=0.042)  charge=  1.7871  magn= -0.0000
     atom  73 (R=0.042)  charge=  1.7871  magn= -0.0000
     atom  74 (R=0.042)  charge=  1.7870  magn=  0.0000
     atom  75 (R=0.042)  charge=  1.7874  magn= -0.0000
     atom  76 (R=0.042)  charge=  1.7872  magn=  0.0000
     atom  77 (R=0.042)  charge=  1.7874  magn= -0.0000
     atom  78 (R=0.042)  charge=  1.7874  magn= -0.0000
     atom  79 (R=0.042)  charge=  1.7870  magn=  0.0000
     atom  80 (R=0.042)  charge=  1.7871  magn=  0.0000
     atom  81 (R=0.042)  charge=  1.7870  magn=  0.0000
     atom  82 (R=0.042)  charge=  1.7875  magn= -0.0000
     atom  83 (R=0.042)  charge=  1.7872  magn= -0.0000
     atom  84 (R=0.042)  charge=  1.7871  magn=  0.0000
     atom  85 (R=0.042)  charge=  1.7828  magn= -0.0002
     atom  86 (R=0.042)  charge=  1.7854  magn= -0.0007
     atom  87 (R=0.042)  charge=  1.7878  magn= -0.0001
     atom  88 (R=0.042)  charge=  1.7875  magn= -0.0000
     atom  89 (R=0.042)  charge=  1.7854  magn= -0.0007
     atom  90 (R=0.042)  charge=  1.7828  magn= -0.0001
     atom  91 (R=0.042)  charge=  1.7862  magn= -0.0000
     atom  92 (R=0.042)  charge=  1.7871  magn= -0.0000
     atom  93 (R=0.042)  charge=  1.7877  magn= -0.0001
     atom  94 (R=0.042)  charge=  1.7862  magn= -0.0000
     atom  95 (R=0.042)  charge=  1.7870  magn=  0.0000
     atom  96 (R=0.042)  charge=  1.7881  magn=  0.0007
     atom  97 (R=0.042)  charge=  1.7871  magn= -0.0001
     atom  98 (R=0.042)  charge=  1.7874  magn= -0.0000
     atom  99 (R=0.042)  charge=  1.7904  magn=  0.0002
     atom 100 (R=0.042)  charge=  1.7871  magn= -0.0001
     atom 101 (R=0.042)  charge=  1.7908  magn= -0.0058
     atom 102 (R=0.042)  charge=  1.8005  magn= -0.0039
     atom 103 (R=0.042)  charge=  1.7877  magn= -0.0001
     atom 104 (R=0.042)  charge=  1.7874  magn= -0.0000
     atom 105 (R=0.042)  charge=  1.8005  magn= -0.0039
     atom 106 (R=0.042)  charge=  1.7586  magn=  0.0004
     atom 107 (R=0.042)  charge=  1.7874  magn= -0.0000
     atom 108 (R=0.042)  charge=  1.7904  magn=  0.0002
     atom 109 (R=0.042)  charge=  1.7877  magn= -0.0001
     atom 110 (R=0.042)  charge=  1.7874  magn= -0.0000
     atom 111 (R=0.042)  charge=  1.7878  magn=  0.0002
     atom 112 (R=0.042)  charge=  1.7874  magn= -0.0000
     atom 113 (R=0.042)  charge=  1.7874  magn= -0.0001
     atom 114 (R=0.042)  charge=  1.7873  magn=  0.0000
     atom 115 (R=0.042)  charge=  1.7872  magn=  0.0000
     atom 116 (R=0.042)  charge=  1.7874  magn= -0.0001
     atom 117 (R=0.042)  charge=  1.7863  magn= -0.0015
     atom 118 (R=0.042)  charge=  1.7823  magn= -0.0005
     atom 119 (R=0.042)  charge=  1.7871  magn=  0.0000
     atom 120 (R=0.042)  charge=  1.7873  magn=  0.0000
     atom 121 (R=0.042)  charge=  1.7824  magn= -0.0005
     atom 122 (R=0.042)  charge=  1.7876  magn= -0.0004
     atom 123 (R=0.042)  charge=  1.7878  magn= -0.0000
     atom 124 (R=0.042)  charge=  1.7871  magn=  0.0000
     atom 125 (R=0.042)  charge=  1.7871  magn=  0.0000
     atom 126 (R=0.042)  charge=  1.7878  magn= -0.0000
     atom 127 (R=0.042)  charge=  1.7877  magn= -0.0000
     atom 128 (R=0.042)  charge=  1.7871  magn=  0.0000
     atom 129 (R=0.042)  charge=  1.7876  magn=  0.0000
     atom 130 (R=0.042)  charge=  1.7872  magn= -0.0000
     atom 131 (R=0.042)  charge=  1.7870  magn=  0.0000
     atom 132 (R=0.042)  charge=  1.7870  magn=  0.0000
     atom 133 (R=0.042)  charge=  1.7865  magn= -0.0000
     atom 134 (R=0.042)  charge=  1.7872  magn= -0.0000
     atom 135 (R=0.042)  charge=  1.7872  magn= -0.0000
     atom 136 (R=0.042)  charge=  1.7888  magn=  0.0004
     atom 137 (R=0.042)  charge=  1.7867  magn= -0.0000
     atom 138 (R=0.042)  charge=  1.7868  magn= -0.0000
     atom 139 (R=0.042)  charge=  1.7890  magn=  0.0003
     atom 140 (R=0.042)  charge=  1.7871  magn= -0.0000
     atom 141 (R=0.042)  charge=  1.7873  magn= -0.0001
     atom 142 (R=0.042)  charge=  1.7865  magn= -0.0000
     atom 143 (R=0.042)  charge=  1.7867  magn=  0.0000
     atom 144 (R=0.042)  charge=  1.7877  magn=  0.0000
     atom 145 (R=0.042)  charge=  1.7874  magn= -0.0000
     atom 146 (R=0.042)  charge=  1.7874  magn= -0.0000
     atom 147 (R=0.042)  charge=  1.7876  magn= -0.0000
     atom 148 (R=0.042)  charge=  1.7871  magn= -0.0000
     atom 149 (R=0.042)  charge=  1.7849  magn= -0.0006
     atom 150 (R=0.042)  charge=  1.7859  magn= -0.0007
     atom 151 (R=0.042)  charge=  1.7879  magn= -0.0001
     atom 152 (R=0.042)  charge=  1.7873  magn= -0.0001
     atom 153 (R=0.042)  charge=  1.7884  magn=  0.0012
     atom 154 (R=0.042)  charge=  1.7906  magn= -0.0011
     atom 155 (R=0.042)  charge=  1.7875  magn= -0.0001
     atom 156 (R=0.042)  charge=  1.7877  magn= -0.0001
     atom 157 (R=0.042)  charge=  1.7866  magn= -0.0008
     atom 158 (R=0.042)  charge=  1.7823  magn= -0.0002
     atom 159 (R=0.042)  charge=  1.7868  magn= -0.0000
     atom 160 (R=0.042)  charge=  1.7877  magn= -0.0000
     atom 161 (R=0.042)  charge=  1.7874  magn=  0.0000
     atom 162 (R=0.042)  charge=  1.7875  magn=  0.0000
     atom 163 (R=0.042)  charge=  1.7880  magn=  0.0000
     atom 164 (R=0.042)  charge=  1.7874  magn= -0.0001
     atom 165 (R=0.042)  charge=  1.7861  magn= -0.0014
     atom 166 (R=0.042)  charge=  1.7853  magn= -0.0004
     atom 167 (R=0.042)  charge=  1.7868  magn= -0.0000
     atom 168 (R=0.042)  charge=  1.7872  magn= -0.0001
     atom 169 (R=0.042)  charge=  1.7924  magn= -0.0090
     atom 170 (R=0.042)  charge=  1.7594  magn= -0.0008
     atom 171 (R=0.042)  charge=  1.7876  magn= -0.0000
     atom 172 (R=0.042)  charge=  1.7876  magn= -0.0000
     atom 173 (R=0.042)  charge=  1.7828  magn= -0.0000
     atom 174 (R=0.042)  charge=  1.7881  magn= -0.0004
     atom 175 (R=0.042)  charge=  1.7879  magn= -0.0000
     atom 176 (R=0.042)  charge=  1.7873  magn= -0.0000
     atom 177 (R=0.042)  charge=  1.7875  magn= -0.0000
     atom 178 (R=0.042)  charge=  1.7876  magn= -0.0000
     atom 179 (R=0.042)  charge=  1.7872  magn=  0.0000
     atom 180 (R=0.042)  charge=  1.7873  magn= -0.0000
     atom 181 (R=0.042)  charge=  1.7874  magn= -0.0001
     atom 182 (R=0.042)  charge=  1.7861  magn= -0.0000
     atom 183 (R=0.042)  charge=  1.7871  magn= -0.0000
     atom 184 (R=0.042)  charge=  1.7884  magn=  0.0006
     atom 185 (R=0.042)  charge=  1.7870  magn= -0.0001
     atom 186 (R=0.042)  charge=  1.7871  magn= -0.0000
     atom 187 (R=0.042)  charge=  1.7879  magn=  0.0001
     atom 188 (R=0.042)  charge=  1.7870  magn= -0.0000
     atom 189 (R=0.042)  charge=  1.7867  magn=  0.0000
     atom 190 (R=0.042)  charge=  1.7876  magn= -0.0000
     atom 191 (R=0.042)  charge=  1.7875  magn= -0.0000
     atom 192 (R=0.042)  charge=  1.7871  magn=  0.0000
     atom 193 (R=0.042)  charge=  1.7870  magn=  0.0000
     atom 194 (R=0.042)  charge=  1.7888  magn=  0.0004
     atom 195 (R=0.042)  charge=  1.7871  magn= -0.0000
     atom 196 (R=0.042)  charge=  1.7876  magn=  0.0000
     atom 197 (R=0.042)  charge=  1.7865  magn= -0.0000
     atom 198 (R=0.042)  charge=  1.7867  magn= -0.0000
     atom 199 (R=0.042)  charge=  1.7873  magn= -0.0001
     atom 200 (R=0.042)  charge=  1.7872  magn= -0.0000
     atom 201 (R=0.042)  charge=  1.7872  magn= -0.0000
     atom 202 (R=0.042)  charge=  1.7868  magn= -0.0000
     atom 203 (R=0.042)  charge=  1.7865  magn= -0.0000
     atom 204 (R=0.042)  charge=  1.7870  magn=  0.0000
     atom 205 (R=0.042)  charge=  1.7872  magn= -0.0000
     atom 206 (R=0.042)  charge=  1.7890  magn=  0.0003
     atom 207 (R=0.042)  charge=  1.7868  magn=  0.0000
     atom 208 (R=0.042)  charge=  1.7877  magn=  0.0000
     atom 209 (R=0.042)  charge=  1.7871  magn= -0.0000
     atom 210 (R=0.042)  charge=  1.7872  magn= -0.0001
     atom 211 (R=0.042)  charge=  1.7877  magn= -0.0001
     atom 212 (R=0.042)  charge=  1.7874  magn= -0.0000
     atom 213 (R=0.042)  charge=  1.7849  magn= -0.0006
     atom 214 (R=0.042)  charge=  1.7884  magn=  0.0012
     atom 215 (R=0.042)  charge=  1.7867  magn= -0.0008
     atom 216 (R=0.042)  charge=  1.7874  magn= -0.0000
     atom 217 (R=0.042)  charge=  1.7859  magn= -0.0007
     atom 218 (R=0.042)  charge=  1.7906  magn= -0.0011
     atom 219 (R=0.042)  charge=  1.7823  magn= -0.0002
     atom 220 (R=0.042)  charge=  1.7876  magn= -0.0000
     atom 221 (R=0.042)  charge=  1.7879  magn= -0.0001
     atom 222 (R=0.042)  charge=  1.7875  magn= -0.0001
     atom 223 (R=0.042)  charge=  1.7868  magn= -0.0000
     atom 224 (R=0.042)  charge=  1.7877  magn= -0.0000
     atom 225 (R=0.042)  charge=  1.7874  magn= -0.0001
     atom 226 (R=0.042)  charge=  1.7872  magn= -0.0001
     atom 227 (R=0.042)  charge=  1.7876  magn= -0.0000
     atom 228 (R=0.042)  charge=  1.7874  magn=  0.0000
     atom 229 (R=0.042)  charge=  1.7861  magn= -0.0014
     atom 230 (R=0.042)  charge=  1.7924  magn= -0.0090
     atom 231 (R=0.042)  charge=  1.7827  magn= -0.0000
     atom 232 (R=0.042)  charge=  1.7875  magn=  0.0000
     atom 233 (R=0.042)  charge=  1.7853  magn= -0.0004
     atom 234 (R=0.042)  charge=  1.7595  magn= -0.0008
     atom 235 (R=0.042)  charge=  1.7881  magn= -0.0004
     atom 236 (R=0.042)  charge=  1.7881  magn=  0.0000
     atom 237 (R=0.042)  charge=  1.7868  magn= -0.0000
     atom 238 (R=0.042)  charge=  1.7876  magn= -0.0000
     atom 239 (R=0.042)  charge=  1.7879  magn= -0.0000
     atom 240 (R=0.042)  charge=  1.7873  magn= -0.0000
     atom 241 (R=0.042)  charge=  1.7873  magn= -0.0000
     atom 242 (R=0.042)  charge=  1.7884  magn=  0.0006
     atom 243 (R=0.042)  charge=  1.7870  magn= -0.0000
     atom 244 (R=0.042)  charge=  1.7875  magn= -0.0000
     atom 245 (R=0.042)  charge=  1.7874  magn= -0.0001
     atom 246 (R=0.042)  charge=  1.7870  magn= -0.0001
     atom 247 (R=0.042)  charge=  1.7867  magn=  0.0000
     atom 248 (R=0.042)  charge=  1.7876  magn= -0.0000
     atom 249 (R=0.042)  charge=  1.7861  magn= -0.0000
     atom 250 (R=0.042)  charge=  1.7871  magn= -0.0000
     atom 251 (R=0.042)  charge=  1.7876  magn= -0.0000
     atom 252 (R=0.042)  charge=  1.7872  magn=  0.0000
     atom 253 (R=0.042)  charge=  1.7871  magn= -0.0000
     atom 254 (R=0.042)  charge=  1.7879  magn=  0.0001
     atom 255 (R=0.042)  charge=  1.7875  magn= -0.0000
     atom 256 (R=0.042)  charge=  1.7877  magn=  0.0000
     atom 257 (R=0.042)  charge=  1.7869  magn= -0.0000
     atom 258 (R=0.042)  charge=  1.7879  magn=  0.0001
     atom 259 (R=0.042)  charge=  1.7877  magn=  0.0000
     atom 260 (R=0.042)  charge=  1.7867  magn=  0.0000
     atom 261 (R=0.042)  charge=  1.7852  magn=  0.0001
     atom 262 (R=0.042)  charge=  1.7871  magn=  0.0008
     atom 263 (R=0.042)  charge=  1.7880  magn=  0.0001
     atom 264 (R=0.042)  charge=  1.7893  magn=  0.0010
     atom 265 (R=0.042)  charge=  1.7862  magn=  0.0003
     atom 266 (R=0.042)  charge=  1.7851  magn=  0.0001
     atom 267 (R=0.042)  charge=  1.7864  magn= -0.0000
     atom 268 (R=0.042)  charge=  1.7875  magn=  0.0002
     atom 269 (R=0.042)  charge=  1.7894  magn=  0.0009
     atom 270 (R=0.042)  charge=  1.7868  magn= -0.0000
     atom 271 (R=0.042)  charge=  1.7876  magn=  0.0000
     atom 272 (R=0.042)  charge=  1.7871  magn=  0.0000
     atom 273 (R=0.042)  charge=  1.7872  magn=  0.0002
     atom 274 (R=0.042)  charge=  1.7873  magn=  0.0001
     atom 275 (R=0.042)  charge=  1.7891  magn=  0.0001
     atom 276 (R=0.042)  charge=  1.7863  magn=  0.0000
     atom 277 (R=0.042)  charge=  1.7871  magn=  0.0052
     atom 278 (R=0.042)  charge=  1.7938  magn=  0.0107
     atom 279 (R=0.042)  charge=  1.7871  magn=  0.0001
     atom 280 (R=0.042)  charge=  1.7871  magn=  0.0011
     atom 281 (R=0.042)  charge=  1.7851  magn=  0.0024
     atom 282 (R=0.042)  charge=  1.7873  magn=  0.0002
     atom 283 (R=0.042)  charge=  1.7914  magn=  0.0008
     atom 284 (R=0.042)  charge=  1.7874  magn=  0.0008
     atom 285 (R=0.042)  charge=  1.7869  magn=  0.0001
     atom 286 (R=0.042)  charge=  1.7871  magn=  0.0000
     atom 287 (R=0.042)  charge=  1.7876  magn=  0.0001
     atom 288 (R=0.042)  charge=  1.7873  magn=  0.0001
     atom 289 (R=0.042)  charge=  1.7875  magn= -0.0000
     atom 290 (R=0.042)  charge=  1.7873  magn=  0.0000
     atom 291 (R=0.042)  charge=  1.7872  magn=  0.0015
     atom 292 (R=0.042)  charge=  1.7841  magn=  0.0241
     atom 293 (R=0.042)  charge=  1.7874  magn=  0.0002
     atom 294 (R=0.042)  charge=  1.7875  magn= -0.0000
     atom 295 (R=0.042)  charge=  1.7864  magn=  0.0001
     atom 296 (R=0.042)  charge=  1.7848  magn=  0.0057
     atom 297 (R=0.042)  charge=  1.7901  magn=  0.0061
     atom 298 (R=0.042)  charge=  1.7875  magn=  0.0001
     atom 299 (R=0.042)  charge=  1.7868  magn=  0.0000
     atom 300 (R=0.042)  charge=  1.7871  magn=  0.0001
     atom 301 (R=0.042)  charge=  1.7882  magn=  0.0008
     atom 302 (R=0.042)  charge=  1.7878  magn=  0.0001
     atom 303 (R=0.042)  charge=  1.7875  magn=  0.0001
     atom 304 (R=0.042)  charge=  1.7878  magn=  0.0002
     atom 305 (R=0.042)  charge=  1.7874  magn=  0.0000
     atom 306 (R=0.042)  charge=  1.7876  magn=  0.0000
     atom 307 (R=0.042)  charge=  1.7876  magn=  0.0002
     atom 308 (R=0.042)  charge=  1.7867  magn=  0.0001
     atom 309 (R=0.042)  charge=  1.7872  magn= -0.0000
     atom 310 (R=0.042)  charge=  1.7874  magn=  0.0000
     atom 311 (R=0.042)  charge=  1.7863  magn= -0.0000
     atom 312 (R=0.042)  charge=  1.7870  magn=  0.0002
     atom 313 (R=0.042)  charge=  1.7871  magn=  0.0001
     atom 314 (R=0.042)  charge=  1.7876  magn=  0.0001
     atom 315 (R=0.042)  charge=  1.7875  magn=  0.0000
     atom 316 (R=0.042)  charge=  1.7869  magn= -0.0000
     atom 317 (R=0.042)  charge=  1.7877  magn=  0.0001
     atom 318 (R=0.042)  charge=  1.7875  magn=  0.0001
     atom 319 (R=0.042)  charge=  1.7876  magn=  0.0000
     atom 320 (R=0.042)  charge=  1.7874  magn=  0.0000
     atom 321 (R=0.042)  charge=  1.7877  magn=  0.0001
     atom 322 (R=0.042)  charge=  1.7875  magn=  0.0001
     atom 323 (R=0.042)  charge=  1.7874  magn=  0.0000
     atom 324 (R=0.042)  charge=  1.7870  magn=  0.0000
     atom 325 (R=0.042)  charge=  1.7868  magn= -0.0000
     atom 326 (R=0.042)  charge=  1.7876  magn=  0.0001
     atom 327 (R=0.042)  charge=  1.7877  magn=  0.0001
     atom 328 (R=0.042)  charge=  1.7868  magn= -0.0000
     atom 329 (R=0.042)  charge=  1.7867  magn=  0.0000
     atom 330 (R=0.042)  charge=  1.7866  magn=  0.0000
     atom 331 (R=0.042)  charge=  1.7875  magn=  0.0001
     atom 332 (R=0.042)  charge=  1.7876  magn=  0.0001
     atom 333 (R=0.042)  charge=  1.7866  magn=  0.0000
     atom 334 (R=0.042)  charge=  1.7874  magn=  0.0000
     atom 335 (R=0.042)  charge=  1.7879  magn=  0.0000
     atom 336 (R=0.042)  charge=  1.7873  magn=  0.0000
     atom 337 (R=0.042)  charge=  1.7871  magn=  0.0001
     atom 338 (R=0.042)  charge=  1.7882  magn=  0.0001
     atom 339 (R=0.042)  charge=  1.7873  magn=  0.0000
     atom 340 (R=0.042)  charge=  1.7863  magn=  0.0006
     atom 341 (R=0.042)  charge=  1.7862  magn=  0.0114
     atom 342 (R=0.042)  charge=  1.7882  magn=  0.0009
     atom 343 (R=0.042)  charge=  1.7871  magn=  0.0001
     atom 344 (R=0.042)  charge=  1.7861  magn=  0.0114
     atom 345 (R=0.042)  charge=  1.7825  magn=  0.0050
     atom 346 (R=0.042)  charge=  1.7848  magn= -0.0001
     atom 347 (R=0.042)  charge=  1.7882  magn=  0.0001
     atom 348 (R=0.042)  charge=  1.7882  magn=  0.0009
     atom 349 (R=0.042)  charge=  1.7848  magn= -0.0001
     atom 350 (R=0.042)  charge=  1.7871  magn=  0.0000
     atom 351 (R=0.042)  charge=  1.7875  magn=  0.0003
     atom 352 (R=0.042)  charge=  1.7872  magn=  0.0001
     atom 353 (R=0.042)  charge=  1.7873  magn=  0.0002
     atom 354 (R=0.042)  charge=  1.7871  magn=  0.0000
     atom 355 (R=0.042)  charge=  1.7872  magn=  0.0001
     atom 356 (R=0.042)  charge=  1.7835  magn=  0.0235
     atom 357 (R=0.042)  charge=  1.7850  magn=  0.0064
     atom 358 (R=0.042)  charge=  1.7848  magn=  0.0000
     atom 359 (R=0.042)  charge=  1.7874  magn=  0.0002
     atom 360 (R=0.042)  charge=  1.7850  magn=  0.0064
     atom 361 (R=0.042)  charge=  1.7875  magn=  0.0007
     atom 362 (R=0.042)  charge=  1.7871  magn=  0.0000
     atom 363 (R=0.042)  charge=  1.7848  magn=  0.0000
     atom 364 (R=0.042)  charge=  1.7875  magn=  0.0007
     atom 365 (R=0.042)  charge=  1.7875  magn=  0.0006
     atom 366 (R=0.042)  charge=  1.7875  magn=  0.0001
     atom 367 (R=0.042)  charge=  1.7876  magn=  0.0001
     atom 368 (R=0.042)  charge=  1.7872  magn= -0.0000
     atom 369 (R=0.042)  charge=  1.7874  magn=  0.0000
     atom 370 (R=0.042)  charge=  1.7877  magn=  0.0001
     atom 371 (R=0.042)  charge=  1.7872  magn=  0.0015
     atom 372 (R=0.042)  charge=  1.7848  magn=  0.0000
     atom 373 (R=0.042)  charge=  1.7871  magn=  0.0000
     atom 374 (R=0.042)  charge=  1.7872  magn= -0.0000
     atom 375 (R=0.042)  charge=  1.7849  magn=  0.0000
     atom 376 (R=0.042)  charge=  1.7869  magn=  0.0010
     atom 377 (R=0.042)  charge=  1.7877  magn=  0.0006
     atom 378 (R=0.042)  charge=  1.7874  magn=  0.0000
     atom 379 (R=0.042)  charge=  1.7871  magn=  0.0000
     atom 380 (R=0.042)  charge=  1.7877  magn=  0.0006
     atom 381 (R=0.042)  charge=  1.7877  magn=  0.0003
     atom 382 (R=0.042)  charge=  1.7875  magn=  0.0000
     atom 383 (R=0.042)  charge=  1.7866  magn=  0.0000
     atom 384 (R=0.042)  charge=  1.7876  magn=  0.0001
     atom 385 (R=0.042)  charge=  1.7875  magn=  0.0001
     atom 386 (R=0.042)  charge=  1.7866  magn=  0.0000
     atom 387 (R=0.042)  charge=  1.7867  magn=  0.0001
     atom 388 (R=0.042)  charge=  1.7867  magn= -0.0000
     atom 389 (R=0.042)  charge=  1.7881  magn=  0.0001
     atom 390 (R=0.042)  charge=  1.7876  magn=  0.0001
     atom 391 (R=0.042)  charge=  1.7867  magn= -0.0000
     atom 392 (R=0.042)  charge=  1.7871  magn=  0.0000
     atom 393 (R=0.042)  charge=  1.7873  magn=  0.0000
     atom 394 (R=0.042)  charge=  1.7875  magn=  0.0001
     atom 395 (R=0.042)  charge=  1.7881  magn=  0.0001
     atom 396 (R=0.042)  charge=  1.7873  magn=  0.0000
     atom 397 (R=0.042)  charge=  1.7876  magn=  0.0000
     atom 398 (R=0.042)  charge=  1.7868  magn=  0.0000
     atom 399 (R=0.042)  charge=  1.7863  magn=  0.0000
     atom 400 (R=0.042)  charge=  1.7880  magn=  0.0008
     atom 401 (R=0.042)  charge=  1.7883  magn=  0.0001
     atom 402 (R=0.042)  charge=  1.7863  magn=  0.0000
     atom 403 (R=0.042)  charge=  1.7832  magn=  0.0047
     atom 404 (R=0.042)  charge=  1.7867  magn=  0.0119
     atom 405 (R=0.042)  charge=  1.7870  magn=  0.0001
     atom 406 (R=0.042)  charge=  1.7880  magn=  0.0008
     atom 407 (R=0.042)  charge=  1.7867  magn=  0.0119
     atom 408 (R=0.042)  charge=  1.7874  magn=  0.0002
     atom 409 (R=0.042)  charge=  1.7873  magn=  0.0000
     atom 410 (R=0.042)  charge=  1.7883  magn=  0.0001
     atom 411 (R=0.042)  charge=  1.7870  magn=  0.0001
     atom 412 (R=0.042)  charge=  1.7873  magn=  0.0000
     atom 413 (R=0.042)  charge=  1.7878  magn=  0.0000
     atom 414 (R=0.042)  charge=  1.7880  magn=  0.0020
     atom 415 (R=0.042)  charge=  1.7870  magn=  0.0012
     atom 416 (R=0.042)  charge=  1.7864  magn=  0.0001
     atom 417 (R=0.042)  charge=  1.7866  magn=  0.0000
     atom 418 (R=0.042)  charge=  1.7870  magn=  0.0012
     atom 419 (R=0.042)  charge=  1.7833  magn=  0.0033
     atom 420 (R=0.042)  charge=  1.7874  magn=  0.0001
     atom 421 (R=0.042)  charge=  1.7864  magn=  0.0001
     atom 422 (R=0.042)  charge=  1.7834  magn=  0.0033
     atom 423 (R=0.042)  charge=  1.7893  magn=  0.0063
     atom 424 (R=0.042)  charge=  1.7874  magn=  0.0001
     atom 425 (R=0.042)  charge=  1.7867  magn=  0.0000
     atom 426 (R=0.042)  charge=  1.7874  magn=  0.0001
     atom 427 (R=0.042)  charge=  1.7873  magn=  0.0001
     atom 428 (R=0.042)  charge=  1.7876  magn=  0.0001
     atom 429 (R=0.042)  charge=  1.7873  magn=  0.0005
     atom 430 (R=0.042)  charge=  1.7883  magn=  0.0019
     atom 431 (R=0.042)  charge=  1.7869  magn=  0.0000
     atom 432 (R=0.042)  charge=  1.7875  magn=  0.0000
     atom 433 (R=0.042)  charge=  1.7882  magn=  0.0019
     atom 434 (R=0.042)  charge=  1.7869  magn=  0.0013
     atom 435 (R=0.042)  charge=  1.7868  magn=  0.0001
     atom 436 (R=0.042)  charge=  1.7872  magn= -0.0000
     atom 437 (R=0.042)  charge=  1.7869  magn=  0.0000
     atom 438 (R=0.042)  charge=  1.7868  magn=  0.0001
     atom 439 (R=0.042)  charge=  1.7880  magn=  0.0007
     atom 440 (R=0.042)  charge=  1.7878  magn=  0.0001
     atom 441 (R=0.042)  charge=  1.7875  magn=  0.0000
     atom 442 (R=0.042)  charge=  1.7872  magn= -0.0000
     atom 443 (R=0.042)  charge=  1.7878  magn=  0.0001
     atom 444 (R=0.042)  charge=  1.7875  magn=  0.0001
     atom 445 (R=0.042)  charge=  1.7877  magn=  0.0000
     atom 446 (R=0.042)  charge=  1.7867  magn=  0.0000
     atom 447 (R=0.042)  charge=  1.7893  magn=  0.0010
     atom 448 (R=0.042)  charge=  1.7875  magn=  0.0002
     atom 449 (R=0.042)  charge=  1.7869  magn= -0.0000
     atom 450 (R=0.042)  charge=  1.7852  magn=  0.0001
     atom 451 (R=0.042)  charge=  1.7862  magn=  0.0003
     atom 452 (R=0.042)  charge=  1.7894  magn=  0.0009
     atom 453 (R=0.042)  charge=  1.7879  magn=  0.0001
     atom 454 (R=0.042)  charge=  1.7871  magn=  0.0008
     atom 455 (R=0.042)  charge=  1.7851  magn=  0.0001
     atom 456 (R=0.042)  charge=  1.7868  magn= -0.0000
     atom 457 (R=0.042)  charge=  1.7877  magn=  0.0000
     atom 458 (R=0.042)  charge=  1.7880  magn=  0.0001
     atom 459 (R=0.042)  charge=  1.7864  magn= -0.0000
     atom 460 (R=0.042)  charge=  1.7876  magn=  0.0000
     atom 461 (R=0.042)  charge=  1.7871  magn=  0.0000
     atom 462 (R=0.042)  charge=  1.7863  magn=  0.0000
     atom 463 (R=0.042)  charge=  1.7871  magn=  0.0011
     atom 464 (R=0.042)  charge=  1.7914  magn=  0.0008
     atom 465 (R=0.042)  charge=  1.7872  magn=  0.0002
     atom 466 (R=0.042)  charge=  1.7871  magn=  0.0052
     atom 467 (R=0.042)  charge=  1.7874  magn=  0.0008
     atom 468 (R=0.042)  charge=  1.7873  magn=  0.0001
     atom 469 (R=0.042)  charge=  1.7937  magn=  0.0107
     atom 470 (R=0.042)  charge=  1.7851  magn=  0.0024
     atom 471 (R=0.042)  charge=  1.7869  magn=  0.0001
     atom 472 (R=0.042)  charge=  1.7891  magn=  0.0001
     atom 473 (R=0.042)  charge=  1.7871  magn=  0.0001
     atom 474 (R=0.042)  charge=  1.7873  magn=  0.0002
     atom 475 (R=0.042)  charge=  1.7871  magn=  0.0000
     atom 476 (R=0.042)  charge=  1.7876  magn=  0.0001
     atom 477 (R=0.042)  charge=  1.7871  magn=  0.0015
     atom 478 (R=0.042)  charge=  1.7865  magn=  0.0001
     atom 479 (R=0.042)  charge=  1.7869  magn=  0.0000
     atom 480 (R=0.042)  charge=  1.7873  magn=  0.0001
     atom 481 (R=0.042)  charge=  1.7841  magn=  0.0241
     atom 482 (R=0.042)  charge=  1.7847  magn=  0.0057
     atom 483 (R=0.042)  charge=  1.7871  magn=  0.0001
     atom 484 (R=0.042)  charge=  1.7876  magn= -0.0000
     atom 485 (R=0.042)  charge=  1.7874  magn=  0.0002
     atom 486 (R=0.042)  charge=  1.7901  magn=  0.0061
     atom 487 (R=0.042)  charge=  1.7882  magn=  0.0008
     atom 488 (R=0.042)  charge=  1.7873  magn=  0.0000
     atom 489 (R=0.042)  charge=  1.7875  magn= -0.0000
     atom 490 (R=0.042)  charge=  1.7875  magn=  0.0001
     atom 491 (R=0.042)  charge=  1.7878  magn=  0.0001
     atom 492 (R=0.042)  charge=  1.7875  magn=  0.0001
     atom 493 (R=0.042)  charge=  1.7876  magn=  0.0002
     atom 494 (R=0.042)  charge=  1.7863  magn= -0.0000
     atom 495 (R=0.042)  charge=  1.7875  magn=  0.0000
     atom 496 (R=0.042)  charge=  1.7879  magn=  0.0002
     atom 497 (R=0.042)  charge=  1.7867  magn=  0.0001
     atom 498 (R=0.042)  charge=  1.7870  magn=  0.0002
     atom 499 (R=0.042)  charge=  1.7869  magn= -0.0000
     atom 500 (R=0.042)  charge=  1.7873  magn=  0.0000
     atom 501 (R=0.042)  charge=  1.7872  magn= -0.0000
     atom 502 (R=0.042)  charge=  1.7870  magn=  0.0001
     atom 503 (R=0.042)  charge=  1.7877  magn=  0.0001
     atom 504 (R=0.042)  charge=  1.7876  magn=  0.0000
     atom 505 (R=0.042)  charge=  1.7874  magn=  0.0000
     atom 506 (R=0.042)  charge=  1.7876  magn=  0.0001
     atom 507 (R=0.042)  charge=  1.7875  magn=  0.0001
     atom 508 (R=0.042)  charge=  1.7863  magn=  0.3279
     atom 509 (R=0.042)  charge=  1.8320  magn=  0.1390
     atom 510 (R=0.042)  charge=  1.8319  magn=  0.1390
     atom 511 (R=0.043)  charge=  2.9138  magn=  0.1152

     total cpu time spent up to now is      751.4 secs

     End of self-consistent calculation

 ------ SPIN UP ------------


          k = 0.0000 0.0000 0.0000 (118565 PWs)   bands (ev):

    -8.2044  -7.7061  -7.6411  -7.6382  -7.6188  -7.6094  -7.5621  -7.2337
    -7.0732  -7.0701  -7.0671  -7.0627  -7.0583  -7.0465  -7.0398  -7.0367
    -7.0056  -6.9889  -6.9133  -6.6232  -6.4792  -6.4709  -6.4675  -6.4613
    -6.4497  -6.4399  -6.3703  -6.0227  -5.9144  -5.9144  -5.9052  -5.9017
    -5.8823  -5.6850  -5.3905  -5.3862  -5.3846  -5.3802  -5.3801  -5.3766
    -5.3765  -5.3698  -5.3686  -5.3631  -5.3618  -5.3578  -5.3556  -5.3500
    -5.3402  -5.3384  -5.3284  -5.3211  -5.3133  -5.3076  -5.2791  -5.2638
    -5.1907  -5.0220  -4.8352  -4.8320  -4.8270  -4.8227  -4.8186  -4.8169
    -4.8158  -4.8154  -4.8131  -4.8126  -4.8100  -4.8050  -4.8035  -4.7979
    -4.7968  -4.7859  -4.7723  -4.7505  -4.7459  -4.7219  -4.7055  -4.6826
    -4.4684  -3.9264  -3.7356  -3.7333  -3.7321  -3.7307  -3.7275  -3.7218
    -3.7163  -3.7161  -3.7093  -3.7074  -3.6675  -3.5106  -3.2753  -3.2717
    -3.2695  -3.2680  -3.2662  -3.2660  -3.2613  -3.2590  -3.2564  -3.2514
    -3.2503  -3.2480  -3.2422  -3.2406  -3.2401  -3.2303  -3.2167  -3.1936
    -3.1902  -3.1786  -3.1693  -3.1598  -3.1573  -3.1477  -3.1465  -3.1397
    -3.1347  -3.1241  -3.0094  -2.8028  -2.6654  -2.6640  -2.6607  -2.6599
    -2.6578  -2.6564  -2.6540  -2.6522  -2.6463  -2.6448  -2.6427  -2.6355
    -2.6347  -2.6332  -2.6307  -2.6241  -2.6208  -2.6122  -2.5953  -2.5848
    -2.5632  -2.5556  -2.4989  -2.4474  -2.4012  -2.3988  -2.3738  -2.3012
    -2.2005  -2.1977  -2.1843  -2.1806  -2.1804  -2.1762  -2.1745  -2.1703
    -2.1678  -2.1653  -2.1630  -2.1619  -2.1598  -2.1574  -2.1550  -2.1512
    -2.1442  -2.1416  -2.1222  -2.1186  -2.0838  -2.0582  -1.8439  -1.5951
    -1.4524  -1.4487  -1.4475  -1.4459  -1.4426  -1.4404  -1.4350  -1.4343
    -1.4314  -1.4285  -1.4277  -1.4237  -1.4133  -1.4113  -1.4109  -1.3990
    -1.3979  -1.3934  -1.3853  -1.3828  -1.3669  -1.3655  -1.3473  -1.3013
    -1.2585  -1.2585  -1.2522  -1.2500  -1.2488  -1.2484  -1.2449  -1.2350
    -1.2326  -1.2300  -1.2237  -1.2184  -1.2028  -1.1933  -1.1870  -1.1855
    -1.1732  -1.1352  -1.1343  -1.1312  -1.1022  -0.9963  -0.4530  -0.0912
    -0.0903  -0.0884  -0.0665   0.2049   0.2829   0.2854   0.2997   0.3009
     0.3055   0.3061   0.3061   0.3118   0.3174   0.3302   0.3833   0.4875
     0.4954   0.4991   0.5015   0.5021   0.5296   0.7409   0.7950   0.8020
     0.8165   0.8193   0.8210   0.8223   0.8226   0.8245   0.8382   0.8389
     0.8395   0.8467   0.8488   0.8504   0.8539   0.8562   0.8611   0.8646
     0.8660   0.8681   0.8791   0.8800   0.8810   0.8860   0.8873   0.8880
     0.8916   0.8920   0.8953   0.8957   0.9007   0.9048   0.9129   0.9151
     0.9154   0.9177   0.9320   0.9322   0.9342   0.9364   0.9390   0.9400
     0.9450   0.9932   1.0485   1.0505   1.1403   1.2419   1.2894   1.2898
     1.3080   1.3135   1.3171   1.3222   1.3233   1.3289   1.3374   1.3529
     1.4258   1.5119   1.5266   1.5273   1.5451   1.5465   1.5519   1.5547
     1.5636   1.5789   1.5846   1.6054   1.6671   1.6849   1.6887   1.6921
     1.6994   1.7027   1.7034   1.7049   1.7061   1.7080   1.7117   1.7123
     1.7212   1.7231   1.7250   1.7330   1.7356   1.7410   1.7517   1.7587
     1.7610   1.8633   1.9049   1.9221   2.2127   2.4259   2.4427   2.4430
     2.4715   2.4784   2.4811   2.4832   2.4847   2.4863   2.4885   2.4906
     2.4906   2.4926   2.4932   2.4950   2.4958   2.4991   2.5002   2.5037
     2.5088   2.5560   2.5748   2.5771   2.6728   2.8173   2.8194   2.8244
     2.8376   2.8387   2.8447   2.8480   2.8498   2.8554   2.8561   2.8608
     2.8624   2.8682   2.8787   2.8822   2.8854   2.8905   2.9020   2.9041
     2.9107   2.9187   3.0157   3.0751   3.6755   3.9079   3.9097   3.9410
     3.9427   3.9437   3.9457   3.9473   3.9506   3.9516   3.9624   3.9666
     3.9667   4.0680   4.0830   4.0889   4.1284   4.1298   4.1299   4.1337
     4.1370   4.1372   4.1391   4.1402   4.1410   4.1442   4.1467   4.1482
     4.1486   4.1508   4.1583   4.1613   4.1836   4.1989   4.2021   4.2063
     4.2162   4.2247   4.2263   4.2297   4.2340   4.2359   4.2380   4.2393
     4.2413   4.2441   4.2537   4.2588   4.2616   4.2677   4.2685   4.2689
     4.2719   4.2737   4.2802   4.2867   4.2871   4.2952   4.3264   4.3476
     4.3573   4.3635   4.3647   4.3731   4.3733   4.3751   4.3769   4.3776
     4.3797   4.3818   4.3893   4.3928   4.3940   4.3964   4.4085   4.4127
     4.4177   4.4179   4.4342   4.4392   4.4399   4.4851   4.5026   4.5056
     4.5106   4.5470   4.5493   4.5721   4.5752   4.5844   4.5859   4.5862
     4.5871   4.6125   4.6427   4.6431   4.6580   4.6925   4.7111   4.7172
     4.7833   4.8291   4.9200   4.9206   4.9446   4.9476   4.9498   4.9521
     4.9526   4.9607   4.9657   5.0328   5.0722   5.0894   5.5690   5.6175
     5.6191   5.6487   5.6600   5.6617   5.6642   5.6658   5.6664   5.6981
     5.6994   5.7044   5.8753   5.8783   5.8874   5.9138   5.9167   5.9173
     5.9180   5.9205   5.9216   5.9276   5.9329   5.9387   5.9390   5.9406
     5.9476   5.9498   5.9524   5.9621   5.9686   5.9713   5.9850   5.9938
     6.0039   6.0066   6.0686   6.1789   6.1805   6.2552   6.2559   6.2605
     6.2614   6.2617   6.2658   6.2670   6.2692   6.2698   6.2721   6.2723
     6.2765   6.2789   6.2847   6.2867   6.2980   6.3005   6.3024   6.3178
     6.3296   6.3347   6.3372   6.4675   6.4697   6.4832   6.5085   6.5109
     6.5128   6.5132   6.5167   6.5171   6.5178   6.5201   6.5208   6.5224
     6.5225   6.5232   6.5240   6.5268   6.5283   6.5365   6.5383   6.5700
     6.5777   6.5807   6.5869   6.6427   6.6474   6.6505   6.6625   6.6646
     6.6678   6.6722   6.6835   6.7074   6.7084   6.7228   6.7264   6.7278
     6.7316   6.7326   6.7354   6.7361   6.7433   6.7433   6.7451   6.7457
     6.7514   6.7601   6.7717   6.7791   6.7846   6.7876   6.7931   6.8079
     6.8557   6.8605   6.8825   6.8935   6.9017   6.9274   6.9292   6.9301
     6.9342   6.9354   6.9377   6.9387   6.9413   6.9443   6.9479   6.9487
     6.9547   6.9554   6.9597   6.9617   6.9619   6.9633   6.9678   6.9706
     6.9760   6.9827   6.9897   7.0025   7.0066   7.0706   7.1083   7.1312
     7.2486   7.2543   7.2967   7.2977   7.2993   7.2996   7.3005   7.3040
     7.3046   7.3052   7.3070   7.3096   7.3115   7.3123   7.3169   7.3182
     7.3239   7.3258   7.3271   7.3473   7.3477   7.3779   7.3823   7.3844
     7.4813   7.4818   7.5187   7.5202   7.5254   7.5271   7.5399   7.5448
     7.5611   7.5816   7.5892   7.5922   7.6509   7.6753   7.6794   7.7317
     7.7345   7.7357   7.7364   7.7390   7.7403   7.7419   7.7434   7.7488
     7.7492   7.7501   7.7525   7.7532   7.7562   7.7583   7.7593   7.7595
     7.7613   7.7627   7.7655   7.7669   7.7684   7.7700   7.7706   7.7709
     7.7726   7.7736   7.7747   7.7760   7.7775   7.7798   7.7816   7.7824
     7.7852   7.7861   7.7891   7.7915   7.7931   7.8002   7.8121   7.8253
     7.8259   7.8540   7.8567   7.8704   7.8783   7.8969   7.9013   7.9141
     7.9274   7.9294   7.9385   7.9424   7.9666   8.0871   8.0991   8.1074
     8.2970   8.2990   8.3511   8.3548   8.3573   8.3584   8.3612   8.3625
     8.3635   8.3667   8.3673   8.3676   8.3691   8.3716   8.3729   8.3785
     8.3824   8.3883   8.3983   8.4003   8.4046   8.4086   8.4231   8.4239
     8.4469   8.5022   8.5245   8.5436   8.5438   8.5468   8.5498   8.5527
     8.5564   8.5570   8.5580   8.5603   8.5639   8.5648   8.5693   8.5735
     8.5767   8.5800   8.5967   8.6010   8.6038   8.6061   8.6295   8.6315
     8.6391   8.6423   8.6568   8.6593   8.6620   8.6657   8.6662   8.6710
     8.6767   8.6799   8.6886   8.6932   8.6945   8.6974   8.7003   8.7076
     8.7179   8.7186   8.7291   8.7316   8.7322   8.7378   8.7429   8.7528
     8.7592   8.7680   8.7998   8.9857   9.0243   9.0356   9.1068   9.1083
     9.1291   9.1316   9.1337   9.1343   9.1380   9.1422   9.1429   9.1682
     9.1919   9.1983   9.2006   9.2490   9.2518   9.2583   9.2613   9.2677
     9.2760   9.2854   9.2943   9.4110   9.4495   9.4654   9.6548   9.6552
     9.7052   9.7054   9.7058   9.7091   9.7111   9.7141   9.7163   9.7219
     9.7236   9.7284   9.7294   9.7316   9.7381   9.7431   9.7468   9.7538
     9.7609   9.7614   9.7704   9.7904   9.8435   9.8443   9.8602   9.9646
     9.9727   9.9865   9.9903   9.9938   9.9962  10.0005  10.0026  10.0067
    10.0148  10.0171  10.0193  10.0199  10.0257  10.0302  10.0324  10.0358
    10.0362  10.0375  10.0386  10.0400  10.0417  10.0423  10.0431  10.0436
    10.0468  10.0481  10.0496  10.0521  10.0618  10.0627  10.0673  10.1410
    10.1449  10.1551  10.1909  10.1945  10.1968  10.1972  10.1990  10.1997
    10.2003  10.2016  10.2017  10.2038  10.2059  10.2068  10.2669  10.2798
    10.2807  10.3053  10.3062  10.3076  10.3094  10.3155  10.3163  10.3167
    10.3178  10.3197  10.3202  10.3223  10.3232  10.3238  10.3248  10.3260
    10.3282  10.3285  10.3311  10.3318  10.3322  10.3371  10.3399  10.3439
    10.3468  10.3490  10.3492  10.3497  10.3580  10.3610  10.3641  10.3672
    10.3780  10.3801  10.3911  10.4070  10.4120  10.4258  10.4287  10.4361
    10.4460  10.4509  10.4695  10.4795  10.4880  10.5063  10.5108  10.5579
    10.5864  10.6159  10.7389  11.1315  11.2932  11.3251  11.4472  11.4572
    11.4670  11.4791  11.4798  11.4862  11.4870  11.4873  11.4894  11.4899
    11.4911  11.4945  11.5000  11.5010  11.5023  11.5051  11.5147  11.5191
    11.5271  11.5384  11.5409  11.5428  11.5494  11.5747  11.5767  11.5936
    11.8744  11.8761  11.8871  11.9198  11.9203  12.0789  12.3186  12.3431
    12.3712  12.4546  12.4621  12.4668  12.4744  12.4904  12.4908  12.5083
    12.5272  12.5500  13.1446  13.1873  13.1876  13.8152  15.1514  15.7040
    17.3997  17.4036  17.4039  17.4184  17.4212  17.4301  17.7100  17.7136

     occupation numbers 
     1.0000   1.0000   1.0000   1.0000   1.0000   1.0000   1.0000   1.0000
     1.0000   1.0000   1.0000   1.0000   1.0000   1.0000   1.0000   1.0000
     1.0000   1.0000   1.0000   1.0000   1.0000   1.0000   1.0000   1.0000
     1.0000   1.0000   1.0000   1.0000   1.0000   1.0000   1.0000   1.0000
     1.0000   1.0000   1.0000   1.0000   1.0000   1.0000   1.0000   1.0000
     1.0000   1.0000   1.0000   1.0000   1.0000   1.0000   1.0000   1.0000
     1.0000   1.0000   1.0000   1.0000   1.0000   1.0000   1.0000   1.0000
     1.0000   1.0000   1.0000   1.0000   1.0000   1.0000   1.0000   1.0000
     1.0000   1.0000   1.0000   1.0000   1.0000   1.0000   1.0000   1.0000
     1.0000   1.0000   1.0000   1.0000   1.0000   1.0000   1.0000   1.0000
     1.0000   1.0000   1.0000   1.0000   1.0000   1.0000   1.0000   1.0000
     1.0000   1.0000   1.0000   1.0000   1.0000   1.0000   1.0000   1.0000
     1.0000   1.0000   1.0000   1.0000   1.0000   1.0000   1.0000   1.0000
     1.0000   1.0000   1.0000   1.0000   1.0000   1.0000   1.0000   1.0000
     1.0000   1.0000   1.0000   1.0000   1.0000   1.0000   1.0000   1.0000
     1.0000   1.0000   1.0000   1.0000   1.0000   1.0000   1.0000   1.0000
     1.0000   1.0000   1.0000   1.0000   1.0000   1.0000   1.0000   1.0000
     1.0000   1.0000   1.0000   1.0000   1.0000   1.0000   1.0000   1.0000
     1.0000   1.0000   1.0000   1.0000   1.0000   1.0000   1.0000   1.0000
     1.0000   1.0000   1.0000   1.0000   1.0000   1.0000   1.0000   1.0000
     1.0000   1.0000   1.0000   1.0000   1.0000   1.0000   1.0000   1.0000
     1.0000   1.0000   1.0000   1.0000   1.0000   1.0000   1.0000   1.0000
     1.0000   1.0000   1.0000   1.0000   1.0000   1.0000   1.0000   1.0000
     1.0000   1.0000   1.0000   1.0000   1.0000   1.0000   1.0000   1.0000
     1.0000   1.0000   1.0000   1.0000   1.0000   1.0000   1.0000   1.0000
     1.0000   1.0000   1.0000   1.0000   1.0000   1.0000   1.0000   1.0000
     1.0000   1.0000   1.0000   1.0000   1.0000   1.0000   1.0000   1.0000
     1.0000   1.0000   1.0000   1.0000   1.0000   1.0000   1.0000   1.0000
     1.0000   1.0000   1.0000   1.0000   1.0000   1.0000   1.0000   1.0000
     1.0000   1.0000   1.0000   1.0000   1.0000   1.0000   1.0000   1.0000
     1.0000   1.0000   1.0000   1.0000   1.0000   1.0000   1.0000   1.0000
     1.0000   1.0000   1.0000   1.0000   1.0000   1.0000   1.0000   1.0000
     1.0000   1.0000   1.0000   1.0000   1.0000   1.0000   1.0000   1.0000
     1.0000   1.0000   1.0000   1.0000   1.0000   1.0000   1.0000   1.0000
     1.0000   1.0000   1.0000   1.0000   1.0000   1.0000   1.0000   1.0000
     1.0000   1.0000   1.0000   1.0000   1.0000   1.0000   1.0000   1.0000
     1.0000   1.0000   1.0000   1.0000   1.0000   1.0000   1.0000   1.0000
     1.0000   1.0000   1.0000   1.0000   1.0000   1.0000   1.0000   1.0000
     1.0000   1.0000   1.0000   1.0000   1.0000   1.0000   1.0000   1.0000
     1.0000   1.0000   1.0000   1.0000   1.0000   1.0000   1.0000   1.0000
     1.0000   1.0000   1.0000   1.0000   1.0000   1.0000   1.0000   1.0000
     1.0000   1.0000   1.0000   1.0000   1.0000   1.0000   1.0000   1.0000
     1.0000   1.0000   1.0000   1.0000   1.0000   1.0000   1.0000   1.0000
     1.0000   1.0000   1.0000   1.0000   1.0000   1.0000   1.0000   1.0000
     1.0000   1.0000   1.0000   1.0000   1.0000   1.0000   1.0000   1.0000
     1.0000   1.0000   1.0000   1.0000   1.0000   1.0000   1.0000   1.0000
     1.0000   1.0000   1.0000   1.0000   1.0000   1.0000   1.0000   1.0000
     1.0000   1.0000   1.0000   1.0000   1.0000   1.0000   1.0000   1.0000
     1.0000   1.0000   1.0000   1.0000   1.0000   1.0000   1.0000   1.0000
     1.0000   1.0000   1.0000   1.0000   1.0000   1.0000   1.0000   1.0000
     1.0000   1.0000   1.0000   1.0000   1.0000   1.0000   1.0000   1.0000
     1.0000   1.0000   1.0000   1.0000   1.0000   1.0000   1.0000   1.0000
     1.0000   1.0000   1.0000   1.0000   1.0000   1.0000   1.0000   1.0000
     1.0000   1.0000   1.0000   1.0000   1.0000   1.0000   1.0000   1.0000
     1.0000   1.0000   1.0000   1.0000   1.0000   1.0000   1.0000   1.0000
     1.0000   1.0000   1.0000   1.0000   1.0000   1.0000   1.0000   1.0000
     1.0000   1.0000   1.0000   1.0000   1.0000   1.0000   1.0000   1.0000
     1.0000   1.0000   1.0000   1.0000   1.0000   1.0000   1.0000   1.0000
     1.0000   1.0000   1.0000   1.0000   1.0000   1.0000   1.0000   1.0000
     1.0000   1.0000   1.0000   1.0000   1.0000   1.0000   1.0000   1.0000
     1.0000   1.0000   1.0000   1.0000   1.0000   1.0000   1.0000   1.0000
     1.0000   1.0000   1.0000   1.0000   1.0000   1.0000   1.0000   1.0000
     1.0000   1.0000   1.0000   1.0000   1.0000   1.0000   1.0000   1.0000
     1.0000   1.0000   1.0000   1.0000   1.0000   1.0000   1.0000   1.0000
     1.0000   1.0000   1.0000   1.0000   1.0000   1.0000   1.0000   1.0000
     1.0000   1.0000   1.0000   1.0000   1.0000   1.0000   1.0000   1.0000
     1.0000   1.0000   1.0000   1.0000   1.0000   1.0000   1.0000   1.0000
     1.0000   1.0000   1.0000   1.0000   1.0000   1.0000   1.0000   1.0000
     1.0000   1.0000   1.0000   1.0000   1.0000   1.0000   1.0000   1.0000
     1.0000   1.0000   1.0000   1.0000   1.0000   1.0000   1.0000   1.0000
     1.0000   1.0000   1.0000   1.0000   1.0000   1.0000   1.0000   1.0000
     1.0000   1.0000   1.0000   1.0000   1.0000   1.0000   1.0000   1.0000
     1.0000   1.0000   1.0000   1.0000   1.0000   1.0000   1.0000   1.0000
     1.0000   1.0000   1.0000   1.0000   1.0000   1.0000   1.0000   1.0000
     1.0000   1.0000   1.0000   1.0000   1.0000   1.0000   1.0000   1.0000
     1.0000   1.0000   1.0000   1.0000   1.0000   1.0000   1.0000   1.0000
     1.0000   1.0000   1.0000   1.0000   1.0000   1.0000   1.0000   1.0000
     1.0000   1.0000   1.0000   1.0000   1.0000   1.0000   1.0000   1.0000
     1.0000   1.0000   1.0000   1.0000   1.0000   1.0000   1.0000   1.0000
     1.0000   1.0000   1.0000   1.0000   1.0000   1.0000   1.0000   1.0000
     1.0000   1.0000   1.0000   1.0000   1.0000   1.0000   1.0000   1.0000
     1.0000   1.0000   1.0000   1.0000   1.0000   1.0000   1.0000   1.0000
     1.0000   1.0000   1.0000   1.0000   1.0000   1.0000   1.0000   1.0000
     1.0000   1.0000   1.0000   1.0000   1.0000   1.0000   1.0000   1.0000
     1.0000   1.0000   1.0000   1.0000   1.0000   1.0000   1.0000   1.0000
     1.0000   1.0000   1.0000   1.0000   1.0000   1.0000   1.0000   1.0000
     1.0000   1.0000   1.0000   1.0000   1.0000   1.0000   1.0000   1.0000
     1.0000   1.0000   1.0000   1.0000   1.0000   1.0000   1.0000   1.0000
     1.0000   1.0000   1.0000   1.0000   1.0000   1.0000   1.0000   1.0000
     1.0000   1.0000   1.0000   1.0000   1.0000   1.0000   1.0000   1.0000
     1.0000   1.0000   1.0000   1.0000   1.0000   1.0000   1.0000   1.0000
     1.0000   1.0000   1.0000   1.0000   1.0000   1.0000   1.0000   1.0000
     1.0000   1.0000   1.0000   1.0000   1.0000   1.0000   1.0000   1.0000
     1.0000   1.0000   1.0000   1.0000   1.0000   1.0000   1.0000   1.0000
     1.0000   1.0000   1.0000   1.0000   1.0000   1.0000   1.0000   1.0000
     1.0000   1.0000   1.0000   1.0000   1.0000   1.0000   1.0000   1.0000
     1.0000   1.0000   1.0000   1.0000   1.0000   1.0000   1.0000   1.0000
     1.0000   1.0000   1.0000   1.0000   1.0000   1.0000   1.0000   1.0000
     1.0000   1.0000   1.0000   1.0000   1.0000   1.0000   1.0000   1.0000
     1.0000   1.0000   1.0000   1.0000   1.0000   1.0000   1.0000   1.0000
     1.0000   1.0000   1.0000   1.0000   1.0000   1.0000   1.0000   1.0000
     1.0000   1.0000   1.0000   1.0000   1.0000   1.0000   1.0000   1.0000
     1.0000   1.0000   1.0000   1.0000   1.0000   1.0000   1.0000   1.0000
     1.0000   1.0000   1.0000   1.0000   1.0000   1.0000   1.0000   1.0000
     1.0000   1.0000   1.0000   1.0000   1.0000   1.0000   1.0000   1.0000
     1.0000   1.0000   1.0000   1.0000   1.0000   1.0000   1.0000   1.0000
     1.0000   1.0000   1.0000   1.0000   1.0000   1.0000   1.0000   1.0000
     1.0000   1.0000   1.0000   1.0000   1.0000   1.0000   1.0000   1.0000
     1.0000   1.0000   1.0000   1.0000   1.0000   1.0000   1.0000   1.0000
     1.0000   1.0000   1.0000   1.0000   1.0000   1.0000   1.0000   1.0000
     1.0000   1.0000   1.0000   1.0000   1.0000   1.0000   1.0000   1.0000
     1.0000   1.0000   1.0000   1.0000   1.0000   1.0000   1.0000   1.0000
     1.0000   1.0000   1.0000   1.0000   1.0000   1.0000   1.0000   1.0000
     1.0000   1.0000   1.0000   1.0000   1.0000   1.0000   1.0000   1.0000
     1.0000   1.0000   1.0000   1.0000   1.0000   1.0000   1.0000   1.0000
     1.0000   1.0000   1.0000   1.0000   1.0000   1.0000   1.0000   1.0000
     1.0000   1.0000   1.0000   1.0000   1.0000   1.0000   1.0000   1.0000
     1.0000   1.0000   1.0000   1.0000   1.0000   1.0000   1.0000   1.0000
     1.0000   1.0000   1.0000   1.0000   1.0000   1.0000   1.0000   1.0000
     1.0000   1.0000   1.0000   1.0000   1.0000   1.0000   1.0000   1.0000
     1.0000   1.0000   1.0000   1.0000   1.0000   1.0000   1.0000   1.0000
     1.0000   1.0000   1.0000   1.0000   1.0000   1.0000   1.0000   1.0000
     1.0000   1.0000   1.0000   1.0000   1.0000   1.0000   1.0000   1.0000
     1.0000   1.0000   1.0000   1.0000   1.0000   1.0000   1.0000   1.0000
     1.0000   1.0000   1.0000   1.0000   1.0000   1.0000   1.0000   1.0000
     1.0000   1.0000   1.0000   1.0000   1.0000   1.0000   1.0000   1.0000
     1.0000   1.0000   1.0000   1.0000   1.0000   1.0000   1.0000   1.0000
     1.0000   1.0000   1.0000   1.0000   1.0000   1.0000   1.0000   1.0000
     0.0000   0.0000   0.0000   0.0000   0.0000   0.0000   0.0000   0.0000

 ------ SPIN DOWN ----------


          k = 0.0000 0.0000 0.0000 (118565 PWs)   bands (ev):

    -8.2017  -7.6935  -7.6402  -7.6377  -7.6160  -7.6083  -7.5559  -7.2133
    -7.0725  -7.0697  -7.0658  -7.0620  -7.0579  -7.0437  -7.0378  -7.0358
    -6.9992  -6.9856  -6.9031  -6.6110  -6.4770  -6.4689  -6.4651  -6.4565
    -6.4455  -6.4366  -6.3600  -6.0092  -5.9127  -5.9124  -5.9013  -5.8998
    -5.8790  -5.6645  -5.3893  -5.3857  -5.3840  -5.3797  -5.3786  -5.3760
    -5.3755  -5.3694  -5.3672  -5.3626  -5.3607  -5.3569  -5.3534  -5.3493
    -5.3374  -5.3334  -5.3223  -5.3194  -5.3108  -5.3052  -5.2674  -5.2566
    -5.1827  -5.0134  -4.8332  -4.8308  -4.8254  -4.8205  -4.8173  -4.8160
    -4.8148  -4.8148  -4.8117  -4.8109  -4.8093  -4.8028  -4.8001  -4.7952
    -4.7938  -4.7838  -4.7661  -4.7412  -4.7399  -4.7160  -4.6901  -4.6691
    -4.4425  -3.9079  -3.7334  -3.7304  -3.7303  -3.7291  -3.7209  -3.7198
    -3.7147  -3.7126  -3.7057  -3.7052  -3.6619  -3.4977  -3.2721  -3.2696
    -3.2684  -3.2665  -3.2656  -3.2645  -3.2588  -3.2585  -3.2557  -3.2487
    -3.2469  -3.2460  -3.2406  -3.2384  -3.2361  -3.2280  -3.2125  -3.1883
    -3.1868  -3.1740  -3.1575  -3.1570  -3.1552  -3.1452  -3.1426  -3.1376
    -3.1276  -3.1161  -2.9977  -2.7900  -2.6632  -2.6627  -2.6600  -2.6592
    -2.6572  -2.6558  -2.6520  -2.6511  -2.6452  -2.6430  -2.6420  -2.6329
    -2.6322  -2.6296  -2.6293  -2.6222  -2.6187  -2.6097  -2.5903  -2.5812
    -2.5505  -2.5492  -2.4947  -2.4442  -2.3953  -2.3950  -2.3678  -2.2954
    -2.1981  -2.1945  -2.1794  -2.1776  -2.1761  -2.1742  -2.1731  -2.1682
    -2.1658  -2.1632  -2.1609  -2.1580  -2.1577  -2.1559  -2.1539  -2.1470
    -2.1413  -2.1327  -2.1178  -2.1154  -2.0588  -2.0432  -1.8279  -1.5845
    -1.4513  -1.4474  -1.4469  -1.4446  -1.4415  -1.4399  -1.4337  -1.4326
    -1.4308  -1.4272  -1.4267  -1.4233  -1.4118  -1.4097  -1.4043  -1.3969
    -1.3947  -1.3911  -1.3817  -1.3817  -1.3641  -1.3577  -1.3438  -1.2970
    -1.2570  -1.2552  -1.2517  -1.2483  -1.2474  -1.2473  -1.2434  -1.2328
    -1.2296  -1.2289  -1.2196  -1.2151  -1.1990  -1.1878  -1.1825  -1.1814
    -1.1679  -1.1292  -1.1274  -1.1233  -1.0413  -0.9606  -0.3883  -0.0893
    -0.0877  -0.0855  -0.0614   0.2150   0.2852   0.2880   0.3030   0.3033
     0.3076   0.3081   0.3084   0.3139   0.3294   0.3362   0.3945   0.4901
     0.4966   0.5005   0.5039   0.5049   0.5344   0.7572   0.7983   0.8059
     0.8172   0.8205   0.8216   0.8227   0.8235   0.8251   0.8402   0.8418
     0.8420   0.8488   0.8507   0.8514   0.8575   0.8579   0.8641   0.8656
     0.8679   0.8702   0.8800   0.8809   0.8815   0.8875   0.8882   0.8895
     0.8929   0.8955   0.8961   0.8970   0.9014   0.9057   0.9175   0.9202
     0.9217   0.9246   0.9353   0.9358   0.9384   0.9389   0.9430   0.9473
     0.9501   0.9995   1.0578   1.0622   1.1480   1.2489   1.2917   1.2918
     1.3114   1.3169   1.3202   1.3250   1.3256   1.3305   1.3536   1.3608
     1.4325   1.5169   1.5290   1.5304   1.5474   1.5489   1.5558   1.5572
     1.5680   1.5822   1.6020   1.6158   1.6722   1.6882   1.6903   1.6935
     1.7021   1.7047   1.7050   1.7057   1.7080   1.7094   1.7123   1.7152
     1.7241   1.7268   1.7281   1.7345   1.7377   1.7451   1.7630   1.7634
     1.7708   1.8737   1.9293   1.9368   2.2335   2.4313   2.4458   2.4465
     2.4808   2.4816   2.4842   2.4855   2.4879   2.4887   2.4904   2.4920
     2.4934   2.4946   2.4969   2.4982   2.4990   2.5009   2.5025   2.5091
     2.5123   2.5623   2.5842   2.5879   2.6826   2.8197   2.8224   2.8347
     2.8386   2.8399   2.8467   2.8491   2.8501   2.8575   2.8582   2.8642
     2.8695   2.8701   2.8824   2.8849   2.8894   2.8940   2.9059   2.9070
     2.9146   2.9218   3.0660   3.1042   3.7269   3.9119   3.9141   3.9430
     3.9450   3.9454   3.9470   3.9487   3.9529   3.9531   3.9648   3.9689
     3.9697   4.0803   4.0891   4.0941   4.1299   4.1306   4.1311   4.1369
     4.1385   4.1393   4.1405   4.1414   4.1430   4.1451   4.1476   4.1491
     4.1494   4.1552   4.1614   4.1636   4.1908   4.2013   4.2035   4.2084
     4.2191   4.2288   4.2321   4.2336   4.2368   4.2386   4.2401   4.2431
     4.2450   4.2452   4.2576   4.2638   4.2648   4.2695   4.2712   4.2735
     4.2756   4.2757   4.2830   4.2888   4.2909   4.2980   4.3424   4.3552
     4.3596   4.3654   4.3678   4.3740   4.3742   4.3765   4.3785   4.3788
     4.3826   4.3828   4.3904   4.3942   4.3972   4.4010   4.4119   4.4156
     4.4201   4.4201   4.4360   4.4437   4.4442   4.4906   4.5111   4.5118
     4.5167   4.5514   4.5529   4.5758   4.5802   4.5868   4.5888   4.5903
     4.5938   4.6223   4.6466   4.6499   4.6615   4.7010   4.7145   4.7203
     4.8207   4.8509   4.9230   4.9237   4.9471   4.9507   4.9534   4.9534
     4.9548   4.9660   4.9695   5.0415   5.1017   5.1096   5.5955   5.6235
     5.6240   5.6527   5.6614   5.6633   5.6669   5.6683   5.6704   5.7030
     5.7037   5.7085   5.8808   5.8844   5.9027   5.9160   5.9184   5.9186
     5.9199   5.9213   5.9223   5.9285   5.9346   5.9401   5.9409   5.9426
     5.9490   5.9520   5.9551   5.9653   5.9731   5.9754   5.9873   5.9996
     6.0106   6.0115   6.1064   6.1850   6.1856   6.2583   6.2603   6.2623
     6.2642   6.2651   6.2672   6.2693   6.2706   6.2717   6.2737   6.2750
     6.2799   6.2805   6.2886   6.2902   6.3023   6.3057   6.3061   6.3291
     6.3348   6.3415   6.3477   6.4716   6.4747   6.4870   6.5118   6.5141
     6.5147   6.5159   6.5183   6.5190   6.5197   6.5220   6.5220   6.5235
     6.5254   6.5263   6.5275   6.5300   6.5316   6.5414   6.5422   6.5758
     6.5851   6.5861   6.5962   6.6490   6.6524   6.6548   6.6638   6.6655
     6.6689   6.6742   6.6861   6.7115   6.7120   6.7232   6.7276   6.7284
     6.7320   6.7366   6.7375   6.7388   6.7440   6.7455   6.7463   6.7472
     6.7533   6.7656   6.7753   6.7819   6.7908   6.7949   6.7960   6.8231
     6.8637   6.8659   6.8876   6.8976   6.9081   6.9289   6.9306   6.9314
     6.9357   6.9376   6.9407   6.9417   6.9430   6.9472   6.9495   6.9544
     6.9564   6.9593   6.9641   6.9645   6.9650   6.9656   6.9727   6.9732
     6.9789   6.9864   6.9932   7.0180   7.0192   7.0848   7.1292   7.1439
     7.2535   7.2581   7.2977   7.2995   7.3013   7.3014   7.3027   7.3059
     7.3061   7.3067   7.3085   7.3104   7.3134   7.3144   7.3194   7.3197
     7.3274   7.3292   7.3293   7.3523   7.3524   7.3830   7.3863   7.3922
     7.4855   7.4876   7.5213   7.5254   7.5283   7.5293   7.5458   7.5486
     7.5657   7.5887   7.5943   7.5998   7.6754   7.6794   7.6839   7.7330
     7.7362   7.7376   7.7381   7.7412   7.7415   7.7429   7.7482   7.7504
     7.7508   7.7524   7.7545   7.7578   7.7588   7.7594   7.7615   7.7621
     7.7625   7.7640   7.7671   7.7683   7.7715   7.7719   7.7726   7.7727
     7.7742   7.7757   7.7761   7.7773   7.7811   7.7814   7.7841   7.7861
     7.7874   7.7878   7.7913   7.7927   7.7960   7.8059   7.8206   7.8345
     7.8350   7.8566   7.8596   7.8775   7.8845   7.9028   7.9053   7.9205
     7.9302   7.9371   7.9430   7.9516   7.9725   8.1015   8.1192   8.1207
     8.3010   8.3037   8.3538   8.3571   8.3588   8.3609   8.3637   8.3650
     8.3651   8.3684   8.3687   8.3703   8.3710   8.3740   8.3752   8.3806
     8.3852   8.3902   8.4024   8.4036   8.4128   8.4229   8.4274   8.4308
     8.4786   8.5061   8.5283   8.5456   8.5465   8.5495   8.5519   8.5558
     8.5586   8.5586   8.5594   8.5622   8.5665   8.5671   8.5728   8.5769
     8.5804   8.5832   8.5989   8.6057   8.6076   8.6099   8.6352   8.6369
     8.6420   8.6476   8.6590   8.6620   8.6633   8.6687   8.6694   8.6759
     8.6805   8.6854   8.6920   8.6959   8.6997   8.7029   8.7037   8.7137
     8.7256   8.7260   8.7355   8.7373   8.7377   8.7439   8.7473   8.7622
     8.7701   8.7794   8.8116   9.0046   9.0463   9.0478   9.1128   9.1133
     9.1340   9.1343   9.1366   9.1379   9.1414   9.1449   9.1470   9.1853
     9.2049   9.2077   9.2125   9.2527   9.2551   9.2601   9.2620   9.2703
     9.2829   9.2902   9.3031   9.4316   9.4763   9.4796   9.6603   9.6620
     9.7062   9.7074   9.7092   9.7128   9.7141   9.7151   9.7173   9.7241
     9.7328   9.7336   9.7346   9.7370   9.7405   9.7469   9.7487   9.7558
     9.7695   9.7698   9.7763   9.8259   9.8520   9.8542   9.8863   9.9709
     9.9767   9.9900   9.9929   9.9957   9.9979  10.0031  10.0038  10.0131
    10.0163  10.0177  10.0217  10.0229  10.0284  10.0333  10.0344  10.0379
    10.0388  10.0394  10.0413  10.0419  10.0438  10.0445  10.0450  10.0463
    10.0483  10.0504  10.0511  10.0534  10.0690  10.0718  10.0750  10.1485
    10.1495  10.1625  10.1925  10.1957  10.1976  10.1980  10.1997  10.2005
    10.2011  10.2024  10.2024  10.2047  10.2078  10.2084  10.2731  10.2839
    10.2988  10.3059  10.3072  10.3087  10.3101  10.3175  10.3176  10.3179
    10.3185  10.3208  10.3214  10.3236  10.3244  10.3244  10.3260  10.3284
    10.3305  10.3305  10.3329  10.3332  10.3333  10.3385  10.3414  10.3460
    10.3484  10.3503  10.3517  10.3518  10.3616  10.3632  10.3696  10.3715
    10.3823  10.3895  10.4004  10.4127  10.4207  10.4285  10.4320  10.4385
    10.4497  10.4553  10.4798  10.4891  10.4968  10.5129  10.5269  10.5696
    10.6049  10.6467  10.7616  11.2138  11.3424  11.3431  11.4562  11.4603
    11.4798  11.4808  11.4875  11.4880  11.4886  11.4910  11.4918  11.4938
    11.4959  11.4975  11.5022  11.5056  11.5063  11.5097  11.5242  11.5252
    11.5307  11.5461  11.5466  11.5545  11.5673  11.5834  11.5903  11.7253
    11.8798  11.8826  11.8971  11.9219  11.9219  12.2043  12.3586  12.3623
    12.4553  12.4644  12.4684  12.4755  12.4895  12.4934  12.5116  12.5165
    12.5343  12.5562  13.1963  13.2015  13.2151  14.9338  16.4410  16.5689
    17.4038  17.4052  17.4054  17.4224  17.4233  17.4353  17.7119  17.7159

     occupation numbers 
     1.0000   1.0000   1.0000   1.0000   1.0000   1.0000   1.0000   1.0000
     1.0000   1.0000   1.0000   1.0000   1.0000   1.0000   1.0000   1.0000
     1.0000   1.0000   1.0000   1.0000   1.0000   1.0000   1.0000   1.0000
     1.0000   1.0000   1.0000   1.0000   1.0000   1.0000   1.0000   1.0000
     1.0000   1.0000   1.0000   1.0000   1.0000   1.0000   1.0000   1.0000
     1.0000   1.0000   1.0000   1.0000   1.0000   1.0000   1.0000   1.0000
     1.0000   1.0000   1.0000   1.0000   1.0000   1.0000   1.0000   1.0000
     1.0000   1.0000   1.0000   1.0000   1.0000   1.0000   1.0000   1.0000
     1.0000   1.0000   1.0000   1.0000   1.0000   1.0000   1.0000   1.0000
     1.0000   1.0000   1.0000   1.0000   1.0000   1.0000   1.0000   1.0000
     1.0000   1.0000   1.0000   1.0000   1.0000   1.0000   1.0000   1.0000
     1.0000   1.0000   1.0000   1.0000   1.0000   1.0000   1.0000   1.0000
     1.0000   1.0000   1.0000   1.0000   1.0000   1.0000   1.0000   1.0000
     1.0000   1.0000   1.0000   1.0000   1.0000   1.0000   1.0000   1.0000
     1.0000   1.0000   1.0000   1.0000   1.0000   1.0000   1.0000   1.0000
     1.0000   1.0000   1.0000   1.0000   1.0000   1.0000   1.0000   1.0000
     1.0000   1.0000   1.0000   1.0000   1.0000   1.0000   1.0000   1.0000
     1.0000   1.0000   1.0000   1.0000   1.0000   1.0000   1.0000   1.0000
     1.0000   1.0000   1.0000   1.0000   1.0000   1.0000   1.0000   1.0000
     1.0000   1.0000   1.0000   1.0000   1.0000   1.0000   1.0000   1.0000
     1.0000   1.0000   1.0000   1.0000   1.0000   1.0000   1.0000   1.0000
     1.0000   1.0000   1.0000   1.0000   1.0000   1.0000   1.0000   1.0000
     1.0000   1.0000   1.0000   1.0000   1.0000   1.0000   1.0000   1.0000
     1.0000   1.0000   1.0000   1.0000   1.0000   1.0000   1.0000   1.0000
     1.0000   1.0000   1.0000   1.0000   1.0000   1.0000   1.0000   1.0000
     1.0000   1.0000   1.0000   1.0000   1.0000   1.0000   1.0000   1.0000
     1.0000   1.0000   1.0000   1.0000   1.0000   1.0000   1.0000   1.0000
     1.0000   1.0000   1.0000   1.0000   1.0000   1.0000   1.0000   1.0000
     1.0000   1.0000   1.0000   1.0000   1.0000   1.0000   1.0000   1.0000
     1.0000   1.0000   1.0000   1.0000   1.0000   1.0000   1.0000   1.0000
     1.0000   1.0000   1.0000   1.0000   1.0000   1.0000   1.0000   1.0000
     1.0000   1.0000   1.0000   1.0000   1.0000   1.0000   1.0000   1.0000
     1.0000   1.0000   1.0000   1.0000   1.0000   1.0000   1.0000   1.0000
     1.0000   1.0000   1.0000   1.0000   1.0000   1.0000   1.0000   1.0000
     1.0000   1.0000   1.0000   1.0000   1.0000   1.0000   1.0000   1.0000
     1.0000   1.0000   1.0000   1.0000   1.0000   1.0000   1.0000   1.0000
     1.0000   1.0000   1.0000   1.0000   1.0000   1.0000   1.0000   1.0000
     1.0000   1.0000   1.0000   1.0000   1.0000   1.0000   1.0000   1.0000
     1.0000   1.0000   1.0000   1.0000   1.0000   1.0000   1.0000   1.0000
     1.0000   1.0000   1.0000   1.0000   1.0000   1.0000   1.0000   1.0000
     1.0000   1.0000   1.0000   1.0000   1.0000   1.0000   1.0000   1.0000
     1.0000   1.0000   1.0000   1.0000   1.0000   1.0000   1.0000   1.0000
     1.0000   1.0000   1.0000   1.0000   1.0000   1.0000   1.0000   1.0000
     1.0000   1.0000   1.0000   1.0000   1.0000   1.0000   1.0000   1.0000
     1.0000   1.0000   1.0000   1.0000   1.0000   1.0000   1.0000   1.0000
     1.0000   1.0000   1.0000   1.0000   1.0000   1.0000   1.0000   1.0000
     1.0000   1.0000   1.0000   1.0000   1.0000   1.0000   1.0000   1.0000
     1.0000   1.0000   1.0000   1.0000   1.0000   1.0000   1.0000   1.0000
     1.0000   1.0000   1.0000   1.0000   1.0000   1.0000   1.0000   1.0000
     1.0000   1.0000   1.0000   1.0000   1.0000   1.0000   1.0000   1.0000
     1.0000   1.0000   1.0000   1.0000   1.0000   1.0000   1.0000   1.0000
     1.0000   1.0000   1.0000   1.0000   1.0000   1.0000   1.0000   1.0000
     1.0000   1.0000   1.0000   1.0000   1.0000   1.0000   1.0000   1.0000
     1.0000   1.0000   1.0000   1.0000   1.0000   1.0000   1.0000   1.0000
     1.0000   1.0000   1.0000   1.0000   1.0000   1.0000   1.0000   1.0000
     1.0000   1.0000   1.0000   1.0000   1.0000   1.0000   1.0000   1.0000
     1.0000   1.0000   1.0000   1.0000   1.0000   1.0000   1.0000   1.0000
     1.0000   1.0000   1.0000   1.0000   1.0000   1.0000   1.0000   1.0000
     1.0000   1.0000   1.0000   1.0000   1.0000   1.0000   1.0000   1.0000
     1.0000   1.0000   1.0000   1.0000   1.0000   1.0000   1.0000   1.0000
     1.0000   1.0000   1.0000   1.0000   1.0000   1.0000   1.0000   1.0000
     1.0000   1.0000   1.0000   1.0000   1.0000   1.0000   1.0000   1.0000
     1.0000   1.0000   1.0000   1.0000   1.0000   1.0000   1.0000   1.0000
     1.0000   1.0000   1.0000   1.0000   1.0000   1.0000   1.0000   1.0000
     1.0000   1.0000   1.0000   1.0000   1.0000   1.0000   1.0000   1.0000
     1.0000   1.0000   1.0000   1.0000   1.0000   1.0000   1.0000   1.0000
     1.0000   1.0000   1.0000   1.0000   1.0000   1.0000   1.0000   1.0000
     1.0000   1.0000   1.0000   1.0000   1.0000   1.0000   1.0000   1.0000
     1.0000   1.0000   1.0000   1.0000   1.0000   1.0000   1.0000   1.0000
     1.0000   1.0000   1.0000   1.0000   1.0000   1.0000   1.0000   1.0000
     1.0000   1.0000   1.0000   1.0000   1.0000   1.0000   1.0000   1.0000
     1.0000   1.0000   1.0000   1.0000   1.0000   1.0000   1.0000   1.0000
     1.0000   1.0000   1.0000   1.0000   1.0000   1.0000   1.0000   1.0000
     1.0000   1.0000   1.0000   1.0000   1.0000   1.0000   1.0000   1.0000
     1.0000   1.0000   1.0000   1.0000   1.0000   1.0000   1.0000   1.0000
     1.0000   1.0000   1.0000   1.0000   1.0000   1.0000   1.0000   1.0000
     1.0000   1.0000   1.0000   1.0000   1.0000   1.0000   1.0000   1.0000
     1.0000   1.0000   1.0000   1.0000   1.0000   1.0000   1.0000   1.0000
     1.0000   1.0000   1.0000   1.0000   1.0000   1.0000   1.0000   1.0000
     1.0000   1.0000   1.0000   1.0000   1.0000   1.0000   1.0000   1.0000
     1.0000   1.0000   1.0000   1.0000   1.0000   1.0000   1.0000   1.0000
     1.0000   1.0000   1.0000   1.0000   1.0000   1.0000   1.0000   1.0000
     1.0000   1.0000   1.0000   1.0000   1.0000   1.0000   1.0000   1.0000
     1.0000   1.0000   1.0000   1.0000   1.0000   1.0000   1.0000   1.0000
     1.0000   1.0000   1.0000   1.0000   1.0000   1.0000   1.0000   1.0000
     1.0000   1.0000   1.0000   1.0000   1.0000   1.0000   1.0000   1.0000
     1.0000   1.0000   1.0000   1.0000   1.0000   1.0000   1.0000   1.0000
     1.0000   1.0000   1.0000   1.0000   1.0000   1.0000   1.0000   1.0000
     1.0000   1.0000   1.0000   1.0000   1.0000   1.0000   1.0000   1.0000
     1.0000   1.0000   1.0000   1.0000   1.0000   1.0000   1.0000   1.0000
     1.0000   1.0000   1.0000   1.0000   1.0000   1.0000   1.0000   1.0000
     1.0000   1.0000   1.0000   1.0000   1.0000   1.0000   1.0000   1.0000
     1.0000   1.0000   1.0000   1.0000   1.0000   1.0000   1.0000   1.0000
     1.0000   1.0000   1.0000   1.0000   1.0000   1.0000   1.0000   1.0000
     1.0000   1.0000   1.0000   1.0000   1.0000   1.0000   1.0000   1.0000
     1.0000   1.0000   1.0000   1.0000   1.0000   1.0000   1.0000   1.0000
     1.0000   1.0000   1.0000   1.0000   1.0000   1.0000   1.0000   1.0000
     1.0000   1.0000   1.0000   1.0000   1.0000   1.0000   1.0000   1.0000
     1.0000   1.0000   1.0000   1.0000   1.0000   1.0000   1.0000   1.0000
     1.0000   1.0000   1.0000   1.0000   1.0000   1.0000   1.0000   1.0000
     1.0000   1.0000   1.0000   1.0000   1.0000   1.0000   1.0000   1.0000
     1.0000   1.0000   1.0000   1.0000   1.0000   1.0000   1.0000   1.0000
     1.0000   1.0000   1.0000   1.0000   1.0000   1.0000   1.0000   1.0000
     1.0000   1.0000   1.0000   1.0000   1.0000   1.0000   1.0000   1.0000
     1.0000   1.0000   1.0000   1.0000   1.0000   1.0000   1.0000   1.0000
     1.0000   1.0000   1.0000   1.0000   1.0000   1.0000   1.0000   1.0000
     1.0000   1.0000   1.0000   1.0000   1.0000   1.0000   1.0000   1.0000
     1.0000   1.0000   1.0000   1.0000   1.0000   1.0000   1.0000   1.0000
     1.0000   1.0000   1.0000   1.0000   1.0000   1.0000   1.0000   1.0000
     1.0000   1.0000   1.0000   1.0000   1.0000   1.0000   1.0000   1.0000
     1.0000   1.0000   1.0000   1.0000   1.0000   1.0000   1.0000   1.0000
     1.0000   1.0000   1.0000   1.0000   1.0000   1.0000   1.0000   1.0000
     1.0000   1.0000   1.0000   1.0000   1.0000   1.0000   1.0000   1.0000
     1.0000   1.0000   1.0000   1.0000   1.0000   1.0000   1.0000   1.0000
     1.0000   1.0000   1.0000   1.0000   1.0000   1.0000   1.0000   1.0000
     1.0000   1.0000   1.0000   1.0000   1.0000   1.0000   1.0000   1.0000
     1.0000   1.0000   1.0000   1.0000   1.0000   1.0000   1.0000   1.0000
     1.0000   1.0000   1.0000   1.0000   1.0000   1.0000   1.0000   1.0000
     1.0000   1.0000   1.0000   1.0000   1.0000   1.0000   1.0000   1.0000
     1.0000   1.0000   1.0000   1.0000   1.0000   1.0000   1.0000   1.0000
     1.0000   1.0000   1.0000   1.0000   1.0000   1.0000   1.0000   1.0000
     1.0000   1.0000   1.0000   1.0000   1.0000   1.0000   1.0000   1.0000
     1.0000   1.0000   1.0000   1.0000   1.0000   1.0000   1.0000   1.0000
     1.0000   1.0000   1.0000   1.0000   1.0000   1.0000   1.0000   1.0000
     1.0000   1.0000   1.0000   1.0000   1.0000   1.0000   1.0000   1.0000
     1.0000   1.0000   1.0000   1.0000   1.0000   1.0000   1.0000   1.0000
     1.0000   1.0000   1.0000   1.0000   1.0000   1.0000   1.0000   1.0000
     1.0000   1.0000   1.0000   1.0000   1.0000   0.0000   1.0000   0.0000
     0.0000   0.0000   0.0000   0.0000   0.0000   0.0000   0.0000   0.0000

     highest occupied, lowest unoccupied level (ev):    15.7040   14.9338

!    total energy              =   -5828.97811545 Ry
     estimated scf accuracy    <          7.0E-11 Ry

     The total energy is the sum of the following terms:
     one-electron contribution =    2011.40688113 Ry
     hartree contribution      =     505.46378383 Ry
     xc contribution           =   -1820.32215495 Ry
     ewald contribution        =   -6525.52662545 Ry

     total magnetization       =     2.00 Bohr mag/cell
     absolute magnetization    =     2.28 Bohr mag/cell

     convergence has been achieved in  29 iterations

 %%%%%%%%%%%%%%%%%%%%%%%%%%%%%%%%%%%%%%%%%%%%%%%%%%%%%%%%%%%%%%%%%%%%%%%%%%%%%%
     Error in routine write_rhog (2):
     error writing file ./pwscf.save/charge-density
 %%%%%%%%%%%%%%%%%%%%%%%%%%%%%%%%%%%%%%%%%%%%%%%%%%%%%%%%%%%%%%%%%%%%%%%%%%%%%%

     stopping ...

 %%%%%%%%%%%%%%%%%%%%%%%%%%%%%%%%%%%%%%%%%%%%%%%%%%%%%%%%%%%%%%%%%%%%%%%%%%%%%%
     Error in routine write_rhog (2):
     error writing file ./pwscf.save/charge-density
 %%%%%%%%%%%%%%%%%%%%%%%%%%%%%%%%%%%%%%%%%%%%%%%%%%%%%%%%%%%%%%%%%%%%%%%%%%%%%%

     stopping ...

 %%%%%%%%%%%%%%%%%%%%%%%%%%%%%%%%%%%%%%%%%%%%%%%%%%%%%%%%%%%%%%%%%%%%%%%%%%%%%%
     Error in routine write_rhog (2):
     error writing file ./pwscf.save/charge-density
 %%%%%%%%%%%%%%%%%%%%%%%%%%%%%%%%%%%%%%%%%%%%%%%%%%%%%%%%%%%%%%%%%%%%%%%%%%%%%%

     stopping ...

 %%%%%%%%%%%%%%%%%%%%%%%%%%%%%%%%%%%%%%%%%%%%%%%%%%%%%%%%%%%%%%%%%%%%%%%%%%%%%%
     Error in routine write_rhog (2):
     error writing file ./pwscf.save/charge-density
 %%%%%%%%%%%%%%%%%%%%%%%%%%%%%%%%%%%%%%%%%%%%%%%%%%%%%%%%%%%%%%%%%%%%%%%%%%%%%%

     stopping ...

 %%%%%%%%%%%%%%%%%%%%%%%%%%%%%%%%%%%%%%%%%%%%%%%%%%%%%%%%%%%%%%%%%%%%%%%%%%%%%%
     Error in routine write_rhog (2):
     error writing file ./pwscf.save/charge-density
 %%%%%%%%%%%%%%%%%%%%%%%%%%%%%%%%%%%%%%%%%%%%%%%%%%%%%%%%%%%%%%%%%%%%%%%%%%%%%%

     stopping ...

 %%%%%%%%%%%%%%%%%%%%%%%%%%%%%%%%%%%%%%%%%%%%%%%%%%%%%%%%%%%%%%%%%%%%%%%%%%%%%%
     Error in routine write_rhog (2):
     error writing file ./pwscf.save/charge-density
 %%%%%%%%%%%%%%%%%%%%%%%%%%%%%%%%%%%%%%%%%%%%%%%%%%%%%%%%%%%%%%%%%%%%%%%%%%%%%%

     stopping ...

 %%%%%%%%%%%%%%%%%%%%%%%%%%%%%%%%%%%%%%%%%%%%%%%%%%%%%%%%%%%%%%%%%%%%%%%%%%%%%%
     Error in routine write_rhog (2):
     error writing file ./pwscf.save/charge-density
 %%%%%%%%%%%%%%%%%%%%%%%%%%%%%%%%%%%%%%%%%%%%%%%%%%%%%%%%%%%%%%%%%%%%%%%%%%%%%%

     stopping ...

 %%%%%%%%%%%%%%%%%%%%%%%%%%%%%%%%%%%%%%%%%%%%%%%%%%%%%%%%%%%%%%%%%%%%%%%%%%%%%%
     Error in routine write_rhog (2):
     error writing file ./pwscf.save/charge-density
 %%%%%%%%%%%%%%%%%%%%%%%%%%%%%%%%%%%%%%%%%%%%%%%%%%%%%%%%%%%%%%%%%%%%%%%%%%%%%%

     stopping ...

 %%%%%%%%%%%%%%%%%%%%%%%%%%%%%%%%%%%%%%%%%%%%%%%%%%%%%%%%%%%%%%%%%%%%%%%%%%%%%%
     Error in routine write_rhog (2):
     error writing file ./pwscf.save/charge-density
 %%%%%%%%%%%%%%%%%%%%%%%%%%%%%%%%%%%%%%%%%%%%%%%%%%%%%%%%%%%%%%%%%%%%%%%%%%%%%%

     stopping ...

 %%%%%%%%%%%%%%%%%%%%%%%%%%%%%%%%%%%%%%%%%%%%%%%%%%%%%%%%%%%%%%%%%%%%%%%%%%%%%%
     Error in routine write_rhog (2):
     error writing file ./pwscf.save/charge-density
 %%%%%%%%%%%%%%%%%%%%%%%%%%%%%%%%%%%%%%%%%%%%%%%%%%%%%%%%%%%%%%%%%%%%%%%%%%%%%%

     stopping ...

 %%%%%%%%%%%%%%%%%%%%%%%%%%%%%%%%%%%%%%%%%%%%%%%%%%%%%%%%%%%%%%%%%%%%%%%%%%%%%%
     Error in routine write_rhog (2):
     error writing file ./pwscf.save/charge-density
 %%%%%%%%%%%%%%%%%%%%%%%%%%%%%%%%%%%%%%%%%%%%%%%%%%%%%%%%%%%%%%%%%%%%%%%%%%%%%%

     stopping ...

 %%%%%%%%%%%%%%%%%%%%%%%%%%%%%%%%%%%%%%%%%%%%%%%%%%%%%%%%%%%%%%%%%%%%%%%%%%%%%%
     Error in routine write_rhog (2):
     error writing file ./pwscf.save/charge-density
 %%%%%%%%%%%%%%%%%%%%%%%%%%%%%%%%%%%%%%%%%%%%%%%%%%%%%%%%%%%%%%%%%%%%%%%%%%%%%%

     stopping ...

 %%%%%%%%%%%%%%%%%%%%%%%%%%%%%%%%%%%%%%%%%%%%%%%%%%%%%%%%%%%%%%%%%%%%%%%%%%%%%%
     Error in routine write_rhog (2):
     error writing file ./pwscf.save/charge-density
 %%%%%%%%%%%%%%%%%%%%%%%%%%%%%%%%%%%%%%%%%%%%%%%%%%%%%%%%%%%%%%%%%%%%%%%%%%%%%%

     stopping ...

 %%%%%%%%%%%%%%%%%%%%%%%%%%%%%%%%%%%%%%%%%%%%%%%%%%%%%%%%%%%%%%%%%%%%%%%%%%%%%%
     Error in routine write_rhog (2):
     error writing file ./pwscf.save/charge-density
 %%%%%%%%%%%%%%%%%%%%%%%%%%%%%%%%%%%%%%%%%%%%%%%%%%%%%%%%%%%%%%%%%%%%%%%%%%%%%%

     stopping ...

 %%%%%%%%%%%%%%%%%%%%%%%%%%%%%%%%%%%%%%%%%%%%%%%%%%%%%%%%%%%%%%%%%%%%%%%%%%%%%%
     Error in routine write_rhog (2):
     error writing file ./pwscf.save/charge-density
 %%%%%%%%%%%%%%%%%%%%%%%%%%%%%%%%%%%%%%%%%%%%%%%%%%%%%%%%%%%%%%%%%%%%%%%%%%%%%%

     stopping ...

 %%%%%%%%%%%%%%%%%%%%%%%%%%%%%%%%%%%%%%%%%%%%%%%%%%%%%%%%%%%%%%%%%%%%%%%%%%%%%%
     Error in routine write_rhog (2):
     error writing file ./pwscf.save/charge-density
 %%%%%%%%%%%%%%%%%%%%%%%%%%%%%%%%%%%%%%%%%%%%%%%%%%%%%%%%%%%%%%%%%%%%%%%%%%%%%%

     stopping ...

 %%%%%%%%%%%%%%%%%%%%%%%%%%%%%%%%%%%%%%%%%%%%%%%%%%%%%%%%%%%%%%%%%%%%%%%%%%%%%%
     Error in routine write_rhog (2):
     error writing file ./pwscf.save/charge-density
 %%%%%%%%%%%%%%%%%%%%%%%%%%%%%%%%%%%%%%%%%%%%%%%%%%%%%%%%%%%%%%%%%%%%%%%%%%%%%%

     stopping ...

 %%%%%%%%%%%%%%%%%%%%%%%%%%%%%%%%%%%%%%%%%%%%%%%%%%%%%%%%%%%%%%%%%%%%%%%%%%%%%%
     Error in routine write_rhog (2):
     error writing file ./pwscf.save/charge-density
 %%%%%%%%%%%%%%%%%%%%%%%%%%%%%%%%%%%%%%%%%%%%%%%%%%%%%%%%%%%%%%%%%%%%%%%%%%%%%%

     stopping ...

 %%%%%%%%%%%%%%%%%%%%%%%%%%%%%%%%%%%%%%%%%%%%%%%%%%%%%%%%%%%%%%%%%%%%%%%%%%%%%%
     Error in routine write_rhog (2):
     error writing file ./pwscf.save/charge-density
 %%%%%%%%%%%%%%%%%%%%%%%%%%%%%%%%%%%%%%%%%%%%%%%%%%%%%%%%%%%%%%%%%%%%%%%%%%%%%%

     stopping ...

 %%%%%%%%%%%%%%%%%%%%%%%%%%%%%%%%%%%%%%%%%%%%%%%%%%%%%%%%%%%%%%%%%%%%%%%%%%%%%%
     Error in routine write_rhog (2):
     error writing file ./pwscf.save/charge-density
 %%%%%%%%%%%%%%%%%%%%%%%%%%%%%%%%%%%%%%%%%%%%%%%%%%%%%%%%%%%%%%%%%%%%%%%%%%%%%%

     stopping ...

 %%%%%%%%%%%%%%%%%%%%%%%%%%%%%%%%%%%%%%%%%%%%%%%%%%%%%%%%%%%%%%%%%%%%%%%%%%%%%%
     Error in routine write_rhog (2):
     error writing file ./pwscf.save/charge-density
 %%%%%%%%%%%%%%%%%%%%%%%%%%%%%%%%%%%%%%%%%%%%%%%%%%%%%%%%%%%%%%%%%%%%%%%%%%%%%%

     stopping ...

 %%%%%%%%%%%%%%%%%%%%%%%%%%%%%%%%%%%%%%%%%%%%%%%%%%%%%%%%%%%%%%%%%%%%%%%%%%%%%%
     Error in routine write_rhog (2):
     error writing file ./pwscf.save/charge-density
 %%%%%%%%%%%%%%%%%%%%%%%%%%%%%%%%%%%%%%%%%%%%%%%%%%%%%%%%%%%%%%%%%%%%%%%%%%%%%%

     stopping ...

 %%%%%%%%%%%%%%%%%%%%%%%%%%%%%%%%%%%%%%%%%%%%%%%%%%%%%%%%%%%%%%%%%%%%%%%%%%%%%%
     Error in routine write_rhog (2):
     error writing file ./pwscf.save/charge-density
 %%%%%%%%%%%%%%%%%%%%%%%%%%%%%%%%%%%%%%%%%%%%%%%%%%%%%%%%%%%%%%%%%%%%%%%%%%%%%%

     stopping ...

 %%%%%%%%%%%%%%%%%%%%%%%%%%%%%%%%%%%%%%%%%%%%%%%%%%%%%%%%%%%%%%%%%%%%%%%%%%%%%%
     Error in routine write_rhog (2):
     error writing file ./pwscf.save/charge-density
 %%%%%%%%%%%%%%%%%%%%%%%%%%%%%%%%%%%%%%%%%%%%%%%%%%%%%%%%%%%%%%%%%%%%%%%%%%%%%%

     stopping ...

 %%%%%%%%%%%%%%%%%%%%%%%%%%%%%%%%%%%%%%%%%%%%%%%%%%%%%%%%%%%%%%%%%%%%%%%%%%%%%%
     Error in routine write_rhog (2):
     error writing file ./pwscf.save/charge-density
 %%%%%%%%%%%%%%%%%%%%%%%%%%%%%%%%%%%%%%%%%%%%%%%%%%%%%%%%%%%%%%%%%%%%%%%%%%%%%%

     stopping ...

 %%%%%%%%%%%%%%%%%%%%%%%%%%%%%%%%%%%%%%%%%%%%%%%%%%%%%%%%%%%%%%%%%%%%%%%%%%%%%%
     Error in routine write_rhog (2):
     error writing file ./pwscf.save/charge-density
 %%%%%%%%%%%%%%%%%%%%%%%%%%%%%%%%%%%%%%%%%%%%%%%%%%%%%%%%%%%%%%%%%%%%%%%%%%%%%%

     stopping ...

 %%%%%%%%%%%%%%%%%%%%%%%%%%%%%%%%%%%%%%%%%%%%%%%%%%%%%%%%%%%%%%%%%%%%%%%%%%%%%%
     Error in routine write_rhog (2):
     error writing file ./pwscf.save/charge-density
 %%%%%%%%%%%%%%%%%%%%%%%%%%%%%%%%%%%%%%%%%%%%%%%%%%%%%%%%%%%%%%%%%%%%%%%%%%%%%%

     stopping ...

 %%%%%%%%%%%%%%%%%%%%%%%%%%%%%%%%%%%%%%%%%%%%%%%%%%%%%%%%%%%%%%%%%%%%%%%%%%%%%%
     Error in routine write_rhog (2):
     error writing file ./pwscf.save/charge-density
 %%%%%%%%%%%%%%%%%%%%%%%%%%%%%%%%%%%%%%%%%%%%%%%%%%%%%%%%%%%%%%%%%%%%%%%%%%%%%%

     stopping ...

 %%%%%%%%%%%%%%%%%%%%%%%%%%%%%%%%%%%%%%%%%%%%%%%%%%%%%%%%%%%%%%%%%%%%%%%%%%%%%%
     Error in routine write_rhog (2):
     error writing file ./pwscf.save/charge-density
 %%%%%%%%%%%%%%%%%%%%%%%%%%%%%%%%%%%%%%%%%%%%%%%%%%%%%%%%%%%%%%%%%%%%%%%%%%%%%%

     stopping ...

 %%%%%%%%%%%%%%%%%%%%%%%%%%%%%%%%%%%%%%%%%%%%%%%%%%%%%%%%%%%%%%%%%%%%%%%%%%%%%%
     Error in routine write_rhog (2):
     error writing file ./pwscf.save/charge-density
 %%%%%%%%%%%%%%%%%%%%%%%%%%%%%%%%%%%%%%%%%%%%%%%%%%%%%%%%%%%%%%%%%%%%%%%%%%%%%%

     stopping ...

 %%%%%%%%%%%%%%%%%%%%%%%%%%%%%%%%%%%%%%%%%%%%%%%%%%%%%%%%%%%%%%%%%%%%%%%%%%%%%%
     Error in routine write_rhog (2):
     error writing file ./pwscf.save/charge-density
 %%%%%%%%%%%%%%%%%%%%%%%%%%%%%%%%%%%%%%%%%%%%%%%%%%%%%%%%%%%%%%%%%%%%%%%%%%%%%%

     stopping ...

 %%%%%%%%%%%%%%%%%%%%%%%%%%%%%%%%%%%%%%%%%%%%%%%%%%%%%%%%%%%%%%%%%%%%%%%%%%%%%%
     Error in routine write_rhog (2):
     error writing file ./pwscf.save/charge-density
 %%%%%%%%%%%%%%%%%%%%%%%%%%%%%%%%%%%%%%%%%%%%%%%%%%%%%%%%%%%%%%%%%%%%%%%%%%%%%%

     stopping ...

 %%%%%%%%%%%%%%%%%%%%%%%%%%%%%%%%%%%%%%%%%%%%%%%%%%%%%%%%%%%%%%%%%%%%%%%%%%%%%%
     Error in routine write_rhog (2):
     error writing file ./pwscf.save/charge-density
 %%%%%%%%%%%%%%%%%%%%%%%%%%%%%%%%%%%%%%%%%%%%%%%%%%%%%%%%%%%%%%%%%%%%%%%%%%%%%%

     stopping ...

 %%%%%%%%%%%%%%%%%%%%%%%%%%%%%%%%%%%%%%%%%%%%%%%%%%%%%%%%%%%%%%%%%%%%%%%%%%%%%%
     Error in routine write_rhog (2):
     error writing file ./pwscf.save/charge-density
 %%%%%%%%%%%%%%%%%%%%%%%%%%%%%%%%%%%%%%%%%%%%%%%%%%%%%%%%%%%%%%%%%%%%%%%%%%%%%%

     stopping ...

 %%%%%%%%%%%%%%%%%%%%%%%%%%%%%%%%%%%%%%%%%%%%%%%%%%%%%%%%%%%%%%%%%%%%%%%%%%%%%%
     Error in routine write_rhog (2):
     error writing file ./pwscf.save/charge-density
 %%%%%%%%%%%%%%%%%%%%%%%%%%%%%%%%%%%%%%%%%%%%%%%%%%%%%%%%%%%%%%%%%%%%%%%%%%%%%%

     stopping ...

 %%%%%%%%%%%%%%%%%%%%%%%%%%%%%%%%%%%%%%%%%%%%%%%%%%%%%%%%%%%%%%%%%%%%%%%%%%%%%%
     Error in routine write_rhog (2):
     error writing file ./pwscf.save/charge-density
 %%%%%%%%%%%%%%%%%%%%%%%%%%%%%%%%%%%%%%%%%%%%%%%%%%%%%%%%%%%%%%%%%%%%%%%%%%%%%%

     stopping ...

 %%%%%%%%%%%%%%%%%%%%%%%%%%%%%%%%%%%%%%%%%%%%%%%%%%%%%%%%%%%%%%%%%%%%%%%%%%%%%%
     Error in routine write_rhog (2):
     error writing file ./pwscf.save/charge-density
 %%%%%%%%%%%%%%%%%%%%%%%%%%%%%%%%%%%%%%%%%%%%%%%%%%%%%%%%%%%%%%%%%%%%%%%%%%%%%%

     stopping ...

 %%%%%%%%%%%%%%%%%%%%%%%%%%%%%%%%%%%%%%%%%%%%%%%%%%%%%%%%%%%%%%%%%%%%%%%%%%%%%%
     Error in routine write_rhog (2):
     error writing file ./pwscf.save/charge-density
 %%%%%%%%%%%%%%%%%%%%%%%%%%%%%%%%%%%%%%%%%%%%%%%%%%%%%%%%%%%%%%%%%%%%%%%%%%%%%%

     stopping ...

 %%%%%%%%%%%%%%%%%%%%%%%%%%%%%%%%%%%%%%%%%%%%%%%%%%%%%%%%%%%%%%%%%%%%%%%%%%%%%%
     Error in routine write_rhog (2):
     error writing file ./pwscf.save/charge-density
 %%%%%%%%%%%%%%%%%%%%%%%%%%%%%%%%%%%%%%%%%%%%%%%%%%%%%%%%%%%%%%%%%%%%%%%%%%%%%%

     stopping ...

 %%%%%%%%%%%%%%%%%%%%%%%%%%%%%%%%%%%%%%%%%%%%%%%%%%%%%%%%%%%%%%%%%%%%%%%%%%%%%%
     Error in routine write_rhog (2):
     error writing file ./pwscf.save/charge-density
 %%%%%%%%%%%%%%%%%%%%%%%%%%%%%%%%%%%%%%%%%%%%%%%%%%%%%%%%%%%%%%%%%%%%%%%%%%%%%%

     stopping ...

 %%%%%%%%%%%%%%%%%%%%%%%%%%%%%%%%%%%%%%%%%%%%%%%%%%%%%%%%%%%%%%%%%%%%%%%%%%%%%%
     Error in routine write_rhog (2):
     error writing file ./pwscf.save/charge-density
 %%%%%%%%%%%%%%%%%%%%%%%%%%%%%%%%%%%%%%%%%%%%%%%%%%%%%%%%%%%%%%%%%%%%%%%%%%%%%%

     stopping ...

 %%%%%%%%%%%%%%%%%%%%%%%%%%%%%%%%%%%%%%%%%%%%%%%%%%%%%%%%%%%%%%%%%%%%%%%%%%%%%%
     Error in routine write_rhog (2):
     error writing file ./pwscf.save/charge-density
 %%%%%%%%%%%%%%%%%%%%%%%%%%%%%%%%%%%%%%%%%%%%%%%%%%%%%%%%%%%%%%%%%%%%%%%%%%%%%%

     stopping ...

 %%%%%%%%%%%%%%%%%%%%%%%%%%%%%%%%%%%%%%%%%%%%%%%%%%%%%%%%%%%%%%%%%%%%%%%%%%%%%%
     Error in routine write_rhog (2):
     error writing file ./pwscf.save/charge-density
 %%%%%%%%%%%%%%%%%%%%%%%%%%%%%%%%%%%%%%%%%%%%%%%%%%%%%%%%%%%%%%%%%%%%%%%%%%%%%%

     stopping ...

 %%%%%%%%%%%%%%%%%%%%%%%%%%%%%%%%%%%%%%%%%%%%%%%%%%%%%%%%%%%%%%%%%%%%%%%%%%%%%%
     Error in routine write_rhog (2):
     error writing file ./pwscf.save/charge-density
 %%%%%%%%%%%%%%%%%%%%%%%%%%%%%%%%%%%%%%%%%%%%%%%%%%%%%%%%%%%%%%%%%%%%%%%%%%%%%%

     stopping ...

 %%%%%%%%%%%%%%%%%%%%%%%%%%%%%%%%%%%%%%%%%%%%%%%%%%%%%%%%%%%%%%%%%%%%%%%%%%%%%%
     Error in routine write_rhog (2):
     error writing file ./pwscf.save/charge-density
 %%%%%%%%%%%%%%%%%%%%%%%%%%%%%%%%%%%%%%%%%%%%%%%%%%%%%%%%%%%%%%%%%%%%%%%%%%%%%%

     stopping ...

 %%%%%%%%%%%%%%%%%%%%%%%%%%%%%%%%%%%%%%%%%%%%%%%%%%%%%%%%%%%%%%%%%%%%%%%%%%%%%%
     Error in routine write_rhog (2):
     error writing file ./pwscf.save/charge-density
 %%%%%%%%%%%%%%%%%%%%%%%%%%%%%%%%%%%%%%%%%%%%%%%%%%%%%%%%%%%%%%%%%%%%%%%%%%%%%%

     stopping ...

 %%%%%%%%%%%%%%%%%%%%%%%%%%%%%%%%%%%%%%%%%%%%%%%%%%%%%%%%%%%%%%%%%%%%%%%%%%%%%%
     Error in routine write_rhog (2):
     error writing file ./pwscf.save/charge-density
 %%%%%%%%%%%%%%%%%%%%%%%%%%%%%%%%%%%%%%%%%%%%%%%%%%%%%%%%%%%%%%%%%%%%%%%%%%%%%%

     stopping ...

 %%%%%%%%%%%%%%%%%%%%%%%%%%%%%%%%%%%%%%%%%%%%%%%%%%%%%%%%%%%%%%%%%%%%%%%%%%%%%%
     Error in routine write_rhog (2):
     error writing file ./pwscf.save/charge-density
 %%%%%%%%%%%%%%%%%%%%%%%%%%%%%%%%%%%%%%%%%%%%%%%%%%%%%%%%%%%%%%%%%%%%%%%%%%%%%%

     stopping ...
