
     Program PWSCF v.7.5 starts on  4Dec2025 at 23:29: 3 

     This program is part of the open-source Quantum ESPRESSO suite
     for quantum simulation of materials; please cite
         "P. Giannozzi et al., J. Phys.:Condens. Matter 21 395502 (2009);
         "P. Giannozzi et al., J. Phys.:Condens. Matter 29 465901 (2017);
         "P. Giannozzi et al., J. Chem. Phys. 152 154105 (2020);
          URL http://www.quantum-espresso.org", 
     in publications or presentations arising from this work. More details at
     http://www.quantum-espresso.org/quote

     Parallel version (MPI), running on    96 processors

     MPI processes distributed on     2 nodes
     173421 MiB available memory on the printing compute node when the environment starts
 
     Reading input from pw.in

     Current dimensions of program PWSCF are:
     Max number of different atomic species (ntypx) = 10
     Max number of k-points (npk) =  40000
     Max angular momentum in pseudopotentials (lmaxx) =  4

     gamma-point specific algorithms are used
     Message from routine setup:
     using ibrav=0 with symmetry is DISCOURAGED, use correct ibrav instead
 
     K-points division:     npool     =       2
     R & G space division:  proc/nbgrp/npool/nimage =      48
     Subspace diagonalization in iterative solution of the eigenvalue problem:
     one sub-group per band group will be used
     scalapack distributed-memory algorithm (size of sub-group:  6*  6 procs)

 
     Parallelization info
     --------------------
     sticks:   dense  smooth     PW     G-vecs:    dense   smooth      PW
     Min         384     384     96                39496    39496    4936
     Max         386     386     98                39521    39521    4949
     Sum       18505   18505   4637              1896521  1896521  237129
 
     Using Slab Decomposition
 


     bravais-lattice index     =            0
     lattice parameter (alat)  =      26.9702  a.u.
     unit-cell volume          =   19617.8366 (a.u.)^3
     number of atoms/cell      =          511
     number of atomic types    =            2
     number of electrons       =      2046.00 (up:1024.00, down:1022.00)
     number of Kohn-Sham states=         1032
     kinetic-energy cutoff     =      80.0000  Ry
     charge density cutoff     =     320.0000  Ry
     scf convergence threshold =      1.0E-10
     mixing beta               =       0.7000
     number of iterations used =            8  plain     mixing
     Exchange-correlation= PBE
                           (   1   4   3   4   0   0   0)

     celldm(1)=  26.970171  celldm(2)=   0.000000  celldm(3)=   0.000000
     celldm(4)=   0.000000  celldm(5)=   0.000000  celldm(6)=   0.000000

     crystal axes: (cart. coord. in units of alat)
               a(1) = (   1.000000   0.000000   0.000000 )  
               a(2) = (   0.000000   1.000000   0.000000 )  
               a(3) = (   0.000000   0.000000   1.000000 )  

     reciprocal axes: (cart. coord. in units 2 pi/alat)
               b(1) = (  1.000000  0.000000  0.000000 )  
               b(2) = (  0.000000  1.000000  0.000000 )  
               b(3) = (  0.000000  0.000000  1.000000 )  


     PseudoPot. # 1 for C  read from file:
     ./C_ONCV_PBE-1.2.upf
     MD5 check sum: d60b57d9bdca4133f5fde4b584ee909d
     Pseudo is Norm-conserving, Zval =  4.0
     Generated using ONCVPSP code by D. R. Hamann
     Using radial grid of  602 points,  4 beta functions with: 
                l(1) =   0
                l(2) =   0
                l(3) =   1
                l(4) =   1

     PseudoPot. # 2 for N  read from file:
     ./N_ONCV_PBE-1.2.upf
     MD5 check sum: 5312fdf34e96954e02a33bdc911c617a
     Pseudo is Norm-conserving, Zval =  5.0
     Generated using ONCVPSP code by D. R. Hamann
     Using radial grid of  602 points,  4 beta functions with: 
                l(1) =   0
                l(2) =   0
                l(3) =   1
                l(4) =   1

     atomic species   valence    mass     pseudopotential
     C                 4.00    12.01100     C ( 1.00)
     N                 5.00    14.00670     N ( 1.00)

     Starting magnetic structure 
     atomic species   magnetization
     C               0.000
     N               0.000

      2 Sym. Ops. (no inversion) found ( 1 have fractional translation)


                                    s                        frac. trans.

      isym =  1     identity                                     

 cryst.   s( 1) = (     1          0          0      )
                  (     0          1          0      )
                  (     0          0          1      )

 cart.    s( 1) = (  1.0000000  0.0000000  0.0000000 )
                  (  0.0000000  1.0000000  0.0000000 )
                  (  0.0000000  0.0000000  1.0000000 )


      isym =  2     inv. 180 deg rotation - cart. axis [0,1,-1]  

 cryst.   s( 2) = (     1          0          0      )    f =(  0.0000000 )
                  (     0          0          1      )       (  0.0000073 )
                  (     0          1          0      )       ( -0.0000073 )

 cart.    s( 2) = (  1.0000000  0.0000000  0.0000000 )    f =(  0.0000000 )
                  (  0.0000000  0.0000000  1.0000000 )       (  0.0000073 )
                  (  0.0000000  1.0000000  0.0000000 )       ( -0.0000073 )


   Cartesian axes

     site n.     atom                  positions (alat units)
         1        C      tau(   1) = (  -0.0000029  -0.0000003   0.0000070  )
         2        C      tau(   2) = (  -0.0000528  -0.0000327   0.2500151  )
         3        C      tau(   3) = (  -0.0000417  -0.0000157   0.5000074  )
         4        C      tau(   4) = (   0.0000462   0.0000326   0.7499964  )
         5        C      tau(   5) = (  -0.0000531   0.2500079  -0.0000250  )
         6        C      tau(   6) = (  -0.0000713   0.2499816   0.2499891  )
         7        C      tau(   7) = (  -0.0001096   0.2500421   0.4999928  )
         8        C      tau(   8) = (  -0.0000919   0.2500358   0.7499692  )
         9        C      tau(   9) = (  -0.0000417   0.5000001  -0.0000070  )
        10        C      tau(  10) = (  -0.0001098   0.4999849   0.2500505  )
        11        C      tau(  11) = (  -0.0000159   0.4999978   0.5000062  )
        12        C      tau(  12) = (   0.0000581   0.5000132   0.7499724  )
        13        C      tau(  13) = (   0.0000463   0.7499891   0.0000409  )
        14        C      tau(  14) = (  -0.0000916   0.7499610   0.2500442  )
        15        C      tau(  15) = (   0.0000581   0.7499641   0.5000211  )
        16        C      tau(  16) = (   0.0001956   0.7500221   0.7500301  )
        17        C      tau(  17) = (   0.2499957  -0.0000514  -0.0000422  )
        18        C      tau(  18) = (   0.2499452  -0.0000453   0.2499620  )
        19        C      tau(  19) = (   0.2500190  -0.0001154   0.4999782  )
        20        C      tau(  20) = (   0.2500331  -0.0001204   0.7499619  )
        21        C      tau(  21) = (   0.2499446   0.2499527  -0.0000357  )
        22        C      tau(  22) = (   0.2500041   0.2500287   0.2500380  )
        23        C      tau(  23) = (   0.2495177   0.2494906   0.5000585  )
        24        C      tau(  24) = (   0.2499804   0.2499501   0.7499554  )
        25        C      tau(  25) = (   0.2500192   0.4999695  -0.0001058  )
        26        C      tau(  26) = (   0.2495177   0.5000482   0.2495005  )
        27        C      tau(  27) = (   0.2504820   0.4998168   0.4998275  )
        28        C      tau(  28) = (   0.2498868   0.4997831   0.7501024  )
        29        C      tau(  29) = (   0.2500337   0.7499525  -0.0001088  )
        30        C      tau(  30) = (   0.2499816   0.7499444   0.2499617  )
        31        C      tau(  31) = (   0.2498867   0.7500921   0.4997934  )
        32        C      tau(  32) = (   0.2503620   0.7497205   0.7497312  )
        33        C      tau(  33) = (   0.4999907  -0.0000173  -0.0000082  )
        34        C      tau(  34) = (   0.4999651  -0.0000824   0.2500289  )
        35        C      tau(  35) = (   0.4999941  -0.0000354   0.5000064  )
        36        C      tau(  36) = (   0.5000215   0.0000179   0.7499933  )
        37        C      tau(  37) = (   0.4999649   0.2500206  -0.0000740  )
        38        C      tau(  38) = (   0.4999431   0.2495812   0.2495901  )
        39        C      tau(  39) = (   0.4998114   0.2502797   0.4998920  )
        40        C      tau(  40) = (   0.4998229   0.2497102   0.7502545  )
        41        C      tau(  41) = (   0.4999943   0.4999983  -0.0000269  )
        42        C      tau(  42) = (   0.4998119   0.4998816   0.2502899  )
        43        C      tau(  43) = (   0.5001168   0.5000601   0.7496092  )
        44        C      tau(  44) = (   0.5000219   0.7499844   0.0000279  )
        45        C      tau(  45) = (   0.4998237   0.7502453   0.2497196  )
        46        C      tau(  46) = (   0.5001172   0.7495999   0.5000695  )
        47        C      tau(  47) = (   0.5002993   0.7503454   0.7503544  )
        48        C      tau(  48) = (   0.7499921   0.0000500   0.0000572  )
        49        C      tau(  49) = (   0.7499509  -0.0000602   0.2500537  )
        50        C      tau(  50) = (   0.7499767   0.0000534   0.5000355  )
        51        C      tau(  51) = (   0.7500455   0.0001681   0.7500542  )
        52        C      tau(  52) = (   0.7499508   0.2500467  -0.0000530  )
        53        C      tau(  53) = (   0.7498989   0.2500060   0.2500134  )
        54        C      tau(  54) = (   0.7500138   0.2499111   0.4999125  )
        55        C      tau(  55) = (   0.7497653   0.2503173   0.7498046  )
        56        C      tau(  56) = (   0.7499767   0.5000285   0.0000609  )
        57        C      tau(  57) = (   0.7500135   0.4999035   0.2499205  )
        58        C      tau(  58) = (   0.7495427   0.5001231   0.5001327  )
        59        C      tau(  59) = (   0.7503700   0.5002889   0.7504045  )
        60        C      tau(  60) = (   0.7500456   0.7500470   0.0001757  )
        61        C      tau(  61) = (   0.7497647   0.7497957   0.2503264  )
        62        C      tau(  62) = (   0.7503697   0.7503961   0.5002973  )
        63        C      tau(  63) = (   0.7502532   0.7502474   0.7502549  )
        64        C      tau(  64) = (  -0.0000435   0.1249897   0.1249969  )
        65        C      tau(  65) = (  -0.0000696   0.1249798   0.3749916  )
        66        C      tau(  66) = (  -0.0000938   0.1250493   0.6249982  )
        67        C      tau(  67) = (  -0.0000308   0.1250275   0.8749777  )
        68        C      tau(  68) = (  -0.0000699   0.3749843   0.1249877  )
        69        C      tau(  69) = (  -0.0001029   0.3750138   0.3750220  )
        70        C      tau(  70) = (  -0.0000474   0.3750334   0.6249693  )
        71        C      tau(  71) = (  -0.0000540   0.3750114   0.8749679  )
        72        C      tau(  72) = (  -0.0000936   0.6249904   0.1250581  )
        73        C      tau(  73) = (  -0.0000476   0.6249611   0.3750418  )
        74        C      tau(  74) = (   0.0001140   0.6249898   0.6249981  )
        75        C      tau(  75) = (   0.0001264   0.6250155   0.8750229  )
        76        C      tau(  76) = (  -0.0000305   0.8749702   0.1250352  )
        77        C      tau(  77) = (  -0.0000536   0.8749596   0.3750191  )
        78        C      tau(  78) = (   0.0001263   0.8750144   0.6250229  )
        79        C      tau(  79) = (   0.0000981   0.8750104   0.8750179  )
        80        C      tau(  80) = (   0.2499599   0.1249762   0.1249850  )
        81        C      tau(  81) = (   0.2499588   0.1249123   0.3749802  )
        82        C      tau(  82) = (   0.2499030   0.1248437   0.6249937  )
        83        C      tau(  83) = (   0.2499789   0.1249441   0.8749653  )
        84        C      tau(  84) = (   0.2499589   0.3749714   0.1249212  )
        85        C      tau(  85) = (   0.2502106   0.3751263   0.3751364  )
        86        C      tau(  86) = (   0.2499667   0.3748475   0.6249217  )
        87        C      tau(  87) = (   0.2499471   0.3749386   0.8749946  )
        88        C      tau(  88) = (   0.2499039   0.6249834   0.1248552  )
        89        C      tau(  89) = (   0.2499673   0.6249105   0.3748588  )
        90        C      tau(  90) = (   0.2506155   0.6245196   0.6245299  )
        91        C      tau(  91) = (   0.2502903   0.6249158   0.8747224  )
        92        C      tau(  92) = (   0.2499799   0.8749555   0.1249549  )
        93        C      tau(  93) = (   0.2499480   0.8749839   0.3749490  )
        94        C      tau(  94) = (   0.2502903   0.8747115   0.6249254  )
        95        C      tau(  95) = (   0.2500855   0.8748875   0.8748976  )
        96        C      tau(  96) = (   0.4999751   0.1248391   0.1248472  )
        97        C      tau(  97) = (   0.4999328   0.1249839   0.3749869  )
        98        C      tau(  98) = (   0.4999276   0.1250536   0.6249377  )
        99        C      tau(  99) = (   0.4999459   0.1248970   0.8750899  )
       100        C      tau( 100) = (   0.4999329   0.3749785   0.1249924  )
       101        C      tau( 101) = (   0.5001297   0.3751861   0.3751965  )
       102        C      tau( 102) = (   0.4989913   0.3755690   0.6240958  )
       103        C      tau( 103) = (   0.4999843   0.3751071   0.8748273  )
       104        C      tau( 104) = (   0.4999287   0.6249279   0.1250638  )
       105        C      tau( 105) = (   0.4989918   0.6240865   0.3755785  )
       106        C      tau( 106) = (   0.5027117   0.6246800   0.6246892  )
       107        C      tau( 107) = (   0.5001172   0.6250061   0.8749726  )
       108        C      tau( 108) = (   0.4999465   0.8750804   0.1249069  )
       109        C      tau( 109) = (   0.4999848   0.8748185   0.3751161  )
       110        C      tau( 110) = (   0.5001171   0.8749636   0.6250146  )
       111        C      tau( 111) = (   0.5000883   0.8751090   0.8751180  )
       112        C      tau( 112) = (   0.7499539   0.1250011   0.1250080  )
       113        C      tau( 113) = (   0.7499592   0.1249715   0.3749978  )
       114        C      tau( 114) = (   0.7498726   0.1251564   0.6249594  )
       115        C      tau( 115) = (   0.7499466   0.1251533   0.8749448  )
       116        C      tau( 116) = (   0.7499590   0.3749906   0.1249791  )
       117        C      tau( 117) = (   0.7498452   0.3750042   0.3750130  )
       118        C      tau( 118) = (   0.7491749   0.3757600   0.6248355  )
       119        C      tau( 119) = (   0.7499044   0.3751149   0.8749191  )
       120        C      tau( 120) = (   0.7498726   0.6249515   0.1251647  )
       121        C      tau( 121) = (   0.7491753   0.6248262   0.3757693  )
       122        C      tau( 122) = (   0.7505138   0.6254002   0.6254089  )
       123        C      tau( 123) = (   0.7501978   0.6251544   0.8752644  )
       124        C      tau( 124) = (   0.7499466   0.8749373   0.1251610  )
       125        C      tau( 125) = (   0.7499042   0.8749114   0.3751225  )
       126        C      tau( 126) = (   0.7501975   0.8752567   0.6251615  )
       127        C      tau( 127) = (   0.7500955   0.8751338   0.8751409  )
       128        C      tau( 128) = (   0.1249709  -0.0000297   0.1249858  )
       129        C      tau( 129) = (   0.1249418  -0.0000490   0.3749804  )
       130        C      tau( 130) = (   0.1250421  -0.0001024   0.6249899  )
       131        C      tau( 131) = (   0.1250290  -0.0000420   0.8749677  )
       132        C      tau( 132) = (   0.1249574   0.2499847   0.1249926  )
       133        C      tau( 133) = (   0.1249258   0.2499959   0.3749879  )
       134        C      tau( 134) = (   0.1248823   0.2499082   0.6249858  )
       135        C      tau( 135) = (   0.1249575   0.2499796   0.8749617  )
       136        C      tau( 136) = (   0.1247900   0.5000038   0.1248071  )
       137        C      tau( 137) = (   0.1250272   0.4999606   0.3749843  )
       138        C      tau( 138) = (   0.1251515   0.4999103   0.6248828  )
       139        C      tau( 139) = (   0.1249525   0.4999403   0.8750279  )
       140        C      tau( 140) = (   0.1249777   0.7499652   0.1249782  )
       141        C      tau( 141) = (   0.1249525   0.7499830   0.3749635  )
       142        C      tau( 142) = (   0.1252093   0.7498295   0.6249081  )
       143        C      tau( 143) = (   0.1251695   0.7499258   0.8749000  )
       144        C      tau( 144) = (   0.3749613  -0.0000390   0.1249548  )
       145        C      tau( 145) = (   0.3749873  -0.0000964   0.3749985  )
       146        C      tau( 146) = (   0.3750284  -0.0000802   0.6249708  )
       147        C      tau( 147) = (   0.3750072  -0.0000763   0.8749687  )
       148        C      tau( 148) = (   0.3749428   0.2499784   0.1249307  )
       149        C      tau( 149) = (   0.3750513   0.2501004   0.3751210  )
       150        C      tau( 150) = (   0.3748804   0.2498315   0.6249869  )
       151        C      tau( 151) = (   0.3749522   0.2499119   0.8750226  )
       152        C      tau( 152) = (   0.3749551   0.4999669   0.1249730  )
       153        C      tau( 153) = (   0.3753484   0.5005441   0.3751735  )
       154        C      tau( 154) = (   0.3760729   0.4989342   0.6237687  )
       155        C      tau( 155) = (   0.3751393   0.4999602   0.8747951  )
       156        C      tau( 156) = (   0.3749600   0.7500222   0.1248961  )
       157        C      tau( 157) = (   0.3749793   0.7499748   0.3748931  )
       158        C      tau( 158) = (   0.3757987   0.7491759   0.6247366  )
       159        C      tau( 159) = (   0.3751265   0.7498776   0.8748657  )
       160        C      tau( 160) = (   0.6249822  -0.0000579   0.1250610  )
       161        C      tau( 161) = (   0.6249579  -0.0000377   0.3750420  )
       162        C      tau( 162) = (   0.6250086   0.0000804   0.6250202  )
       163        C      tau( 163) = (   0.6250265   0.0001047   0.8750491  )
       164        C      tau( 164) = (   0.6249469   0.2499414   0.1249171  )
       165        C      tau( 165) = (   0.6248493   0.2499335   0.3749245  )
       166        C      tau( 166) = (   0.6245816   0.2504191   0.6246759  )
       167        C      tau( 167) = (   0.6249440   0.2502562   0.8747914  )
       168        C      tau( 168) = (   0.6248900   0.4999572   0.1250920  )
       169        C      tau( 169) = (   0.6237145   0.4993569   0.3758403  )
       170        C      tau( 170) = (   0.6246935   0.5027133   0.6247950  )
       171        C      tau( 171) = (   0.6250248   0.5001022   0.8749969  )
       172        C      tau( 172) = (   0.6249335   0.7499034   0.1251387  )
       173        C      tau( 173) = (   0.6247745   0.7492669   0.3757429  )
       174        C      tau( 174) = (   0.6253934   0.7505358   0.6253931  )
       175        C      tau( 175) = (   0.6251582   0.7501904   0.8752557  )
       176        C      tau( 176) = (   0.8749618  -0.0000160   0.1250438  )
       177        C      tau( 177) = (   0.8749476  -0.0000267   0.3750276  )
       178        C      tau( 178) = (   0.8750331   0.0001144   0.6250337  )
       179        C      tau( 179) = (   0.8750228   0.0000890   0.8750300  )
       180        C      tau( 180) = (   0.8749341   0.2500042   0.1249944  )
       181        C      tau( 181) = (   0.8749341   0.2499900   0.3749963  )
       182        C      tau( 182) = (   0.8747245   0.2502855   0.6249666  )
       183        C      tau( 183) = (   0.8749101   0.2500843   0.8749348  )
       184        C      tau( 184) = (   0.8749882   0.4999739   0.1250001  )
       185        C      tau( 185) = (   0.8747647   0.5000033   0.3751563  )
       186        C      tau( 186) = (   0.8749654   0.5001105   0.6250314  )
       187        C      tau( 187) = (   0.8751237   0.5000874   0.8751317  )
       188        C      tau( 188) = (   0.8749193   0.7499561   0.1251620  )
       189        C      tau( 189) = (   0.8748805   0.7499070   0.3751261  )
       190        C      tau( 190) = (   0.8752623   0.7501881   0.6251571  )
       191        C      tau( 191) = (   0.8751444   0.7500859   0.8751358  )
       192        C      tau( 192) = (   0.1249705   0.1249777  -0.0000216  )
       193        C      tau( 193) = (   0.1249576   0.1249842   0.2499926  )
       194        C      tau( 194) = (   0.1247896   0.1247973   0.5000127  )
       195        C      tau( 195) = (   0.1249769   0.1249683   0.7499739  )
       196        C      tau( 196) = (   0.1249413   0.3749721  -0.0000399  )
       197        C      tau( 197) = (   0.1249257   0.3749792   0.2500047  )
       198        C      tau( 198) = (   0.1250273   0.3749750   0.4999699  )
       199        C      tau( 199) = (   0.1249517   0.3749538   0.7499929  )
       200        C      tau( 200) = (   0.1250425   0.6249815  -0.0000921  )
       201        C      tau( 201) = (   0.1248831   0.6249763   0.2499183  )
       202        C      tau( 202) = (   0.1251514   0.6248730   0.4999200  )
       203        C      tau( 203) = (   0.1252093   0.6248986   0.7498396  )
       204        C      tau( 204) = (   0.1250294   0.8749596  -0.0000331  )
       205        C      tau( 205) = (   0.1249584   0.8749527   0.2499887  )
       206        C      tau( 206) = (   0.1249530   0.8750180   0.4999494  )
       207        C      tau( 207) = (   0.1251694   0.8748901   0.7499345  )
       208        C      tau( 208) = (   0.3749609   0.1249449  -0.0000292  )
       209        C      tau( 209) = (   0.3749429   0.1249221   0.2499869  )
       210        C      tau( 210) = (   0.3749544   0.1249632   0.4999766  )
       211        C      tau( 211) = (   0.3749591   0.1248844   0.7500329  )
       212        C      tau( 212) = (   0.3749872   0.3749898  -0.0000876  )
       213        C      tau( 213) = (   0.3750514   0.3751107   0.2501106  )
       214        C      tau( 214) = (   0.3753480   0.3751635   0.5005542  )
       215        C      tau( 215) = (   0.3749786   0.3748828   0.7499847  )
       216        C      tau( 216) = (   0.3750290   0.6249617  -0.0000697  )
       217        C      tau( 217) = (   0.3748812   0.6249764   0.2498421  )
       218        C      tau( 218) = (   0.3760732   0.6237590   0.4989440  )
       219        C      tau( 219) = (   0.3757987   0.6247267   0.7491859  )
       220        C      tau( 220) = (   0.3750076   0.8749588  -0.0000653  )
       221        C      tau( 221) = (   0.3749530   0.8750120   0.2499227  )
       222        C      tau( 222) = (   0.3751394   0.8747856   0.4999696  )
       223        C      tau( 223) = (   0.3751264   0.8748550   0.7498872  )
       224        C      tau( 224) = (   0.6249822   0.1250534  -0.0000503  )
       225        C      tau( 225) = (   0.6249470   0.1249095   0.2499489  )
       226        C      tau( 226) = (   0.6248897   0.1250836   0.4999655  )
       227        C      tau( 227) = (   0.6249330   0.1251296   0.7499122  )
       228        C      tau( 228) = (   0.6249579   0.3750345  -0.0000301  )
       229        C      tau( 229) = (   0.6248494   0.3749157   0.2499424  )
       230        C      tau( 230) = (   0.6237138   0.3758307   0.4993666  )
       231        C      tau( 231) = (   0.6247741   0.3757340   0.7492756  )
       232        C      tau( 232) = (   0.6250089   0.6250126   0.0000886  )
       233        C      tau( 233) = (   0.6245820   0.6246658   0.2504293  )
       234        C      tau( 234) = (   0.6246939   0.6247861   0.5027222  )
       235        C      tau( 235) = (   0.6253936   0.6253844   0.7505449  )
       236        C      tau( 236) = (   0.6250266   0.8750411   0.0001129  )
       237        C      tau( 237) = (   0.6249443   0.8747834   0.2502645  )
       238        C      tau( 238) = (   0.6250248   0.8749889   0.5001101  )
       239        C      tau( 239) = (   0.6251581   0.8752478   0.7501980  )
       240        C      tau( 240) = (   0.8749618   0.1250369  -0.0000089  )
       241        C      tau( 241) = (   0.8749342   0.1249873   0.2500110  )
       242        C      tau( 242) = (   0.8749886   0.1249920   0.4999811  )
       243        C      tau( 243) = (   0.8749195   0.1251538   0.7499637  )
       244        C      tau( 244) = (   0.8749475   0.3750208  -0.0000192  )
       245        C      tau( 245) = (   0.8749340   0.3749888   0.2499978  )
       246        C      tau( 246) = (   0.8747648   0.3751473   0.5000120  )
       247        C      tau( 247) = (   0.8748810   0.3751178   0.7499153  )
       248        C      tau( 248) = (   0.8750332   0.6250268   0.0001222  )
       249        C      tau( 249) = (   0.8747238   0.6249581   0.2502947  )
       250        C      tau( 250) = (   0.8749652   0.6250230   0.5001190  )
       251        C      tau( 251) = (   0.8752624   0.6251497   0.7501957  )
       252        C      tau( 252) = (   0.8750228   0.8750230   0.0000963  )
       253        C      tau( 253) = (   0.8749100   0.8749271   0.2500917  )
       254        C      tau( 254) = (   0.8751235   0.8751241   0.5000944  )
       255        C      tau( 255) = (   0.8751443   0.8751285   0.7500928  )
       256        C      tau( 256) = (   0.1874570   0.0624756   0.1874827  )
       257        C      tau( 257) = (   0.1874314   0.0623908   0.4374790  )
       258        C      tau( 258) = (   0.1874924   0.0623902   0.6874802  )
       259        C      tau( 259) = (   0.1874952   0.0624610   0.9374694  )
       260        C      tau( 260) = (   0.1874576   0.3124778   0.1874866  )
       261        C      tau( 261) = (   0.1874555   0.3124148   0.4374588  )
       262        C      tau( 262) = (   0.1874304   0.3124540   0.6874512  )
       263        C      tau( 263) = (   0.1874488   0.3124669   0.9374783  )
       264        C      tau( 264) = (   0.1871660   0.5624177   0.1871639  )
       265        C      tau( 265) = (   0.1876436   0.5623676   0.4374451  )
       266        C      tau( 266) = (   0.1877533   0.5623617   0.6873263  )
       267        C      tau( 267) = (   0.1876020   0.5624509   0.9373543  )
       268        C      tau( 268) = (   0.1874815   0.8124498   0.1874798  )
       269        C      tau( 269) = (   0.1873632   0.8126047   0.4375041  )
       270        C      tau( 270) = (   0.1877495   0.8122899   0.6873814  )
       271        C      tau( 271) = (   0.1875746   0.8124370   0.9374173  )
       272        C      tau( 272) = (   0.4374525   0.0624132   0.1874605  )
       273        C      tau( 273) = (   0.4374535   0.0624462   0.4374830  )
       274        C      tau( 274) = (   0.4374966   0.0624764   0.6874762  )
       275        C      tau( 275) = (   0.4375034   0.0624146   0.9375240  )
       276        C      tau( 276) = (   0.4373891   0.3124267   0.1874252  )
       277        C      tau( 277) = (   0.4374438   0.3127238   0.4375887  )
       278        C      tau( 278) = (   0.4376723   0.3118697   0.6880607  )
       279        C      tau( 279) = (   0.4374844   0.3125107   0.9374028  )
       280        C      tau( 280) = (   0.4374324   0.5624158   0.1875258  )
       281        C      tau( 281) = (   0.4386508   0.5618056   0.6862773  )
       282        C      tau( 282) = (   0.4375453   0.5624895   0.9374248  )
       283        C      tau( 283) = (   0.4375143   0.8126908   0.1872755  )
       284        C      tau( 284) = (   0.4375561   0.8122880   0.4375224  )
       285        C      tau( 285) = (   0.4377484   0.8123224   0.6874441  )
       286        C      tau( 286) = (   0.4375609   0.8124635   0.9374668  )
       287        C      tau( 287) = (   0.6874613   0.0624455   0.1875229  )
       288        C      tau( 288) = (   0.6874402   0.0625233   0.4375265  )
       289        C      tau( 289) = (   0.6874870   0.0626179   0.6875105  )
       290        C      tau( 290) = (   0.6874876   0.0625985   0.9374995  )
       291        C      tau( 291) = (   0.6874117   0.3124937   0.1874469  )
       292        C      tau( 292) = (   0.6877369   0.3121410   0.4376560  )
       293        C      tau( 293) = (   0.6871119   0.3129366   0.6871945  )
       294        C      tau( 294) = (   0.6874496   0.3125873   0.9374270  )
       295        C      tau( 295) = (   0.6873375   0.5624559   0.1876684  )
       296        C      tau( 296) = (   0.6862463   0.5619495   0.4386525  )
       297        C      tau( 297) = (   0.6883559   0.5629007   0.6884012  )
       298        C      tau( 298) = (   0.6875459   0.5625674   0.9375888  )
       299        C      tau( 299) = (   0.6874002   0.8123564   0.1877171  )
       300        C      tau( 300) = (   0.6874718   0.8123832   0.4377277  )
       301        C      tau( 301) = (   0.6877770   0.8128847   0.6877781  )
       302        C      tau( 302) = (   0.6875935   0.8126193   0.9376953  )
       303        C      tau( 303) = (   0.9374510   0.0624857   0.1875197  )
       304        C      tau( 304) = (   0.9374669   0.0624725   0.4375225  )
       305        C      tau( 305) = (   0.9374758   0.0625952   0.6874994  )
       306        C      tau( 306) = (   0.9374937   0.0625420   0.9375082  )
       307        C      tau( 307) = (   0.9374354   0.3124921   0.1874955  )
       308        C      tau( 308) = (   0.9373557   0.3125504   0.4375180  )
       309        C      tau( 309) = (   0.9373883   0.3125984   0.6874609  )
       310        C      tau( 310) = (   0.9374340   0.3125366   0.9374612  )
       311        C      tau( 311) = (   0.9373458   0.5624708   0.1876298  )
       312        C      tau( 312) = (   0.9374228   0.5625029   0.4375620  )
       313        C      tau( 313) = (   0.9375867   0.5625626   0.6875426  )
       314        C      tau( 314) = (   0.9375718   0.5625245   0.9375752  )
       315        C      tau( 315) = (   0.9374314   0.8124593   0.1875814  )
       316        C      tau( 316) = (   0.9374846   0.8124693   0.4375700  )
       317        C      tau( 317) = (   0.9377061   0.8126040   0.6875894  )
       318        C      tau( 318) = (   0.9375864   0.8125367   0.9375825  )
       319        C      tau( 319) = (   0.0624749   0.0624869   0.0624945  )
       320        C      tau( 320) = (   0.0624487   0.0624773   0.3124991  )
       321        C      tau( 321) = (   0.0623970   0.0624056   0.5624768  )
       322        C      tau( 322) = (   0.0625093   0.0625020   0.8124834  )
       323        C      tau( 323) = (   0.0624483   0.3124915   0.0624856  )
       324        C      tau( 324) = (   0.0623979   0.3124707   0.3124790  )
       325        C      tau( 325) = (   0.0624494   0.3124997   0.5624661  )
       326        C      tau( 326) = (   0.0624356   0.3125055   0.8124677  )
       327        C      tau( 327) = (   0.0623974   0.5624685   0.0624152  )
       328        C      tau( 328) = (   0.0624494   0.5624575   0.3125086  )
       329        C      tau( 329) = (   0.0625910   0.5624602   0.5624694  )
       330        C      tau( 330) = (   0.0625984   0.5624859   0.8124564  )
       331        C      tau( 331) = (   0.0625099   0.8124755   0.0625107  )
       332        C      tau( 332) = (   0.0624363   0.8124588   0.3125142  )
       333        C      tau( 333) = (   0.0625986   0.8124472   0.5624944  )
       334        C      tau( 334) = (   0.0626650   0.8124697   0.8124783  )
       335        C      tau( 335) = (   0.3124721   0.0624650   0.0624745  )
       336        C      tau( 336) = (   0.3124381   0.0624030   0.3124648  )
       337        C      tau( 337) = (   0.3124824   0.0624107   0.5624706  )
       338        C      tau( 338) = (   0.3124994   0.0623977   0.8124790  )
       339        C      tau( 339) = (   0.3124379   0.3124562   0.0624118  )
       340        C      tau( 340) = (   0.3125250   0.3125486   0.3125588  )
       341        C      tau( 341) = (   0.3117793   0.3116872   0.5621845  )
       342        C      tau( 342) = (   0.3124831   0.3124477   0.8125244  )
       343        C      tau( 343) = (   0.3124831   0.5624612   0.0624211  )
       344        C      tau( 344) = (   0.3117796   0.5621740   0.3116974  )
       345        C      tau( 345) = (   0.3133592   0.5619417   0.5619516  )
       346        C      tau( 346) = (   0.3128696   0.5623352   0.8120845  )
       347        C      tau( 347) = (   0.3125004   0.8124686   0.0624096  )
       348        C      tau( 348) = (   0.3124841   0.8125135   0.3124589  )
       349        C      tau( 349) = (   0.3128697   0.8120740   0.5623452  )
       350        C      tau( 350) = (   0.3126494   0.8123384   0.8123489  )
       351        C      tau( 351) = (   0.5624642   0.0624341   0.0624420  )
       352        C      tau( 352) = (   0.5624412   0.0624496   0.3125104  )
       353        C      tau( 353) = (   0.5624687   0.0625366   0.5624996  )
       354        C      tau( 354) = (   0.5624976   0.0625473   0.8125044  )
       355        C      tau( 355) = (   0.5624412   0.3125026   0.0624574  )
       356        C      tau( 356) = (   0.5621291   0.3118079   0.3118172  )
       357        C      tau( 357) = (   0.5619822   0.3130164   0.5622209  )
       358        C      tau( 358) = (   0.5623705   0.3127958   0.8121686  )
       359        C      tau( 359) = (   0.5624692   0.5624913   0.0625452  )
       360        C      tau( 360) = (   0.5619827   0.5622107   0.3130266  )
       361        C      tau( 361) = (   0.5626254   0.5625967   0.8125242  )
       362        C      tau( 362) = (   0.5624982   0.8124954   0.0625568  )
       363        C      tau( 363) = (   0.5623710   0.8121599   0.3128046  )
       364        C      tau( 364) = (   0.5626255   0.8125155   0.5626054  )
       365        C      tau( 365) = (   0.5626554   0.8127839   0.8127920  )
       366        C      tau( 366) = (   0.8124716   0.0625229   0.0625298  )
       367        C      tau( 367) = (   0.8124460   0.0624645   0.3125287  )
       368        C      tau( 368) = (   0.8124635   0.0625863   0.5625180  )
       369        C      tau( 369) = (   0.8124893   0.0626504   0.8125050  )
       370        C      tau( 370) = (   0.8124458   0.3125219   0.0624718  )
       371        C      tau( 371) = (   0.8124278   0.3125154   0.3125233  )
       372        C      tau( 372) = (   0.8120602   0.3128779   0.5624164  )
       373        C      tau( 373) = (   0.8123716   0.3126357   0.8123987  )
       374        C      tau( 374) = (   0.8124635   0.5625109   0.0625940  )
       375        C      tau( 375) = (   0.8120600   0.5624072   0.3128874  )
       376        C      tau( 376) = (   0.8124869   0.5626297   0.5626384  )
       377        C      tau( 377) = (   0.8128033   0.5626502   0.8128117  )
       378        C      tau( 378) = (   0.8124893   0.8124978   0.0626579  )
       379        C      tau( 379) = (   0.8123712   0.8123906   0.3126437  )
       380        C      tau( 380) = (   0.8128031   0.8128040   0.5626575  )
       381        C      tau( 381) = (   0.8126812   0.8126707   0.8126778  )
       382        C      tau( 382) = (   0.0624507   0.1874848   0.1874925  )
       383        C      tau( 383) = (   0.0623915   0.1874617   0.4374855  )
       384        C      tau( 384) = (   0.0624139   0.1874988   0.6874810  )
       385        C      tau( 385) = (   0.0624640   0.1875021   0.9374748  )
       386        C      tau( 386) = (   0.0623914   0.4374773   0.1874704  )
       387        C      tau( 387) = (   0.0624777   0.4374747   0.4374834  )
       388        C      tau( 388) = (   0.0625393   0.4374990   0.6874466  )
       389        C      tau( 389) = (   0.0624295   0.4375074   0.9375036  )
       390        C      tau( 390) = (   0.0624146   0.6874725   0.1875082  )
       391        C      tau( 391) = (   0.0625394   0.6874377   0.4375079  )
       392        C      tau( 392) = (   0.0626652   0.6874608   0.6874699  )
       393        C      tau( 393) = (   0.0626031   0.6874802   0.9374663  )
       394        C      tau( 394) = (   0.0624646   0.9374667   0.1875101  )
       395        C      tau( 395) = (   0.0624301   0.9374945   0.4375155  )
       396        C      tau( 396) = (   0.0626030   0.9374568   0.6874881  )
       397        C      tau( 397) = (   0.0625404   0.9374892   0.9374971  )
       398        C      tau( 398) = (   0.3124482   0.1874762   0.1874849  )
       399        C      tau( 399) = (   0.3123745   0.1873927   0.4374617  )
       400        C      tau( 400) = (   0.3124614   0.1873495   0.6874796  )
       401        C      tau( 401) = (   0.3124607   0.1874422   0.9374909  )
       402        C      tau( 402) = (   0.3123750   0.4374516   0.1874024  )
       403        C      tau( 403) = (   0.3129803   0.4375700   0.4375801  )
       404        C      tau( 404) = (   0.3121485   0.4375874   0.6878704  )
       405        C      tau( 405) = (   0.3125229   0.4374813   0.9373801  )
       406        C      tau( 406) = (   0.3124625   0.6874685   0.1873614  )
       407        C      tau( 407) = (   0.3121487   0.6878605   0.4375978  )
       408        C      tau( 408) = (   0.3130129   0.6870804   0.6870908  )
       409        C      tau( 409) = (   0.3125936   0.6874356   0.9373717  )
       410        C      tau( 410) = (   0.3124617   0.9374806   0.1874528  )
       411        C      tau( 411) = (   0.3125233   0.9373707   0.4374904  )
       412        C      tau( 412) = (   0.3125934   0.9373605   0.6874449  )
       413        C      tau( 413) = (   0.3125269   0.9374239   0.9374340  )
       414        C      tau( 414) = (   0.5623941   0.1872321   0.1872401  )
       415        C      tau( 415) = (   0.5623465   0.1875517   0.4374968  )
       416        C      tau( 416) = (   0.5623897   0.1876082   0.6874430  )
       417        C      tau( 417) = (   0.5624573   0.1875840   0.9374038  )
       418        C      tau( 418) = (   0.5623469   0.4374878   0.1875606  )
       419        C      tau( 419) = (   0.5618601   0.4385149   0.6863702  )
       420        C      tau( 420) = (   0.5624974   0.4375379   0.9374471  )
       421        C      tau( 421) = (   0.5623908   0.6874329   0.1876185  )
       422        C      tau( 422) = (   0.5618608   0.6863614   0.4385241  )
       423        C      tau( 423) = (   0.5629186   0.6883343   0.6883436  )
       424        C      tau( 424) = (   0.5625683   0.6875417   0.9375718  )
       425        C      tau( 425) = (   0.5624578   0.9373956   0.1875925  )
       426        C      tau( 426) = (   0.5624975   0.9374390   0.4375458  )
       427        C      tau( 427) = (   0.5625681   0.9375632   0.6875495  )
       428        C      tau( 428) = (   0.5625265   0.9375701   0.9375786  )
       429        C      tau( 429) = (   0.8124275   0.1875070   0.1875139  )
       430        C      tau( 430) = (   0.8125414   0.1874156   0.4375343  )
       431        C      tau( 431) = (   0.8123237   0.1877218   0.6874295  )
       432        C      tau( 432) = (   0.8124477   0.1875776   0.9374589  )
       433        C      tau( 433) = (   0.8125411   0.4375266   0.1874240  )
       434        C      tau( 434) = (   0.8122220   0.4375781   0.4375873  )
       435        C      tau( 435) = (   0.8123376   0.4377445   0.6874929  )
       436        C      tau( 436) = (   0.8124729   0.4375639   0.9375045  )
       437        C      tau( 437) = (   0.8123233   0.6874213   0.1877305  )
       438        C      tau( 438) = (   0.8123372   0.6874843   0.4377534  )
       439        C      tau( 439) = (   0.8128883   0.6877718   0.6877796  )
       440        C      tau( 440) = (   0.8126209   0.6875915   0.9376987  )
       441        C      tau( 441) = (   0.8124477   0.9374516   0.1875847  )
       442        C      tau( 442) = (   0.8124729   0.9374971   0.4375709  )
       443        C      tau( 443) = (   0.8126207   0.9376912   0.6875984  )
       444        C      tau( 444) = (   0.8125417   0.9375835   0.9375905  )
       445        C      tau( 445) = (   0.1874566   0.1874741   0.0624845  )
       446        C      tau( 446) = (   0.1874575   0.1874777   0.3124864  )
       447        C      tau( 447) = (   0.1871656   0.1871533   0.5624278  )
       448        C      tau( 448) = (   0.1874803   0.1874692   0.8124596  )
       449        C      tau( 449) = (   0.1874316   0.4374705   0.0624000  )
       450        C      tau( 450) = (   0.1874555   0.4374489   0.3124246  )
       451        C      tau( 451) = (   0.1876437   0.4374345   0.5623782  )
       452        C      tau( 452) = (   0.1873628   0.4374938   0.8126151  )
       453        C      tau( 453) = (   0.1874933   0.6874707   0.0624015  )
       454        C      tau( 454) = (   0.1874314   0.6874404   0.3124651  )
       455        C      tau( 455) = (   0.1877533   0.6873157   0.5623721  )
       456        C      tau( 456) = (   0.1877494   0.6873716   0.8123007  )
       457        C      tau( 457) = (   0.1874959   0.9374605   0.0624703  )
       458        C      tau( 458) = (   0.1874498   0.9374683   0.3124764  )
       459        C      tau( 459) = (   0.1876022   0.9373442   0.5624597  )
       460        C      tau( 460) = (   0.1875742   0.9374069   0.8124461  )
       461        C      tau( 461) = (   0.4374523   0.1874520   0.0624217  )
       462        C      tau( 462) = (   0.4373889   0.1874163   0.3124357  )
       463        C      tau( 463) = (   0.4374314   0.1875153   0.5624264  )
       464        C      tau( 464) = (   0.4375135   0.1872655   0.8127003  )
       465        C      tau( 465) = (   0.4374538   0.4374745   0.0624548  )
       466        C      tau( 466) = (   0.4374440   0.4375782   0.3127343  )
       467        C      tau( 467) = (   0.4375556   0.4375124   0.8122974  )
       468        C      tau( 468) = (   0.4374976   0.6874665   0.0624873  )
       469        C      tau( 469) = (   0.4376730   0.6880511   0.3118795  )
       470        C      tau( 470) = (   0.4386510   0.6862678   0.5618152  )
       471        C      tau( 471) = (   0.4377484   0.6874348   0.8123323  )
       472        C      tau( 472) = (   0.4375040   0.9375141   0.0624251  )
       473        C      tau( 473) = (   0.4374850   0.9373937   0.3125200  )
       474        C      tau( 474) = (   0.4375452   0.9374156   0.5624980  )
       475        C      tau( 475) = (   0.4375606   0.9374566   0.8124726  )
       476        C      tau( 476) = (   0.6874612   0.1875158   0.0624527  )
       477        C      tau( 477) = (   0.6874117   0.1874392   0.3125014  )
       478        C      tau( 478) = (   0.6873372   0.1876595   0.5624646  )
       479        C      tau( 479) = (   0.6874001   0.1877086   0.8123646  )
       480        C      tau( 480) = (   0.6874402   0.4375191   0.0625309  )
       481        C      tau( 481) = (   0.6877372   0.4376468   0.3121499  )
       482        C      tau( 482) = (   0.6862459   0.4386432   0.5619588  )
       483        C      tau( 483) = (   0.6874719   0.4377196   0.8123914  )
       484        C      tau( 484) = (   0.6874873   0.6875028   0.0626260  )
       485        C      tau( 485) = (   0.6871120   0.6871848   0.3129463  )
       486        C      tau( 486) = (   0.6883560   0.6883922   0.5629097  )
       487        C      tau( 487) = (   0.6877771   0.6877705   0.8128928  )
       488        C      tau( 488) = (   0.6874877   0.9374920   0.0626060  )
       489        C      tau( 489) = (   0.6874497   0.9374195   0.3125947  )
       490        C      tau( 490) = (   0.6875458   0.9375812   0.5625747  )
       491        C      tau( 491) = (   0.6875935   0.9376877   0.8126266  )
       492        C      tau( 492) = (   0.9374508   0.1875128   0.0624929  )
       493        C      tau( 493) = (   0.9374356   0.1874880   0.3124993  )
       494        C      tau( 494) = (   0.9373462   0.1876212   0.5624785  )
       495        C      tau( 495) = (   0.9374312   0.1875736   0.8124669  )
       496        C      tau( 496) = (   0.9374667   0.4375155   0.0624805  )
       497        C      tau( 497) = (   0.9373556   0.4375101   0.3125586  )
       498        C      tau( 498) = (   0.9374229   0.4375536   0.5625111  )
       499        C      tau( 499) = (   0.9374847   0.4375624   0.8124774  )
       500        C      tau( 500) = (   0.9374759   0.6874922   0.0626034  )
       501        C      tau( 501) = (   0.9373879   0.6874529   0.3126068  )
       502        C      tau( 502) = (   0.9375867   0.6875346   0.5625705  )
       503        C      tau( 503) = (   0.9377062   0.6875820   0.8126118  )
       504        C      tau( 504) = (   0.9374939   0.9375011   0.0625492  )
       505        C      tau( 505) = (   0.9374342   0.9374535   0.3125438  )
       506        C      tau( 506) = (   0.9375716   0.9375671   0.5625316  )
       507        C      tau( 507) = (   0.9375863   0.9375750   0.8125438  )
       508        C      tau( 508) = (   0.5660469   0.4325471   0.4325564  )
       509        C      tau( 509) = (   0.4329483   0.4322310   0.5663800  )
       510        C      tau( 510) = (   0.4329486   0.5663708   0.4322404  )
       511        N      tau( 511) = (   0.5678802   0.5678196   0.5678284  )

   Crystallographic axes

     site n.     atom                  positions (cryst. coord.)
         1        C      tau(   1) = ( -0.0000029 -0.0000003  0.0000070  )
         2        C      tau(   2) = ( -0.0000528 -0.0000327  0.2500151  )
         3        C      tau(   3) = ( -0.0000417 -0.0000157  0.5000074  )
         4        C      tau(   4) = (  0.0000462  0.0000326  0.7499964  )
         5        C      tau(   5) = ( -0.0000531  0.2500079 -0.0000250  )
         6        C      tau(   6) = ( -0.0000713  0.2499816  0.2499891  )
         7        C      tau(   7) = ( -0.0001096  0.2500421  0.4999928  )
         8        C      tau(   8) = ( -0.0000919  0.2500358  0.7499692  )
         9        C      tau(   9) = ( -0.0000417  0.5000001 -0.0000070  )
        10        C      tau(  10) = ( -0.0001098  0.4999849  0.2500505  )
        11        C      tau(  11) = ( -0.0000159  0.4999978  0.5000062  )
        12        C      tau(  12) = (  0.0000581  0.5000132  0.7499724  )
        13        C      tau(  13) = (  0.0000463  0.7499891  0.0000409  )
        14        C      tau(  14) = ( -0.0000916  0.7499610  0.2500442  )
        15        C      tau(  15) = (  0.0000581  0.7499641  0.5000211  )
        16        C      tau(  16) = (  0.0001956  0.7500221  0.7500301  )
        17        C      tau(  17) = (  0.2499957 -0.0000514 -0.0000422  )
        18        C      tau(  18) = (  0.2499452 -0.0000453  0.2499620  )
        19        C      tau(  19) = (  0.2500190 -0.0001154  0.4999782  )
        20        C      tau(  20) = (  0.2500331 -0.0001204  0.7499619  )
        21        C      tau(  21) = (  0.2499446  0.2499527 -0.0000357  )
        22        C      tau(  22) = (  0.2500041  0.2500287  0.2500380  )
        23        C      tau(  23) = (  0.2495177  0.2494906  0.5000585  )
        24        C      tau(  24) = (  0.2499804  0.2499501  0.7499554  )
        25        C      tau(  25) = (  0.2500192  0.4999695 -0.0001058  )
        26        C      tau(  26) = (  0.2495177  0.5000482  0.2495005  )
        27        C      tau(  27) = (  0.2504820  0.4998168  0.4998275  )
        28        C      tau(  28) = (  0.2498868  0.4997831  0.7501024  )
        29        C      tau(  29) = (  0.2500337  0.7499525 -0.0001088  )
        30        C      tau(  30) = (  0.2499816  0.7499444  0.2499617  )
        31        C      tau(  31) = (  0.2498867  0.7500921  0.4997934  )
        32        C      tau(  32) = (  0.2503620  0.7497205  0.7497312  )
        33        C      tau(  33) = (  0.4999907 -0.0000173 -0.0000082  )
        34        C      tau(  34) = (  0.4999651 -0.0000824  0.2500289  )
        35        C      tau(  35) = (  0.4999941 -0.0000354  0.5000064  )
        36        C      tau(  36) = (  0.5000215  0.0000179  0.7499933  )
        37        C      tau(  37) = (  0.4999649  0.2500206 -0.0000740  )
        38        C      tau(  38) = (  0.4999431  0.2495812  0.2495901  )
        39        C      tau(  39) = (  0.4998114  0.2502797  0.4998920  )
        40        C      tau(  40) = (  0.4998229  0.2497102  0.7502545  )
        41        C      tau(  41) = (  0.4999943  0.4999983 -0.0000269  )
        42        C      tau(  42) = (  0.4998119  0.4998816  0.2502899  )
        43        C      tau(  43) = (  0.5001168  0.5000601  0.7496092  )
        44        C      tau(  44) = (  0.5000219  0.7499844  0.0000279  )
        45        C      tau(  45) = (  0.4998237  0.7502453  0.2497196  )
        46        C      tau(  46) = (  0.5001172  0.7495999  0.5000695  )
        47        C      tau(  47) = (  0.5002993  0.7503454  0.7503544  )
        48        C      tau(  48) = (  0.7499921  0.0000500  0.0000572  )
        49        C      tau(  49) = (  0.7499509 -0.0000602  0.2500537  )
        50        C      tau(  50) = (  0.7499767  0.0000534  0.5000355  )
        51        C      tau(  51) = (  0.7500455  0.0001681  0.7500542  )
        52        C      tau(  52) = (  0.7499508  0.2500467 -0.0000530  )
        53        C      tau(  53) = (  0.7498989  0.2500060  0.2500134  )
        54        C      tau(  54) = (  0.7500138  0.2499111  0.4999125  )
        55        C      tau(  55) = (  0.7497653  0.2503173  0.7498046  )
        56        C      tau(  56) = (  0.7499767  0.5000285  0.0000609  )
        57        C      tau(  57) = (  0.7500135  0.4999035  0.2499205  )
        58        C      tau(  58) = (  0.7495427  0.5001231  0.5001327  )
        59        C      tau(  59) = (  0.7503700  0.5002889  0.7504045  )
        60        C      tau(  60) = (  0.7500456  0.7500470  0.0001757  )
        61        C      tau(  61) = (  0.7497647  0.7497957  0.2503264  )
        62        C      tau(  62) = (  0.7503697  0.7503961  0.5002973  )
        63        C      tau(  63) = (  0.7502532  0.7502474  0.7502549  )
        64        C      tau(  64) = ( -0.0000435  0.1249897  0.1249969  )
        65        C      tau(  65) = ( -0.0000696  0.1249798  0.3749916  )
        66        C      tau(  66) = ( -0.0000938  0.1250493  0.6249982  )
        67        C      tau(  67) = ( -0.0000308  0.1250275  0.8749777  )
        68        C      tau(  68) = ( -0.0000699  0.3749843  0.1249877  )
        69        C      tau(  69) = ( -0.0001029  0.3750138  0.3750220  )
        70        C      tau(  70) = ( -0.0000474  0.3750334  0.6249693  )
        71        C      tau(  71) = ( -0.0000540  0.3750114  0.8749679  )
        72        C      tau(  72) = ( -0.0000936  0.6249904  0.1250581  )
        73        C      tau(  73) = ( -0.0000476  0.6249611  0.3750418  )
        74        C      tau(  74) = (  0.0001140  0.6249898  0.6249981  )
        75        C      tau(  75) = (  0.0001264  0.6250155  0.8750229  )
        76        C      tau(  76) = ( -0.0000305  0.8749702  0.1250352  )
        77        C      tau(  77) = ( -0.0000536  0.8749596  0.3750191  )
        78        C      tau(  78) = (  0.0001263  0.8750144  0.6250229  )
        79        C      tau(  79) = (  0.0000981  0.8750104  0.8750179  )
        80        C      tau(  80) = (  0.2499599  0.1249762  0.1249850  )
        81        C      tau(  81) = (  0.2499588  0.1249123  0.3749802  )
        82        C      tau(  82) = (  0.2499030  0.1248437  0.6249937  )
        83        C      tau(  83) = (  0.2499789  0.1249441  0.8749653  )
        84        C      tau(  84) = (  0.2499589  0.3749714  0.1249212  )
        85        C      tau(  85) = (  0.2502106  0.3751263  0.3751364  )
        86        C      tau(  86) = (  0.2499667  0.3748475  0.6249217  )
        87        C      tau(  87) = (  0.2499471  0.3749386  0.8749946  )
        88        C      tau(  88) = (  0.2499039  0.6249834  0.1248552  )
        89        C      tau(  89) = (  0.2499673  0.6249105  0.3748588  )
        90        C      tau(  90) = (  0.2506155  0.6245196  0.6245299  )
        91        C      tau(  91) = (  0.2502903  0.6249158  0.8747224  )
        92        C      tau(  92) = (  0.2499799  0.8749555  0.1249549  )
        93        C      tau(  93) = (  0.2499480  0.8749839  0.3749490  )
        94        C      tau(  94) = (  0.2502903  0.8747115  0.6249254  )
        95        C      tau(  95) = (  0.2500855  0.8748875  0.8748976  )
        96        C      tau(  96) = (  0.4999751  0.1248391  0.1248472  )
        97        C      tau(  97) = (  0.4999328  0.1249839  0.3749869  )
        98        C      tau(  98) = (  0.4999276  0.1250536  0.6249377  )
        99        C      tau(  99) = (  0.4999459  0.1248970  0.8750899  )
       100        C      tau( 100) = (  0.4999329  0.3749785  0.1249924  )
       101        C      tau( 101) = (  0.5001297  0.3751861  0.3751965  )
       102        C      tau( 102) = (  0.4989913  0.3755690  0.6240958  )
       103        C      tau( 103) = (  0.4999843  0.3751071  0.8748273  )
       104        C      tau( 104) = (  0.4999287  0.6249279  0.1250638  )
       105        C      tau( 105) = (  0.4989918  0.6240865  0.3755785  )
       106        C      tau( 106) = (  0.5027117  0.6246800  0.6246892  )
       107        C      tau( 107) = (  0.5001172  0.6250061  0.8749726  )
       108        C      tau( 108) = (  0.4999465  0.8750804  0.1249069  )
       109        C      tau( 109) = (  0.4999848  0.8748185  0.3751161  )
       110        C      tau( 110) = (  0.5001171  0.8749636  0.6250146  )
       111        C      tau( 111) = (  0.5000883  0.8751090  0.8751180  )
       112        C      tau( 112) = (  0.7499539  0.1250011  0.1250080  )
       113        C      tau( 113) = (  0.7499592  0.1249715  0.3749978  )
       114        C      tau( 114) = (  0.7498726  0.1251564  0.6249594  )
       115        C      tau( 115) = (  0.7499466  0.1251533  0.8749448  )
       116        C      tau( 116) = (  0.7499590  0.3749906  0.1249791  )
       117        C      tau( 117) = (  0.7498452  0.3750042  0.3750130  )
       118        C      tau( 118) = (  0.7491749  0.3757600  0.6248355  )
       119        C      tau( 119) = (  0.7499044  0.3751149  0.8749191  )
       120        C      tau( 120) = (  0.7498726  0.6249515  0.1251647  )
       121        C      tau( 121) = (  0.7491753  0.6248262  0.3757693  )
       122        C      tau( 122) = (  0.7505138  0.6254002  0.6254089  )
       123        C      tau( 123) = (  0.7501978  0.6251544  0.8752644  )
       124        C      tau( 124) = (  0.7499466  0.8749373  0.1251610  )
       125        C      tau( 125) = (  0.7499042  0.8749114  0.3751225  )
       126        C      tau( 126) = (  0.7501975  0.8752567  0.6251615  )
       127        C      tau( 127) = (  0.7500955  0.8751338  0.8751409  )
       128        C      tau( 128) = (  0.1249709 -0.0000297  0.1249858  )
       129        C      tau( 129) = (  0.1249418 -0.0000490  0.3749804  )
       130        C      tau( 130) = (  0.1250421 -0.0001024  0.6249899  )
       131        C      tau( 131) = (  0.1250290 -0.0000420  0.8749677  )
       132        C      tau( 132) = (  0.1249574  0.2499847  0.1249926  )
       133        C      tau( 133) = (  0.1249258  0.2499959  0.3749879  )
       134        C      tau( 134) = (  0.1248823  0.2499082  0.6249858  )
       135        C      tau( 135) = (  0.1249575  0.2499796  0.8749617  )
       136        C      tau( 136) = (  0.1247900  0.5000038  0.1248071  )
       137        C      tau( 137) = (  0.1250272  0.4999606  0.3749843  )
       138        C      tau( 138) = (  0.1251515  0.4999103  0.6248828  )
       139        C      tau( 139) = (  0.1249525  0.4999403  0.8750279  )
       140        C      tau( 140) = (  0.1249777  0.7499652  0.1249782  )
       141        C      tau( 141) = (  0.1249525  0.7499830  0.3749635  )
       142        C      tau( 142) = (  0.1252093  0.7498295  0.6249081  )
       143        C      tau( 143) = (  0.1251695  0.7499258  0.8749000  )
       144        C      tau( 144) = (  0.3749613 -0.0000390  0.1249548  )
       145        C      tau( 145) = (  0.3749873 -0.0000964  0.3749985  )
       146        C      tau( 146) = (  0.3750284 -0.0000802  0.6249708  )
       147        C      tau( 147) = (  0.3750072 -0.0000763  0.8749687  )
       148        C      tau( 148) = (  0.3749428  0.2499784  0.1249307  )
       149        C      tau( 149) = (  0.3750513  0.2501004  0.3751210  )
       150        C      tau( 150) = (  0.3748804  0.2498315  0.6249869  )
       151        C      tau( 151) = (  0.3749522  0.2499119  0.8750226  )
       152        C      tau( 152) = (  0.3749551  0.4999669  0.1249730  )
       153        C      tau( 153) = (  0.3753484  0.5005441  0.3751735  )
       154        C      tau( 154) = (  0.3760729  0.4989342  0.6237687  )
       155        C      tau( 155) = (  0.3751393  0.4999602  0.8747951  )
       156        C      tau( 156) = (  0.3749600  0.7500222  0.1248961  )
       157        C      tau( 157) = (  0.3749793  0.7499748  0.3748931  )
       158        C      tau( 158) = (  0.3757987  0.7491759  0.6247366  )
       159        C      tau( 159) = (  0.3751265  0.7498776  0.8748657  )
       160        C      tau( 160) = (  0.6249822 -0.0000579  0.1250610  )
       161        C      tau( 161) = (  0.6249579 -0.0000377  0.3750420  )
       162        C      tau( 162) = (  0.6250086  0.0000804  0.6250202  )
       163        C      tau( 163) = (  0.6250265  0.0001047  0.8750491  )
       164        C      tau( 164) = (  0.6249469  0.2499414  0.1249171  )
       165        C      tau( 165) = (  0.6248493  0.2499335  0.3749245  )
       166        C      tau( 166) = (  0.6245816  0.2504191  0.6246759  )
       167        C      tau( 167) = (  0.6249440  0.2502562  0.8747914  )
       168        C      tau( 168) = (  0.6248900  0.4999572  0.1250920  )
       169        C      tau( 169) = (  0.6237145  0.4993569  0.3758403  )
       170        C      tau( 170) = (  0.6246935  0.5027133  0.6247950  )
       171        C      tau( 171) = (  0.6250248  0.5001022  0.8749969  )
       172        C      tau( 172) = (  0.6249335  0.7499034  0.1251387  )
       173        C      tau( 173) = (  0.6247745  0.7492669  0.3757429  )
       174        C      tau( 174) = (  0.6253934  0.7505358  0.6253931  )
       175        C      tau( 175) = (  0.6251582  0.7501904  0.8752557  )
       176        C      tau( 176) = (  0.8749618 -0.0000160  0.1250438  )
       177        C      tau( 177) = (  0.8749476 -0.0000267  0.3750276  )
       178        C      tau( 178) = (  0.8750331  0.0001144  0.6250337  )
       179        C      tau( 179) = (  0.8750228  0.0000890  0.8750300  )
       180        C      tau( 180) = (  0.8749341  0.2500042  0.1249944  )
       181        C      tau( 181) = (  0.8749341  0.2499900  0.3749963  )
       182        C      tau( 182) = (  0.8747245  0.2502855  0.6249666  )
       183        C      tau( 183) = (  0.8749101  0.2500843  0.8749348  )
       184        C      tau( 184) = (  0.8749882  0.4999739  0.1250001  )
       185        C      tau( 185) = (  0.8747647  0.5000033  0.3751563  )
       186        C      tau( 186) = (  0.8749654  0.5001105  0.6250314  )
       187        C      tau( 187) = (  0.8751237  0.5000874  0.8751317  )
       188        C      tau( 188) = (  0.8749193  0.7499561  0.1251620  )
       189        C      tau( 189) = (  0.8748805  0.7499070  0.3751261  )
       190        C      tau( 190) = (  0.8752623  0.7501881  0.6251571  )
       191        C      tau( 191) = (  0.8751444  0.7500859  0.8751358  )
       192        C      tau( 192) = (  0.1249705  0.1249777 -0.0000216  )
       193        C      tau( 193) = (  0.1249576  0.1249842  0.2499926  )
       194        C      tau( 194) = (  0.1247896  0.1247973  0.5000127  )
       195        C      tau( 195) = (  0.1249769  0.1249683  0.7499739  )
       196        C      tau( 196) = (  0.1249413  0.3749721 -0.0000399  )
       197        C      tau( 197) = (  0.1249257  0.3749792  0.2500047  )
       198        C      tau( 198) = (  0.1250273  0.3749750  0.4999699  )
       199        C      tau( 199) = (  0.1249517  0.3749538  0.7499929  )
       200        C      tau( 200) = (  0.1250425  0.6249815 -0.0000921  )
       201        C      tau( 201) = (  0.1248831  0.6249763  0.2499183  )
       202        C      tau( 202) = (  0.1251514  0.6248730  0.4999200  )
       203        C      tau( 203) = (  0.1252093  0.6248986  0.7498396  )
       204        C      tau( 204) = (  0.1250294  0.8749596 -0.0000331  )
       205        C      tau( 205) = (  0.1249584  0.8749527  0.2499887  )
       206        C      tau( 206) = (  0.1249530  0.8750180  0.4999494  )
       207        C      tau( 207) = (  0.1251694  0.8748901  0.7499345  )
       208        C      tau( 208) = (  0.3749609  0.1249449 -0.0000292  )
       209        C      tau( 209) = (  0.3749429  0.1249221  0.2499869  )
       210        C      tau( 210) = (  0.3749544  0.1249632  0.4999766  )
       211        C      tau( 211) = (  0.3749591  0.1248844  0.7500329  )
       212        C      tau( 212) = (  0.3749872  0.3749898 -0.0000876  )
       213        C      tau( 213) = (  0.3750514  0.3751107  0.2501106  )
       214        C      tau( 214) = (  0.3753480  0.3751635  0.5005542  )
       215        C      tau( 215) = (  0.3749786  0.3748828  0.7499847  )
       216        C      tau( 216) = (  0.3750290  0.6249617 -0.0000697  )
       217        C      tau( 217) = (  0.3748812  0.6249764  0.2498421  )
       218        C      tau( 218) = (  0.3760732  0.6237590  0.4989440  )
       219        C      tau( 219) = (  0.3757987  0.6247267  0.7491859  )
       220        C      tau( 220) = (  0.3750076  0.8749588 -0.0000653  )
       221        C      tau( 221) = (  0.3749530  0.8750120  0.2499227  )
       222        C      tau( 222) = (  0.3751394  0.8747856  0.4999696  )
       223        C      tau( 223) = (  0.3751264  0.8748550  0.7498872  )
       224        C      tau( 224) = (  0.6249822  0.1250534 -0.0000503  )
       225        C      tau( 225) = (  0.6249470  0.1249095  0.2499489  )
       226        C      tau( 226) = (  0.6248897  0.1250836  0.4999655  )
       227        C      tau( 227) = (  0.6249330  0.1251296  0.7499122  )
       228        C      tau( 228) = (  0.6249579  0.3750345 -0.0000301  )
       229        C      tau( 229) = (  0.6248494  0.3749157  0.2499424  )
       230        C      tau( 230) = (  0.6237138  0.3758307  0.4993666  )
       231        C      tau( 231) = (  0.6247741  0.3757340  0.7492756  )
       232        C      tau( 232) = (  0.6250089  0.6250126  0.0000886  )
       233        C      tau( 233) = (  0.6245820  0.6246658  0.2504293  )
       234        C      tau( 234) = (  0.6246939  0.6247861  0.5027222  )
       235        C      tau( 235) = (  0.6253936  0.6253844  0.7505449  )
       236        C      tau( 236) = (  0.6250266  0.8750411  0.0001129  )
       237        C      tau( 237) = (  0.6249443  0.8747834  0.2502645  )
       238        C      tau( 238) = (  0.6250248  0.8749889  0.5001101  )
       239        C      tau( 239) = (  0.6251581  0.8752478  0.7501980  )
       240        C      tau( 240) = (  0.8749618  0.1250369 -0.0000089  )
       241        C      tau( 241) = (  0.8749342  0.1249873  0.2500110  )
       242        C      tau( 242) = (  0.8749886  0.1249920  0.4999811  )
       243        C      tau( 243) = (  0.8749195  0.1251538  0.7499637  )
       244        C      tau( 244) = (  0.8749475  0.3750208 -0.0000192  )
       245        C      tau( 245) = (  0.8749340  0.3749888  0.2499978  )
       246        C      tau( 246) = (  0.8747648  0.3751473  0.5000120  )
       247        C      tau( 247) = (  0.8748810  0.3751178  0.7499153  )
       248        C      tau( 248) = (  0.8750332  0.6250268  0.0001222  )
       249        C      tau( 249) = (  0.8747238  0.6249581  0.2502947  )
       250        C      tau( 250) = (  0.8749652  0.6250230  0.5001190  )
       251        C      tau( 251) = (  0.8752624  0.6251497  0.7501957  )
       252        C      tau( 252) = (  0.8750228  0.8750230  0.0000963  )
       253        C      tau( 253) = (  0.8749100  0.8749271  0.2500917  )
       254        C      tau( 254) = (  0.8751235  0.8751241  0.5000944  )
       255        C      tau( 255) = (  0.8751443  0.8751285  0.7500928  )
       256        C      tau( 256) = (  0.1874570  0.0624756  0.1874827  )
       257        C      tau( 257) = (  0.1874314  0.0623908  0.4374790  )
       258        C      tau( 258) = (  0.1874924  0.0623902  0.6874802  )
       259        C      tau( 259) = (  0.1874952  0.0624610  0.9374694  )
       260        C      tau( 260) = (  0.1874576  0.3124778  0.1874866  )
       261        C      tau( 261) = (  0.1874555  0.3124148  0.4374588  )
       262        C      tau( 262) = (  0.1874304  0.3124540  0.6874512  )
       263        C      tau( 263) = (  0.1874488  0.3124669  0.9374783  )
       264        C      tau( 264) = (  0.1871660  0.5624177  0.1871639  )
       265        C      tau( 265) = (  0.1876436  0.5623676  0.4374451  )
       266        C      tau( 266) = (  0.1877533  0.5623617  0.6873263  )
       267        C      tau( 267) = (  0.1876020  0.5624509  0.9373543  )
       268        C      tau( 268) = (  0.1874815  0.8124498  0.1874798  )
       269        C      tau( 269) = (  0.1873632  0.8126047  0.4375041  )
       270        C      tau( 270) = (  0.1877495  0.8122899  0.6873814  )
       271        C      tau( 271) = (  0.1875746  0.8124370  0.9374173  )
       272        C      tau( 272) = (  0.4374525  0.0624132  0.1874605  )
       273        C      tau( 273) = (  0.4374535  0.0624462  0.4374830  )
       274        C      tau( 274) = (  0.4374966  0.0624764  0.6874762  )
       275        C      tau( 275) = (  0.4375034  0.0624146  0.9375240  )
       276        C      tau( 276) = (  0.4373891  0.3124267  0.1874252  )
       277        C      tau( 277) = (  0.4374438  0.3127238  0.4375887  )
       278        C      tau( 278) = (  0.4376723  0.3118697  0.6880607  )
       279        C      tau( 279) = (  0.4374844  0.3125107  0.9374028  )
       280        C      tau( 280) = (  0.4374324  0.5624158  0.1875258  )
       281        C      tau( 281) = (  0.4386508  0.5618056  0.6862773  )
       282        C      tau( 282) = (  0.4375453  0.5624895  0.9374248  )
       283        C      tau( 283) = (  0.4375143  0.8126908  0.1872755  )
       284        C      tau( 284) = (  0.4375561  0.8122880  0.4375224  )
       285        C      tau( 285) = (  0.4377484  0.8123224  0.6874441  )
       286        C      tau( 286) = (  0.4375609  0.8124635  0.9374668  )
       287        C      tau( 287) = (  0.6874613  0.0624455  0.1875229  )
       288        C      tau( 288) = (  0.6874402  0.0625233  0.4375265  )
       289        C      tau( 289) = (  0.6874870  0.0626179  0.6875105  )
       290        C      tau( 290) = (  0.6874876  0.0625985  0.9374995  )
       291        C      tau( 291) = (  0.6874117  0.3124937  0.1874469  )
       292        C      tau( 292) = (  0.6877369  0.3121410  0.4376560  )
       293        C      tau( 293) = (  0.6871119  0.3129366  0.6871945  )
       294        C      tau( 294) = (  0.6874496  0.3125873  0.9374270  )
       295        C      tau( 295) = (  0.6873375  0.5624559  0.1876684  )
       296        C      tau( 296) = (  0.6862463  0.5619495  0.4386525  )
       297        C      tau( 297) = (  0.6883559  0.5629007  0.6884012  )
       298        C      tau( 298) = (  0.6875459  0.5625674  0.9375888  )
       299        C      tau( 299) = (  0.6874002  0.8123564  0.1877171  )
       300        C      tau( 300) = (  0.6874718  0.8123832  0.4377277  )
       301        C      tau( 301) = (  0.6877770  0.8128847  0.6877781  )
       302        C      tau( 302) = (  0.6875935  0.8126193  0.9376953  )
       303        C      tau( 303) = (  0.9374510  0.0624857  0.1875197  )
       304        C      tau( 304) = (  0.9374669  0.0624725  0.4375225  )
       305        C      tau( 305) = (  0.9374758  0.0625952  0.6874994  )
       306        C      tau( 306) = (  0.9374937  0.0625420  0.9375082  )
       307        C      tau( 307) = (  0.9374354  0.3124921  0.1874955  )
       308        C      tau( 308) = (  0.9373557  0.3125504  0.4375180  )
       309        C      tau( 309) = (  0.9373883  0.3125984  0.6874609  )
       310        C      tau( 310) = (  0.9374340  0.3125366  0.9374612  )
       311        C      tau( 311) = (  0.9373458  0.5624708  0.1876298  )
       312        C      tau( 312) = (  0.9374228  0.5625029  0.4375620  )
       313        C      tau( 313) = (  0.9375867  0.5625626  0.6875426  )
       314        C      tau( 314) = (  0.9375718  0.5625245  0.9375752  )
       315        C      tau( 315) = (  0.9374314  0.8124593  0.1875814  )
       316        C      tau( 316) = (  0.9374846  0.8124693  0.4375700  )
       317        C      tau( 317) = (  0.9377061  0.8126040  0.6875894  )
       318        C      tau( 318) = (  0.9375864  0.8125367  0.9375825  )
       319        C      tau( 319) = (  0.0624749  0.0624869  0.0624945  )
       320        C      tau( 320) = (  0.0624487  0.0624773  0.3124991  )
       321        C      tau( 321) = (  0.0623970  0.0624056  0.5624768  )
       322        C      tau( 322) = (  0.0625093  0.0625020  0.8124834  )
       323        C      tau( 323) = (  0.0624483  0.3124915  0.0624856  )
       324        C      tau( 324) = (  0.0623979  0.3124707  0.3124790  )
       325        C      tau( 325) = (  0.0624494  0.3124997  0.5624661  )
       326        C      tau( 326) = (  0.0624356  0.3125055  0.8124677  )
       327        C      tau( 327) = (  0.0623974  0.5624685  0.0624152  )
       328        C      tau( 328) = (  0.0624494  0.5624575  0.3125086  )
       329        C      tau( 329) = (  0.0625910  0.5624602  0.5624694  )
       330        C      tau( 330) = (  0.0625984  0.5624859  0.8124564  )
       331        C      tau( 331) = (  0.0625099  0.8124755  0.0625107  )
       332        C      tau( 332) = (  0.0624363  0.8124588  0.3125142  )
       333        C      tau( 333) = (  0.0625986  0.8124472  0.5624944  )
       334        C      tau( 334) = (  0.0626650  0.8124697  0.8124783  )
       335        C      tau( 335) = (  0.3124721  0.0624650  0.0624745  )
       336        C      tau( 336) = (  0.3124381  0.0624030  0.3124648  )
       337        C      tau( 337) = (  0.3124824  0.0624107  0.5624706  )
       338        C      tau( 338) = (  0.3124994  0.0623977  0.8124790  )
       339        C      tau( 339) = (  0.3124379  0.3124562  0.0624118  )
       340        C      tau( 340) = (  0.3125250  0.3125486  0.3125588  )
       341        C      tau( 341) = (  0.3117793  0.3116872  0.5621845  )
       342        C      tau( 342) = (  0.3124831  0.3124477  0.8125244  )
       343        C      tau( 343) = (  0.3124831  0.5624612  0.0624211  )
       344        C      tau( 344) = (  0.3117796  0.5621740  0.3116974  )
       345        C      tau( 345) = (  0.3133592  0.5619417  0.5619516  )
       346        C      tau( 346) = (  0.3128696  0.5623352  0.8120845  )
       347        C      tau( 347) = (  0.3125004  0.8124686  0.0624096  )
       348        C      tau( 348) = (  0.3124841  0.8125135  0.3124589  )
       349        C      tau( 349) = (  0.3128697  0.8120740  0.5623452  )
       350        C      tau( 350) = (  0.3126494  0.8123384  0.8123489  )
       351        C      tau( 351) = (  0.5624642  0.0624341  0.0624420  )
       352        C      tau( 352) = (  0.5624412  0.0624496  0.3125104  )
       353        C      tau( 353) = (  0.5624687  0.0625366  0.5624996  )
       354        C      tau( 354) = (  0.5624976  0.0625473  0.8125044  )
       355        C      tau( 355) = (  0.5624412  0.3125026  0.0624574  )
       356        C      tau( 356) = (  0.5621291  0.3118079  0.3118172  )
       357        C      tau( 357) = (  0.5619822  0.3130164  0.5622209  )
       358        C      tau( 358) = (  0.5623705  0.3127958  0.8121686  )
       359        C      tau( 359) = (  0.5624692  0.5624913  0.0625452  )
       360        C      tau( 360) = (  0.5619827  0.5622107  0.3130266  )
       361        C      tau( 361) = (  0.5626254  0.5625967  0.8125242  )
       362        C      tau( 362) = (  0.5624982  0.8124954  0.0625568  )
       363        C      tau( 363) = (  0.5623710  0.8121599  0.3128046  )
       364        C      tau( 364) = (  0.5626255  0.8125155  0.5626054  )
       365        C      tau( 365) = (  0.5626554  0.8127839  0.8127920  )
       366        C      tau( 366) = (  0.8124716  0.0625229  0.0625298  )
       367        C      tau( 367) = (  0.8124460  0.0624645  0.3125287  )
       368        C      tau( 368) = (  0.8124635  0.0625863  0.5625180  )
       369        C      tau( 369) = (  0.8124893  0.0626504  0.8125050  )
       370        C      tau( 370) = (  0.8124458  0.3125219  0.0624718  )
       371        C      tau( 371) = (  0.8124278  0.3125154  0.3125233  )
       372        C      tau( 372) = (  0.8120602  0.3128779  0.5624164  )
       373        C      tau( 373) = (  0.8123716  0.3126357  0.8123987  )
       374        C      tau( 374) = (  0.8124635  0.5625109  0.0625940  )
       375        C      tau( 375) = (  0.8120600  0.5624072  0.3128874  )
       376        C      tau( 376) = (  0.8124869  0.5626297  0.5626384  )
       377        C      tau( 377) = (  0.8128033  0.5626502  0.8128117  )
       378        C      tau( 378) = (  0.8124893  0.8124978  0.0626579  )
       379        C      tau( 379) = (  0.8123712  0.8123906  0.3126437  )
       380        C      tau( 380) = (  0.8128031  0.8128040  0.5626575  )
       381        C      tau( 381) = (  0.8126812  0.8126707  0.8126778  )
       382        C      tau( 382) = (  0.0624507  0.1874848  0.1874925  )
       383        C      tau( 383) = (  0.0623915  0.1874617  0.4374855  )
       384        C      tau( 384) = (  0.0624139  0.1874988  0.6874810  )
       385        C      tau( 385) = (  0.0624640  0.1875021  0.9374748  )
       386        C      tau( 386) = (  0.0623914  0.4374773  0.1874704  )
       387        C      tau( 387) = (  0.0624777  0.4374747  0.4374834  )
       388        C      tau( 388) = (  0.0625393  0.4374990  0.6874466  )
       389        C      tau( 389) = (  0.0624295  0.4375074  0.9375036  )
       390        C      tau( 390) = (  0.0624146  0.6874725  0.1875082  )
       391        C      tau( 391) = (  0.0625394  0.6874377  0.4375079  )
       392        C      tau( 392) = (  0.0626652  0.6874608  0.6874699  )
       393        C      tau( 393) = (  0.0626031  0.6874802  0.9374663  )
       394        C      tau( 394) = (  0.0624646  0.9374667  0.1875101  )
       395        C      tau( 395) = (  0.0624301  0.9374945  0.4375155  )
       396        C      tau( 396) = (  0.0626030  0.9374568  0.6874881  )
       397        C      tau( 397) = (  0.0625404  0.9374892  0.9374971  )
       398        C      tau( 398) = (  0.3124482  0.1874762  0.1874849  )
       399        C      tau( 399) = (  0.3123745  0.1873927  0.4374617  )
       400        C      tau( 400) = (  0.3124614  0.1873495  0.6874796  )
       401        C      tau( 401) = (  0.3124607  0.1874422  0.9374909  )
       402        C      tau( 402) = (  0.3123750  0.4374516  0.1874024  )
       403        C      tau( 403) = (  0.3129803  0.4375700  0.4375801  )
       404        C      tau( 404) = (  0.3121485  0.4375874  0.6878704  )
       405        C      tau( 405) = (  0.3125229  0.4374813  0.9373801  )
       406        C      tau( 406) = (  0.3124625  0.6874685  0.1873614  )
       407        C      tau( 407) = (  0.3121487  0.6878605  0.4375978  )
       408        C      tau( 408) = (  0.3130129  0.6870804  0.6870908  )
       409        C      tau( 409) = (  0.3125936  0.6874356  0.9373717  )
       410        C      tau( 410) = (  0.3124617  0.9374806  0.1874528  )
       411        C      tau( 411) = (  0.3125233  0.9373707  0.4374904  )
       412        C      tau( 412) = (  0.3125934  0.9373605  0.6874449  )
       413        C      tau( 413) = (  0.3125269  0.9374239  0.9374340  )
       414        C      tau( 414) = (  0.5623941  0.1872321  0.1872401  )
       415        C      tau( 415) = (  0.5623465  0.1875517  0.4374968  )
       416        C      tau( 416) = (  0.5623897  0.1876082  0.6874430  )
       417        C      tau( 417) = (  0.5624573  0.1875840  0.9374038  )
       418        C      tau( 418) = (  0.5623469  0.4374878  0.1875606  )
       419        C      tau( 419) = (  0.5618601  0.4385149  0.6863702  )
       420        C      tau( 420) = (  0.5624974  0.4375379  0.9374471  )
       421        C      tau( 421) = (  0.5623908  0.6874329  0.1876185  )
       422        C      tau( 422) = (  0.5618608  0.6863614  0.4385241  )
       423        C      tau( 423) = (  0.5629186  0.6883343  0.6883436  )
       424        C      tau( 424) = (  0.5625683  0.6875417  0.9375718  )
       425        C      tau( 425) = (  0.5624578  0.9373956  0.1875925  )
       426        C      tau( 426) = (  0.5624975  0.9374390  0.4375458  )
       427        C      tau( 427) = (  0.5625681  0.9375632  0.6875495  )
       428        C      tau( 428) = (  0.5625265  0.9375701  0.9375786  )
       429        C      tau( 429) = (  0.8124275  0.1875070  0.1875139  )
       430        C      tau( 430) = (  0.8125414  0.1874156  0.4375343  )
       431        C      tau( 431) = (  0.8123237  0.1877218  0.6874295  )
       432        C      tau( 432) = (  0.8124477  0.1875776  0.9374589  )
       433        C      tau( 433) = (  0.8125411  0.4375266  0.1874240  )
       434        C      tau( 434) = (  0.8122220  0.4375781  0.4375873  )
       435        C      tau( 435) = (  0.8123376  0.4377445  0.6874929  )
       436        C      tau( 436) = (  0.8124729  0.4375639  0.9375045  )
       437        C      tau( 437) = (  0.8123233  0.6874213  0.1877305  )
       438        C      tau( 438) = (  0.8123372  0.6874843  0.4377534  )
       439        C      tau( 439) = (  0.8128883  0.6877718  0.6877796  )
       440        C      tau( 440) = (  0.8126209  0.6875915  0.9376987  )
       441        C      tau( 441) = (  0.8124477  0.9374516  0.1875847  )
       442        C      tau( 442) = (  0.8124729  0.9374971  0.4375709  )
       443        C      tau( 443) = (  0.8126207  0.9376912  0.6875984  )
       444        C      tau( 444) = (  0.8125417  0.9375835  0.9375905  )
       445        C      tau( 445) = (  0.1874566  0.1874741  0.0624845  )
       446        C      tau( 446) = (  0.1874575  0.1874777  0.3124864  )
       447        C      tau( 447) = (  0.1871656  0.1871533  0.5624278  )
       448        C      tau( 448) = (  0.1874803  0.1874692  0.8124596  )
       449        C      tau( 449) = (  0.1874316  0.4374705  0.0624000  )
       450        C      tau( 450) = (  0.1874555  0.4374489  0.3124246  )
       451        C      tau( 451) = (  0.1876437  0.4374345  0.5623782  )
       452        C      tau( 452) = (  0.1873628  0.4374938  0.8126151  )
       453        C      tau( 453) = (  0.1874933  0.6874707  0.0624015  )
       454        C      tau( 454) = (  0.1874314  0.6874404  0.3124651  )
       455        C      tau( 455) = (  0.1877533  0.6873157  0.5623721  )
       456        C      tau( 456) = (  0.1877494  0.6873716  0.8123007  )
       457        C      tau( 457) = (  0.1874959  0.9374605  0.0624703  )
       458        C      tau( 458) = (  0.1874498  0.9374683  0.3124764  )
       459        C      tau( 459) = (  0.1876022  0.9373442  0.5624597  )
       460        C      tau( 460) = (  0.1875742  0.9374069  0.8124461  )
       461        C      tau( 461) = (  0.4374523  0.1874520  0.0624217  )
       462        C      tau( 462) = (  0.4373889  0.1874163  0.3124357  )
       463        C      tau( 463) = (  0.4374314  0.1875153  0.5624264  )
       464        C      tau( 464) = (  0.4375135  0.1872655  0.8127003  )
       465        C      tau( 465) = (  0.4374538  0.4374745  0.0624548  )
       466        C      tau( 466) = (  0.4374440  0.4375782  0.3127343  )
       467        C      tau( 467) = (  0.4375556  0.4375124  0.8122974  )
       468        C      tau( 468) = (  0.4374976  0.6874665  0.0624873  )
       469        C      tau( 469) = (  0.4376730  0.6880511  0.3118795  )
       470        C      tau( 470) = (  0.4386510  0.6862678  0.5618152  )
       471        C      tau( 471) = (  0.4377484  0.6874348  0.8123323  )
       472        C      tau( 472) = (  0.4375040  0.9375141  0.0624251  )
       473        C      tau( 473) = (  0.4374850  0.9373937  0.3125200  )
       474        C      tau( 474) = (  0.4375452  0.9374156  0.5624980  )
       475        C      tau( 475) = (  0.4375606  0.9374566  0.8124726  )
       476        C      tau( 476) = (  0.6874612  0.1875158  0.0624527  )
       477        C      tau( 477) = (  0.6874117  0.1874392  0.3125014  )
       478        C      tau( 478) = (  0.6873372  0.1876595  0.5624646  )
       479        C      tau( 479) = (  0.6874001  0.1877086  0.8123646  )
       480        C      tau( 480) = (  0.6874402  0.4375191  0.0625309  )
       481        C      tau( 481) = (  0.6877372  0.4376468  0.3121499  )
       482        C      tau( 482) = (  0.6862459  0.4386432  0.5619588  )
       483        C      tau( 483) = (  0.6874719  0.4377196  0.8123914  )
       484        C      tau( 484) = (  0.6874873  0.6875028  0.0626260  )
       485        C      tau( 485) = (  0.6871120  0.6871848  0.3129463  )
       486        C      tau( 486) = (  0.6883560  0.6883922  0.5629097  )
       487        C      tau( 487) = (  0.6877771  0.6877705  0.8128928  )
       488        C      tau( 488) = (  0.6874877  0.9374920  0.0626060  )
       489        C      tau( 489) = (  0.6874497  0.9374195  0.3125947  )
       490        C      tau( 490) = (  0.6875458  0.9375812  0.5625747  )
       491        C      tau( 491) = (  0.6875935  0.9376877  0.8126266  )
       492        C      tau( 492) = (  0.9374508  0.1875128  0.0624929  )
       493        C      tau( 493) = (  0.9374356  0.1874880  0.3124993  )
       494        C      tau( 494) = (  0.9373462  0.1876212  0.5624785  )
       495        C      tau( 495) = (  0.9374312  0.1875736  0.8124669  )
       496        C      tau( 496) = (  0.9374667  0.4375155  0.0624805  )
       497        C      tau( 497) = (  0.9373556  0.4375101  0.3125586  )
       498        C      tau( 498) = (  0.9374229  0.4375536  0.5625111  )
       499        C      tau( 499) = (  0.9374847  0.4375624  0.8124774  )
       500        C      tau( 500) = (  0.9374759  0.6874922  0.0626034  )
       501        C      tau( 501) = (  0.9373879  0.6874529  0.3126068  )
       502        C      tau( 502) = (  0.9375867  0.6875346  0.5625705  )
       503        C      tau( 503) = (  0.9377062  0.6875820  0.8126118  )
       504        C      tau( 504) = (  0.9374939  0.9375011  0.0625492  )
       505        C      tau( 505) = (  0.9374342  0.9374535  0.3125438  )
       506        C      tau( 506) = (  0.9375716  0.9375671  0.5625316  )
       507        C      tau( 507) = (  0.9375863  0.9375750  0.8125438  )
       508        C      tau( 508) = (  0.5660469  0.4325471  0.4325564  )
       509        C      tau( 509) = (  0.4329483  0.4322310  0.5663800  )
       510        C      tau( 510) = (  0.4329486  0.5663708  0.4322404  )
       511        N      tau( 511) = (  0.5678802  0.5678196  0.5678284  )

     number of k points=     1
                       cart. coord. in units 2pi/alat
        k(    1) = (   0.0000000   0.0000000   0.0000000), wk =   1.0000000

                       cryst. coord.
        k(    1) = (   0.0000000   0.0000000   0.0000000), wk =   1.0000000

     Dense  grid:   948261 G-vectors     FFT dimensions: ( 160, 160, 160)

     Occupations read from input 

      Spin-up

        1.0000   1.0000   1.0000   1.0000   1.0000   1.0000   1.0000   1.0000
        1.0000   1.0000   1.0000   1.0000   1.0000   1.0000   1.0000   1.0000
        1.0000   1.0000   1.0000   1.0000   1.0000   1.0000   1.0000   1.0000
        1.0000   1.0000   1.0000   1.0000   1.0000   1.0000   1.0000   1.0000
        1.0000   1.0000   1.0000   1.0000   1.0000   1.0000   1.0000   1.0000
        1.0000   1.0000   1.0000   1.0000   1.0000   1.0000   1.0000   1.0000
        1.0000   1.0000   1.0000   1.0000   1.0000   1.0000   1.0000   1.0000
        1.0000   1.0000   1.0000   1.0000   1.0000   1.0000   1.0000   1.0000
        1.0000   1.0000   1.0000   1.0000   1.0000   1.0000   1.0000   1.0000
        1.0000   1.0000   1.0000   1.0000   1.0000   1.0000   1.0000   1.0000
        1.0000   1.0000   1.0000   1.0000   1.0000   1.0000   1.0000   1.0000
        1.0000   1.0000   1.0000   1.0000   1.0000   1.0000   1.0000   1.0000
        1.0000   1.0000   1.0000   1.0000   1.0000   1.0000   1.0000   1.0000
        1.0000   1.0000   1.0000   1.0000   1.0000   1.0000   1.0000   1.0000
        1.0000   1.0000   1.0000   1.0000   1.0000   1.0000   1.0000   1.0000
        1.0000   1.0000   1.0000   1.0000   1.0000   1.0000   1.0000   1.0000
        1.0000   1.0000   1.0000   1.0000   1.0000   1.0000   1.0000   1.0000
        1.0000   1.0000   1.0000   1.0000   1.0000   1.0000   1.0000   1.0000
        1.0000   1.0000   1.0000   1.0000   1.0000   1.0000   1.0000   1.0000
        1.0000   1.0000   1.0000   1.0000   1.0000   1.0000   1.0000   1.0000
        1.0000   1.0000   1.0000   1.0000   1.0000   1.0000   1.0000   1.0000
        1.0000   1.0000   1.0000   1.0000   1.0000   1.0000   1.0000   1.0000
        1.0000   1.0000   1.0000   1.0000   1.0000   1.0000   1.0000   1.0000
        1.0000   1.0000   1.0000   1.0000   1.0000   1.0000   1.0000   1.0000
        1.0000   1.0000   1.0000   1.0000   1.0000   1.0000   1.0000   1.0000
        1.0000   1.0000   1.0000   1.0000   1.0000   1.0000   1.0000   1.0000
        1.0000   1.0000   1.0000   1.0000   1.0000   1.0000   1.0000   1.0000
        1.0000   1.0000   1.0000   1.0000   1.0000   1.0000   1.0000   1.0000
        1.0000   1.0000   1.0000   1.0000   1.0000   1.0000   1.0000   1.0000
        1.0000   1.0000   1.0000   1.0000   1.0000   1.0000   1.0000   1.0000
        1.0000   1.0000   1.0000   1.0000   1.0000   1.0000   1.0000   1.0000
        1.0000   1.0000   1.0000   1.0000   1.0000   1.0000   1.0000   1.0000
        1.0000   1.0000   1.0000   1.0000   1.0000   1.0000   1.0000   1.0000
        1.0000   1.0000   1.0000   1.0000   1.0000   1.0000   1.0000   1.0000
        1.0000   1.0000   1.0000   1.0000   1.0000   1.0000   1.0000   1.0000
        1.0000   1.0000   1.0000   1.0000   1.0000   1.0000   1.0000   1.0000
        1.0000   1.0000   1.0000   1.0000   1.0000   1.0000   1.0000   1.0000
        1.0000   1.0000   1.0000   1.0000   1.0000   1.0000   1.0000   1.0000
        1.0000   1.0000   1.0000   1.0000   1.0000   1.0000   1.0000   1.0000
        1.0000   1.0000   1.0000   1.0000   1.0000   1.0000   1.0000   1.0000
        1.0000   1.0000   1.0000   1.0000   1.0000   1.0000   1.0000   1.0000
        1.0000   1.0000   1.0000   1.0000   1.0000   1.0000   1.0000   1.0000
        1.0000   1.0000   1.0000   1.0000   1.0000   1.0000   1.0000   1.0000
        1.0000   1.0000   1.0000   1.0000   1.0000   1.0000   1.0000   1.0000
        1.0000   1.0000   1.0000   1.0000   1.0000   1.0000   1.0000   1.0000
        1.0000   1.0000   1.0000   1.0000   1.0000   1.0000   1.0000   1.0000
        1.0000   1.0000   1.0000   1.0000   1.0000   1.0000   1.0000   1.0000
        1.0000   1.0000   1.0000   1.0000   1.0000   1.0000   1.0000   1.0000
        1.0000   1.0000   1.0000   1.0000   1.0000   1.0000   1.0000   1.0000
        1.0000   1.0000   1.0000   1.0000   1.0000   1.0000   1.0000   1.0000
        1.0000   1.0000   1.0000   1.0000   1.0000   1.0000   1.0000   1.0000
        1.0000   1.0000   1.0000   1.0000   1.0000   1.0000   1.0000   1.0000
        1.0000   1.0000   1.0000   1.0000   1.0000   1.0000   1.0000   1.0000
        1.0000   1.0000   1.0000   1.0000   1.0000   1.0000   1.0000   1.0000
        1.0000   1.0000   1.0000   1.0000   1.0000   1.0000   1.0000   1.0000
        1.0000   1.0000   1.0000   1.0000   1.0000   1.0000   1.0000   1.0000
        1.0000   1.0000   1.0000   1.0000   1.0000   1.0000   1.0000   1.0000
        1.0000   1.0000   1.0000   1.0000   1.0000   1.0000   1.0000   1.0000
        1.0000   1.0000   1.0000   1.0000   1.0000   1.0000   1.0000   1.0000
        1.0000   1.0000   1.0000   1.0000   1.0000   1.0000   1.0000   1.0000
        1.0000   1.0000   1.0000   1.0000   1.0000   1.0000   1.0000   1.0000
        1.0000   1.0000   1.0000   1.0000   1.0000   1.0000   1.0000   1.0000
        1.0000   1.0000   1.0000   1.0000   1.0000   1.0000   1.0000   1.0000
        1.0000   1.0000   1.0000   1.0000   1.0000   1.0000   1.0000   1.0000
        1.0000   1.0000   1.0000   1.0000   1.0000   1.0000   1.0000   1.0000
        1.0000   1.0000   1.0000   1.0000   1.0000   1.0000   1.0000   1.0000
        1.0000   1.0000   1.0000   1.0000   1.0000   1.0000   1.0000   1.0000
        1.0000   1.0000   1.0000   1.0000   1.0000   1.0000   1.0000   1.0000
        1.0000   1.0000   1.0000   1.0000   1.0000   1.0000   1.0000   1.0000
        1.0000   1.0000   1.0000   1.0000   1.0000   1.0000   1.0000   1.0000
        1.0000   1.0000   1.0000   1.0000   1.0000   1.0000   1.0000   1.0000
        1.0000   1.0000   1.0000   1.0000   1.0000   1.0000   1.0000   1.0000
        1.0000   1.0000   1.0000   1.0000   1.0000   1.0000   1.0000   1.0000
        1.0000   1.0000   1.0000   1.0000   1.0000   1.0000   1.0000   1.0000
        1.0000   1.0000   1.0000   1.0000   1.0000   1.0000   1.0000   1.0000
        1.0000   1.0000   1.0000   1.0000   1.0000   1.0000   1.0000   1.0000
        1.0000   1.0000   1.0000   1.0000   1.0000   1.0000   1.0000   1.0000
        1.0000   1.0000   1.0000   1.0000   1.0000   1.0000   1.0000   1.0000
        1.0000   1.0000   1.0000   1.0000   1.0000   1.0000   1.0000   1.0000
        1.0000   1.0000   1.0000   1.0000   1.0000   1.0000   1.0000   1.0000
        1.0000   1.0000   1.0000   1.0000   1.0000   1.0000   1.0000   1.0000
        1.0000   1.0000   1.0000   1.0000   1.0000   1.0000   1.0000   1.0000
        1.0000   1.0000   1.0000   1.0000   1.0000   1.0000   1.0000   1.0000
        1.0000   1.0000   1.0000   1.0000   1.0000   1.0000   1.0000   1.0000
        1.0000   1.0000   1.0000   1.0000   1.0000   1.0000   1.0000   1.0000
        1.0000   1.0000   1.0000   1.0000   1.0000   1.0000   1.0000   1.0000
        1.0000   1.0000   1.0000   1.0000   1.0000   1.0000   1.0000   1.0000
        1.0000   1.0000   1.0000   1.0000   1.0000   1.0000   1.0000   1.0000
        1.0000   1.0000   1.0000   1.0000   1.0000   1.0000   1.0000   1.0000
        1.0000   1.0000   1.0000   1.0000   1.0000   1.0000   1.0000   1.0000
        1.0000   1.0000   1.0000   1.0000   1.0000   1.0000   1.0000   1.0000
        1.0000   1.0000   1.0000   1.0000   1.0000   1.0000   1.0000   1.0000
        1.0000   1.0000   1.0000   1.0000   1.0000   1.0000   1.0000   1.0000
        1.0000   1.0000   1.0000   1.0000   1.0000   1.0000   1.0000   1.0000
        1.0000   1.0000   1.0000   1.0000   1.0000   1.0000   1.0000   1.0000
        1.0000   1.0000   1.0000   1.0000   1.0000   1.0000   1.0000   1.0000
        1.0000   1.0000   1.0000   1.0000   1.0000   1.0000   1.0000   1.0000
        1.0000   1.0000   1.0000   1.0000   1.0000   1.0000   1.0000   1.0000
        1.0000   1.0000   1.0000   1.0000   1.0000   1.0000   1.0000   1.0000
        1.0000   1.0000   1.0000   1.0000   1.0000   1.0000   1.0000   1.0000
        1.0000   1.0000   1.0000   1.0000   1.0000   1.0000   1.0000   1.0000
        1.0000   1.0000   1.0000   1.0000   1.0000   1.0000   1.0000   1.0000
        1.0000   1.0000   1.0000   1.0000   1.0000   1.0000   1.0000   1.0000
        1.0000   1.0000   1.0000   1.0000   1.0000   1.0000   1.0000   1.0000
        1.0000   1.0000   1.0000   1.0000   1.0000   1.0000   1.0000   1.0000
        1.0000   1.0000   1.0000   1.0000   1.0000   1.0000   1.0000   1.0000
        1.0000   1.0000   1.0000   1.0000   1.0000   1.0000   1.0000   1.0000
        1.0000   1.0000   1.0000   1.0000   1.0000   1.0000   1.0000   1.0000
        1.0000   1.0000   1.0000   1.0000   1.0000   1.0000   1.0000   1.0000
        1.0000   1.0000   1.0000   1.0000   1.0000   1.0000   1.0000   1.0000
        1.0000   1.0000   1.0000   1.0000   1.0000   1.0000   1.0000   1.0000
        1.0000   1.0000   1.0000   1.0000   1.0000   1.0000   1.0000   1.0000
        1.0000   1.0000   1.0000   1.0000   1.0000   1.0000   1.0000   1.0000
        1.0000   1.0000   1.0000   1.0000   1.0000   1.0000   1.0000   1.0000
        1.0000   1.0000   1.0000   1.0000   1.0000   1.0000   1.0000   1.0000
        1.0000   1.0000   1.0000   1.0000   1.0000   1.0000   1.0000   1.0000
        1.0000   1.0000   1.0000   1.0000   1.0000   1.0000   1.0000   1.0000
        1.0000   1.0000   1.0000   1.0000   1.0000   1.0000   1.0000   1.0000
        1.0000   1.0000   1.0000   1.0000   1.0000   1.0000   1.0000   1.0000
        1.0000   1.0000   1.0000   1.0000   1.0000   1.0000   1.0000   1.0000
        1.0000   1.0000   1.0000   1.0000   1.0000   1.0000   1.0000   1.0000
        1.0000   1.0000   1.0000   1.0000   1.0000   1.0000   1.0000   1.0000
        1.0000   1.0000   1.0000   1.0000   1.0000   1.0000   1.0000   1.0000
        1.0000   1.0000   1.0000   1.0000   1.0000   1.0000   1.0000   1.0000
        1.0000   1.0000   1.0000   1.0000   1.0000   1.0000   1.0000   1.0000
        1.0000   1.0000   1.0000   1.0000   1.0000   1.0000   1.0000   1.0000
        1.0000   1.0000   1.0000   1.0000   1.0000   1.0000   1.0000   1.0000
        1.0000   1.0000   1.0000   1.0000   1.0000   1.0000   1.0000   1.0000
        0.0000   0.0000   0.0000   0.0000   0.0000   0.0000   0.0000   0.0000

      Spin-down

        1.0000   1.0000   1.0000   1.0000   1.0000   1.0000   1.0000   1.0000
        1.0000   1.0000   1.0000   1.0000   1.0000   1.0000   1.0000   1.0000
        1.0000   1.0000   1.0000   1.0000   1.0000   1.0000   1.0000   1.0000
        1.0000   1.0000   1.0000   1.0000   1.0000   1.0000   1.0000   1.0000
        1.0000   1.0000   1.0000   1.0000   1.0000   1.0000   1.0000   1.0000
        1.0000   1.0000   1.0000   1.0000   1.0000   1.0000   1.0000   1.0000
        1.0000   1.0000   1.0000   1.0000   1.0000   1.0000   1.0000   1.0000
        1.0000   1.0000   1.0000   1.0000   1.0000   1.0000   1.0000   1.0000
        1.0000   1.0000   1.0000   1.0000   1.0000   1.0000   1.0000   1.0000
        1.0000   1.0000   1.0000   1.0000   1.0000   1.0000   1.0000   1.0000
        1.0000   1.0000   1.0000   1.0000   1.0000   1.0000   1.0000   1.0000
        1.0000   1.0000   1.0000   1.0000   1.0000   1.0000   1.0000   1.0000
        1.0000   1.0000   1.0000   1.0000   1.0000   1.0000   1.0000   1.0000
        1.0000   1.0000   1.0000   1.0000   1.0000   1.0000   1.0000   1.0000
        1.0000   1.0000   1.0000   1.0000   1.0000   1.0000   1.0000   1.0000
        1.0000   1.0000   1.0000   1.0000   1.0000   1.0000   1.0000   1.0000
        1.0000   1.0000   1.0000   1.0000   1.0000   1.0000   1.0000   1.0000
        1.0000   1.0000   1.0000   1.0000   1.0000   1.0000   1.0000   1.0000
        1.0000   1.0000   1.0000   1.0000   1.0000   1.0000   1.0000   1.0000
        1.0000   1.0000   1.0000   1.0000   1.0000   1.0000   1.0000   1.0000
        1.0000   1.0000   1.0000   1.0000   1.0000   1.0000   1.0000   1.0000
        1.0000   1.0000   1.0000   1.0000   1.0000   1.0000   1.0000   1.0000
        1.0000   1.0000   1.0000   1.0000   1.0000   1.0000   1.0000   1.0000
        1.0000   1.0000   1.0000   1.0000   1.0000   1.0000   1.0000   1.0000
        1.0000   1.0000   1.0000   1.0000   1.0000   1.0000   1.0000   1.0000
        1.0000   1.0000   1.0000   1.0000   1.0000   1.0000   1.0000   1.0000
        1.0000   1.0000   1.0000   1.0000   1.0000   1.0000   1.0000   1.0000
        1.0000   1.0000   1.0000   1.0000   1.0000   1.0000   1.0000   1.0000
        1.0000   1.0000   1.0000   1.0000   1.0000   1.0000   1.0000   1.0000
        1.0000   1.0000   1.0000   1.0000   1.0000   1.0000   1.0000   1.0000
        1.0000   1.0000   1.0000   1.0000   1.0000   1.0000   1.0000   1.0000
        1.0000   1.0000   1.0000   1.0000   1.0000   1.0000   1.0000   1.0000
        1.0000   1.0000   1.0000   1.0000   1.0000   1.0000   1.0000   1.0000
        1.0000   1.0000   1.0000   1.0000   1.0000   1.0000   1.0000   1.0000
        1.0000   1.0000   1.0000   1.0000   1.0000   1.0000   1.0000   1.0000
        1.0000   1.0000   1.0000   1.0000   1.0000   1.0000   1.0000   1.0000
        1.0000   1.0000   1.0000   1.0000   1.0000   1.0000   1.0000   1.0000
        1.0000   1.0000   1.0000   1.0000   1.0000   1.0000   1.0000   1.0000
        1.0000   1.0000   1.0000   1.0000   1.0000   1.0000   1.0000   1.0000
        1.0000   1.0000   1.0000   1.0000   1.0000   1.0000   1.0000   1.0000
        1.0000   1.0000   1.0000   1.0000   1.0000   1.0000   1.0000   1.0000
        1.0000   1.0000   1.0000   1.0000   1.0000   1.0000   1.0000   1.0000
        1.0000   1.0000   1.0000   1.0000   1.0000   1.0000   1.0000   1.0000
        1.0000   1.0000   1.0000   1.0000   1.0000   1.0000   1.0000   1.0000
        1.0000   1.0000   1.0000   1.0000   1.0000   1.0000   1.0000   1.0000
        1.0000   1.0000   1.0000   1.0000   1.0000   1.0000   1.0000   1.0000
        1.0000   1.0000   1.0000   1.0000   1.0000   1.0000   1.0000   1.0000
        1.0000   1.0000   1.0000   1.0000   1.0000   1.0000   1.0000   1.0000
        1.0000   1.0000   1.0000   1.0000   1.0000   1.0000   1.0000   1.0000
        1.0000   1.0000   1.0000   1.0000   1.0000   1.0000   1.0000   1.0000
        1.0000   1.0000   1.0000   1.0000   1.0000   1.0000   1.0000   1.0000
        1.0000   1.0000   1.0000   1.0000   1.0000   1.0000   1.0000   1.0000
        1.0000   1.0000   1.0000   1.0000   1.0000   1.0000   1.0000   1.0000
        1.0000   1.0000   1.0000   1.0000   1.0000   1.0000   1.0000   1.0000
        1.0000   1.0000   1.0000   1.0000   1.0000   1.0000   1.0000   1.0000
        1.0000   1.0000   1.0000   1.0000   1.0000   1.0000   1.0000   1.0000
        1.0000   1.0000   1.0000   1.0000   1.0000   1.0000   1.0000   1.0000
        1.0000   1.0000   1.0000   1.0000   1.0000   1.0000   1.0000   1.0000
        1.0000   1.0000   1.0000   1.0000   1.0000   1.0000   1.0000   1.0000
        1.0000   1.0000   1.0000   1.0000   1.0000   1.0000   1.0000   1.0000
        1.0000   1.0000   1.0000   1.0000   1.0000   1.0000   1.0000   1.0000
        1.0000   1.0000   1.0000   1.0000   1.0000   1.0000   1.0000   1.0000
        1.0000   1.0000   1.0000   1.0000   1.0000   1.0000   1.0000   1.0000
        1.0000   1.0000   1.0000   1.0000   1.0000   1.0000   1.0000   1.0000
        1.0000   1.0000   1.0000   1.0000   1.0000   1.0000   1.0000   1.0000
        1.0000   1.0000   1.0000   1.0000   1.0000   1.0000   1.0000   1.0000
        1.0000   1.0000   1.0000   1.0000   1.0000   1.0000   1.0000   1.0000
        1.0000   1.0000   1.0000   1.0000   1.0000   1.0000   1.0000   1.0000
        1.0000   1.0000   1.0000   1.0000   1.0000   1.0000   1.0000   1.0000
        1.0000   1.0000   1.0000   1.0000   1.0000   1.0000   1.0000   1.0000
        1.0000   1.0000   1.0000   1.0000   1.0000   1.0000   1.0000   1.0000
        1.0000   1.0000   1.0000   1.0000   1.0000   1.0000   1.0000   1.0000
        1.0000   1.0000   1.0000   1.0000   1.0000   1.0000   1.0000   1.0000
        1.0000   1.0000   1.0000   1.0000   1.0000   1.0000   1.0000   1.0000
        1.0000   1.0000   1.0000   1.0000   1.0000   1.0000   1.0000   1.0000
        1.0000   1.0000   1.0000   1.0000   1.0000   1.0000   1.0000   1.0000
        1.0000   1.0000   1.0000   1.0000   1.0000   1.0000   1.0000   1.0000
        1.0000   1.0000   1.0000   1.0000   1.0000   1.0000   1.0000   1.0000
        1.0000   1.0000   1.0000   1.0000   1.0000   1.0000   1.0000   1.0000
        1.0000   1.0000   1.0000   1.0000   1.0000   1.0000   1.0000   1.0000
        1.0000   1.0000   1.0000   1.0000   1.0000   1.0000   1.0000   1.0000
        1.0000   1.0000   1.0000   1.0000   1.0000   1.0000   1.0000   1.0000
        1.0000   1.0000   1.0000   1.0000   1.0000   1.0000   1.0000   1.0000
        1.0000   1.0000   1.0000   1.0000   1.0000   1.0000   1.0000   1.0000
        1.0000   1.0000   1.0000   1.0000   1.0000   1.0000   1.0000   1.0000
        1.0000   1.0000   1.0000   1.0000   1.0000   1.0000   1.0000   1.0000
        1.0000   1.0000   1.0000   1.0000   1.0000   1.0000   1.0000   1.0000
        1.0000   1.0000   1.0000   1.0000   1.0000   1.0000   1.0000   1.0000
        1.0000   1.0000   1.0000   1.0000   1.0000   1.0000   1.0000   1.0000
        1.0000   1.0000   1.0000   1.0000   1.0000   1.0000   1.0000   1.0000
        1.0000   1.0000   1.0000   1.0000   1.0000   1.0000   1.0000   1.0000
        1.0000   1.0000   1.0000   1.0000   1.0000   1.0000   1.0000   1.0000
        1.0000   1.0000   1.0000   1.0000   1.0000   1.0000   1.0000   1.0000
        1.0000   1.0000   1.0000   1.0000   1.0000   1.0000   1.0000   1.0000
        1.0000   1.0000   1.0000   1.0000   1.0000   1.0000   1.0000   1.0000
        1.0000   1.0000   1.0000   1.0000   1.0000   1.0000   1.0000   1.0000
        1.0000   1.0000   1.0000   1.0000   1.0000   1.0000   1.0000   1.0000
        1.0000   1.0000   1.0000   1.0000   1.0000   1.0000   1.0000   1.0000
        1.0000   1.0000   1.0000   1.0000   1.0000   1.0000   1.0000   1.0000
        1.0000   1.0000   1.0000   1.0000   1.0000   1.0000   1.0000   1.0000
        1.0000   1.0000   1.0000   1.0000   1.0000   1.0000   1.0000   1.0000
        1.0000   1.0000   1.0000   1.0000   1.0000   1.0000   1.0000   1.0000
        1.0000   1.0000   1.0000   1.0000   1.0000   1.0000   1.0000   1.0000
        1.0000   1.0000   1.0000   1.0000   1.0000   1.0000   1.0000   1.0000
        1.0000   1.0000   1.0000   1.0000   1.0000   1.0000   1.0000   1.0000
        1.0000   1.0000   1.0000   1.0000   1.0000   1.0000   1.0000   1.0000
        1.0000   1.0000   1.0000   1.0000   1.0000   1.0000   1.0000   1.0000
        1.0000   1.0000   1.0000   1.0000   1.0000   1.0000   1.0000   1.0000
        1.0000   1.0000   1.0000   1.0000   1.0000   1.0000   1.0000   1.0000
        1.0000   1.0000   1.0000   1.0000   1.0000   1.0000   1.0000   1.0000
        1.0000   1.0000   1.0000   1.0000   1.0000   1.0000   1.0000   1.0000
        1.0000   1.0000   1.0000   1.0000   1.0000   1.0000   1.0000   1.0000
        1.0000   1.0000   1.0000   1.0000   1.0000   1.0000   1.0000   1.0000
        1.0000   1.0000   1.0000   1.0000   1.0000   1.0000   1.0000   1.0000
        1.0000   1.0000   1.0000   1.0000   1.0000   1.0000   1.0000   1.0000
        1.0000   1.0000   1.0000   1.0000   1.0000   1.0000   1.0000   1.0000
        1.0000   1.0000   1.0000   1.0000   1.0000   1.0000   1.0000   1.0000
        1.0000   1.0000   1.0000   1.0000   1.0000   1.0000   1.0000   1.0000
        1.0000   1.0000   1.0000   1.0000   1.0000   1.0000   1.0000   1.0000
        1.0000   1.0000   1.0000   1.0000   1.0000   1.0000   1.0000   1.0000
        1.0000   1.0000   1.0000   1.0000   1.0000   1.0000   1.0000   1.0000
        1.0000   1.0000   1.0000   1.0000   1.0000   1.0000   1.0000   1.0000
        1.0000   1.0000   1.0000   1.0000   1.0000   1.0000   1.0000   1.0000
        1.0000   1.0000   1.0000   1.0000   1.0000   1.0000   1.0000   1.0000
        1.0000   1.0000   1.0000   1.0000   1.0000   1.0000   1.0000   1.0000
        1.0000   1.0000   1.0000   1.0000   1.0000   1.0000   1.0000   1.0000
        1.0000   1.0000   1.0000   1.0000   1.0000   1.0000   1.0000   1.0000
        1.0000   1.0000   1.0000   1.0000   1.0000   0.0000   1.0000   0.0000
        0.0000   0.0000   0.0000   0.0000   0.0000   0.0000   0.0000   0.0000

     Dynamical RAM for                 wfc:      38.88 MB

     Dynamical RAM for     wfc (w. buffer):      38.88 MB

     Dynamical RAM for           str. fact:       0.60 MB

     Dynamical RAM for           local pot:       0.00 MB

     Dynamical RAM for          nlocal pot:     154.01 MB

     Dynamical RAM for                qrad:       0.82 MB

     Dynamical RAM for          rho,v,vnew:       6.50 MB

     Dynamical RAM for               rhoin:       2.17 MB

     Dynamical RAM for            rho*nmix:       9.65 MB

     Dynamical RAM for           G-vectors:       1.28 MB

     Dynamical RAM for          h,s,v(r/c):       2.71 MB

     Dynamical RAM for          <psi|beta>:      32.19 MB

     Dynamical RAM for                 psi:      77.76 MB

     Dynamical RAM for                hpsi:      77.76 MB

     Dynamical RAM for      wfcinit/wfcrot:     102.14 MB

     Estimated static dynamical RAM per process >     209.85 MB

     Estimated max dynamical RAM per process >     409.91 MB

     Estimated total dynamical RAM >      37.98 GB
     Generating pointlists ...
     new r_m :   0.0427 (alat units)  1.1514 (a.u.) for type    1
     new r_m :   0.0427 (alat units)  1.1514 (a.u.) for type    2

     Initial potential from superposition of free atoms

     starting charge    2041.4445, renormalised to    2046.0000
     Starting wfcs are random

     total cpu time spent up to now is       18.5 secs

     Self-consistent Calculation

     iteration #  1     ecut=    80.00 Ry     beta= 0.70
     Davidson diagonalization with overlap

---- Real-time Memory Report at c_bands before calling an iterative solver
           512 MiB given to the printing process from OS
             0 MiB allocation reported by mallinfo(arena+hblkhd)
        160629 MiB available memory on the node where the printing process lives
------------------
     ethr =  1.00E-02,  avg # of iterations = 13.0

     total cpu time spent up to now is      130.9 secs

     total energy              =   -5823.74232220 Ry
     estimated scf accuracy    <      29.18953255 Ry

     total magnetization       =     2.00 Bohr mag/cell
     absolute magnetization    =     2.00 Bohr mag/cell

     iteration #  2     ecut=    80.00 Ry     beta= 0.70
     Davidson diagonalization with overlap

---- Real-time Memory Report at c_bands before calling an iterative solver
           629 MiB given to the printing process from OS
             0 MiB allocation reported by mallinfo(arena+hblkhd)
        159090 MiB available memory on the node where the printing process lives
------------------
     ethr =  1.43E-03,  avg # of iterations = 14.0

     total cpu time spent up to now is      167.7 secs

     total energy              =   -5824.86940631 Ry
     estimated scf accuracy    <       5.70681354 Ry

     total magnetization       =     2.00 Bohr mag/cell
     absolute magnetization    =     2.13 Bohr mag/cell

     iteration #  3     ecut=    80.00 Ry     beta= 0.70
     Davidson diagonalization with overlap

---- Real-time Memory Report at c_bands before calling an iterative solver
           651 MiB given to the printing process from OS
             0 MiB allocation reported by mallinfo(arena+hblkhd)
        158931 MiB available memory on the node where the printing process lives
------------------
     ethr =  2.79E-04,  avg # of iterations = 12.0

     total cpu time spent up to now is      211.6 secs

     total energy              =   -5817.10117808 Ry
     estimated scf accuracy    <      84.93195599 Ry

     total magnetization       =     2.00 Bohr mag/cell
     absolute magnetization    =     2.54 Bohr mag/cell

     iteration #  4     ecut=    80.00 Ry     beta= 0.70
     Davidson diagonalization with overlap

---- Real-time Memory Report at c_bands before calling an iterative solver
           658 MiB given to the printing process from OS
             0 MiB allocation reported by mallinfo(arena+hblkhd)
        158715 MiB available memory on the node where the printing process lives
------------------
     c_bands:  2 eigenvalues not converged
     ethr =  2.79E-04,  avg # of iterations = 20.0

     total cpu time spent up to now is      238.3 secs

     total energy              =   -5828.65434242 Ry
     estimated scf accuracy    <       2.58368262 Ry

     total magnetization       =     2.00 Bohr mag/cell
     absolute magnetization    =     2.15 Bohr mag/cell

     iteration #  5     ecut=    80.00 Ry     beta= 0.70
     Davidson diagonalization with overlap

---- Real-time Memory Report at c_bands before calling an iterative solver
           661 MiB given to the printing process from OS
             0 MiB allocation reported by mallinfo(arena+hblkhd)
        158715 MiB available memory on the node where the printing process lives
------------------
     ethr =  1.26E-04,  avg # of iterations = 13.0

     total cpu time spent up to now is      274.6 secs

     total energy              =   -5828.92793772 Ry
     estimated scf accuracy    <       0.22526933 Ry

     total magnetization       =     2.00 Bohr mag/cell
     absolute magnetization    =     2.15 Bohr mag/cell

     iteration #  6     ecut=    80.00 Ry     beta= 0.70
     Davidson diagonalization with overlap

---- Real-time Memory Report at c_bands before calling an iterative solver
           661 MiB given to the printing process from OS
             0 MiB allocation reported by mallinfo(arena+hblkhd)
        158714 MiB available memory on the node where the printing process lives
------------------
     c_bands:  2 eigenvalues not converged
     ethr =  1.10E-05,  avg # of iterations = 20.0

     total cpu time spent up to now is      308.6 secs

     total energy              =   -5828.95212764 Ry
     estimated scf accuracy    <       0.06993113 Ry

     total magnetization       =     2.00 Bohr mag/cell
     absolute magnetization    =     2.17 Bohr mag/cell

     iteration #  7     ecut=    80.00 Ry     beta= 0.70
     Davidson diagonalization with overlap

---- Real-time Memory Report at c_bands before calling an iterative solver
           661 MiB given to the printing process from OS
             0 MiB allocation reported by mallinfo(arena+hblkhd)
        158714 MiB available memory on the node where the printing process lives
------------------
     c_bands:  1 eigenvalues not converged
     ethr =  3.42E-06,  avg # of iterations = 20.0

     total cpu time spent up to now is      332.0 secs

     total energy              =   -5828.95998199 Ry
     estimated scf accuracy    <       0.10355935 Ry

     total magnetization       =     2.00 Bohr mag/cell
     absolute magnetization    =     2.18 Bohr mag/cell

     iteration #  8     ecut=    80.00 Ry     beta= 0.70
     Davidson diagonalization with overlap

---- Real-time Memory Report at c_bands before calling an iterative solver
           661 MiB given to the printing process from OS
             0 MiB allocation reported by mallinfo(arena+hblkhd)
        158714 MiB available memory on the node where the printing process lives
------------------
     ethr =  3.42E-06,  avg # of iterations = 11.0

     total cpu time spent up to now is      348.5 secs

     total energy              =   -5828.96522686 Ry
     estimated scf accuracy    <       0.03282856 Ry

     total magnetization       =     2.00 Bohr mag/cell
     absolute magnetization    =     2.18 Bohr mag/cell

     iteration #  9     ecut=    80.00 Ry     beta= 0.70
     Davidson diagonalization with overlap

---- Real-time Memory Report at c_bands before calling an iterative solver
           661 MiB given to the printing process from OS
             0 MiB allocation reported by mallinfo(arena+hblkhd)
        158714 MiB available memory on the node where the printing process lives
------------------
     c_bands:  1 eigenvalues not converged
     ethr =  1.60E-06,  avg # of iterations = 16.5

     total cpu time spent up to now is      375.1 secs

     total energy              =   -5828.96305035 Ry
     estimated scf accuracy    <       0.07400110 Ry

     total magnetization       =     2.00 Bohr mag/cell
     absolute magnetization    =     2.21 Bohr mag/cell

     iteration # 10     ecut=    80.00 Ry     beta= 0.70
     Davidson diagonalization with overlap

---- Real-time Memory Report at c_bands before calling an iterative solver
           661 MiB given to the printing process from OS
             0 MiB allocation reported by mallinfo(arena+hblkhd)
        158713 MiB available memory on the node where the printing process lives
------------------
     ethr =  1.60E-06,  avg # of iterations = 12.5

     total cpu time spent up to now is      391.4 secs

     total energy              =   -5828.96912318 Ry
     estimated scf accuracy    <       0.02122563 Ry

     total magnetization       =     2.00 Bohr mag/cell
     absolute magnetization    =     2.22 Bohr mag/cell

     iteration # 11     ecut=    80.00 Ry     beta= 0.70
     Davidson diagonalization with overlap

---- Real-time Memory Report at c_bands before calling an iterative solver
           661 MiB given to the printing process from OS
             0 MiB allocation reported by mallinfo(arena+hblkhd)
        158713 MiB available memory on the node where the printing process lives
------------------
     ethr =  1.04E-06,  avg # of iterations = 11.5

     total cpu time spent up to now is      407.6 secs

     total energy              =   -5828.96906698 Ry
     estimated scf accuracy    <       0.01219614 Ry

     total magnetization       =     2.00 Bohr mag/cell
     absolute magnetization    =     2.23 Bohr mag/cell

     iteration # 12     ecut=    80.00 Ry     beta= 0.70
     Davidson diagonalization with overlap

---- Real-time Memory Report at c_bands before calling an iterative solver
           661 MiB given to the printing process from OS
             0 MiB allocation reported by mallinfo(arena+hblkhd)
        158713 MiB available memory on the node where the printing process lives
------------------
     ethr =  5.96E-07,  avg # of iterations =  7.0

     total cpu time spent up to now is      423.0 secs

     total energy              =   -5828.96888960 Ry
     estimated scf accuracy    <       0.01224436 Ry

     total magnetization       =     2.00 Bohr mag/cell
     absolute magnetization    =     2.24 Bohr mag/cell

     iteration # 13     ecut=    80.00 Ry     beta= 0.70
     Davidson diagonalization with overlap

---- Real-time Memory Report at c_bands before calling an iterative solver
           661 MiB given to the printing process from OS
             0 MiB allocation reported by mallinfo(arena+hblkhd)
        158712 MiB available memory on the node where the printing process lives
------------------
     ethr =  5.96E-07,  avg # of iterations =  4.0

     total cpu time spent up to now is      438.6 secs

     total energy              =   -5828.96890975 Ry
     estimated scf accuracy    <       0.00529782 Ry

     total magnetization       =     2.00 Bohr mag/cell
     absolute magnetization    =     2.24 Bohr mag/cell

     iteration # 14     ecut=    80.00 Ry     beta= 0.70
     Davidson diagonalization with overlap

---- Real-time Memory Report at c_bands before calling an iterative solver
           661 MiB given to the printing process from OS
             0 MiB allocation reported by mallinfo(arena+hblkhd)
        158713 MiB available memory on the node where the printing process lives
------------------
     ethr =  2.59E-07,  avg # of iterations =  6.5

     total cpu time spent up to now is      463.9 secs

     total energy              =   -5828.96887024 Ry
     estimated scf accuracy    <       0.03449969 Ry

     total magnetization       =     2.00 Bohr mag/cell
     absolute magnetization    =     2.25 Bohr mag/cell

     iteration # 15     ecut=    80.00 Ry     beta= 0.70
     Davidson diagonalization with overlap

---- Real-time Memory Report at c_bands before calling an iterative solver
           661 MiB given to the printing process from OS
             0 MiB allocation reported by mallinfo(arena+hblkhd)
        158712 MiB available memory on the node where the printing process lives
------------------
     ethr =  2.59E-07,  avg # of iterations =  3.0

     total cpu time spent up to now is      478.4 secs

     total energy              =   -5828.96906264 Ry
     estimated scf accuracy    <       0.00508652 Ry

     total magnetization       =     2.00 Bohr mag/cell
     absolute magnetization    =     2.25 Bohr mag/cell

     iteration # 16     ecut=    80.00 Ry     beta= 0.70
     Davidson diagonalization with overlap

---- Real-time Memory Report at c_bands before calling an iterative solver
           661 MiB given to the printing process from OS
             0 MiB allocation reported by mallinfo(arena+hblkhd)
        158712 MiB available memory on the node where the printing process lives
------------------
     ethr =  2.49E-07,  avg # of iterations =  2.0

     total cpu time spent up to now is      492.4 secs

     total energy              =   -5828.96913101 Ry
     estimated scf accuracy    <       0.00549126 Ry

     total magnetization       =     2.00 Bohr mag/cell
     absolute magnetization    =     2.25 Bohr mag/cell

     iteration # 17     ecut=    80.00 Ry     beta= 0.70
     Davidson diagonalization with overlap

---- Real-time Memory Report at c_bands before calling an iterative solver
           661 MiB given to the printing process from OS
             0 MiB allocation reported by mallinfo(arena+hblkhd)
        158713 MiB available memory on the node where the printing process lives
------------------
     ethr =  2.49E-07,  avg # of iterations =  1.0

     total cpu time spent up to now is      510.5 secs

     total energy              =   -5828.96920930 Ry
     estimated scf accuracy    <       0.00382515 Ry

     total magnetization       =     2.00 Bohr mag/cell
     absolute magnetization    =     2.25 Bohr mag/cell

     iteration # 18     ecut=    80.00 Ry     beta= 0.70
     Davidson diagonalization with overlap

---- Real-time Memory Report at c_bands before calling an iterative solver
           661 MiB given to the printing process from OS
             0 MiB allocation reported by mallinfo(arena+hblkhd)
        158711 MiB available memory on the node where the printing process lives
------------------
     ethr =  1.87E-07,  avg # of iterations =  1.5

     total cpu time spent up to now is      524.1 secs

     total energy              =   -5828.96938552 Ry
     estimated scf accuracy    <       0.00416554 Ry

     total magnetization       =     2.00 Bohr mag/cell
     absolute magnetization    =     2.25 Bohr mag/cell

     iteration # 19     ecut=    80.00 Ry     beta= 0.70
     Davidson diagonalization with overlap

---- Real-time Memory Report at c_bands before calling an iterative solver
           661 MiB given to the printing process from OS
             0 MiB allocation reported by mallinfo(arena+hblkhd)
        158712 MiB available memory on the node where the printing process lives
------------------
     ethr =  1.87E-07,  avg # of iterations =  2.5

     total cpu time spent up to now is      538.7 secs

     total energy              =   -5828.96967316 Ry
     estimated scf accuracy    <       0.00477966 Ry

     total magnetization       =     2.00 Bohr mag/cell
     absolute magnetization    =     2.26 Bohr mag/cell

     iteration # 20     ecut=    80.00 Ry     beta= 0.70
     Davidson diagonalization with overlap

---- Real-time Memory Report at c_bands before calling an iterative solver
           661 MiB given to the printing process from OS
             0 MiB allocation reported by mallinfo(arena+hblkhd)
        158712 MiB available memory on the node where the printing process lives
------------------
     ethr =  1.87E-07,  avg # of iterations =  3.5

     total cpu time spent up to now is      563.3 secs

     total energy              =   -5828.96966671 Ry
     estimated scf accuracy    <       0.00683316 Ry

     total magnetization       =     2.00 Bohr mag/cell
     absolute magnetization    =     2.26 Bohr mag/cell

     iteration # 21     ecut=    80.00 Ry     beta= 0.70
     Davidson diagonalization with overlap

---- Real-time Memory Report at c_bands before calling an iterative solver
           661 MiB given to the printing process from OS
             0 MiB allocation reported by mallinfo(arena+hblkhd)
        158712 MiB available memory on the node where the printing process lives
------------------
     ethr =  1.87E-07,  avg # of iterations =  1.0

     total cpu time spent up to now is      575.8 secs

     total energy              =   -5828.96970651 Ry
     estimated scf accuracy    <       0.00672867 Ry

     total magnetization       =     2.00 Bohr mag/cell
     absolute magnetization    =     2.26 Bohr mag/cell

     iteration # 22     ecut=    80.00 Ry     beta= 0.70
     Davidson diagonalization with overlap

---- Real-time Memory Report at c_bands before calling an iterative solver
           661 MiB given to the printing process from OS
             0 MiB allocation reported by mallinfo(arena+hblkhd)
        158712 MiB available memory on the node where the printing process lives
------------------
     ethr =  1.87E-07,  avg # of iterations =  2.5

     total cpu time spent up to now is      590.8 secs

     total energy              =   -5828.96909061 Ry
     estimated scf accuracy    <       0.00814379 Ry

     total magnetization       =     2.00 Bohr mag/cell
     absolute magnetization    =     2.26 Bohr mag/cell

     iteration # 23     ecut=    80.00 Ry     beta= 0.70
     Davidson diagonalization with overlap

---- Real-time Memory Report at c_bands before calling an iterative solver
           661 MiB given to the printing process from OS
             0 MiB allocation reported by mallinfo(arena+hblkhd)
        158712 MiB available memory on the node where the printing process lives
------------------
     c_bands:  2 eigenvalues not converged
     ethr =  1.87E-07,  avg # of iterations = 20.0

     total cpu time spent up to now is      609.4 secs

     total energy              =   -5828.96896239 Ry
     estimated scf accuracy    <       0.00358650 Ry

     total magnetization       =     2.00 Bohr mag/cell
     absolute magnetization    =     2.26 Bohr mag/cell

     iteration # 24     ecut=    80.00 Ry     beta= 0.70
     Davidson diagonalization with overlap

---- Real-time Memory Report at c_bands before calling an iterative solver
           661 MiB given to the printing process from OS
             0 MiB allocation reported by mallinfo(arena+hblkhd)
        158713 MiB available memory on the node where the printing process lives
------------------
     ethr =  1.75E-07,  avg # of iterations =  8.5

     total cpu time spent up to now is      625.5 secs

     total energy              =   -5828.96925911 Ry
     estimated scf accuracy    <       0.00044765 Ry

     total magnetization       =     2.00 Bohr mag/cell
     absolute magnetization    =     2.26 Bohr mag/cell

     iteration # 25     ecut=    80.00 Ry     beta= 0.70
     Davidson diagonalization with overlap

---- Real-time Memory Report at c_bands before calling an iterative solver
           661 MiB given to the printing process from OS
             0 MiB allocation reported by mallinfo(arena+hblkhd)
        158711 MiB available memory on the node where the printing process lives
------------------
     c_bands:  2 eigenvalues not converged
     ethr =  2.19E-08,  avg # of iterations = 20.0

     total cpu time spent up to now is      650.9 secs

     total energy              =   -5828.96937507 Ry
     estimated scf accuracy    <       0.00012997 Ry

     total magnetization       =     2.00 Bohr mag/cell
     absolute magnetization    =     2.26 Bohr mag/cell

     iteration # 26     ecut=    80.00 Ry     beta= 0.70
     Davidson diagonalization with overlap

---- Real-time Memory Report at c_bands before calling an iterative solver
           661 MiB given to the printing process from OS
             0 MiB allocation reported by mallinfo(arena+hblkhd)
        158712 MiB available memory on the node where the printing process lives
------------------
     ethr =  6.35E-09,  avg # of iterations = 13.0

     total cpu time spent up to now is      672.6 secs

     total energy              =   -5828.96936794 Ry
     estimated scf accuracy    <       0.00007512 Ry

     total magnetization       =     2.00 Bohr mag/cell
     absolute magnetization    =     2.26 Bohr mag/cell

     iteration # 27     ecut=    80.00 Ry     beta= 0.70
     Davidson diagonalization with overlap

---- Real-time Memory Report at c_bands before calling an iterative solver
           661 MiB given to the printing process from OS
             0 MiB allocation reported by mallinfo(arena+hblkhd)
        158712 MiB available memory on the node where the printing process lives
------------------
     ethr =  3.67E-09,  avg # of iterations = 14.0

     total cpu time spent up to now is      697.8 secs

     total energy              =   -5828.96937665 Ry
     estimated scf accuracy    <       0.00002220 Ry

     total magnetization       =     2.00 Bohr mag/cell
     absolute magnetization    =     2.26 Bohr mag/cell

     iteration # 28     ecut=    80.00 Ry     beta= 0.70
     Davidson diagonalization with overlap

---- Real-time Memory Report at c_bands before calling an iterative solver
           661 MiB given to the printing process from OS
             0 MiB allocation reported by mallinfo(arena+hblkhd)
        158712 MiB available memory on the node where the printing process lives
------------------
     c_bands:  1 eigenvalues not converged
     ethr =  1.08E-09,  avg # of iterations = 17.0

     total cpu time spent up to now is      725.3 secs

     total energy              =   -5828.96938028 Ry
     estimated scf accuracy    <       0.00012747 Ry

     total magnetization       =     2.00 Bohr mag/cell
     absolute magnetization    =     2.27 Bohr mag/cell

     iteration # 29     ecut=    80.00 Ry     beta= 0.70
     Davidson diagonalization with overlap

---- Real-time Memory Report at c_bands before calling an iterative solver
           661 MiB given to the printing process from OS
             0 MiB allocation reported by mallinfo(arena+hblkhd)
        158711 MiB available memory on the node where the printing process lives
------------------
     ethr =  1.08E-09,  avg # of iterations =  1.0

     total cpu time spent up to now is      736.5 secs

     total energy              =   -5828.96937910 Ry
     estimated scf accuracy    <       0.00011672 Ry

     total magnetization       =     2.00 Bohr mag/cell
     absolute magnetization    =     2.27 Bohr mag/cell

     iteration # 30     ecut=    80.00 Ry     beta= 0.70
     Davidson diagonalization with overlap

---- Real-time Memory Report at c_bands before calling an iterative solver
           661 MiB given to the printing process from OS
             0 MiB allocation reported by mallinfo(arena+hblkhd)
        158712 MiB available memory on the node where the printing process lives
------------------
     ethr =  1.08E-09,  avg # of iterations = 12.0

     total cpu time spent up to now is      752.2 secs

     total energy              =   -5828.96937969 Ry
     estimated scf accuracy    <       0.00007333 Ry

     total magnetization       =     2.00 Bohr mag/cell
     absolute magnetization    =     2.27 Bohr mag/cell

     iteration # 31     ecut=    80.00 Ry     beta= 0.70
     Davidson diagonalization with overlap

---- Real-time Memory Report at c_bands before calling an iterative solver
           661 MiB given to the printing process from OS
             0 MiB allocation reported by mallinfo(arena+hblkhd)
        158712 MiB available memory on the node where the printing process lives
------------------
     ethr =  1.08E-09,  avg # of iterations =  8.5

     total cpu time spent up to now is      773.7 secs

     total energy              =   -5828.96937889 Ry
     estimated scf accuracy    <       0.00006985 Ry

     total magnetization       =     2.00 Bohr mag/cell
     absolute magnetization    =     2.27 Bohr mag/cell

     iteration # 32     ecut=    80.00 Ry     beta= 0.70
     Davidson diagonalization with overlap

---- Real-time Memory Report at c_bands before calling an iterative solver
           661 MiB given to the printing process from OS
             0 MiB allocation reported by mallinfo(arena+hblkhd)
        158712 MiB available memory on the node where the printing process lives
------------------
     ethr =  1.08E-09,  avg # of iterations = 12.0

     total cpu time spent up to now is      793.0 secs

     total energy              =   -5828.96937966 Ry
     estimated scf accuracy    <       0.00002499 Ry

     total magnetization       =     2.00 Bohr mag/cell
     absolute magnetization    =     2.27 Bohr mag/cell

     iteration # 33     ecut=    80.00 Ry     beta= 0.70
     Davidson diagonalization with overlap

---- Real-time Memory Report at c_bands before calling an iterative solver
           661 MiB given to the printing process from OS
             0 MiB allocation reported by mallinfo(arena+hblkhd)
        158712 MiB available memory on the node where the printing process lives
------------------
     ethr =  1.08E-09,  avg # of iterations = 11.5

     total cpu time spent up to now is      820.9 secs

     total energy              =   -5828.96937972 Ry
     estimated scf accuracy    <       0.00004934 Ry

     total magnetization       =     2.00 Bohr mag/cell
     absolute magnetization    =     2.27 Bohr mag/cell

     iteration # 34     ecut=    80.00 Ry     beta= 0.70
     Davidson diagonalization with overlap

---- Real-time Memory Report at c_bands before calling an iterative solver
           661 MiB given to the printing process from OS
             0 MiB allocation reported by mallinfo(arena+hblkhd)
        158710 MiB available memory on the node where the printing process lives
------------------
     ethr =  1.08E-09,  avg # of iterations =  3.5

     total cpu time spent up to now is      836.2 secs

     total energy              =   -5828.96937994 Ry
     estimated scf accuracy    <       0.00003100 Ry

     total magnetization       =     2.00 Bohr mag/cell
     absolute magnetization    =     2.27 Bohr mag/cell

     iteration # 35     ecut=    80.00 Ry     beta= 0.70
     Davidson diagonalization with overlap

---- Real-time Memory Report at c_bands before calling an iterative solver
           661 MiB given to the printing process from OS
             0 MiB allocation reported by mallinfo(arena+hblkhd)
        158711 MiB available memory on the node where the printing process lives
------------------
     ethr =  1.08E-09,  avg # of iterations =  1.0

     total cpu time spent up to now is      850.1 secs

     total energy              =   -5828.96937944 Ry
     estimated scf accuracy    <       0.00002767 Ry

     total magnetization       =     2.00 Bohr mag/cell
     absolute magnetization    =     2.27 Bohr mag/cell

     iteration # 36     ecut=    80.00 Ry     beta= 0.70
     Davidson diagonalization with overlap

---- Real-time Memory Report at c_bands before calling an iterative solver
           661 MiB given to the printing process from OS
             0 MiB allocation reported by mallinfo(arena+hblkhd)
        158711 MiB available memory on the node where the printing process lives
------------------
     ethr =  1.08E-09,  avg # of iterations =  6.0

     total cpu time spent up to now is      863.9 secs

     total energy              =   -5828.96937942 Ry
     estimated scf accuracy    <       0.00001209 Ry

     total magnetization       =     2.00 Bohr mag/cell
     absolute magnetization    =     2.27 Bohr mag/cell

     iteration # 37     ecut=    80.00 Ry     beta= 0.70
     Davidson diagonalization with overlap

---- Real-time Memory Report at c_bands before calling an iterative solver
           661 MiB given to the printing process from OS
             0 MiB allocation reported by mallinfo(arena+hblkhd)
        158712 MiB available memory on the node where the printing process lives
------------------
     ethr =  5.91E-10,  avg # of iterations = 10.0

     total cpu time spent up to now is      879.4 secs

     total energy              =   -5828.96937821 Ry
     estimated scf accuracy    <       0.00001266 Ry

     total magnetization       =     2.00 Bohr mag/cell
     absolute magnetization    =     2.27 Bohr mag/cell

     iteration # 38     ecut=    80.00 Ry     beta= 0.70
     Davidson diagonalization with overlap

---- Real-time Memory Report at c_bands before calling an iterative solver
           661 MiB given to the printing process from OS
             0 MiB allocation reported by mallinfo(arena+hblkhd)
        158711 MiB available memory on the node where the printing process lives
------------------
     ethr =  5.91E-10,  avg # of iterations = 13.0

     total cpu time spent up to now is      897.4 secs

     total energy              =   -5828.96937915 Ry
     estimated scf accuracy    <       0.00000217 Ry

     total magnetization       =     2.00 Bohr mag/cell
     absolute magnetization    =     2.27 Bohr mag/cell

     iteration # 39     ecut=    80.00 Ry     beta= 0.70
     Davidson diagonalization with overlap

---- Real-time Memory Report at c_bands before calling an iterative solver
           661 MiB given to the printing process from OS
             0 MiB allocation reported by mallinfo(arena+hblkhd)
        158711 MiB available memory on the node where the printing process lives
------------------
     ethr =  1.06E-10,  avg # of iterations = 11.5

     total cpu time spent up to now is      915.7 secs

     total energy              =   -5828.96937926 Ry
     estimated scf accuracy    <       0.00000016 Ry

     total magnetization       =     2.00 Bohr mag/cell
     absolute magnetization    =     2.27 Bohr mag/cell

     iteration # 40     ecut=    80.00 Ry     beta= 0.70
     Davidson diagonalization with overlap

---- Real-time Memory Report at c_bands before calling an iterative solver
           661 MiB given to the printing process from OS
             0 MiB allocation reported by mallinfo(arena+hblkhd)
        158711 MiB available memory on the node where the printing process lives
------------------
     c_bands:  2 eigenvalues not converged
     ethr =  7.62E-12,  avg # of iterations = 20.0

     total cpu time spent up to now is      941.1 secs

     total energy              =   -5828.96937928 Ry
     estimated scf accuracy    <       0.00000005 Ry

     total magnetization       =     2.00 Bohr mag/cell
     absolute magnetization    =     2.27 Bohr mag/cell

     iteration # 41     ecut=    80.00 Ry     beta= 0.70
     Davidson diagonalization with overlap

---- Real-time Memory Report at c_bands before calling an iterative solver
           661 MiB given to the printing process from OS
             0 MiB allocation reported by mallinfo(arena+hblkhd)
        158711 MiB available memory on the node where the printing process lives
------------------
     ethr =  2.28E-12,  avg # of iterations = 12.5

     total cpu time spent up to now is      959.1 secs

     total energy              =   -5828.96937928 Ry
     estimated scf accuracy    <       0.00000006 Ry

     total magnetization       =     2.00 Bohr mag/cell
     absolute magnetization    =     2.27 Bohr mag/cell

     iteration # 42     ecut=    80.00 Ry     beta= 0.70
     Davidson diagonalization with overlap

---- Real-time Memory Report at c_bands before calling an iterative solver
           661 MiB given to the printing process from OS
             0 MiB allocation reported by mallinfo(arena+hblkhd)
        158710 MiB available memory on the node where the printing process lives
------------------
     c_bands:  2 eigenvalues not converged
     ethr =  2.28E-12,  avg # of iterations = 19.5

     total cpu time spent up to now is      994.8 secs

     total energy              =   -5828.96937929 Ry
     estimated scf accuracy    <       0.00000017 Ry

     total magnetization       =     2.00 Bohr mag/cell
     absolute magnetization    =     2.27 Bohr mag/cell

     iteration # 43     ecut=    80.00 Ry     beta= 0.70
     Davidson diagonalization with overlap

---- Real-time Memory Report at c_bands before calling an iterative solver
           661 MiB given to the printing process from OS
             0 MiB allocation reported by mallinfo(arena+hblkhd)
        158712 MiB available memory on the node where the printing process lives
------------------
     ethr =  2.28E-12,  avg # of iterations =  7.0

     total cpu time spent up to now is     1018.2 secs

     total energy              =   -5828.96937929 Ry
     estimated scf accuracy    <       0.00000001 Ry

     total magnetization       =     2.00 Bohr mag/cell
     absolute magnetization    =     2.27 Bohr mag/cell

     iteration # 44     ecut=    80.00 Ry     beta= 0.70
     Davidson diagonalization with overlap

---- Real-time Memory Report at c_bands before calling an iterative solver
           661 MiB given to the printing process from OS
             0 MiB allocation reported by mallinfo(arena+hblkhd)
        158710 MiB available memory on the node where the printing process lives
------------------
     ethr =  5.85E-13,  avg # of iterations = 13.0

     total cpu time spent up to now is     1047.7 secs

     total energy              =   -5828.96937929 Ry
     estimated scf accuracy    <          5.1E-09 Ry

     total magnetization       =     2.00 Bohr mag/cell
     absolute magnetization    =     2.27 Bohr mag/cell

     iteration # 45     ecut=    80.00 Ry     beta= 0.70
     Davidson diagonalization with overlap

---- Real-time Memory Report at c_bands before calling an iterative solver
           661 MiB given to the printing process from OS
             0 MiB allocation reported by mallinfo(arena+hblkhd)
        158708 MiB available memory on the node where the printing process lives
------------------
     ethr =  2.50E-13,  avg # of iterations = 13.0

     total cpu time spent up to now is     1067.7 secs

     total energy              =   -5828.96937929 Ry
     estimated scf accuracy    <          2.2E-09 Ry

     total magnetization       =     2.00 Bohr mag/cell
     absolute magnetization    =     2.27 Bohr mag/cell

     iteration # 46     ecut=    80.00 Ry     beta= 0.70
     Davidson diagonalization with overlap

---- Real-time Memory Report at c_bands before calling an iterative solver
           661 MiB given to the printing process from OS
             0 MiB allocation reported by mallinfo(arena+hblkhd)
        158710 MiB available memory on the node where the printing process lives
------------------
     c_bands:  1 eigenvalues not converged
     ethr =  1.10E-13,  avg # of iterations = 17.0

     total cpu time spent up to now is     1089.7 secs

     total energy              =   -5828.96937929 Ry
     estimated scf accuracy    <          2.3E-10 Ry

     total magnetization       =     2.00 Bohr mag/cell
     absolute magnetization    =     2.27 Bohr mag/cell

     iteration # 47     ecut=    80.00 Ry     beta= 0.70
     Davidson diagonalization with overlap

---- Real-time Memory Report at c_bands before calling an iterative solver
           661 MiB given to the printing process from OS
             0 MiB allocation reported by mallinfo(arena+hblkhd)
        158710 MiB available memory on the node where the printing process lives
------------------
     ethr =  1.00E-13,  avg # of iterations = 18.0

     total cpu time spent up to now is     1109.6 secs

     total energy              =   -5828.96937929 Ry
     estimated scf accuracy    <          6.1E-10 Ry

     total magnetization       =     2.00 Bohr mag/cell
     absolute magnetization    =     2.27 Bohr mag/cell

     iteration # 48     ecut=    80.00 Ry     beta= 0.70
     Davidson diagonalization with overlap

---- Real-time Memory Report at c_bands before calling an iterative solver
           661 MiB given to the printing process from OS
             0 MiB allocation reported by mallinfo(arena+hblkhd)
        158709 MiB available memory on the node where the printing process lives
------------------
     ethr =  1.00E-13,  avg # of iterations =  7.0

     total cpu time spent up to now is     1124.9 secs

     total energy              =   -5828.96937929 Ry
     estimated scf accuracy    <          7.1E-10 Ry

     total magnetization       =     2.00 Bohr mag/cell
     absolute magnetization    =     2.27 Bohr mag/cell

     iteration # 49     ecut=    80.00 Ry     beta= 0.70
     Davidson diagonalization with overlap

---- Real-time Memory Report at c_bands before calling an iterative solver
           661 MiB given to the printing process from OS
             0 MiB allocation reported by mallinfo(arena+hblkhd)
        158709 MiB available memory on the node where the printing process lives
------------------
     ethr =  1.00E-13,  avg # of iterations =  2.0

     total cpu time spent up to now is     1157.4 secs

     total energy              =   -5828.96937929 Ry
     estimated scf accuracy    <          2.2E-10 Ry

     total magnetization       =     2.00 Bohr mag/cell
     absolute magnetization    =     2.27 Bohr mag/cell

     iteration # 50     ecut=    80.00 Ry     beta= 0.70
     Davidson diagonalization with overlap

---- Real-time Memory Report at c_bands before calling an iterative solver
           661 MiB given to the printing process from OS
             0 MiB allocation reported by mallinfo(arena+hblkhd)
        158709 MiB available memory on the node where the printing process lives
------------------
     ethr =  1.00E-13,  avg # of iterations =  3.0
 
     Magnetic moment per site  (integrated on atomic sphere of radius R)
     atom   1 (R=0.043)  charge=  1.8172  magn=  0.0000
     atom   2 (R=0.043)  charge=  1.8172  magn=  0.0000
     atom   3 (R=0.043)  charge=  1.8188  magn=  0.0002
     atom   4 (R=0.043)  charge=  1.8171  magn=  0.0000
     atom   5 (R=0.043)  charge=  1.8172  magn=  0.0000
     atom   6 (R=0.043)  charge=  1.8176  magn=  0.0000
     atom   7 (R=0.043)  charge=  1.8173  magn= -0.0000
     atom   8 (R=0.043)  charge=  1.8173  magn= -0.0000
     atom   9 (R=0.043)  charge=  1.8188  magn=  0.0002
     atom  10 (R=0.043)  charge=  1.8173  magn= -0.0000
     atom  11 (R=0.043)  charge=  1.8171  magn= -0.0000
     atom  12 (R=0.043)  charge=  1.8175  magn= -0.0000
     atom  13 (R=0.043)  charge=  1.8171  magn=  0.0000
     atom  14 (R=0.043)  charge=  1.8173  magn= -0.0000
     atom  15 (R=0.043)  charge=  1.8175  magn= -0.0000
     atom  16 (R=0.043)  charge=  1.8176  magn= -0.0000
     atom  17 (R=0.043)  charge=  1.8172  magn=  0.0000
     atom  18 (R=0.043)  charge=  1.8177  magn=  0.0000
     atom  19 (R=0.043)  charge=  1.8174  magn= -0.0000
     atom  20 (R=0.043)  charge=  1.8174  magn= -0.0000
     atom  21 (R=0.043)  charge=  1.8177  magn=  0.0000
     atom  22 (R=0.043)  charge=  1.8169  magn=  0.0003
     atom  23 (R=0.043)  charge=  1.8214  magn=  0.0027
     atom  24 (R=0.043)  charge=  1.8168  magn= -0.0001
     atom  25 (R=0.043)  charge=  1.8174  magn= -0.0000
     atom  26 (R=0.043)  charge=  1.8213  magn=  0.0027
     atom  27 (R=0.043)  charge=  1.8172  magn= -0.0008
     atom  28 (R=0.043)  charge=  1.8205  magn=  0.0019
     atom  29 (R=0.043)  charge=  1.8174  magn= -0.0000
     atom  30 (R=0.043)  charge=  1.8168  magn= -0.0001
     atom  31 (R=0.043)  charge=  1.8205  magn=  0.0019
     atom  32 (R=0.043)  charge=  1.8161  magn=  0.0001
     atom  33 (R=0.043)  charge=  1.8190  magn=  0.0002
     atom  34 (R=0.043)  charge=  1.8174  magn= -0.0000
     atom  35 (R=0.043)  charge=  1.8172  magn= -0.0000
     atom  36 (R=0.043)  charge=  1.8176  magn= -0.0000
     atom  37 (R=0.043)  charge=  1.8174  magn= -0.0000
     atom  38 (R=0.043)  charge=  1.8204  magn=  0.0039
     atom  39 (R=0.043)  charge=  1.8176  magn= -0.0009
     atom  40 (R=0.043)  charge=  1.8218  magn=  0.0004
     atom  41 (R=0.043)  charge=  1.8172  magn= -0.0000
     atom  42 (R=0.043)  charge=  1.8177  magn= -0.0009
     atom  43 (R=0.043)  charge=  1.8203  magn= -0.0005
     atom  44 (R=0.043)  charge=  1.8176  magn= -0.0000
     atom  45 (R=0.043)  charge=  1.8218  magn=  0.0004
     atom  46 (R=0.043)  charge=  1.8203  magn= -0.0005
     atom  47 (R=0.043)  charge=  1.8208  magn=  0.0008
     atom  48 (R=0.043)  charge=  1.8171  magn=  0.0000
     atom  49 (R=0.043)  charge=  1.8174  magn= -0.0000
     atom  50 (R=0.043)  charge=  1.8175  magn= -0.0000
     atom  51 (R=0.043)  charge=  1.8177  magn= -0.0000
     atom  52 (R=0.043)  charge=  1.8174  magn= -0.0000
     atom  53 (R=0.043)  charge=  1.8170  magn= -0.0001
     atom  54 (R=0.043)  charge=  1.8197  magn=  0.0033
     atom  55 (R=0.043)  charge=  1.8162  magn= -0.0000
     atom  56 (R=0.043)  charge=  1.8175  magn= -0.0000
     atom  57 (R=0.043)  charge=  1.8197  magn=  0.0033
     atom  58 (R=0.043)  charge=  1.8205  magn= -0.0008
     atom  59 (R=0.043)  charge=  1.8210  magn=  0.0008
     atom  60 (R=0.043)  charge=  1.8177  magn= -0.0000
     atom  61 (R=0.043)  charge=  1.8162  magn= -0.0000
     atom  62 (R=0.043)  charge=  1.8210  magn=  0.0008
     atom  63 (R=0.043)  charge=  1.8176  magn=  0.0000
     atom  64 (R=0.043)  charge=  1.8173  magn=  0.0000
     atom  65 (R=0.043)  charge=  1.8177  magn= -0.0000
     atom  66 (R=0.043)  charge=  1.8171  magn= -0.0000
     atom  67 (R=0.043)  charge=  1.8172  magn=  0.0000
     atom  68 (R=0.043)  charge=  1.8177  magn= -0.0000
     atom  69 (R=0.043)  charge=  1.8172  magn=  0.0000
     atom  70 (R=0.043)  charge=  1.8173  magn= -0.0000
     atom  71 (R=0.043)  charge=  1.8175  magn= -0.0000
     atom  72 (R=0.043)  charge=  1.8171  magn= -0.0000
     atom  73 (R=0.043)  charge=  1.8173  magn= -0.0000
     atom  74 (R=0.043)  charge=  1.8174  magn=  0.0000
     atom  75 (R=0.043)  charge=  1.8177  magn= -0.0000
     atom  76 (R=0.043)  charge=  1.8172  magn=  0.0000
     atom  77 (R=0.043)  charge=  1.8175  magn= -0.0000
     atom  78 (R=0.043)  charge=  1.8177  magn= -0.0000
     atom  79 (R=0.043)  charge=  1.8171  magn=  0.0000
     atom  80 (R=0.043)  charge=  1.8174  magn=  0.0001
     atom  81 (R=0.043)  charge=  1.8175  magn=  0.0000
     atom  82 (R=0.043)  charge=  1.8174  magn= -0.0000
     atom  83 (R=0.043)  charge=  1.8173  magn= -0.0000
     atom  84 (R=0.043)  charge=  1.8175  magn=  0.0000
     atom  85 (R=0.043)  charge=  1.8154  magn= -0.0001
     atom  86 (R=0.043)  charge=  1.8156  magn= -0.0007
     atom  87 (R=0.043)  charge=  1.8176  magn= -0.0001
     atom  88 (R=0.043)  charge=  1.8174  magn= -0.0000
     atom  89 (R=0.043)  charge=  1.8156  magn= -0.0007
     atom  90 (R=0.043)  charge=  1.8147  magn= -0.0002
     atom  91 (R=0.043)  charge=  1.8161  magn= -0.0000
     atom  92 (R=0.043)  charge=  1.8173  magn= -0.0000
     atom  93 (R=0.043)  charge=  1.8176  magn= -0.0001
     atom  94 (R=0.043)  charge=  1.8161  magn= -0.0000
     atom  95 (R=0.043)  charge=  1.8171  magn=  0.0000
     atom  96 (R=0.043)  charge=  1.8186  magn=  0.0007
     atom  97 (R=0.043)  charge=  1.8173  magn= -0.0001
     atom  98 (R=0.043)  charge=  1.8172  magn= -0.0000
     atom  99 (R=0.043)  charge=  1.8190  magn=  0.0001
     atom 100 (R=0.043)  charge=  1.8173  magn= -0.0001
     atom 101 (R=0.043)  charge=  1.8241  magn= -0.0045
     atom 102 (R=0.043)  charge=  1.8200  magn= -0.0035
     atom 103 (R=0.043)  charge=  1.8175  magn= -0.0001
     atom 104 (R=0.043)  charge=  1.8172  magn= -0.0000
     atom 105 (R=0.043)  charge=  1.8200  magn= -0.0035
     atom 106 (R=0.043)  charge=  1.7952  magn=  0.0002
     atom 107 (R=0.043)  charge=  1.8176  magn= -0.0000
     atom 108 (R=0.043)  charge=  1.8190  magn=  0.0001
     atom 109 (R=0.043)  charge=  1.8175  magn= -0.0001
     atom 110 (R=0.043)  charge=  1.8176  magn= -0.0000
     atom 111 (R=0.043)  charge=  1.8186  magn=  0.0002
     atom 112 (R=0.043)  charge=  1.8173  magn= -0.0000
     atom 113 (R=0.043)  charge=  1.8174  magn= -0.0001
     atom 114 (R=0.043)  charge=  1.8172  magn= -0.0000
     atom 115 (R=0.043)  charge=  1.8170  magn=  0.0000
     atom 116 (R=0.043)  charge=  1.8174  magn= -0.0001
     atom 117 (R=0.043)  charge=  1.8167  magn= -0.0015
     atom 118 (R=0.043)  charge=  1.8122  magn= -0.0005
     atom 119 (R=0.043)  charge=  1.8171  magn=  0.0000
     atom 120 (R=0.043)  charge=  1.8172  magn= -0.0000
     atom 121 (R=0.043)  charge=  1.8123  magn= -0.0005
     atom 122 (R=0.043)  charge=  1.8187  magn= -0.0004
     atom 123 (R=0.043)  charge=  1.8182  magn= -0.0000
     atom 124 (R=0.043)  charge=  1.8170  magn=  0.0000
     atom 125 (R=0.043)  charge=  1.8171  magn=  0.0000
     atom 126 (R=0.043)  charge=  1.8182  magn= -0.0000
     atom 127 (R=0.043)  charge=  1.8176  magn=  0.0000
     atom 128 (R=0.043)  charge=  1.8173  magn=  0.0000
     atom 129 (R=0.043)  charge=  1.8177  magn=  0.0000
     atom 130 (R=0.043)  charge=  1.8171  magn= -0.0000
     atom 131 (R=0.043)  charge=  1.8171  magn=  0.0000
     atom 132 (R=0.043)  charge=  1.8174  magn=  0.0001
     atom 133 (R=0.043)  charge=  1.8174  magn=  0.0000
     atom 134 (R=0.043)  charge=  1.8173  magn= -0.0000
     atom 135 (R=0.043)  charge=  1.8173  magn= -0.0000
     atom 136 (R=0.043)  charge=  1.8188  magn=  0.0004
     atom 137 (R=0.043)  charge=  1.8171  magn= -0.0000
     atom 138 (R=0.043)  charge=  1.8170  magn= -0.0000
     atom 139 (R=0.043)  charge=  1.8185  magn=  0.0003
     atom 140 (R=0.043)  charge=  1.8172  magn= -0.0000
     atom 141 (R=0.043)  charge=  1.8173  magn= -0.0001
     atom 142 (R=0.043)  charge=  1.8170  magn= -0.0000
     atom 143 (R=0.043)  charge=  1.8169  magn=  0.0000
     atom 144 (R=0.043)  charge=  1.8177  magn=  0.0000
     atom 145 (R=0.043)  charge=  1.8173  magn= -0.0000
     atom 146 (R=0.043)  charge=  1.8174  magn= -0.0000
     atom 147 (R=0.043)  charge=  1.8176  magn= -0.0000
     atom 148 (R=0.043)  charge=  1.8175  magn= -0.0000
     atom 149 (R=0.043)  charge=  1.8161  magn= -0.0006
     atom 150 (R=0.043)  charge=  1.8157  magn= -0.0007
     atom 151 (R=0.043)  charge=  1.8176  magn= -0.0001
     atom 152 (R=0.043)  charge=  1.8173  magn= -0.0001
     atom 153 (R=0.043)  charge=  1.8198  magn=  0.0025
     atom 154 (R=0.043)  charge=  1.8176  magn=  0.0001
     atom 155 (R=0.043)  charge=  1.8175  magn= -0.0001
     atom 156 (R=0.043)  charge=  1.8175  magn= -0.0001
     atom 157 (R=0.043)  charge=  1.8162  magn= -0.0008
     atom 158 (R=0.043)  charge=  1.8123  magn= -0.0003
     atom 159 (R=0.043)  charge=  1.8170  magn= -0.0000
     atom 160 (R=0.043)  charge=  1.8172  magn= -0.0000
     atom 161 (R=0.043)  charge=  1.8174  magn= -0.0000
     atom 162 (R=0.043)  charge=  1.8175  magn=  0.0000
     atom 163 (R=0.043)  charge=  1.8179  magn=  0.0000
     atom 164 (R=0.043)  charge=  1.8173  magn= -0.0001
     atom 165 (R=0.043)  charge=  1.8162  magn= -0.0015
     atom 166 (R=0.043)  charge=  1.8154  magn= -0.0004
     atom 167 (R=0.043)  charge=  1.8163  magn= -0.0000
     atom 168 (R=0.043)  charge=  1.8172  magn= -0.0000
     atom 169 (R=0.043)  charge=  1.8222  magn= -0.0082
     atom 170 (R=0.043)  charge=  1.7961  magn= -0.0009
     atom 171 (R=0.043)  charge=  1.8176  magn= -0.0000
     atom 172 (R=0.043)  charge=  1.8173  magn= -0.0000
     atom 173 (R=0.043)  charge=  1.8123  magn= -0.0001
     atom 174 (R=0.043)  charge=  1.8187  magn= -0.0004
     atom 175 (R=0.043)  charge=  1.8182  magn= -0.0000
     atom 176 (R=0.043)  charge=  1.8172  magn=  0.0000
     atom 177 (R=0.043)  charge=  1.8175  magn= -0.0000
     atom 178 (R=0.043)  charge=  1.8177  magn= -0.0000
     atom 179 (R=0.043)  charge=  1.8171  magn=  0.0000
     atom 180 (R=0.043)  charge=  1.8173  magn= -0.0000
     atom 181 (R=0.043)  charge=  1.8175  magn= -0.0001
     atom 182 (R=0.043)  charge=  1.8160  magn= -0.0000
     atom 183 (R=0.043)  charge=  1.8171  magn= -0.0000
     atom 184 (R=0.043)  charge=  1.8183  magn=  0.0006
     atom 185 (R=0.043)  charge=  1.8174  magn= -0.0001
     atom 186 (R=0.043)  charge=  1.8175  magn= -0.0000
     atom 187 (R=0.043)  charge=  1.8186  magn=  0.0002
     atom 188 (R=0.043)  charge=  1.8170  magn= -0.0000
     atom 189 (R=0.043)  charge=  1.8169  magn=  0.0000
     atom 190 (R=0.043)  charge=  1.8182  magn= -0.0000
     atom 191 (R=0.043)  charge=  1.8176  magn=  0.0000
     atom 192 (R=0.043)  charge=  1.8173  magn=  0.0000
     atom 193 (R=0.043)  charge=  1.8174  magn=  0.0001
     atom 194 (R=0.043)  charge=  1.8188  magn=  0.0004
     atom 195 (R=0.043)  charge=  1.8172  magn= -0.0000
     atom 196 (R=0.043)  charge=  1.8177  magn=  0.0000
     atom 197 (R=0.043)  charge=  1.8174  magn=  0.0000
     atom 198 (R=0.043)  charge=  1.8171  magn= -0.0000
     atom 199 (R=0.043)  charge=  1.8173  magn= -0.0001
     atom 200 (R=0.043)  charge=  1.8171  magn= -0.0000
     atom 201 (R=0.043)  charge=  1.8173  magn= -0.0000
     atom 202 (R=0.043)  charge=  1.8170  magn= -0.0000
     atom 203 (R=0.043)  charge=  1.8170  magn= -0.0000
     atom 204 (R=0.043)  charge=  1.8171  magn=  0.0000
     atom 205 (R=0.043)  charge=  1.8173  magn= -0.0000
     atom 206 (R=0.043)  charge=  1.8185  magn=  0.0003
     atom 207 (R=0.043)  charge=  1.8169  magn=  0.0000
     atom 208 (R=0.043)  charge=  1.8177  magn=  0.0000
     atom 209 (R=0.043)  charge=  1.8175  magn= -0.0000
     atom 210 (R=0.043)  charge=  1.8173  magn= -0.0001
     atom 211 (R=0.043)  charge=  1.8175  magn= -0.0001
     atom 212 (R=0.043)  charge=  1.8173  magn= -0.0000
     atom 213 (R=0.043)  charge=  1.8161  magn= -0.0006
     atom 214 (R=0.043)  charge=  1.8198  magn=  0.0025
     atom 215 (R=0.043)  charge=  1.8162  magn= -0.0008
     atom 216 (R=0.043)  charge=  1.8174  magn= -0.0000
     atom 217 (R=0.043)  charge=  1.8157  magn= -0.0007
     atom 218 (R=0.043)  charge=  1.8176  magn=  0.0001
     atom 219 (R=0.043)  charge=  1.8123  magn= -0.0003
     atom 220 (R=0.043)  charge=  1.8176  magn= -0.0000
     atom 221 (R=0.043)  charge=  1.8176  magn= -0.0001
     atom 222 (R=0.043)  charge=  1.8175  magn= -0.0001
     atom 223 (R=0.043)  charge=  1.8170  magn= -0.0000
     atom 224 (R=0.043)  charge=  1.8172  magn= -0.0000
     atom 225 (R=0.043)  charge=  1.8173  magn= -0.0001
     atom 226 (R=0.043)  charge=  1.8172  magn= -0.0000
     atom 227 (R=0.043)  charge=  1.8173  magn= -0.0000
     atom 228 (R=0.043)  charge=  1.8174  magn= -0.0000
     atom 229 (R=0.043)  charge=  1.8162  magn= -0.0015
     atom 230 (R=0.043)  charge=  1.8222  magn= -0.0082
     atom 231 (R=0.043)  charge=  1.8123  magn= -0.0001
     atom 232 (R=0.043)  charge=  1.8175  magn=  0.0000
     atom 233 (R=0.043)  charge=  1.8154  magn= -0.0004
     atom 234 (R=0.043)  charge=  1.7961  magn= -0.0009
     atom 235 (R=0.043)  charge=  1.8187  magn= -0.0004
     atom 236 (R=0.043)  charge=  1.8179  magn=  0.0000
     atom 237 (R=0.043)  charge=  1.8163  magn= -0.0000
     atom 238 (R=0.043)  charge=  1.8176  magn= -0.0000
     atom 239 (R=0.043)  charge=  1.8182  magn= -0.0000
     atom 240 (R=0.043)  charge=  1.8172  magn=  0.0000
     atom 241 (R=0.043)  charge=  1.8173  magn= -0.0000
     atom 242 (R=0.043)  charge=  1.8183  magn=  0.0006
     atom 243 (R=0.043)  charge=  1.8170  magn= -0.0000
     atom 244 (R=0.043)  charge=  1.8175  magn= -0.0000
     atom 245 (R=0.043)  charge=  1.8175  magn= -0.0001
     atom 246 (R=0.043)  charge=  1.8174  magn= -0.0001
     atom 247 (R=0.043)  charge=  1.8169  magn=  0.0000
     atom 248 (R=0.043)  charge=  1.8177  magn= -0.0000
     atom 249 (R=0.043)  charge=  1.8160  magn= -0.0000
     atom 250 (R=0.043)  charge=  1.8175  magn= -0.0000
     atom 251 (R=0.043)  charge=  1.8182  magn= -0.0000
     atom 252 (R=0.043)  charge=  1.8171  magn=  0.0000
     atom 253 (R=0.043)  charge=  1.8171  magn= -0.0000
     atom 254 (R=0.043)  charge=  1.8186  magn=  0.0002
     atom 255 (R=0.043)  charge=  1.8176  magn=  0.0000
     atom 256 (R=0.043)  charge=  1.8175  magn=  0.0000
     atom 257 (R=0.043)  charge=  1.8171  magn= -0.0000
     atom 258 (R=0.043)  charge=  1.8178  magn=  0.0001
     atom 259 (R=0.043)  charge=  1.8175  magn=  0.0000
     atom 260 (R=0.043)  charge=  1.8170  magn=  0.0000
     atom 261 (R=0.043)  charge=  1.8164  magn=  0.0001
     atom 262 (R=0.043)  charge=  1.8172  magn=  0.0008
     atom 263 (R=0.043)  charge=  1.8177  magn=  0.0001
     atom 264 (R=0.043)  charge=  1.8194  magn=  0.0010
     atom 265 (R=0.043)  charge=  1.8171  magn=  0.0002
     atom 266 (R=0.043)  charge=  1.8161  magn=  0.0001
     atom 267 (R=0.043)  charge=  1.8164  magn= -0.0000
     atom 268 (R=0.043)  charge=  1.8174  magn=  0.0003
     atom 269 (R=0.043)  charge=  1.8185  magn=  0.0009
     atom 270 (R=0.043)  charge=  1.8170  magn= -0.0000
     atom 271 (R=0.043)  charge=  1.8176  magn=  0.0000
     atom 272 (R=0.043)  charge=  1.8171  magn=  0.0000
     atom 273 (R=0.043)  charge=  1.8173  magn=  0.0002
     atom 274 (R=0.043)  charge=  1.8172  magn=  0.0001
     atom 275 (R=0.043)  charge=  1.8182  magn=  0.0000
     atom 276 (R=0.043)  charge=  1.8170  magn=  0.0000
     atom 277 (R=0.043)  charge=  1.8172  magn=  0.0050
     atom 278 (R=0.043)  charge=  1.8171  magn=  0.0100
     atom 279 (R=0.043)  charge=  1.8169  magn=  0.0001
     atom 280 (R=0.043)  charge=  1.8171  magn=  0.0011
     atom 281 (R=0.043)  charge=  1.8143  magn=  0.0024
     atom 282 (R=0.043)  charge=  1.8172  magn=  0.0002
     atom 283 (R=0.043)  charge=  1.8190  magn=  0.0007
     atom 284 (R=0.043)  charge=  1.8170  magn=  0.0008
     atom 285 (R=0.043)  charge=  1.8167  magn=  0.0001
     atom 286 (R=0.043)  charge=  1.8171  magn=  0.0000
     atom 287 (R=0.043)  charge=  1.8177  magn=  0.0002
     atom 288 (R=0.043)  charge=  1.8173  magn=  0.0001
     atom 289 (R=0.043)  charge=  1.8175  magn= -0.0000
     atom 290 (R=0.043)  charge=  1.8175  magn=  0.0000
     atom 291 (R=0.043)  charge=  1.8171  magn=  0.0016
     atom 292 (R=0.043)  charge=  1.8131  magn=  0.0239
     atom 293 (R=0.043)  charge=  1.8176  magn=  0.0002
     atom 294 (R=0.043)  charge=  1.8175  magn= -0.0000
     atom 295 (R=0.043)  charge=  1.8167  magn=  0.0001
     atom 296 (R=0.043)  charge=  1.8142  magn=  0.0056
     atom 297 (R=0.043)  charge=  1.8241  magn=  0.0070
     atom 298 (R=0.043)  charge=  1.8174  magn=  0.0001
     atom 299 (R=0.043)  charge=  1.8170  magn=  0.0000
     atom 300 (R=0.043)  charge=  1.8168  magn=  0.0001
     atom 301 (R=0.043)  charge=  1.8190  magn=  0.0009
     atom 302 (R=0.043)  charge=  1.8182  magn=  0.0001
     atom 303 (R=0.043)  charge=  1.8174  magn=  0.0001
     atom 304 (R=0.043)  charge=  1.8177  magn=  0.0002
     atom 305 (R=0.043)  charge=  1.8175  magn=  0.0000
     atom 306 (R=0.043)  charge=  1.8176  magn=  0.0001
     atom 307 (R=0.043)  charge=  1.8175  magn=  0.0002
     atom 308 (R=0.043)  charge=  1.8169  magn=  0.0001
     atom 309 (R=0.043)  charge=  1.8174  magn= -0.0000
     atom 310 (R=0.043)  charge=  1.8174  magn=  0.0000
     atom 311 (R=0.043)  charge=  1.8164  magn= -0.0000
     atom 312 (R=0.043)  charge=  1.8171  magn=  0.0002
     atom 313 (R=0.043)  charge=  1.8172  magn=  0.0001
     atom 314 (R=0.043)  charge=  1.8180  magn=  0.0001
     atom 315 (R=0.043)  charge=  1.8176  magn=  0.0000
     atom 316 (R=0.043)  charge=  1.8170  magn= -0.0000
     atom 317 (R=0.043)  charge=  1.8182  magn=  0.0001
     atom 318 (R=0.043)  charge=  1.8177  magn=  0.0001
     atom 319 (R=0.043)  charge=  1.8175  magn=  0.0001
     atom 320 (R=0.043)  charge=  1.8174  magn=  0.0000
     atom 321 (R=0.043)  charge=  1.8178  magn=  0.0001
     atom 322 (R=0.043)  charge=  1.8176  magn=  0.0001
     atom 323 (R=0.043)  charge=  1.8174  magn=  0.0000
     atom 324 (R=0.043)  charge=  1.8173  magn=  0.0000
     atom 325 (R=0.043)  charge=  1.8171  magn= -0.0000
     atom 326 (R=0.043)  charge=  1.8176  magn=  0.0001
     atom 327 (R=0.043)  charge=  1.8178  magn=  0.0001
     atom 328 (R=0.043)  charge=  1.8171  magn= -0.0000
     atom 329 (R=0.043)  charge=  1.8172  magn=  0.0000
     atom 330 (R=0.043)  charge=  1.8170  magn=  0.0000
     atom 331 (R=0.043)  charge=  1.8176  magn=  0.0001
     atom 332 (R=0.043)  charge=  1.8176  magn=  0.0001
     atom 333 (R=0.043)  charge=  1.8170  magn=  0.0000
     atom 334 (R=0.043)  charge=  1.8176  magn=  0.0000
     atom 335 (R=0.043)  charge=  1.8175  magn=  0.0000
     atom 336 (R=0.043)  charge=  1.8174  magn=  0.0000
     atom 337 (R=0.043)  charge=  1.8172  magn=  0.0001
     atom 338 (R=0.043)  charge=  1.8178  magn=  0.0001
     atom 339 (R=0.043)  charge=  1.8174  magn=  0.0000
     atom 340 (R=0.043)  charge=  1.8169  magn=  0.0006
     atom 341 (R=0.043)  charge=  1.8185  magn=  0.0113
     atom 342 (R=0.043)  charge=  1.8174  magn=  0.0010
     atom 343 (R=0.043)  charge=  1.8172  magn=  0.0001
     atom 344 (R=0.043)  charge=  1.8184  magn=  0.0113
     atom 345 (R=0.043)  charge=  1.8166  magn=  0.0046
     atom 346 (R=0.043)  charge=  1.8146  magn= -0.0000
     atom 347 (R=0.043)  charge=  1.8178  magn=  0.0001
     atom 348 (R=0.043)  charge=  1.8174  magn=  0.0010
     atom 349 (R=0.043)  charge=  1.8146  magn= -0.0000
     atom 350 (R=0.043)  charge=  1.8172  magn=  0.0000
     atom 351 (R=0.043)  charge=  1.8177  magn=  0.0003
     atom 352 (R=0.043)  charge=  1.8173  magn=  0.0001
     atom 353 (R=0.043)  charge=  1.8173  magn=  0.0002
     atom 354 (R=0.043)  charge=  1.8171  magn=  0.0000
     atom 355 (R=0.043)  charge=  1.8173  magn=  0.0001
     atom 356 (R=0.043)  charge=  1.8163  magn=  0.0233
     atom 357 (R=0.043)  charge=  1.8171  magn=  0.0059
     atom 358 (R=0.043)  charge=  1.8146  magn=  0.0000
     atom 359 (R=0.043)  charge=  1.8173  magn=  0.0002
     atom 360 (R=0.043)  charge=  1.8171  magn=  0.0059
     atom 361 (R=0.043)  charge=  1.8174  magn=  0.0007
     atom 362 (R=0.043)  charge=  1.8171  magn=  0.0000
     atom 363 (R=0.043)  charge=  1.8146  magn=  0.0000
     atom 364 (R=0.043)  charge=  1.8174  magn=  0.0007
     atom 365 (R=0.043)  charge=  1.8189  magn=  0.0007
     atom 366 (R=0.043)  charge=  1.8175  magn=  0.0001
     atom 367 (R=0.043)  charge=  1.8176  magn=  0.0001
     atom 368 (R=0.043)  charge=  1.8172  magn= -0.0000
     atom 369 (R=0.043)  charge=  1.8176  magn=  0.0000
     atom 370 (R=0.043)  charge=  1.8176  magn=  0.0001
     atom 371 (R=0.043)  charge=  1.8170  magn=  0.0017
     atom 372 (R=0.043)  charge=  1.8148  magn=  0.0001
     atom 373 (R=0.043)  charge=  1.8172  magn=  0.0000
     atom 374 (R=0.043)  charge=  1.8172  magn= -0.0000
     atom 375 (R=0.043)  charge=  1.8148  magn=  0.0001
     atom 376 (R=0.043)  charge=  1.8170  magn=  0.0011
     atom 377 (R=0.043)  charge=  1.8189  magn=  0.0007
     atom 378 (R=0.043)  charge=  1.8176  magn=  0.0000
     atom 379 (R=0.043)  charge=  1.8172  magn=  0.0000
     atom 380 (R=0.043)  charge=  1.8189  magn=  0.0007
     atom 381 (R=0.043)  charge=  1.8182  magn=  0.0003
     atom 382 (R=0.043)  charge=  1.8174  magn=  0.0000
     atom 383 (R=0.043)  charge=  1.8170  magn=  0.0000
     atom 384 (R=0.043)  charge=  1.8177  magn=  0.0001
     atom 385 (R=0.043)  charge=  1.8175  magn=  0.0001
     atom 386 (R=0.043)  charge=  1.8170  magn=  0.0000
     atom 387 (R=0.043)  charge=  1.8172  magn=  0.0000
     atom 388 (R=0.043)  charge=  1.8171  magn= -0.0000
     atom 389 (R=0.043)  charge=  1.8178  magn=  0.0001
     atom 390 (R=0.043)  charge=  1.8177  magn=  0.0001
     atom 391 (R=0.043)  charge=  1.8171  magn= -0.0000
     atom 392 (R=0.043)  charge=  1.8174  magn=  0.0000
     atom 393 (R=0.043)  charge=  1.8175  magn=  0.0000
     atom 394 (R=0.043)  charge=  1.8175  magn=  0.0001
     atom 395 (R=0.043)  charge=  1.8178  magn=  0.0001
     atom 396 (R=0.043)  charge=  1.8175  magn=  0.0000
     atom 397 (R=0.043)  charge=  1.8177  magn=  0.0000
     atom 398 (R=0.043)  charge=  1.8170  magn=  0.0000
     atom 399 (R=0.043)  charge=  1.8168  magn=  0.0000
     atom 400 (R=0.043)  charge=  1.8175  magn=  0.0009
     atom 401 (R=0.043)  charge=  1.8178  magn=  0.0001
     atom 402 (R=0.043)  charge=  1.8168  magn=  0.0000
     atom 403 (R=0.043)  charge=  1.8158  magn=  0.0045
     atom 404 (R=0.043)  charge=  1.8151  magn=  0.0119
     atom 405 (R=0.043)  charge=  1.8169  magn=  0.0001
     atom 406 (R=0.043)  charge=  1.8175  magn=  0.0009
     atom 407 (R=0.043)  charge=  1.8151  magn=  0.0119
     atom 408 (R=0.043)  charge=  1.8176  magn=  0.0002
     atom 409 (R=0.043)  charge=  1.8174  magn=  0.0000
     atom 410 (R=0.043)  charge=  1.8178  magn=  0.0001
     atom 411 (R=0.043)  charge=  1.8169  magn=  0.0001
     atom 412 (R=0.043)  charge=  1.8174  magn=  0.0000
     atom 413 (R=0.043)  charge=  1.8176  magn=  0.0000
     atom 414 (R=0.043)  charge=  1.8189  magn=  0.0019
     atom 415 (R=0.043)  charge=  1.8174  magn=  0.0011
     atom 416 (R=0.043)  charge=  1.8164  magn=  0.0001
     atom 417 (R=0.043)  charge=  1.8165  magn=  0.0000
     atom 418 (R=0.043)  charge=  1.8174  magn=  0.0011
     atom 419 (R=0.043)  charge=  1.8136  magn=  0.0032
     atom 420 (R=0.043)  charge=  1.8173  magn=  0.0002
     atom 421 (R=0.043)  charge=  1.8164  magn=  0.0001
     atom 422 (R=0.043)  charge=  1.8137  magn=  0.0032
     atom 423 (R=0.043)  charge=  1.8238  magn=  0.0071
     atom 424 (R=0.043)  charge=  1.8173  magn=  0.0001
     atom 425 (R=0.043)  charge=  1.8165  magn=  0.0000
     atom 426 (R=0.043)  charge=  1.8173  magn=  0.0002
     atom 427 (R=0.043)  charge=  1.8173  magn=  0.0001
     atom 428 (R=0.043)  charge=  1.8180  magn=  0.0001
     atom 429 (R=0.043)  charge=  1.8173  magn=  0.0005
     atom 430 (R=0.043)  charge=  1.8180  magn=  0.0019
     atom 431 (R=0.043)  charge=  1.8170  magn=  0.0000
     atom 432 (R=0.043)  charge=  1.8175  magn=  0.0000
     atom 433 (R=0.043)  charge=  1.8180  magn=  0.0019
     atom 434 (R=0.043)  charge=  1.8171  magn=  0.0013
     atom 435 (R=0.043)  charge=  1.8167  magn=  0.0001
     atom 436 (R=0.043)  charge=  1.8171  magn= -0.0000
     atom 437 (R=0.043)  charge=  1.8170  magn=  0.0000
     atom 438 (R=0.043)  charge=  1.8167  magn=  0.0001
     atom 439 (R=0.043)  charge=  1.8190  magn=  0.0009
     atom 440 (R=0.043)  charge=  1.8182  magn=  0.0001
     atom 441 (R=0.043)  charge=  1.8175  magn=  0.0000
     atom 442 (R=0.043)  charge=  1.8171  magn= -0.0000
     atom 443 (R=0.043)  charge=  1.8182  magn=  0.0001
     atom 444 (R=0.043)  charge=  1.8177  magn=  0.0001
     atom 445 (R=0.043)  charge=  1.8175  magn=  0.0000
     atom 446 (R=0.043)  charge=  1.8170  magn=  0.0000
     atom 447 (R=0.043)  charge=  1.8194  magn=  0.0010
     atom 448 (R=0.043)  charge=  1.8174  magn=  0.0003
     atom 449 (R=0.043)  charge=  1.8171  magn= -0.0000
     atom 450 (R=0.043)  charge=  1.8164  magn=  0.0001
     atom 451 (R=0.043)  charge=  1.8171  magn=  0.0002
     atom 452 (R=0.043)  charge=  1.8185  magn=  0.0009
     atom 453 (R=0.043)  charge=  1.8178  magn=  0.0001
     atom 454 (R=0.043)  charge=  1.8172  magn=  0.0008
     atom 455 (R=0.043)  charge=  1.8161  magn=  0.0001
     atom 456 (R=0.043)  charge=  1.8170  magn= -0.0000
     atom 457 (R=0.043)  charge=  1.8175  magn=  0.0000
     atom 458 (R=0.043)  charge=  1.8177  magn=  0.0001
     atom 459 (R=0.043)  charge=  1.8164  magn= -0.0000
     atom 460 (R=0.043)  charge=  1.8176  magn=  0.0000
     atom 461 (R=0.043)  charge=  1.8171  magn=  0.0000
     atom 462 (R=0.043)  charge=  1.8170  magn=  0.0000
     atom 463 (R=0.043)  charge=  1.8171  magn=  0.0011
     atom 464 (R=0.043)  charge=  1.8190  magn=  0.0007
     atom 465 (R=0.043)  charge=  1.8173  magn=  0.0002
     atom 466 (R=0.043)  charge=  1.8173  magn=  0.0050
     atom 467 (R=0.043)  charge=  1.8170  magn=  0.0008
     atom 468 (R=0.043)  charge=  1.8172  magn=  0.0001
     atom 469 (R=0.043)  charge=  1.8171  magn=  0.0100
     atom 470 (R=0.043)  charge=  1.8144  magn=  0.0024
     atom 471 (R=0.043)  charge=  1.8167  magn=  0.0001
     atom 472 (R=0.043)  charge=  1.8182  magn=  0.0000
     atom 473 (R=0.043)  charge=  1.8169  magn=  0.0001
     atom 474 (R=0.043)  charge=  1.8172  magn=  0.0002
     atom 475 (R=0.043)  charge=  1.8171  magn=  0.0000
     atom 476 (R=0.043)  charge=  1.8177  magn=  0.0002
     atom 477 (R=0.043)  charge=  1.8171  magn=  0.0016
     atom 478 (R=0.043)  charge=  1.8167  magn=  0.0001
     atom 479 (R=0.043)  charge=  1.8170  magn=  0.0000
     atom 480 (R=0.043)  charge=  1.8173  magn=  0.0001
     atom 481 (R=0.043)  charge=  1.8131  magn=  0.0239
     atom 482 (R=0.043)  charge=  1.8142  magn=  0.0056
     atom 483 (R=0.043)  charge=  1.8168  magn=  0.0001
     atom 484 (R=0.043)  charge=  1.8175  magn= -0.0000
     atom 485 (R=0.043)  charge=  1.8176  magn=  0.0002
     atom 486 (R=0.043)  charge=  1.8241  magn=  0.0070
     atom 487 (R=0.043)  charge=  1.8190  magn=  0.0009
     atom 488 (R=0.043)  charge=  1.8175  magn=  0.0000
     atom 489 (R=0.043)  charge=  1.8175  magn= -0.0000
     atom 490 (R=0.043)  charge=  1.8174  magn=  0.0001
     atom 491 (R=0.043)  charge=  1.8182  magn=  0.0001
     atom 492 (R=0.043)  charge=  1.8174  magn=  0.0001
     atom 493 (R=0.043)  charge=  1.8175  magn=  0.0002
     atom 494 (R=0.043)  charge=  1.8164  magn= -0.0000
     atom 495 (R=0.043)  charge=  1.8176  magn=  0.0000
     atom 496 (R=0.043)  charge=  1.8177  magn=  0.0002
     atom 497 (R=0.043)  charge=  1.8169  magn=  0.0001
     atom 498 (R=0.043)  charge=  1.8171  magn=  0.0002
     atom 499 (R=0.043)  charge=  1.8170  magn= -0.0000
     atom 500 (R=0.043)  charge=  1.8175  magn=  0.0000
     atom 501 (R=0.043)  charge=  1.8174  magn= -0.0000
     atom 502 (R=0.043)  charge=  1.8172  magn=  0.0001
     atom 503 (R=0.043)  charge=  1.8182  magn=  0.0001
     atom 504 (R=0.043)  charge=  1.8176  magn=  0.0001
     atom 505 (R=0.043)  charge=  1.8174  magn=  0.0000
     atom 506 (R=0.043)  charge=  1.8180  magn=  0.0001
     atom 507 (R=0.043)  charge=  1.8177  magn=  0.0001
     atom 508 (R=0.043)  charge=  1.8126  magn=  0.3312
     atom 509 (R=0.043)  charge=  1.8477  magn=  0.1397
     atom 510 (R=0.043)  charge=  1.8477  magn=  0.1398
     atom 511 (R=0.043)  charge=  2.8830  magn=  0.1211

     total cpu time spent up to now is     1173.7 secs

     End of self-consistent calculation

 ------ SPIN UP ------------


          k = 0.0000 0.0000 0.0000 (118565 PWs)   bands (ev):

    -8.2075  -7.7445  -7.6398  -7.6372  -7.6177  -7.6050  -7.5671  -7.2794
    -7.0750  -7.0700  -7.0654  -7.0591  -7.0567  -7.0458  -7.0415  -7.0337
    -7.0045  -6.9813  -6.9175  -6.6443  -6.4787  -6.4713  -6.4658  -6.4596
    -6.4485  -6.4353  -6.3709  -6.0398  -5.9142  -5.9121  -5.9044  -5.8993
    -5.8815  -5.7067  -5.3911  -5.3863  -5.3842  -5.3833  -5.3779  -5.3766
    -5.3747  -5.3694  -5.3683  -5.3636  -5.3602  -5.3583  -5.3549  -5.3476
    -5.3376  -5.3339  -5.3270  -5.3193  -5.3128  -5.3045  -5.2787  -5.2546
    -5.1906  -5.0298  -4.8395  -4.8362  -4.8263  -4.8233  -4.8177  -4.8168
    -4.8150  -4.8141  -4.8124  -4.8109  -4.8081  -4.8024  -4.8018  -4.7963
    -4.7908  -4.7815  -4.7715  -4.7452  -4.7448  -4.7205  -4.7060  -4.6679
    -4.4693  -3.9383  -3.7357  -3.7333  -3.7320  -3.7298  -3.7270  -3.7193
    -3.7157  -3.7139  -3.7089  -3.7034  -3.6665  -3.5174  -3.2770  -3.2761
    -3.2738  -3.2677  -3.2668  -3.2663  -3.2621  -3.2585  -3.2555  -3.2522
    -3.2479  -3.2456  -3.2420  -3.2358  -3.2351  -3.2247  -3.2171  -3.1935
    -3.1908  -3.1758  -3.1671  -3.1577  -3.1552  -3.1461  -3.1427  -3.1393
    -3.1342  -3.1173  -3.0079  -2.8050  -2.6680  -2.6650  -2.6598  -2.6582
    -2.6573  -2.6568  -2.6550  -2.6529  -2.6477  -2.6465  -2.6427  -2.6339
    -2.6324  -2.6313  -2.6286  -2.6180  -2.6157  -2.6127  -2.5911  -2.5837
    -2.5635  -2.5503  -2.4986  -2.4495  -2.4012  -2.3972  -2.3702  -2.3025
    -2.2060  -2.2028  -2.1829  -2.1804  -2.1790  -2.1763  -2.1735  -2.1686
    -2.1663  -2.1631  -2.1623  -2.1595  -2.1593  -2.1557  -2.1534  -2.1508
    -2.1386  -2.1318  -2.1191  -2.1178  -2.0860  -2.0486  -1.8445  -1.6022
    -1.4549  -1.4533  -1.4478  -1.4469  -1.4434  -1.4367  -1.4366  -1.4326
    -1.4307  -1.4266  -1.4256  -1.4219  -1.4163  -1.4123  -1.4103  -1.3988
    -1.3935  -1.3889  -1.3876  -1.3806  -1.3663  -1.3661  -1.3453  -1.3008
    -1.2588  -1.2582  -1.2516  -1.2509  -1.2497  -1.2476  -1.2457  -1.2312
    -1.2296  -1.2278  -1.2229  -1.2131  -1.1991  -1.1918  -1.1896  -1.1837
    -1.1693  -1.1379  -1.1349  -1.1167  -1.0990  -0.9775  -0.4408  -0.0921
    -0.0908  -0.0879  -0.0677   0.2013   0.2785   0.2801   0.2997   0.3030
     0.3064   0.3097   0.3115   0.3138   0.3165   0.3315   0.3874   0.4869
     0.4939   0.4976   0.5041   0.5061   0.5351   0.7398   0.7849   0.7905
     0.8177   0.8211   0.8218   0.8226   0.8232   0.8257   0.8334   0.8371
     0.8393   0.8490   0.8512   0.8537   0.8538   0.8607   0.8609   0.8637
     0.8665   0.8682   0.8796   0.8802   0.8819   0.8858   0.8861   0.8884
     0.8930   0.8940   0.8974   0.8974   0.9025   0.9062   0.9116   0.9172
     0.9209   0.9250   0.9315   0.9340   0.9361   0.9381   0.9417   0.9481
     0.9525   0.9883   1.0445   1.0516   1.1416   1.2388   1.2853   1.2875
     1.3099   1.3167   1.3183   1.3202   1.3255   1.3331   1.3382   1.3562
     1.4257   1.5111   1.5218   1.5228   1.5479   1.5484   1.5538   1.5599
     1.5639   1.5788   1.5865   1.6090   1.6659   1.6849   1.6869   1.6888
     1.6999   1.7027   1.7034   1.7062   1.7072   1.7122   1.7126   1.7136
     1.7237   1.7256   1.7258   1.7382   1.7384   1.7390   1.7597   1.7632
     1.7651   1.8638   1.9005   1.9240   2.2085   2.4227   2.4351   2.4359
     2.4759   2.4806   2.4822   2.4833   2.4855   2.4894   2.4894   2.4904
     2.4915   2.4937   2.4952   2.4961   2.4992   2.5009   2.5032   2.5047
     2.5097   2.5550   2.5735   2.5805   2.6723   2.8135   2.8147   2.8237
     2.8387   2.8405   2.8461   2.8500   2.8514   2.8545   2.8562   2.8596
     2.8618   2.8729   2.8821   2.8831   2.8864   2.8904   2.9010   2.9084
     2.9135   2.9207   3.0193   3.0843   3.6672   3.8957   3.8965   3.9421
     3.9433   3.9456   3.9467   3.9491   3.9518   3.9534   3.9598   3.9669
     3.9676   4.0602   4.0704   4.0777   4.1269   4.1279   4.1285   4.1355
     4.1385   4.1385   4.1404   4.1416   4.1424   4.1466   4.1489   4.1510
     4.1514   4.1516   4.1555   4.1599   4.1834   4.2000   4.2045   4.2065
     4.2162   4.2252   4.2262   4.2334   4.2334   4.2368   4.2392   4.2405
     4.2411   4.2446   4.2576   4.2581   4.2629   4.2692   4.2698   4.2724
     4.2730   4.2771   4.2825   4.2911   4.2935   4.2953   4.3283   4.3507
     4.3554   4.3625   4.3674   4.3722   4.3725   4.3758   4.3781   4.3786
     4.3800   4.3842   4.3923   4.3945   4.3968   4.3969   4.4078   4.4128
     4.4182   4.4199   4.4351   4.4432   4.4436   4.4860   4.5004   4.5082
     4.5116   4.5465   4.5514   4.5756   4.5758   4.5851   4.5856   4.5886
     4.5938   4.6102   4.6434   4.6448   4.6589   4.6919   4.7143   4.7172
     4.7846   4.8356   4.9188   4.9193   4.9477   4.9487   4.9512   4.9521
     4.9552   4.9607   4.9676   5.0262   5.0658   5.0897   5.5665   5.6095
     5.6111   5.6492   5.6604   5.6614   5.6662   5.6671   5.6700   5.6978
     5.7001   5.7032   5.8648   5.8675   5.8837   5.9130   5.9166   5.9181
     5.9183   5.9212   5.9224   5.9273   5.9325   5.9383   5.9413   5.9419
     5.9503   5.9528   5.9534   5.9638   5.9710   5.9714   5.9870   5.9912
     6.0042   6.0109   6.0640   6.1664   6.1695   6.2560   6.2573   6.2599
     6.2625   6.2631   6.2667   6.2680   6.2705   6.2721   6.2726   6.2743
     6.2778   6.2811   6.2854   6.2892   6.2974   6.2986   6.3056   6.3168
     6.3330   6.3340   6.3374   6.4635   6.4635   6.4824   6.5119   6.5121
     6.5132   6.5161   6.5172   6.5179   6.5191   6.5218   6.5225   6.5226
     6.5237   6.5239   6.5254   6.5285   6.5291   6.5384   6.5392   6.5676
     6.5802   6.5828   6.5864   6.6421   6.6474   6.6499   6.6626   6.6651
     6.6681   6.6730   6.6849   6.7042   6.7065   6.7237   6.7268   6.7287
     6.7304   6.7328   6.7374   6.7387   6.7429   6.7446   6.7466   6.7470
     6.7524   6.7595   6.7762   6.7802   6.7878   6.7913   6.7978   6.8037
     6.8561   6.8636   6.8853   6.8971   6.9008   6.9285   6.9287   6.9321
     6.9371   6.9373   6.9394   6.9403   6.9406   6.9451   6.9491   6.9522
     6.9569   6.9573   6.9615   6.9629   6.9633   6.9656   6.9688   6.9738
     6.9773   6.9846   6.9937   7.0055   7.0077   7.0637   7.1074   7.1333
     7.2448   7.2527   7.2981   7.2983   7.2997   7.3011   7.3039   7.3047
     7.3057   7.3067   7.3086   7.3114   7.3121   7.3137   7.3160   7.3186
     7.3246   7.3276   7.3295   7.3452   7.3455   7.3768   7.3807   7.3829
     7.4759   7.4776   7.5183   7.5231   7.5241   7.5296   7.5399   7.5451
     7.5652   7.5830   7.5924   7.5939   7.6497   7.6729   7.6762   7.7335
     7.7339   7.7356   7.7362   7.7399   7.7402   7.7441   7.7459   7.7487
     7.7508   7.7531   7.7553   7.7555   7.7578   7.7593   7.7603   7.7612
     7.7612   7.7626   7.7674   7.7680   7.7697   7.7706   7.7719   7.7731
     7.7738   7.7751   7.7756   7.7775   7.7794   7.7811   7.7813   7.7849
     7.7855   7.7867   7.7905   7.7957   7.7986   7.7992   7.8034   7.8267
     7.8290   7.8539   7.8585   7.8680   7.8824   7.9009   7.9128   7.9151
     7.9276   7.9288   7.9438   7.9450   7.9671   8.0812   8.1001   8.1107
     8.2901   8.2911   8.3532   8.3569   8.3581   8.3591   8.3603   8.3627
     8.3659   8.3676   8.3687   8.3691   8.3700   8.3724   8.3732   8.3808
     8.3835   8.3912   8.3930   8.4001   8.4021   8.4115   8.4232   8.4260
     8.4460   8.5006   8.5222   8.5438   8.5449   8.5473   8.5483   8.5537
     8.5558   8.5582   8.5607   8.5619   8.5628   8.5665   8.5714   8.5770
     8.5821   8.5845   8.6007   8.6015   8.6024   8.6078   8.6325   8.6332
     8.6434   8.6461   8.6568   8.6611   8.6619   8.6660   8.6700   8.6717
     8.6789   8.6790   8.6924   8.6936   8.6973   8.6999   8.7037   8.7046
     8.7157   8.7172   8.7275   8.7328   8.7371   8.7418   8.7441   8.7519
     8.7649   8.7812   8.7980   8.9787   9.0292   9.0416   9.1070   9.1076
     9.1301   9.1329   9.1355   9.1356   9.1387   9.1404   9.1455   9.1657
     9.1878   9.2026   9.2059   9.2503   9.2543   9.2588   9.2618   9.2709
     9.2813   9.2906   9.2945   9.4087   9.4469   9.4663   9.6514   9.6528
     9.7063   9.7071   9.7073   9.7082   9.7131   9.7152   9.7186   9.7231
     9.7232   9.7300   9.7330   9.7341   9.7370   9.7417   9.7487   9.7540
     9.7610   9.7633   9.7786   9.7873   9.8445   9.8486   9.8598   9.9641
     9.9739   9.9849   9.9901   9.9950   9.9987  10.0009  10.0032  10.0061
    10.0164  10.0171  10.0198  10.0229  10.0269  10.0310  10.0318  10.0354
    10.0360  10.0391  10.0392  10.0401  10.0434  10.0439  10.0450  10.0452
    10.0488  10.0500  10.0513  10.0525  10.0615  10.0621  10.0696  10.1411
    10.1445  10.1550  10.1905  10.1952  10.1966  10.1973  10.1992  10.2009
    10.2010  10.2021  10.2026  10.2051  10.2064  10.2088  10.2669  10.2781
    10.2789  10.3053  10.3054  10.3076  10.3115  10.3156  10.3158  10.3170
    10.3186  10.3193  10.3219  10.3223  10.3230  10.3252  10.3259  10.3270
    10.3286  10.3303  10.3315  10.3322  10.3332  10.3369  10.3418  10.3456
    10.3491  10.3523  10.3536  10.3543  10.3567  10.3619  10.3632  10.3719
    10.3777  10.3863  10.3880  10.4092  10.4160  10.4241  10.4339  10.4356
    10.4534  10.4547  10.4671  10.4954  10.5036  10.5058  10.5221  10.5736
    10.6109  10.6120  10.7210  11.1201  11.2945  11.3307  11.4445  11.4568
    11.4639  11.4771  11.4783  11.4866  11.4882  11.4897  11.4905  11.4918
    11.4935  11.4954  11.5015  11.5025  11.5058  11.5065  11.5142  11.5205
    11.5263  11.5366  11.5429  11.5473  11.5525  11.5843  11.5860  11.5872
    11.8783  11.8795  11.8853  11.9201  11.9227  12.0732  12.3116  12.3454
    12.3621  12.4553  12.4619  12.4673  12.4771  12.4895  12.4925  12.5178
    12.5324  12.5465  13.1224  13.1896  13.1900  13.6810  15.1245  15.8075
    17.4005  17.4036  17.4049  17.4176  17.4204  17.4303  17.7112  17.7128

     occupation numbers 
     1.0000   1.0000   1.0000   1.0000   1.0000   1.0000   1.0000   1.0000
     1.0000   1.0000   1.0000   1.0000   1.0000   1.0000   1.0000   1.0000
     1.0000   1.0000   1.0000   1.0000   1.0000   1.0000   1.0000   1.0000
     1.0000   1.0000   1.0000   1.0000   1.0000   1.0000   1.0000   1.0000
     1.0000   1.0000   1.0000   1.0000   1.0000   1.0000   1.0000   1.0000
     1.0000   1.0000   1.0000   1.0000   1.0000   1.0000   1.0000   1.0000
     1.0000   1.0000   1.0000   1.0000   1.0000   1.0000   1.0000   1.0000
     1.0000   1.0000   1.0000   1.0000   1.0000   1.0000   1.0000   1.0000
     1.0000   1.0000   1.0000   1.0000   1.0000   1.0000   1.0000   1.0000
     1.0000   1.0000   1.0000   1.0000   1.0000   1.0000   1.0000   1.0000
     1.0000   1.0000   1.0000   1.0000   1.0000   1.0000   1.0000   1.0000
     1.0000   1.0000   1.0000   1.0000   1.0000   1.0000   1.0000   1.0000
     1.0000   1.0000   1.0000   1.0000   1.0000   1.0000   1.0000   1.0000
     1.0000   1.0000   1.0000   1.0000   1.0000   1.0000   1.0000   1.0000
     1.0000   1.0000   1.0000   1.0000   1.0000   1.0000   1.0000   1.0000
     1.0000   1.0000   1.0000   1.0000   1.0000   1.0000   1.0000   1.0000
     1.0000   1.0000   1.0000   1.0000   1.0000   1.0000   1.0000   1.0000
     1.0000   1.0000   1.0000   1.0000   1.0000   1.0000   1.0000   1.0000
     1.0000   1.0000   1.0000   1.0000   1.0000   1.0000   1.0000   1.0000
     1.0000   1.0000   1.0000   1.0000   1.0000   1.0000   1.0000   1.0000
     1.0000   1.0000   1.0000   1.0000   1.0000   1.0000   1.0000   1.0000
     1.0000   1.0000   1.0000   1.0000   1.0000   1.0000   1.0000   1.0000
     1.0000   1.0000   1.0000   1.0000   1.0000   1.0000   1.0000   1.0000
     1.0000   1.0000   1.0000   1.0000   1.0000   1.0000   1.0000   1.0000
     1.0000   1.0000   1.0000   1.0000   1.0000   1.0000   1.0000   1.0000
     1.0000   1.0000   1.0000   1.0000   1.0000   1.0000   1.0000   1.0000
     1.0000   1.0000   1.0000   1.0000   1.0000   1.0000   1.0000   1.0000
     1.0000   1.0000   1.0000   1.0000   1.0000   1.0000   1.0000   1.0000
     1.0000   1.0000   1.0000   1.0000   1.0000   1.0000   1.0000   1.0000
     1.0000   1.0000   1.0000   1.0000   1.0000   1.0000   1.0000   1.0000
     1.0000   1.0000   1.0000   1.0000   1.0000   1.0000   1.0000   1.0000
     1.0000   1.0000   1.0000   1.0000   1.0000   1.0000   1.0000   1.0000
     1.0000   1.0000   1.0000   1.0000   1.0000   1.0000   1.0000   1.0000
     1.0000   1.0000   1.0000   1.0000   1.0000   1.0000   1.0000   1.0000
     1.0000   1.0000   1.0000   1.0000   1.0000   1.0000   1.0000   1.0000
     1.0000   1.0000   1.0000   1.0000   1.0000   1.0000   1.0000   1.0000
     1.0000   1.0000   1.0000   1.0000   1.0000   1.0000   1.0000   1.0000
     1.0000   1.0000   1.0000   1.0000   1.0000   1.0000   1.0000   1.0000
     1.0000   1.0000   1.0000   1.0000   1.0000   1.0000   1.0000   1.0000
     1.0000   1.0000   1.0000   1.0000   1.0000   1.0000   1.0000   1.0000
     1.0000   1.0000   1.0000   1.0000   1.0000   1.0000   1.0000   1.0000
     1.0000   1.0000   1.0000   1.0000   1.0000   1.0000   1.0000   1.0000
     1.0000   1.0000   1.0000   1.0000   1.0000   1.0000   1.0000   1.0000
     1.0000   1.0000   1.0000   1.0000   1.0000   1.0000   1.0000   1.0000
     1.0000   1.0000   1.0000   1.0000   1.0000   1.0000   1.0000   1.0000
     1.0000   1.0000   1.0000   1.0000   1.0000   1.0000   1.0000   1.0000
     1.0000   1.0000   1.0000   1.0000   1.0000   1.0000   1.0000   1.0000
     1.0000   1.0000   1.0000   1.0000   1.0000   1.0000   1.0000   1.0000
     1.0000   1.0000   1.0000   1.0000   1.0000   1.0000   1.0000   1.0000
     1.0000   1.0000   1.0000   1.0000   1.0000   1.0000   1.0000   1.0000
     1.0000   1.0000   1.0000   1.0000   1.0000   1.0000   1.0000   1.0000
     1.0000   1.0000   1.0000   1.0000   1.0000   1.0000   1.0000   1.0000
     1.0000   1.0000   1.0000   1.0000   1.0000   1.0000   1.0000   1.0000
     1.0000   1.0000   1.0000   1.0000   1.0000   1.0000   1.0000   1.0000
     1.0000   1.0000   1.0000   1.0000   1.0000   1.0000   1.0000   1.0000
     1.0000   1.0000   1.0000   1.0000   1.0000   1.0000   1.0000   1.0000
     1.0000   1.0000   1.0000   1.0000   1.0000   1.0000   1.0000   1.0000
     1.0000   1.0000   1.0000   1.0000   1.0000   1.0000   1.0000   1.0000
     1.0000   1.0000   1.0000   1.0000   1.0000   1.0000   1.0000   1.0000
     1.0000   1.0000   1.0000   1.0000   1.0000   1.0000   1.0000   1.0000
     1.0000   1.0000   1.0000   1.0000   1.0000   1.0000   1.0000   1.0000
     1.0000   1.0000   1.0000   1.0000   1.0000   1.0000   1.0000   1.0000
     1.0000   1.0000   1.0000   1.0000   1.0000   1.0000   1.0000   1.0000
     1.0000   1.0000   1.0000   1.0000   1.0000   1.0000   1.0000   1.0000
     1.0000   1.0000   1.0000   1.0000   1.0000   1.0000   1.0000   1.0000
     1.0000   1.0000   1.0000   1.0000   1.0000   1.0000   1.0000   1.0000
     1.0000   1.0000   1.0000   1.0000   1.0000   1.0000   1.0000   1.0000
     1.0000   1.0000   1.0000   1.0000   1.0000   1.0000   1.0000   1.0000
     1.0000   1.0000   1.0000   1.0000   1.0000   1.0000   1.0000   1.0000
     1.0000   1.0000   1.0000   1.0000   1.0000   1.0000   1.0000   1.0000
     1.0000   1.0000   1.0000   1.0000   1.0000   1.0000   1.0000   1.0000
     1.0000   1.0000   1.0000   1.0000   1.0000   1.0000   1.0000   1.0000
     1.0000   1.0000   1.0000   1.0000   1.0000   1.0000   1.0000   1.0000
     1.0000   1.0000   1.0000   1.0000   1.0000   1.0000   1.0000   1.0000
     1.0000   1.0000   1.0000   1.0000   1.0000   1.0000   1.0000   1.0000
     1.0000   1.0000   1.0000   1.0000   1.0000   1.0000   1.0000   1.0000
     1.0000   1.0000   1.0000   1.0000   1.0000   1.0000   1.0000   1.0000
     1.0000   1.0000   1.0000   1.0000   1.0000   1.0000   1.0000   1.0000
     1.0000   1.0000   1.0000   1.0000   1.0000   1.0000   1.0000   1.0000
     1.0000   1.0000   1.0000   1.0000   1.0000   1.0000   1.0000   1.0000
     1.0000   1.0000   1.0000   1.0000   1.0000   1.0000   1.0000   1.0000
     1.0000   1.0000   1.0000   1.0000   1.0000   1.0000   1.0000   1.0000
     1.0000   1.0000   1.0000   1.0000   1.0000   1.0000   1.0000   1.0000
     1.0000   1.0000   1.0000   1.0000   1.0000   1.0000   1.0000   1.0000
     1.0000   1.0000   1.0000   1.0000   1.0000   1.0000   1.0000   1.0000
     1.0000   1.0000   1.0000   1.0000   1.0000   1.0000   1.0000   1.0000
     1.0000   1.0000   1.0000   1.0000   1.0000   1.0000   1.0000   1.0000
     1.0000   1.0000   1.0000   1.0000   1.0000   1.0000   1.0000   1.0000
     1.0000   1.0000   1.0000   1.0000   1.0000   1.0000   1.0000   1.0000
     1.0000   1.0000   1.0000   1.0000   1.0000   1.0000   1.0000   1.0000
     1.0000   1.0000   1.0000   1.0000   1.0000   1.0000   1.0000   1.0000
     1.0000   1.0000   1.0000   1.0000   1.0000   1.0000   1.0000   1.0000
     1.0000   1.0000   1.0000   1.0000   1.0000   1.0000   1.0000   1.0000
     1.0000   1.0000   1.0000   1.0000   1.0000   1.0000   1.0000   1.0000
     1.0000   1.0000   1.0000   1.0000   1.0000   1.0000   1.0000   1.0000
     1.0000   1.0000   1.0000   1.0000   1.0000   1.0000   1.0000   1.0000
     1.0000   1.0000   1.0000   1.0000   1.0000   1.0000   1.0000   1.0000
     1.0000   1.0000   1.0000   1.0000   1.0000   1.0000   1.0000   1.0000
     1.0000   1.0000   1.0000   1.0000   1.0000   1.0000   1.0000   1.0000
     1.0000   1.0000   1.0000   1.0000   1.0000   1.0000   1.0000   1.0000
     1.0000   1.0000   1.0000   1.0000   1.0000   1.0000   1.0000   1.0000
     1.0000   1.0000   1.0000   1.0000   1.0000   1.0000   1.0000   1.0000
     1.0000   1.0000   1.0000   1.0000   1.0000   1.0000   1.0000   1.0000
     1.0000   1.0000   1.0000   1.0000   1.0000   1.0000   1.0000   1.0000
     1.0000   1.0000   1.0000   1.0000   1.0000   1.0000   1.0000   1.0000
     1.0000   1.0000   1.0000   1.0000   1.0000   1.0000   1.0000   1.0000
     1.0000   1.0000   1.0000   1.0000   1.0000   1.0000   1.0000   1.0000
     1.0000   1.0000   1.0000   1.0000   1.0000   1.0000   1.0000   1.0000
     1.0000   1.0000   1.0000   1.0000   1.0000   1.0000   1.0000   1.0000
     1.0000   1.0000   1.0000   1.0000   1.0000   1.0000   1.0000   1.0000
     1.0000   1.0000   1.0000   1.0000   1.0000   1.0000   1.0000   1.0000
     1.0000   1.0000   1.0000   1.0000   1.0000   1.0000   1.0000   1.0000
     1.0000   1.0000   1.0000   1.0000   1.0000   1.0000   1.0000   1.0000
     1.0000   1.0000   1.0000   1.0000   1.0000   1.0000   1.0000   1.0000
     1.0000   1.0000   1.0000   1.0000   1.0000   1.0000   1.0000   1.0000
     1.0000   1.0000   1.0000   1.0000   1.0000   1.0000   1.0000   1.0000
     1.0000   1.0000   1.0000   1.0000   1.0000   1.0000   1.0000   1.0000
     1.0000   1.0000   1.0000   1.0000   1.0000   1.0000   1.0000   1.0000
     1.0000   1.0000   1.0000   1.0000   1.0000   1.0000   1.0000   1.0000
     1.0000   1.0000   1.0000   1.0000   1.0000   1.0000   1.0000   1.0000
     1.0000   1.0000   1.0000   1.0000   1.0000   1.0000   1.0000   1.0000
     1.0000   1.0000   1.0000   1.0000   1.0000   1.0000   1.0000   1.0000
     1.0000   1.0000   1.0000   1.0000   1.0000   1.0000   1.0000   1.0000
     1.0000   1.0000   1.0000   1.0000   1.0000   1.0000   1.0000   1.0000
     1.0000   1.0000   1.0000   1.0000   1.0000   1.0000   1.0000   1.0000
     1.0000   1.0000   1.0000   1.0000   1.0000   1.0000   1.0000   1.0000
     1.0000   1.0000   1.0000   1.0000   1.0000   1.0000   1.0000   1.0000
     1.0000   1.0000   1.0000   1.0000   1.0000   1.0000   1.0000   1.0000
     0.0000   0.0000   0.0000   0.0000   0.0000   0.0000   0.0000   0.0000

 ------ SPIN DOWN ----------


          k = 0.0000 0.0000 0.0000 (118565 PWs)   bands (ev):

    -8.2041  -7.7247  -7.6390  -7.6367  -7.6149  -7.6041  -7.5609  -7.2562
    -7.0742  -7.0695  -7.0643  -7.0585  -7.0562  -7.0428  -7.0402  -7.0328
    -6.9984  -6.9784  -6.9078  -6.6315  -6.4769  -6.4693  -6.4634  -6.4553
    -6.4443  -6.4324  -6.3611  -6.0250  -5.9125  -5.9104  -5.9005  -5.8976
    -5.8783  -5.6876  -5.3896  -5.3857  -5.3828  -5.3825  -5.3773  -5.3762
    -5.3739  -5.3682  -5.3680  -5.3626  -5.3598  -5.3575  -5.3530  -5.3470
    -5.3341  -5.3313  -5.3216  -5.3177  -5.3095  -5.3023  -5.2669  -5.2484
    -5.1826  -5.0214  -4.8375  -4.8349  -4.8249  -4.8213  -4.8165  -4.8158
    -4.8138  -4.8135  -4.8107  -4.8101  -4.8075  -4.8005  -4.7998  -4.7918
    -4.7889  -4.7796  -4.7659  -4.7407  -4.7337  -4.7159  -4.6899  -4.6554
    -4.4434  -3.9191  -3.7336  -3.7318  -3.7303  -3.7281  -3.7202  -3.7173
    -3.7140  -3.7112  -3.7049  -3.7009  -3.6610  -3.5049  -3.2748  -3.2740
    -3.2715  -3.2665  -3.2657  -3.2646  -3.2602  -3.2581  -3.2547  -3.2486
    -3.2466  -3.2438  -3.2406  -3.2328  -3.2317  -3.2225  -3.2130  -3.1891
    -3.1876  -3.1709  -3.1572  -3.1556  -3.1528  -3.1438  -3.1390  -3.1364
    -3.1265  -3.1093  -2.9962  -2.7923  -2.6652  -2.6634  -2.6592  -2.6577
    -2.6562  -2.6557  -2.6544  -2.6523  -2.6465  -2.6449  -2.6420  -2.6311
    -2.6306  -2.6278  -2.6273  -2.6165  -2.6136  -2.6102  -2.5866  -2.5802
    -2.5506  -2.5445  -2.4942  -2.4463  -2.3951  -2.3938  -2.3647  -2.2966
    -2.2035  -2.2000  -2.1782  -2.1767  -2.1766  -2.1741  -2.1717  -2.1662
    -2.1644  -2.1611  -2.1600  -2.1579  -2.1566  -2.1534  -2.1524  -2.1466
    -2.1358  -2.1247  -2.1148  -2.1143  -2.0599  -2.0340  -1.8278  -1.5917
    -1.4535  -1.4514  -1.4467  -1.4463  -1.4427  -1.4362  -1.4353  -1.4312
    -1.4301  -1.4252  -1.4247  -1.4214  -1.4149  -1.4108  -1.4041  -1.3964
    -1.3905  -1.3855  -1.3854  -1.3795  -1.3635  -1.3587  -1.3421  -1.2967
    -1.2570  -1.2554  -1.2508  -1.2497  -1.2491  -1.2454  -1.2440  -1.2292
    -1.2281  -1.2252  -1.2190  -1.2098  -1.1959  -1.1875  -1.1854  -1.1795
    -1.1631  -1.1315  -1.1281  -1.1106  -1.0363  -0.9414  -0.3780  -0.0902
    -0.0883  -0.0849  -0.0628   0.2116   0.2809   0.2828   0.3025   0.3053
     0.3083   0.3118   0.3139   0.3156   0.3288   0.3376   0.3977   0.4896
     0.4952   0.4992   0.5064   0.5089   0.5401   0.7569   0.7886   0.7948
     0.8183   0.8217   0.8227   0.8233   0.8236   0.8263   0.8355   0.8393
     0.8418   0.8510   0.8538   0.8546   0.8573   0.8622   0.8635   0.8654
     0.8675   0.8699   0.8804   0.8810   0.8824   0.8872   0.8876   0.8897
     0.8939   0.8972   0.8982   0.8986   0.9032   0.9069   0.9168   0.9243
     0.9257   0.9297   0.9345   0.9376   0.9407   0.9413   0.9452   0.9561
     0.9574   0.9951   1.0586   1.0587   1.1497   1.2458   1.2878   1.2896
     1.3131   1.3195   1.3216   1.3233   1.3273   1.3347   1.3545   1.3640
     1.4323   1.5162   1.5248   1.5252   1.5502   1.5505   1.5563   1.5639
     1.5686   1.5823   1.6032   1.6193   1.6708   1.6877   1.6885   1.6904
     1.7015   1.7046   1.7055   1.7071   1.7087   1.7136   1.7143   1.7155
     1.7267   1.7276   1.7300   1.7398   1.7403   1.7439   1.7674   1.7716
     1.7749   1.8741   1.9248   1.9387   2.2305   2.4282   2.4387   2.4391
     2.4828   2.4842   2.4853   2.4873   2.4886   2.4914   2.4918   2.4928
     2.4931   2.4956   2.4985   2.4995   2.5019   2.5023   2.5054   2.5105
     2.5134   2.5615   2.5866   2.5873   2.6822   2.8160   2.8177   2.8347
     2.8396   2.8416   2.8479   2.8503   2.8524   2.8574   2.8576   2.8637
     2.8674   2.8747   2.8853   2.8862   2.8904   2.8940   2.9051   2.9124
     2.9169   2.9239   3.0678   3.1132   3.7205   3.9006   3.9021   3.9440
     3.9455   3.9472   3.9479   3.9503   3.9541   3.9549   3.9625   3.9691
     3.9705   4.0721   4.0768   4.0830   4.1281   4.1287   4.1297   4.1384
     4.1398   4.1407   4.1418   4.1426   4.1443   4.1474   4.1497   4.1519
     4.1523   4.1555   4.1583   4.1618   4.1906   4.2021   4.2058   4.2085
     4.2192   4.2277   4.2327   4.2355   4.2381   4.2397   4.2414   4.2424
     4.2456   4.2469   4.2617   4.2633   4.2662   4.2716   4.2741   4.2752
     4.2758   4.2790   4.2856   4.2931   4.2969   4.2981   4.3438   4.3570
     4.3589   4.3642   4.3701   4.3734   4.3734   4.3772   4.3799   4.3804
     4.3826   4.3852   4.3936   4.3974   4.3982   4.4013   4.4110   4.4155
     4.4206   4.4221   4.4366   4.4471   4.4485   4.4913   4.5094   4.5141
     4.5182   4.5507   4.5548   4.5793   4.5813   4.5879   4.5894   4.5949
     4.5971   4.6205   4.6482   4.6506   4.6622   4.6999   4.7179   4.7205
     4.8214   4.8571   4.9221   4.9222   4.9500   4.9518   4.9536   4.9544
     4.9573   4.9664   4.9713   5.0353   5.0933   5.1094   5.5943   5.6157
     5.6164   5.6534   5.6618   5.6631   5.6674   5.6708   5.6736   5.7033
     5.7035   5.7076   5.8707   5.8739   5.9007   5.9156   5.9181   5.9188
     5.9200   5.9222   5.9232   5.9283   5.9342   5.9406   5.9425   5.9436
     5.9518   5.9544   5.9559   5.9670   5.9754   5.9755   5.9893   5.9976
     6.0120   6.0145   6.1020   6.1725   6.1746   6.2587   6.2600   6.2636
     6.2656   6.2664   6.2682   6.2699   6.2719   6.2740   6.2754   6.2757
     6.2809   6.2827   6.2896   6.2925   6.3022   6.3028   6.3093   6.3285
     6.3378   6.3423   6.3458   6.4675   6.4687   6.4862   6.5138   6.5149
     6.5160   6.5188   6.5193   6.5198   6.5214   6.5235   6.5238   6.5249
     6.5256   6.5269   6.5286   6.5313   6.5323   6.5432   6.5432   6.5738
     6.5870   6.5880   6.5955   6.6477   6.6518   6.6543   6.6639   6.6660
     6.6692   6.6751   6.6876   6.7083   6.7094   6.7241   6.7278   6.7293
     6.7332   6.7355   6.7392   6.7405   6.7448   6.7453   6.7476   6.7485
     6.7541   6.7646   6.7791   6.7836   6.7956   6.7978   6.8006   6.8184
     6.8636   6.8688   6.8903   6.9011   6.9073   6.9296   6.9302   6.9332
     6.9382   6.9405   6.9411   6.9431   6.9435   6.9491   6.9539   6.9541
     6.9592   6.9611   6.9651   6.9654   6.9667   6.9674   6.9747   6.9759
     6.9811   6.9886   6.9978   7.0199   7.0202   7.0783   7.1272   7.1459
     7.2497   7.2564   7.2991   7.3002   7.3021   7.3023   7.3057   7.3065
     7.3074   7.3084   7.3098   7.3122   7.3142   7.3158   7.3190   7.3197
     7.3278   7.3309   7.3317   7.3503   7.3505   7.3817   7.3849   7.3904
     7.4818   7.4819   7.5238   7.5256   7.5270   7.5316   7.5458   7.5489
     7.5697   7.5903   7.5972   7.6011   7.6747   7.6769   7.6809   7.7351
     7.7352   7.7373   7.7374   7.7414   7.7419   7.7453   7.7490   7.7514
     7.7521   7.7558   7.7571   7.7589   7.7603   7.7603   7.7624   7.7629
     7.7646   7.7647   7.7688   7.7693   7.7721   7.7725   7.7733   7.7750
     7.7754   7.7774   7.7784   7.7810   7.7811   7.7823   7.7864   7.7865
     7.7881   7.7884   7.7925   7.7984   7.8005   7.8042   7.8126   7.8351
     7.8362   7.8563   7.8616   7.8744   7.8893   7.9071   7.9190   7.9195
     7.9307   7.9342   7.9493   7.9548   7.9730   8.0970   8.1208   8.1218
     8.2940   8.2957   8.3555   8.3590   8.3596   8.3617   8.3639   8.3647
     8.3671   8.3690   8.3703   8.3704   8.3734   8.3738   8.3772   8.3836
     8.3858   8.3933   8.3980   8.4019   8.4154   8.4260   8.4275   8.4315
     8.4758   8.5044   8.5259   8.5464   8.5467   8.5495   8.5509   8.5569
     8.5576   8.5599   8.5619   8.5641   8.5650   8.5688   8.5745   8.5798
     8.5852   8.5887   8.6033   8.6053   8.6075   8.6115   8.6373   8.6399
     8.6461   8.6506   8.6589   8.6622   8.6633   8.6711   8.6732   8.6765
     8.6830   8.6847   8.6946   8.6963   8.7010   8.7056   8.7090   8.7108
     8.7241   8.7243   8.7351   8.7386   8.7413   8.7486   8.7490   8.7607
     8.7729   8.7937   8.8107   9.0000   9.0515   9.0516   9.1123   9.1124
     9.1350   9.1371   9.1374   9.1384   9.1420   9.1456   9.1475   9.1840
     9.2026   9.2131   9.2149   9.2533   9.2570   9.2610   9.2626   9.2738
     9.2881   9.2953   9.3039   9.4291   9.4732   9.4801   9.6579   9.6585
     9.7074   9.7085   9.7093   9.7147   9.7162   9.7165   9.7199   9.7254
     9.7322   9.7348   9.7368   9.7395   9.7409   9.7449   9.7510   9.7556
     9.7706   9.7713   9.7845   9.8261   9.8562   9.8564   9.8843   9.9705
     9.9781   9.9884   9.9930   9.9967   9.9999  10.0034  10.0042  10.0122
    10.0179  10.0180  10.0214  10.0260  10.0303  10.0340  10.0343  10.0375
    10.0385  10.0412  10.0413  10.0430  10.0451  10.0459  10.0472  10.0473
    10.0511  10.0519  10.0533  10.0542  10.0682  10.0705  10.0770  10.1485
    10.1490  10.1624  10.1922  10.1965  10.1974  10.1982  10.2001  10.2016
    10.2017  10.2028  10.2034  10.2060  10.2084  10.2104  10.2731  10.2823
    10.2977  10.3060  10.3065  10.3089  10.3122  10.3164  10.3177  10.3182
    10.3193  10.3208  10.3233  10.3234  10.3248  10.3264  10.3279  10.3282
    10.3305  10.3319  10.3334  10.3340  10.3342  10.3383  10.3432  10.3479
    10.3508  10.3543  10.3549  10.3569  10.3596  10.3643  10.3690  10.3758
    10.3816  10.3964  10.3970  10.4160  10.4243  10.4278  10.4359  10.4379
    10.4566  10.4590  10.4775  10.5019  10.5146  10.5150  10.5379  10.5855
    10.6312  10.6433  10.7443  11.2071  11.3453  11.3479  11.4557  11.4599
    11.4782  11.4792  11.4880  11.4896  11.4907  11.4916  11.4952  11.4962
    11.4969  11.4989  11.5044  11.5056  11.5089  11.5112  11.5249  11.5254
    11.5310  11.5466  11.5512  11.5581  11.5741  11.5956  11.5965  11.7238
    11.8838  11.8862  11.8962  11.9217  11.9251  12.2064  12.3608  12.3639
    12.4561  12.4648  12.4690  12.4781  12.4885  12.4958  12.5146  12.5214
    12.5399  12.5527  13.1985  13.2048  13.2112  14.7303  16.5427  16.5847
    17.4038  17.4061  17.4062  17.4212  17.4226  17.4348  17.7130  17.7151

     occupation numbers 
     1.0000   1.0000   1.0000   1.0000   1.0000   1.0000   1.0000   1.0000
     1.0000   1.0000   1.0000   1.0000   1.0000   1.0000   1.0000   1.0000
     1.0000   1.0000   1.0000   1.0000   1.0000   1.0000   1.0000   1.0000
     1.0000   1.0000   1.0000   1.0000   1.0000   1.0000   1.0000   1.0000
     1.0000   1.0000   1.0000   1.0000   1.0000   1.0000   1.0000   1.0000
     1.0000   1.0000   1.0000   1.0000   1.0000   1.0000   1.0000   1.0000
     1.0000   1.0000   1.0000   1.0000   1.0000   1.0000   1.0000   1.0000
     1.0000   1.0000   1.0000   1.0000   1.0000   1.0000   1.0000   1.0000
     1.0000   1.0000   1.0000   1.0000   1.0000   1.0000   1.0000   1.0000
     1.0000   1.0000   1.0000   1.0000   1.0000   1.0000   1.0000   1.0000
     1.0000   1.0000   1.0000   1.0000   1.0000   1.0000   1.0000   1.0000
     1.0000   1.0000   1.0000   1.0000   1.0000   1.0000   1.0000   1.0000
     1.0000   1.0000   1.0000   1.0000   1.0000   1.0000   1.0000   1.0000
     1.0000   1.0000   1.0000   1.0000   1.0000   1.0000   1.0000   1.0000
     1.0000   1.0000   1.0000   1.0000   1.0000   1.0000   1.0000   1.0000
     1.0000   1.0000   1.0000   1.0000   1.0000   1.0000   1.0000   1.0000
     1.0000   1.0000   1.0000   1.0000   1.0000   1.0000   1.0000   1.0000
     1.0000   1.0000   1.0000   1.0000   1.0000   1.0000   1.0000   1.0000
     1.0000   1.0000   1.0000   1.0000   1.0000   1.0000   1.0000   1.0000
     1.0000   1.0000   1.0000   1.0000   1.0000   1.0000   1.0000   1.0000
     1.0000   1.0000   1.0000   1.0000   1.0000   1.0000   1.0000   1.0000
     1.0000   1.0000   1.0000   1.0000   1.0000   1.0000   1.0000   1.0000
     1.0000   1.0000   1.0000   1.0000   1.0000   1.0000   1.0000   1.0000
     1.0000   1.0000   1.0000   1.0000   1.0000   1.0000   1.0000   1.0000
     1.0000   1.0000   1.0000   1.0000   1.0000   1.0000   1.0000   1.0000
     1.0000   1.0000   1.0000   1.0000   1.0000   1.0000   1.0000   1.0000
     1.0000   1.0000   1.0000   1.0000   1.0000   1.0000   1.0000   1.0000
     1.0000   1.0000   1.0000   1.0000   1.0000   1.0000   1.0000   1.0000
     1.0000   1.0000   1.0000   1.0000   1.0000   1.0000   1.0000   1.0000
     1.0000   1.0000   1.0000   1.0000   1.0000   1.0000   1.0000   1.0000
     1.0000   1.0000   1.0000   1.0000   1.0000   1.0000   1.0000   1.0000
     1.0000   1.0000   1.0000   1.0000   1.0000   1.0000   1.0000   1.0000
     1.0000   1.0000   1.0000   1.0000   1.0000   1.0000   1.0000   1.0000
     1.0000   1.0000   1.0000   1.0000   1.0000   1.0000   1.0000   1.0000
     1.0000   1.0000   1.0000   1.0000   1.0000   1.0000   1.0000   1.0000
     1.0000   1.0000   1.0000   1.0000   1.0000   1.0000   1.0000   1.0000
     1.0000   1.0000   1.0000   1.0000   1.0000   1.0000   1.0000   1.0000
     1.0000   1.0000   1.0000   1.0000   1.0000   1.0000   1.0000   1.0000
     1.0000   1.0000   1.0000   1.0000   1.0000   1.0000   1.0000   1.0000
     1.0000   1.0000   1.0000   1.0000   1.0000   1.0000   1.0000   1.0000
     1.0000   1.0000   1.0000   1.0000   1.0000   1.0000   1.0000   1.0000
     1.0000   1.0000   1.0000   1.0000   1.0000   1.0000   1.0000   1.0000
     1.0000   1.0000   1.0000   1.0000   1.0000   1.0000   1.0000   1.0000
     1.0000   1.0000   1.0000   1.0000   1.0000   1.0000   1.0000   1.0000
     1.0000   1.0000   1.0000   1.0000   1.0000   1.0000   1.0000   1.0000
     1.0000   1.0000   1.0000   1.0000   1.0000   1.0000   1.0000   1.0000
     1.0000   1.0000   1.0000   1.0000   1.0000   1.0000   1.0000   1.0000
     1.0000   1.0000   1.0000   1.0000   1.0000   1.0000   1.0000   1.0000
     1.0000   1.0000   1.0000   1.0000   1.0000   1.0000   1.0000   1.0000
     1.0000   1.0000   1.0000   1.0000   1.0000   1.0000   1.0000   1.0000
     1.0000   1.0000   1.0000   1.0000   1.0000   1.0000   1.0000   1.0000
     1.0000   1.0000   1.0000   1.0000   1.0000   1.0000   1.0000   1.0000
     1.0000   1.0000   1.0000   1.0000   1.0000   1.0000   1.0000   1.0000
     1.0000   1.0000   1.0000   1.0000   1.0000   1.0000   1.0000   1.0000
     1.0000   1.0000   1.0000   1.0000   1.0000   1.0000   1.0000   1.0000
     1.0000   1.0000   1.0000   1.0000   1.0000   1.0000   1.0000   1.0000
     1.0000   1.0000   1.0000   1.0000   1.0000   1.0000   1.0000   1.0000
     1.0000   1.0000   1.0000   1.0000   1.0000   1.0000   1.0000   1.0000
     1.0000   1.0000   1.0000   1.0000   1.0000   1.0000   1.0000   1.0000
     1.0000   1.0000   1.0000   1.0000   1.0000   1.0000   1.0000   1.0000
     1.0000   1.0000   1.0000   1.0000   1.0000   1.0000   1.0000   1.0000
     1.0000   1.0000   1.0000   1.0000   1.0000   1.0000   1.0000   1.0000
     1.0000   1.0000   1.0000   1.0000   1.0000   1.0000   1.0000   1.0000
     1.0000   1.0000   1.0000   1.0000   1.0000   1.0000   1.0000   1.0000
     1.0000   1.0000   1.0000   1.0000   1.0000   1.0000   1.0000   1.0000
     1.0000   1.0000   1.0000   1.0000   1.0000   1.0000   1.0000   1.0000
     1.0000   1.0000   1.0000   1.0000   1.0000   1.0000   1.0000   1.0000
     1.0000   1.0000   1.0000   1.0000   1.0000   1.0000   1.0000   1.0000
     1.0000   1.0000   1.0000   1.0000   1.0000   1.0000   1.0000   1.0000
     1.0000   1.0000   1.0000   1.0000   1.0000   1.0000   1.0000   1.0000
     1.0000   1.0000   1.0000   1.0000   1.0000   1.0000   1.0000   1.0000
     1.0000   1.0000   1.0000   1.0000   1.0000   1.0000   1.0000   1.0000
     1.0000   1.0000   1.0000   1.0000   1.0000   1.0000   1.0000   1.0000
     1.0000   1.0000   1.0000   1.0000   1.0000   1.0000   1.0000   1.0000
     1.0000   1.0000   1.0000   1.0000   1.0000   1.0000   1.0000   1.0000
     1.0000   1.0000   1.0000   1.0000   1.0000   1.0000   1.0000   1.0000
     1.0000   1.0000   1.0000   1.0000   1.0000   1.0000   1.0000   1.0000
     1.0000   1.0000   1.0000   1.0000   1.0000   1.0000   1.0000   1.0000
     1.0000   1.0000   1.0000   1.0000   1.0000   1.0000   1.0000   1.0000
     1.0000   1.0000   1.0000   1.0000   1.0000   1.0000   1.0000   1.0000
     1.0000   1.0000   1.0000   1.0000   1.0000   1.0000   1.0000   1.0000
     1.0000   1.0000   1.0000   1.0000   1.0000   1.0000   1.0000   1.0000
     1.0000   1.0000   1.0000   1.0000   1.0000   1.0000   1.0000   1.0000
     1.0000   1.0000   1.0000   1.0000   1.0000   1.0000   1.0000   1.0000
     1.0000   1.0000   1.0000   1.0000   1.0000   1.0000   1.0000   1.0000
     1.0000   1.0000   1.0000   1.0000   1.0000   1.0000   1.0000   1.0000
     1.0000   1.0000   1.0000   1.0000   1.0000   1.0000   1.0000   1.0000
     1.0000   1.0000   1.0000   1.0000   1.0000   1.0000   1.0000   1.0000
     1.0000   1.0000   1.0000   1.0000   1.0000   1.0000   1.0000   1.0000
     1.0000   1.0000   1.0000   1.0000   1.0000   1.0000   1.0000   1.0000
     1.0000   1.0000   1.0000   1.0000   1.0000   1.0000   1.0000   1.0000
     1.0000   1.0000   1.0000   1.0000   1.0000   1.0000   1.0000   1.0000
     1.0000   1.0000   1.0000   1.0000   1.0000   1.0000   1.0000   1.0000
     1.0000   1.0000   1.0000   1.0000   1.0000   1.0000   1.0000   1.0000
     1.0000   1.0000   1.0000   1.0000   1.0000   1.0000   1.0000   1.0000
     1.0000   1.0000   1.0000   1.0000   1.0000   1.0000   1.0000   1.0000
     1.0000   1.0000   1.0000   1.0000   1.0000   1.0000   1.0000   1.0000
     1.0000   1.0000   1.0000   1.0000   1.0000   1.0000   1.0000   1.0000
     1.0000   1.0000   1.0000   1.0000   1.0000   1.0000   1.0000   1.0000
     1.0000   1.0000   1.0000   1.0000   1.0000   1.0000   1.0000   1.0000
     1.0000   1.0000   1.0000   1.0000   1.0000   1.0000   1.0000   1.0000
     1.0000   1.0000   1.0000   1.0000   1.0000   1.0000   1.0000   1.0000
     1.0000   1.0000   1.0000   1.0000   1.0000   1.0000   1.0000   1.0000
     1.0000   1.0000   1.0000   1.0000   1.0000   1.0000   1.0000   1.0000
     1.0000   1.0000   1.0000   1.0000   1.0000   1.0000   1.0000   1.0000
     1.0000   1.0000   1.0000   1.0000   1.0000   1.0000   1.0000   1.0000
     1.0000   1.0000   1.0000   1.0000   1.0000   1.0000   1.0000   1.0000
     1.0000   1.0000   1.0000   1.0000   1.0000   1.0000   1.0000   1.0000
     1.0000   1.0000   1.0000   1.0000   1.0000   1.0000   1.0000   1.0000
     1.0000   1.0000   1.0000   1.0000   1.0000   1.0000   1.0000   1.0000
     1.0000   1.0000   1.0000   1.0000   1.0000   1.0000   1.0000   1.0000
     1.0000   1.0000   1.0000   1.0000   1.0000   1.0000   1.0000   1.0000
     1.0000   1.0000   1.0000   1.0000   1.0000   1.0000   1.0000   1.0000
     1.0000   1.0000   1.0000   1.0000   1.0000   1.0000   1.0000   1.0000
     1.0000   1.0000   1.0000   1.0000   1.0000   1.0000   1.0000   1.0000
     1.0000   1.0000   1.0000   1.0000   1.0000   1.0000   1.0000   1.0000
     1.0000   1.0000   1.0000   1.0000   1.0000   1.0000   1.0000   1.0000
     1.0000   1.0000   1.0000   1.0000   1.0000   1.0000   1.0000   1.0000
     1.0000   1.0000   1.0000   1.0000   1.0000   1.0000   1.0000   1.0000
     1.0000   1.0000   1.0000   1.0000   1.0000   1.0000   1.0000   1.0000
     1.0000   1.0000   1.0000   1.0000   1.0000   1.0000   1.0000   1.0000
     1.0000   1.0000   1.0000   1.0000   1.0000   1.0000   1.0000   1.0000
     1.0000   1.0000   1.0000   1.0000   1.0000   1.0000   1.0000   1.0000
     1.0000   1.0000   1.0000   1.0000   1.0000   1.0000   1.0000   1.0000
     1.0000   1.0000   1.0000   1.0000   1.0000   1.0000   1.0000   1.0000
     1.0000   1.0000   1.0000   1.0000   1.0000   1.0000   1.0000   1.0000
     1.0000   1.0000   1.0000   1.0000   1.0000   1.0000   1.0000   1.0000
     1.0000   1.0000   1.0000   1.0000   1.0000   0.0000   1.0000   0.0000
     0.0000   0.0000   0.0000   0.0000   0.0000   0.0000   0.0000   0.0000

     highest occupied, lowest unoccupied level (ev):    15.8075   14.7303

!    total energy              =   -5828.96937929 Ry
     estimated scf accuracy    <          3.4E-11 Ry

     The total energy is the sum of the following terms:
     one-electron contribution =    2012.45689203 Ry
     hartree contribution      =     504.96544916 Ry
     xc contribution           =   -1820.28270296 Ry
     ewald contribution        =   -6526.10901752 Ry

     total magnetization       =     2.00 Bohr mag/cell
     absolute magnetization    =     2.27 Bohr mag/cell

     convergence has been achieved in  50 iterations

 %%%%%%%%%%%%%%%%%%%%%%%%%%%%%%%%%%%%%%%%%%%%%%%%%%%%%%%%%%%%%%%%%%%%%%%%%%%%%%
     Error in routine write_rhog (2):
     error writing file ./pwscf.save/charge-density
 %%%%%%%%%%%%%%%%%%%%%%%%%%%%%%%%%%%%%%%%%%%%%%%%%%%%%%%%%%%%%%%%%%%%%%%%%%%%%%

     stopping ...

 %%%%%%%%%%%%%%%%%%%%%%%%%%%%%%%%%%%%%%%%%%%%%%%%%%%%%%%%%%%%%%%%%%%%%%%%%%%%%%
     Error in routine write_rhog (2):
     error writing file ./pwscf.save/charge-density
 %%%%%%%%%%%%%%%%%%%%%%%%%%%%%%%%%%%%%%%%%%%%%%%%%%%%%%%%%%%%%%%%%%%%%%%%%%%%%%

     stopping ...

 %%%%%%%%%%%%%%%%%%%%%%%%%%%%%%%%%%%%%%%%%%%%%%%%%%%%%%%%%%%%%%%%%%%%%%%%%%%%%%
     Error in routine write_rhog (2):
     error writing file ./pwscf.save/charge-density
 %%%%%%%%%%%%%%%%%%%%%%%%%%%%%%%%%%%%%%%%%%%%%%%%%%%%%%%%%%%%%%%%%%%%%%%%%%%%%%

     stopping ...

 %%%%%%%%%%%%%%%%%%%%%%%%%%%%%%%%%%%%%%%%%%%%%%%%%%%%%%%%%%%%%%%%%%%%%%%%%%%%%%
     Error in routine write_rhog (2):
     error writing file ./pwscf.save/charge-density
 %%%%%%%%%%%%%%%%%%%%%%%%%%%%%%%%%%%%%%%%%%%%%%%%%%%%%%%%%%%%%%%%%%%%%%%%%%%%%%

     stopping ...

 %%%%%%%%%%%%%%%%%%%%%%%%%%%%%%%%%%%%%%%%%%%%%%%%%%%%%%%%%%%%%%%%%%%%%%%%%%%%%%
     Error in routine write_rhog (2):
     error writing file ./pwscf.save/charge-density
 %%%%%%%%%%%%%%%%%%%%%%%%%%%%%%%%%%%%%%%%%%%%%%%%%%%%%%%%%%%%%%%%%%%%%%%%%%%%%%

     stopping ...

 %%%%%%%%%%%%%%%%%%%%%%%%%%%%%%%%%%%%%%%%%%%%%%%%%%%%%%%%%%%%%%%%%%%%%%%%%%%%%%
     Error in routine write_rhog (2):
     error writing file ./pwscf.save/charge-density
 %%%%%%%%%%%%%%%%%%%%%%%%%%%%%%%%%%%%%%%%%%%%%%%%%%%%%%%%%%%%%%%%%%%%%%%%%%%%%%

     stopping ...

 %%%%%%%%%%%%%%%%%%%%%%%%%%%%%%%%%%%%%%%%%%%%%%%%%%%%%%%%%%%%%%%%%%%%%%%%%%%%%%
     Error in routine write_rhog (2):
     error writing file ./pwscf.save/charge-density
 %%%%%%%%%%%%%%%%%%%%%%%%%%%%%%%%%%%%%%%%%%%%%%%%%%%%%%%%%%%%%%%%%%%%%%%%%%%%%%

     stopping ...

 %%%%%%%%%%%%%%%%%%%%%%%%%%%%%%%%%%%%%%%%%%%%%%%%%%%%%%%%%%%%%%%%%%%%%%%%%%%%%%
     Error in routine write_rhog (2):
     error writing file ./pwscf.save/charge-density
 %%%%%%%%%%%%%%%%%%%%%%%%%%%%%%%%%%%%%%%%%%%%%%%%%%%%%%%%%%%%%%%%%%%%%%%%%%%%%%

     stopping ...

 %%%%%%%%%%%%%%%%%%%%%%%%%%%%%%%%%%%%%%%%%%%%%%%%%%%%%%%%%%%%%%%%%%%%%%%%%%%%%%
     Error in routine write_rhog (2):
     error writing file ./pwscf.save/charge-density
 %%%%%%%%%%%%%%%%%%%%%%%%%%%%%%%%%%%%%%%%%%%%%%%%%%%%%%%%%%%%%%%%%%%%%%%%%%%%%%

     stopping ...

 %%%%%%%%%%%%%%%%%%%%%%%%%%%%%%%%%%%%%%%%%%%%%%%%%%%%%%%%%%%%%%%%%%%%%%%%%%%%%%
     Error in routine write_rhog (2):
     error writing file ./pwscf.save/charge-density
 %%%%%%%%%%%%%%%%%%%%%%%%%%%%%%%%%%%%%%%%%%%%%%%%%%%%%%%%%%%%%%%%%%%%%%%%%%%%%%

     stopping ...

 %%%%%%%%%%%%%%%%%%%%%%%%%%%%%%%%%%%%%%%%%%%%%%%%%%%%%%%%%%%%%%%%%%%%%%%%%%%%%%
     Error in routine write_rhog (2):
     error writing file ./pwscf.save/charge-density
 %%%%%%%%%%%%%%%%%%%%%%%%%%%%%%%%%%%%%%%%%%%%%%%%%%%%%%%%%%%%%%%%%%%%%%%%%%%%%%

     stopping ...

 %%%%%%%%%%%%%%%%%%%%%%%%%%%%%%%%%%%%%%%%%%%%%%%%%%%%%%%%%%%%%%%%%%%%%%%%%%%%%%
     Error in routine write_rhog (2):
     error writing file ./pwscf.save/charge-density
 %%%%%%%%%%%%%%%%%%%%%%%%%%%%%%%%%%%%%%%%%%%%%%%%%%%%%%%%%%%%%%%%%%%%%%%%%%%%%%

     stopping ...

 %%%%%%%%%%%%%%%%%%%%%%%%%%%%%%%%%%%%%%%%%%%%%%%%%%%%%%%%%%%%%%%%%%%%%%%%%%%%%%
     Error in routine write_rhog (2):
     error writing file ./pwscf.save/charge-density
 %%%%%%%%%%%%%%%%%%%%%%%%%%%%%%%%%%%%%%%%%%%%%%%%%%%%%%%%%%%%%%%%%%%%%%%%%%%%%%

     stopping ...

 %%%%%%%%%%%%%%%%%%%%%%%%%%%%%%%%%%%%%%%%%%%%%%%%%%%%%%%%%%%%%%%%%%%%%%%%%%%%%%
     Error in routine write_rhog (2):
     error writing file ./pwscf.save/charge-density
 %%%%%%%%%%%%%%%%%%%%%%%%%%%%%%%%%%%%%%%%%%%%%%%%%%%%%%%%%%%%%%%%%%%%%%%%%%%%%%

     stopping ...

 %%%%%%%%%%%%%%%%%%%%%%%%%%%%%%%%%%%%%%%%%%%%%%%%%%%%%%%%%%%%%%%%%%%%%%%%%%%%%%
     Error in routine write_rhog (2):
     error writing file ./pwscf.save/charge-density
 %%%%%%%%%%%%%%%%%%%%%%%%%%%%%%%%%%%%%%%%%%%%%%%%%%%%%%%%%%%%%%%%%%%%%%%%%%%%%%

     stopping ...

 %%%%%%%%%%%%%%%%%%%%%%%%%%%%%%%%%%%%%%%%%%%%%%%%%%%%%%%%%%%%%%%%%%%%%%%%%%%%%%
     Error in routine write_rhog (2):
     error writing file ./pwscf.save/charge-density
 %%%%%%%%%%%%%%%%%%%%%%%%%%%%%%%%%%%%%%%%%%%%%%%%%%%%%%%%%%%%%%%%%%%%%%%%%%%%%%

     stopping ...

 %%%%%%%%%%%%%%%%%%%%%%%%%%%%%%%%%%%%%%%%%%%%%%%%%%%%%%%%%%%%%%%%%%%%%%%%%%%%%%
     Error in routine write_rhog (2):
     error writing file ./pwscf.save/charge-density
 %%%%%%%%%%%%%%%%%%%%%%%%%%%%%%%%%%%%%%%%%%%%%%%%%%%%%%%%%%%%%%%%%%%%%%%%%%%%%%

     stopping ...

 %%%%%%%%%%%%%%%%%%%%%%%%%%%%%%%%%%%%%%%%%%%%%%%%%%%%%%%%%%%%%%%%%%%%%%%%%%%%%%
     Error in routine write_rhog (2):
     error writing file ./pwscf.save/charge-density
 %%%%%%%%%%%%%%%%%%%%%%%%%%%%%%%%%%%%%%%%%%%%%%%%%%%%%%%%%%%%%%%%%%%%%%%%%%%%%%

     stopping ...

 %%%%%%%%%%%%%%%%%%%%%%%%%%%%%%%%%%%%%%%%%%%%%%%%%%%%%%%%%%%%%%%%%%%%%%%%%%%%%%
     Error in routine write_rhog (2):
     error writing file ./pwscf.save/charge-density
 %%%%%%%%%%%%%%%%%%%%%%%%%%%%%%%%%%%%%%%%%%%%%%%%%%%%%%%%%%%%%%%%%%%%%%%%%%%%%%

     stopping ...

 %%%%%%%%%%%%%%%%%%%%%%%%%%%%%%%%%%%%%%%%%%%%%%%%%%%%%%%%%%%%%%%%%%%%%%%%%%%%%%
     Error in routine write_rhog (2):
     error writing file ./pwscf.save/charge-density
 %%%%%%%%%%%%%%%%%%%%%%%%%%%%%%%%%%%%%%%%%%%%%%%%%%%%%%%%%%%%%%%%%%%%%%%%%%%%%%

     stopping ...

 %%%%%%%%%%%%%%%%%%%%%%%%%%%%%%%%%%%%%%%%%%%%%%%%%%%%%%%%%%%%%%%%%%%%%%%%%%%%%%
     Error in routine write_rhog (2):
     error writing file ./pwscf.save/charge-density
 %%%%%%%%%%%%%%%%%%%%%%%%%%%%%%%%%%%%%%%%%%%%%%%%%%%%%%%%%%%%%%%%%%%%%%%%%%%%%%

     stopping ...

 %%%%%%%%%%%%%%%%%%%%%%%%%%%%%%%%%%%%%%%%%%%%%%%%%%%%%%%%%%%%%%%%%%%%%%%%%%%%%%
     Error in routine write_rhog (2):
     error writing file ./pwscf.save/charge-density
 %%%%%%%%%%%%%%%%%%%%%%%%%%%%%%%%%%%%%%%%%%%%%%%%%%%%%%%%%%%%%%%%%%%%%%%%%%%%%%

     stopping ...

 %%%%%%%%%%%%%%%%%%%%%%%%%%%%%%%%%%%%%%%%%%%%%%%%%%%%%%%%%%%%%%%%%%%%%%%%%%%%%%
     Error in routine write_rhog (2):
     error writing file ./pwscf.save/charge-density
 %%%%%%%%%%%%%%%%%%%%%%%%%%%%%%%%%%%%%%%%%%%%%%%%%%%%%%%%%%%%%%%%%%%%%%%%%%%%%%

     stopping ...

 %%%%%%%%%%%%%%%%%%%%%%%%%%%%%%%%%%%%%%%%%%%%%%%%%%%%%%%%%%%%%%%%%%%%%%%%%%%%%%
     Error in routine write_rhog (2):
     error writing file ./pwscf.save/charge-density
 %%%%%%%%%%%%%%%%%%%%%%%%%%%%%%%%%%%%%%%%%%%%%%%%%%%%%%%%%%%%%%%%%%%%%%%%%%%%%%

     stopping ...

 %%%%%%%%%%%%%%%%%%%%%%%%%%%%%%%%%%%%%%%%%%%%%%%%%%%%%%%%%%%%%%%%%%%%%%%%%%%%%%
     Error in routine write_rhog (2):
     error writing file ./pwscf.save/charge-density
 %%%%%%%%%%%%%%%%%%%%%%%%%%%%%%%%%%%%%%%%%%%%%%%%%%%%%%%%%%%%%%%%%%%%%%%%%%%%%%

     stopping ...

 %%%%%%%%%%%%%%%%%%%%%%%%%%%%%%%%%%%%%%%%%%%%%%%%%%%%%%%%%%%%%%%%%%%%%%%%%%%%%%
     Error in routine write_rhog (2):
     error writing file ./pwscf.save/charge-density
 %%%%%%%%%%%%%%%%%%%%%%%%%%%%%%%%%%%%%%%%%%%%%%%%%%%%%%%%%%%%%%%%%%%%%%%%%%%%%%

     stopping ...

 %%%%%%%%%%%%%%%%%%%%%%%%%%%%%%%%%%%%%%%%%%%%%%%%%%%%%%%%%%%%%%%%%%%%%%%%%%%%%%
     Error in routine write_rhog (2):
     error writing file ./pwscf.save/charge-density
 %%%%%%%%%%%%%%%%%%%%%%%%%%%%%%%%%%%%%%%%%%%%%%%%%%%%%%%%%%%%%%%%%%%%%%%%%%%%%%

     stopping ...

 %%%%%%%%%%%%%%%%%%%%%%%%%%%%%%%%%%%%%%%%%%%%%%%%%%%%%%%%%%%%%%%%%%%%%%%%%%%%%%
     Error in routine write_rhog (2):
     error writing file ./pwscf.save/charge-density
 %%%%%%%%%%%%%%%%%%%%%%%%%%%%%%%%%%%%%%%%%%%%%%%%%%%%%%%%%%%%%%%%%%%%%%%%%%%%%%

     stopping ...

 %%%%%%%%%%%%%%%%%%%%%%%%%%%%%%%%%%%%%%%%%%%%%%%%%%%%%%%%%%%%%%%%%%%%%%%%%%%%%%
     Error in routine write_rhog (2):
     error writing file ./pwscf.save/charge-density
 %%%%%%%%%%%%%%%%%%%%%%%%%%%%%%%%%%%%%%%%%%%%%%%%%%%%%%%%%%%%%%%%%%%%%%%%%%%%%%

     stopping ...

 %%%%%%%%%%%%%%%%%%%%%%%%%%%%%%%%%%%%%%%%%%%%%%%%%%%%%%%%%%%%%%%%%%%%%%%%%%%%%%
     Error in routine write_rhog (2):
     error writing file ./pwscf.save/charge-density
 %%%%%%%%%%%%%%%%%%%%%%%%%%%%%%%%%%%%%%%%%%%%%%%%%%%%%%%%%%%%%%%%%%%%%%%%%%%%%%

     stopping ...

 %%%%%%%%%%%%%%%%%%%%%%%%%%%%%%%%%%%%%%%%%%%%%%%%%%%%%%%%%%%%%%%%%%%%%%%%%%%%%%
     Error in routine write_rhog (2):
     error writing file ./pwscf.save/charge-density
 %%%%%%%%%%%%%%%%%%%%%%%%%%%%%%%%%%%%%%%%%%%%%%%%%%%%%%%%%%%%%%%%%%%%%%%%%%%%%%

     stopping ...

 %%%%%%%%%%%%%%%%%%%%%%%%%%%%%%%%%%%%%%%%%%%%%%%%%%%%%%%%%%%%%%%%%%%%%%%%%%%%%%
     Error in routine write_rhog (2):
     error writing file ./pwscf.save/charge-density
 %%%%%%%%%%%%%%%%%%%%%%%%%%%%%%%%%%%%%%%%%%%%%%%%%%%%%%%%%%%%%%%%%%%%%%%%%%%%%%

     stopping ...

 %%%%%%%%%%%%%%%%%%%%%%%%%%%%%%%%%%%%%%%%%%%%%%%%%%%%%%%%%%%%%%%%%%%%%%%%%%%%%%
     Error in routine write_rhog (2):
     error writing file ./pwscf.save/charge-density
 %%%%%%%%%%%%%%%%%%%%%%%%%%%%%%%%%%%%%%%%%%%%%%%%%%%%%%%%%%%%%%%%%%%%%%%%%%%%%%

     stopping ...

 %%%%%%%%%%%%%%%%%%%%%%%%%%%%%%%%%%%%%%%%%%%%%%%%%%%%%%%%%%%%%%%%%%%%%%%%%%%%%%
     Error in routine write_rhog (2):
     error writing file ./pwscf.save/charge-density
 %%%%%%%%%%%%%%%%%%%%%%%%%%%%%%%%%%%%%%%%%%%%%%%%%%%%%%%%%%%%%%%%%%%%%%%%%%%%%%

     stopping ...

 %%%%%%%%%%%%%%%%%%%%%%%%%%%%%%%%%%%%%%%%%%%%%%%%%%%%%%%%%%%%%%%%%%%%%%%%%%%%%%
     Error in routine write_rhog (2):
     error writing file ./pwscf.save/charge-density
 %%%%%%%%%%%%%%%%%%%%%%%%%%%%%%%%%%%%%%%%%%%%%%%%%%%%%%%%%%%%%%%%%%%%%%%%%%%%%%

     stopping ...

 %%%%%%%%%%%%%%%%%%%%%%%%%%%%%%%%%%%%%%%%%%%%%%%%%%%%%%%%%%%%%%%%%%%%%%%%%%%%%%
     Error in routine write_rhog (2):
     error writing file ./pwscf.save/charge-density
 %%%%%%%%%%%%%%%%%%%%%%%%%%%%%%%%%%%%%%%%%%%%%%%%%%%%%%%%%%%%%%%%%%%%%%%%%%%%%%

     stopping ...

 %%%%%%%%%%%%%%%%%%%%%%%%%%%%%%%%%%%%%%%%%%%%%%%%%%%%%%%%%%%%%%%%%%%%%%%%%%%%%%
     Error in routine write_rhog (2):
     error writing file ./pwscf.save/charge-density
 %%%%%%%%%%%%%%%%%%%%%%%%%%%%%%%%%%%%%%%%%%%%%%%%%%%%%%%%%%%%%%%%%%%%%%%%%%%%%%

     stopping ...

 %%%%%%%%%%%%%%%%%%%%%%%%%%%%%%%%%%%%%%%%%%%%%%%%%%%%%%%%%%%%%%%%%%%%%%%%%%%%%%
     Error in routine write_rhog (2):
     error writing file ./pwscf.save/charge-density
 %%%%%%%%%%%%%%%%%%%%%%%%%%%%%%%%%%%%%%%%%%%%%%%%%%%%%%%%%%%%%%%%%%%%%%%%%%%%%%

     stopping ...

 %%%%%%%%%%%%%%%%%%%%%%%%%%%%%%%%%%%%%%%%%%%%%%%%%%%%%%%%%%%%%%%%%%%%%%%%%%%%%%
     Error in routine write_rhog (2):
     error writing file ./pwscf.save/charge-density
 %%%%%%%%%%%%%%%%%%%%%%%%%%%%%%%%%%%%%%%%%%%%%%%%%%%%%%%%%%%%%%%%%%%%%%%%%%%%%%

     stopping ...

 %%%%%%%%%%%%%%%%%%%%%%%%%%%%%%%%%%%%%%%%%%%%%%%%%%%%%%%%%%%%%%%%%%%%%%%%%%%%%%
     Error in routine write_rhog (2):
     error writing file ./pwscf.save/charge-density
 %%%%%%%%%%%%%%%%%%%%%%%%%%%%%%%%%%%%%%%%%%%%%%%%%%%%%%%%%%%%%%%%%%%%%%%%%%%%%%

     stopping ...

 %%%%%%%%%%%%%%%%%%%%%%%%%%%%%%%%%%%%%%%%%%%%%%%%%%%%%%%%%%%%%%%%%%%%%%%%%%%%%%
     Error in routine write_rhog (2):
     error writing file ./pwscf.save/charge-density
 %%%%%%%%%%%%%%%%%%%%%%%%%%%%%%%%%%%%%%%%%%%%%%%%%%%%%%%%%%%%%%%%%%%%%%%%%%%%%%

     stopping ...

 %%%%%%%%%%%%%%%%%%%%%%%%%%%%%%%%%%%%%%%%%%%%%%%%%%%%%%%%%%%%%%%%%%%%%%%%%%%%%%
     Error in routine write_rhog (2):
     error writing file ./pwscf.save/charge-density
 %%%%%%%%%%%%%%%%%%%%%%%%%%%%%%%%%%%%%%%%%%%%%%%%%%%%%%%%%%%%%%%%%%%%%%%%%%%%%%

     stopping ...

 %%%%%%%%%%%%%%%%%%%%%%%%%%%%%%%%%%%%%%%%%%%%%%%%%%%%%%%%%%%%%%%%%%%%%%%%%%%%%%
     Error in routine write_rhog (2):
     error writing file ./pwscf.save/charge-density
 %%%%%%%%%%%%%%%%%%%%%%%%%%%%%%%%%%%%%%%%%%%%%%%%%%%%%%%%%%%%%%%%%%%%%%%%%%%%%%

     stopping ...

 %%%%%%%%%%%%%%%%%%%%%%%%%%%%%%%%%%%%%%%%%%%%%%%%%%%%%%%%%%%%%%%%%%%%%%%%%%%%%%
     Error in routine write_rhog (2):
     error writing file ./pwscf.save/charge-density
 %%%%%%%%%%%%%%%%%%%%%%%%%%%%%%%%%%%%%%%%%%%%%%%%%%%%%%%%%%%%%%%%%%%%%%%%%%%%%%

     stopping ...

 %%%%%%%%%%%%%%%%%%%%%%%%%%%%%%%%%%%%%%%%%%%%%%%%%%%%%%%%%%%%%%%%%%%%%%%%%%%%%%
     Error in routine write_rhog (2):
     error writing file ./pwscf.save/charge-density
 %%%%%%%%%%%%%%%%%%%%%%%%%%%%%%%%%%%%%%%%%%%%%%%%%%%%%%%%%%%%%%%%%%%%%%%%%%%%%%

     stopping ...

 %%%%%%%%%%%%%%%%%%%%%%%%%%%%%%%%%%%%%%%%%%%%%%%%%%%%%%%%%%%%%%%%%%%%%%%%%%%%%%
     Error in routine write_rhog (2):
     error writing file ./pwscf.save/charge-density
 %%%%%%%%%%%%%%%%%%%%%%%%%%%%%%%%%%%%%%%%%%%%%%%%%%%%%%%%%%%%%%%%%%%%%%%%%%%%%%

     stopping ...

 %%%%%%%%%%%%%%%%%%%%%%%%%%%%%%%%%%%%%%%%%%%%%%%%%%%%%%%%%%%%%%%%%%%%%%%%%%%%%%
     Error in routine write_rhog (2):
     error writing file ./pwscf.save/charge-density
 %%%%%%%%%%%%%%%%%%%%%%%%%%%%%%%%%%%%%%%%%%%%%%%%%%%%%%%%%%%%%%%%%%%%%%%%%%%%%%

     stopping ...

 %%%%%%%%%%%%%%%%%%%%%%%%%%%%%%%%%%%%%%%%%%%%%%%%%%%%%%%%%%%%%%%%%%%%%%%%%%%%%%
     Error in routine write_rhog (2):
     error writing file ./pwscf.save/charge-density
 %%%%%%%%%%%%%%%%%%%%%%%%%%%%%%%%%%%%%%%%%%%%%%%%%%%%%%%%%%%%%%%%%%%%%%%%%%%%%%

     stopping ...
