
     Program PWSCF v.7.5 starts on  4Dec2025 at 23:26:16 

     This program is part of the open-source Quantum ESPRESSO suite
     for quantum simulation of materials; please cite
         "P. Giannozzi et al., J. Phys.:Condens. Matter 21 395502 (2009);
         "P. Giannozzi et al., J. Phys.:Condens. Matter 29 465901 (2017);
         "P. Giannozzi et al., J. Chem. Phys. 152 154105 (2020);
          URL http://www.quantum-espresso.org", 
     in publications or presentations arising from this work. More details at
     http://www.quantum-espresso.org/quote

     Parallel version (MPI), running on    96 processors

     MPI processes distributed on     2 nodes
     173899 MiB available memory on the printing compute node when the environment starts
 
     Reading input from pw.in

     Current dimensions of program PWSCF are:
     Max number of different atomic species (ntypx) = 10
     Max number of k-points (npk) =  40000
     Max angular momentum in pseudopotentials (lmaxx) =  4

     gamma-point specific algorithms are used
     Message from routine setup:
     using ibrav=0 with symmetry is DISCOURAGED, use correct ibrav instead
 
     K-points division:     npool     =       2
     R & G space division:  proc/nbgrp/npool/nimage =      48
     Subspace diagonalization in iterative solution of the eigenvalue problem:
     one sub-group per band group will be used
     scalapack distributed-memory algorithm (size of sub-group:  6*  6 procs)

 
     Parallelization info
     --------------------
     sticks:   dense  smooth     PW     G-vecs:    dense   smooth      PW
     Min         384     384     96                39496    39496    4936
     Max         386     386     98                39521    39521    4949
     Sum       18505   18505   4637              1896521  1896521  237129
 
     Using Slab Decomposition
 


     bravais-lattice index     =            0
     lattice parameter (alat)  =      26.9702  a.u.
     unit-cell volume          =   19617.8366 (a.u.)^3
     number of atoms/cell      =          511
     number of atomic types    =            2
     number of electrons       =      2046.00 (up:1024.00, down:1022.00)
     number of Kohn-Sham states=         1032
     kinetic-energy cutoff     =      80.0000  Ry
     charge density cutoff     =     320.0000  Ry
     scf convergence threshold =      1.0E-10
     mixing beta               =       0.7000
     number of iterations used =            8  plain     mixing
     Exchange-correlation= PBE
                           (   1   4   3   4   0   0   0)

     celldm(1)=  26.970171  celldm(2)=   0.000000  celldm(3)=   0.000000
     celldm(4)=   0.000000  celldm(5)=   0.000000  celldm(6)=   0.000000

     crystal axes: (cart. coord. in units of alat)
               a(1) = (   1.000000   0.000000   0.000000 )  
               a(2) = (   0.000000   1.000000   0.000000 )  
               a(3) = (   0.000000   0.000000   1.000000 )  

     reciprocal axes: (cart. coord. in units 2 pi/alat)
               b(1) = (  1.000000  0.000000  0.000000 )  
               b(2) = (  0.000000  1.000000  0.000000 )  
               b(3) = (  0.000000  0.000000  1.000000 )  


     PseudoPot. # 1 for C  read from file:
     ./C_ONCV_PBE-1.2.upf
     MD5 check sum: d60b57d9bdca4133f5fde4b584ee909d
     Pseudo is Norm-conserving, Zval =  4.0
     Generated using ONCVPSP code by D. R. Hamann
     Using radial grid of  602 points,  4 beta functions with: 
                l(1) =   0
                l(2) =   0
                l(3) =   1
                l(4) =   1

     PseudoPot. # 2 for N  read from file:
     ./N_ONCV_PBE-1.2.upf
     MD5 check sum: 5312fdf34e96954e02a33bdc911c617a
     Pseudo is Norm-conserving, Zval =  5.0
     Generated using ONCVPSP code by D. R. Hamann
     Using radial grid of  602 points,  4 beta functions with: 
                l(1) =   0
                l(2) =   0
                l(3) =   1
                l(4) =   1

     atomic species   valence    mass     pseudopotential
     C                 4.00    12.01100     C ( 1.00)
     N                 5.00    14.00670     N ( 1.00)

     Starting magnetic structure 
     atomic species   magnetization
     C               0.000
     N               0.000

      2 Sym. Ops. (no inversion) found ( 1 have fractional translation)


                                    s                        frac. trans.

      isym =  1     identity                                     

 cryst.   s( 1) = (     1          0          0      )
                  (     0          1          0      )
                  (     0          0          1      )

 cart.    s( 1) = (  1.0000000  0.0000000  0.0000000 )
                  (  0.0000000  1.0000000  0.0000000 )
                  (  0.0000000  0.0000000  1.0000000 )


      isym =  2     inv. 180 deg rotation - cart. axis [0,1,-1]  

 cryst.   s( 2) = (     1          0          0      )    f =(  0.0000000 )
                  (     0          0          1      )       (  0.0000073 )
                  (     0          1          0      )       ( -0.0000073 )

 cart.    s( 2) = (  1.0000000  0.0000000  0.0000000 )    f =(  0.0000000 )
                  (  0.0000000  0.0000000  1.0000000 )       (  0.0000073 )
                  (  0.0000000  1.0000000  0.0000000 )       ( -0.0000073 )


   Cartesian axes

     site n.     atom                  positions (alat units)
         1        C      tau(   1) = (  -0.0000029  -0.0000003   0.0000070  )
         2        C      tau(   2) = (  -0.0000528  -0.0000327   0.2500151  )
         3        C      tau(   3) = (  -0.0000417  -0.0000157   0.5000074  )
         4        C      tau(   4) = (   0.0000462   0.0000326   0.7499964  )
         5        C      tau(   5) = (  -0.0000531   0.2500079  -0.0000250  )
         6        C      tau(   6) = (  -0.0000713   0.2499816   0.2499891  )
         7        C      tau(   7) = (  -0.0001096   0.2500421   0.4999928  )
         8        C      tau(   8) = (  -0.0000919   0.2500358   0.7499692  )
         9        C      tau(   9) = (  -0.0000417   0.5000001  -0.0000070  )
        10        C      tau(  10) = (  -0.0001098   0.4999849   0.2500505  )
        11        C      tau(  11) = (  -0.0000159   0.4999978   0.5000062  )
        12        C      tau(  12) = (   0.0000581   0.5000132   0.7499724  )
        13        C      tau(  13) = (   0.0000463   0.7499891   0.0000409  )
        14        C      tau(  14) = (  -0.0000916   0.7499610   0.2500442  )
        15        C      tau(  15) = (   0.0000581   0.7499641   0.5000211  )
        16        C      tau(  16) = (   0.0001956   0.7500221   0.7500301  )
        17        C      tau(  17) = (   0.2499957  -0.0000514  -0.0000422  )
        18        C      tau(  18) = (   0.2499452  -0.0000453   0.2499620  )
        19        C      tau(  19) = (   0.2500190  -0.0001154   0.4999782  )
        20        C      tau(  20) = (   0.2500331  -0.0001204   0.7499619  )
        21        C      tau(  21) = (   0.2499446   0.2499527  -0.0000357  )
        22        C      tau(  22) = (   0.2500041   0.2500287   0.2500380  )
        23        C      tau(  23) = (   0.2495177   0.2494906   0.5000585  )
        24        C      tau(  24) = (   0.2499804   0.2499501   0.7499554  )
        25        C      tau(  25) = (   0.2500192   0.4999695  -0.0001058  )
        26        C      tau(  26) = (   0.2495177   0.5000482   0.2495005  )
        27        C      tau(  27) = (   0.2504820   0.4998168   0.4998275  )
        28        C      tau(  28) = (   0.2498868   0.4997831   0.7501024  )
        29        C      tau(  29) = (   0.2500337   0.7499525  -0.0001088  )
        30        C      tau(  30) = (   0.2499816   0.7499444   0.2499617  )
        31        C      tau(  31) = (   0.2498867   0.7500921   0.4997934  )
        32        C      tau(  32) = (   0.2503620   0.7497205   0.7497312  )
        33        C      tau(  33) = (   0.4999907  -0.0000173  -0.0000082  )
        34        C      tau(  34) = (   0.4999651  -0.0000824   0.2500289  )
        35        C      tau(  35) = (   0.4999941  -0.0000354   0.5000064  )
        36        C      tau(  36) = (   0.5000215   0.0000179   0.7499933  )
        37        C      tau(  37) = (   0.4999649   0.2500206  -0.0000740  )
        38        C      tau(  38) = (   0.4999431   0.2495812   0.2495901  )
        39        C      tau(  39) = (   0.4998114   0.2502797   0.4998920  )
        40        C      tau(  40) = (   0.4998229   0.2497102   0.7502545  )
        41        C      tau(  41) = (   0.4999943   0.4999983  -0.0000269  )
        42        C      tau(  42) = (   0.4998119   0.4998816   0.2502899  )
        43        C      tau(  43) = (   0.5001168   0.5000601   0.7496092  )
        44        C      tau(  44) = (   0.5000219   0.7499844   0.0000279  )
        45        C      tau(  45) = (   0.4998237   0.7502453   0.2497196  )
        46        C      tau(  46) = (   0.5001172   0.7495999   0.5000695  )
        47        C      tau(  47) = (   0.5002993   0.7503454   0.7503544  )
        48        C      tau(  48) = (   0.7499921   0.0000500   0.0000572  )
        49        C      tau(  49) = (   0.7499509  -0.0000602   0.2500537  )
        50        C      tau(  50) = (   0.7499767   0.0000534   0.5000355  )
        51        C      tau(  51) = (   0.7500455   0.0001681   0.7500542  )
        52        C      tau(  52) = (   0.7499508   0.2500467  -0.0000530  )
        53        C      tau(  53) = (   0.7498989   0.2500060   0.2500134  )
        54        C      tau(  54) = (   0.7500138   0.2499111   0.4999125  )
        55        C      tau(  55) = (   0.7497653   0.2503173   0.7498046  )
        56        C      tau(  56) = (   0.7499767   0.5000285   0.0000609  )
        57        C      tau(  57) = (   0.7500135   0.4999035   0.2499205  )
        58        C      tau(  58) = (   0.7495427   0.5001231   0.5001327  )
        59        C      tau(  59) = (   0.7503700   0.5002889   0.7504045  )
        60        C      tau(  60) = (   0.7500456   0.7500470   0.0001757  )
        61        C      tau(  61) = (   0.7497647   0.7497957   0.2503264  )
        62        C      tau(  62) = (   0.7503697   0.7503961   0.5002973  )
        63        C      tau(  63) = (   0.7502532   0.7502474   0.7502549  )
        64        C      tau(  64) = (  -0.0000435   0.1249897   0.1249969  )
        65        C      tau(  65) = (  -0.0000696   0.1249798   0.3749916  )
        66        C      tau(  66) = (  -0.0000938   0.1250493   0.6249982  )
        67        C      tau(  67) = (  -0.0000308   0.1250275   0.8749777  )
        68        C      tau(  68) = (  -0.0000699   0.3749843   0.1249877  )
        69        C      tau(  69) = (  -0.0001029   0.3750138   0.3750220  )
        70        C      tau(  70) = (  -0.0000474   0.3750334   0.6249693  )
        71        C      tau(  71) = (  -0.0000540   0.3750114   0.8749679  )
        72        C      tau(  72) = (  -0.0000936   0.6249904   0.1250581  )
        73        C      tau(  73) = (  -0.0000476   0.6249611   0.3750418  )
        74        C      tau(  74) = (   0.0001140   0.6249898   0.6249981  )
        75        C      tau(  75) = (   0.0001264   0.6250155   0.8750229  )
        76        C      tau(  76) = (  -0.0000305   0.8749702   0.1250352  )
        77        C      tau(  77) = (  -0.0000536   0.8749596   0.3750191  )
        78        C      tau(  78) = (   0.0001263   0.8750144   0.6250229  )
        79        C      tau(  79) = (   0.0000981   0.8750104   0.8750179  )
        80        C      tau(  80) = (   0.2499599   0.1249762   0.1249850  )
        81        C      tau(  81) = (   0.2499588   0.1249123   0.3749802  )
        82        C      tau(  82) = (   0.2499030   0.1248437   0.6249937  )
        83        C      tau(  83) = (   0.2499789   0.1249441   0.8749653  )
        84        C      tau(  84) = (   0.2499589   0.3749714   0.1249212  )
        85        C      tau(  85) = (   0.2502106   0.3751263   0.3751364  )
        86        C      tau(  86) = (   0.2499667   0.3748475   0.6249217  )
        87        C      tau(  87) = (   0.2499471   0.3749386   0.8749946  )
        88        C      tau(  88) = (   0.2499039   0.6249834   0.1248552  )
        89        C      tau(  89) = (   0.2499673   0.6249105   0.3748588  )
        90        C      tau(  90) = (   0.2506155   0.6245196   0.6245299  )
        91        C      tau(  91) = (   0.2502903   0.6249158   0.8747224  )
        92        C      tau(  92) = (   0.2499799   0.8749555   0.1249549  )
        93        C      tau(  93) = (   0.2499480   0.8749839   0.3749490  )
        94        C      tau(  94) = (   0.2502903   0.8747115   0.6249254  )
        95        C      tau(  95) = (   0.2500855   0.8748875   0.8748976  )
        96        C      tau(  96) = (   0.4999751   0.1248391   0.1248472  )
        97        C      tau(  97) = (   0.4999328   0.1249839   0.3749869  )
        98        C      tau(  98) = (   0.4999276   0.1250536   0.6249377  )
        99        C      tau(  99) = (   0.4999459   0.1248970   0.8750899  )
       100        C      tau( 100) = (   0.4999329   0.3749785   0.1249924  )
       101        C      tau( 101) = (   0.5001297   0.3751861   0.3751965  )
       102        C      tau( 102) = (   0.4989913   0.3755690   0.6240958  )
       103        C      tau( 103) = (   0.4999843   0.3751071   0.8748273  )
       104        C      tau( 104) = (   0.4999287   0.6249279   0.1250638  )
       105        C      tau( 105) = (   0.4989918   0.6240865   0.3755785  )
       106        C      tau( 106) = (   0.5027117   0.6246800   0.6246892  )
       107        C      tau( 107) = (   0.5001172   0.6250061   0.8749726  )
       108        C      tau( 108) = (   0.4999465   0.8750804   0.1249069  )
       109        C      tau( 109) = (   0.4999848   0.8748185   0.3751161  )
       110        C      tau( 110) = (   0.5001171   0.8749636   0.6250146  )
       111        C      tau( 111) = (   0.5000883   0.8751090   0.8751180  )
       112        C      tau( 112) = (   0.7499539   0.1250011   0.1250080  )
       113        C      tau( 113) = (   0.7499592   0.1249715   0.3749978  )
       114        C      tau( 114) = (   0.7498726   0.1251564   0.6249594  )
       115        C      tau( 115) = (   0.7499466   0.1251533   0.8749448  )
       116        C      tau( 116) = (   0.7499590   0.3749906   0.1249791  )
       117        C      tau( 117) = (   0.7498452   0.3750042   0.3750130  )
       118        C      tau( 118) = (   0.7491749   0.3757600   0.6248355  )
       119        C      tau( 119) = (   0.7499044   0.3751149   0.8749191  )
       120        C      tau( 120) = (   0.7498726   0.6249515   0.1251647  )
       121        C      tau( 121) = (   0.7491753   0.6248262   0.3757693  )
       122        C      tau( 122) = (   0.7505138   0.6254002   0.6254089  )
       123        C      tau( 123) = (   0.7501978   0.6251544   0.8752644  )
       124        C      tau( 124) = (   0.7499466   0.8749373   0.1251610  )
       125        C      tau( 125) = (   0.7499042   0.8749114   0.3751225  )
       126        C      tau( 126) = (   0.7501975   0.8752567   0.6251615  )
       127        C      tau( 127) = (   0.7500955   0.8751338   0.8751409  )
       128        C      tau( 128) = (   0.1249709  -0.0000297   0.1249858  )
       129        C      tau( 129) = (   0.1249418  -0.0000490   0.3749804  )
       130        C      tau( 130) = (   0.1250421  -0.0001024   0.6249899  )
       131        C      tau( 131) = (   0.1250290  -0.0000420   0.8749677  )
       132        C      tau( 132) = (   0.1249574   0.2499847   0.1249926  )
       133        C      tau( 133) = (   0.1249258   0.2499959   0.3749879  )
       134        C      tau( 134) = (   0.1248823   0.2499082   0.6249858  )
       135        C      tau( 135) = (   0.1249575   0.2499796   0.8749617  )
       136        C      tau( 136) = (   0.1247900   0.5000038   0.1248071  )
       137        C      tau( 137) = (   0.1250272   0.4999606   0.3749843  )
       138        C      tau( 138) = (   0.1251515   0.4999103   0.6248828  )
       139        C      tau( 139) = (   0.1249525   0.4999403   0.8750279  )
       140        C      tau( 140) = (   0.1249777   0.7499652   0.1249782  )
       141        C      tau( 141) = (   0.1249525   0.7499830   0.3749635  )
       142        C      tau( 142) = (   0.1252093   0.7498295   0.6249081  )
       143        C      tau( 143) = (   0.1251695   0.7499258   0.8749000  )
       144        C      tau( 144) = (   0.3749613  -0.0000390   0.1249548  )
       145        C      tau( 145) = (   0.3749873  -0.0000964   0.3749985  )
       146        C      tau( 146) = (   0.3750284  -0.0000802   0.6249708  )
       147        C      tau( 147) = (   0.3750072  -0.0000763   0.8749687  )
       148        C      tau( 148) = (   0.3749428   0.2499784   0.1249307  )
       149        C      tau( 149) = (   0.3750513   0.2501004   0.3751210  )
       150        C      tau( 150) = (   0.3748804   0.2498315   0.6249869  )
       151        C      tau( 151) = (   0.3749522   0.2499119   0.8750226  )
       152        C      tau( 152) = (   0.3749551   0.4999669   0.1249730  )
       153        C      tau( 153) = (   0.3753484   0.5005441   0.3751735  )
       154        C      tau( 154) = (   0.3760729   0.4989342   0.6237687  )
       155        C      tau( 155) = (   0.3751393   0.4999602   0.8747951  )
       156        C      tau( 156) = (   0.3749600   0.7500222   0.1248961  )
       157        C      tau( 157) = (   0.3749793   0.7499748   0.3748931  )
       158        C      tau( 158) = (   0.3757987   0.7491759   0.6247366  )
       159        C      tau( 159) = (   0.3751265   0.7498776   0.8748657  )
       160        C      tau( 160) = (   0.6249822  -0.0000579   0.1250610  )
       161        C      tau( 161) = (   0.6249579  -0.0000377   0.3750420  )
       162        C      tau( 162) = (   0.6250086   0.0000804   0.6250202  )
       163        C      tau( 163) = (   0.6250265   0.0001047   0.8750491  )
       164        C      tau( 164) = (   0.6249469   0.2499414   0.1249171  )
       165        C      tau( 165) = (   0.6248493   0.2499335   0.3749245  )
       166        C      tau( 166) = (   0.6245816   0.2504191   0.6246759  )
       167        C      tau( 167) = (   0.6249440   0.2502562   0.8747914  )
       168        C      tau( 168) = (   0.6248900   0.4999572   0.1250920  )
       169        C      tau( 169) = (   0.6237145   0.4993569   0.3758403  )
       170        C      tau( 170) = (   0.6246935   0.5027133   0.6247950  )
       171        C      tau( 171) = (   0.6250248   0.5001022   0.8749969  )
       172        C      tau( 172) = (   0.6249335   0.7499034   0.1251387  )
       173        C      tau( 173) = (   0.6247745   0.7492669   0.3757429  )
       174        C      tau( 174) = (   0.6253934   0.7505358   0.6253931  )
       175        C      tau( 175) = (   0.6251582   0.7501904   0.8752557  )
       176        C      tau( 176) = (   0.8749618  -0.0000160   0.1250438  )
       177        C      tau( 177) = (   0.8749476  -0.0000267   0.3750276  )
       178        C      tau( 178) = (   0.8750331   0.0001144   0.6250337  )
       179        C      tau( 179) = (   0.8750228   0.0000890   0.8750300  )
       180        C      tau( 180) = (   0.8749341   0.2500042   0.1249944  )
       181        C      tau( 181) = (   0.8749341   0.2499900   0.3749963  )
       182        C      tau( 182) = (   0.8747245   0.2502855   0.6249666  )
       183        C      tau( 183) = (   0.8749101   0.2500843   0.8749348  )
       184        C      tau( 184) = (   0.8749882   0.4999739   0.1250001  )
       185        C      tau( 185) = (   0.8747647   0.5000033   0.3751563  )
       186        C      tau( 186) = (   0.8749654   0.5001105   0.6250314  )
       187        C      tau( 187) = (   0.8751237   0.5000874   0.8751317  )
       188        C      tau( 188) = (   0.8749193   0.7499561   0.1251620  )
       189        C      tau( 189) = (   0.8748805   0.7499070   0.3751261  )
       190        C      tau( 190) = (   0.8752623   0.7501881   0.6251571  )
       191        C      tau( 191) = (   0.8751444   0.7500859   0.8751358  )
       192        C      tau( 192) = (   0.1249705   0.1249777  -0.0000216  )
       193        C      tau( 193) = (   0.1249576   0.1249842   0.2499926  )
       194        C      tau( 194) = (   0.1247896   0.1247973   0.5000127  )
       195        C      tau( 195) = (   0.1249769   0.1249683   0.7499739  )
       196        C      tau( 196) = (   0.1249413   0.3749721  -0.0000399  )
       197        C      tau( 197) = (   0.1249257   0.3749792   0.2500047  )
       198        C      tau( 198) = (   0.1250273   0.3749750   0.4999699  )
       199        C      tau( 199) = (   0.1249517   0.3749538   0.7499929  )
       200        C      tau( 200) = (   0.1250425   0.6249815  -0.0000921  )
       201        C      tau( 201) = (   0.1248831   0.6249763   0.2499183  )
       202        C      tau( 202) = (   0.1251514   0.6248730   0.4999200  )
       203        C      tau( 203) = (   0.1252093   0.6248986   0.7498396  )
       204        C      tau( 204) = (   0.1250294   0.8749596  -0.0000331  )
       205        C      tau( 205) = (   0.1249584   0.8749527   0.2499887  )
       206        C      tau( 206) = (   0.1249530   0.8750180   0.4999494  )
       207        C      tau( 207) = (   0.1251694   0.8748901   0.7499345  )
       208        C      tau( 208) = (   0.3749609   0.1249449  -0.0000292  )
       209        C      tau( 209) = (   0.3749429   0.1249221   0.2499869  )
       210        C      tau( 210) = (   0.3749544   0.1249632   0.4999766  )
       211        C      tau( 211) = (   0.3749591   0.1248844   0.7500329  )
       212        C      tau( 212) = (   0.3749872   0.3749898  -0.0000876  )
       213        C      tau( 213) = (   0.3750514   0.3751107   0.2501106  )
       214        C      tau( 214) = (   0.3753480   0.3751635   0.5005542  )
       215        C      tau( 215) = (   0.3749786   0.3748828   0.7499847  )
       216        C      tau( 216) = (   0.3750290   0.6249617  -0.0000697  )
       217        C      tau( 217) = (   0.3748812   0.6249764   0.2498421  )
       218        C      tau( 218) = (   0.3760732   0.6237590   0.4989440  )
       219        C      tau( 219) = (   0.3757987   0.6247267   0.7491859  )
       220        C      tau( 220) = (   0.3750076   0.8749588  -0.0000653  )
       221        C      tau( 221) = (   0.3749530   0.8750120   0.2499227  )
       222        C      tau( 222) = (   0.3751394   0.8747856   0.4999696  )
       223        C      tau( 223) = (   0.3751264   0.8748550   0.7498872  )
       224        C      tau( 224) = (   0.6249822   0.1250534  -0.0000503  )
       225        C      tau( 225) = (   0.6249470   0.1249095   0.2499489  )
       226        C      tau( 226) = (   0.6248897   0.1250836   0.4999655  )
       227        C      tau( 227) = (   0.6249330   0.1251296   0.7499122  )
       228        C      tau( 228) = (   0.6249579   0.3750345  -0.0000301  )
       229        C      tau( 229) = (   0.6248494   0.3749157   0.2499424  )
       230        C      tau( 230) = (   0.6237138   0.3758307   0.4993666  )
       231        C      tau( 231) = (   0.6247741   0.3757340   0.7492756  )
       232        C      tau( 232) = (   0.6250089   0.6250126   0.0000886  )
       233        C      tau( 233) = (   0.6245820   0.6246658   0.2504293  )
       234        C      tau( 234) = (   0.6246939   0.6247861   0.5027222  )
       235        C      tau( 235) = (   0.6253936   0.6253844   0.7505449  )
       236        C      tau( 236) = (   0.6250266   0.8750411   0.0001129  )
       237        C      tau( 237) = (   0.6249443   0.8747834   0.2502645  )
       238        C      tau( 238) = (   0.6250248   0.8749889   0.5001101  )
       239        C      tau( 239) = (   0.6251581   0.8752478   0.7501980  )
       240        C      tau( 240) = (   0.8749618   0.1250369  -0.0000089  )
       241        C      tau( 241) = (   0.8749342   0.1249873   0.2500110  )
       242        C      tau( 242) = (   0.8749886   0.1249920   0.4999811  )
       243        C      tau( 243) = (   0.8749195   0.1251538   0.7499637  )
       244        C      tau( 244) = (   0.8749475   0.3750208  -0.0000192  )
       245        C      tau( 245) = (   0.8749340   0.3749888   0.2499978  )
       246        C      tau( 246) = (   0.8747648   0.3751473   0.5000120  )
       247        C      tau( 247) = (   0.8748810   0.3751178   0.7499153  )
       248        C      tau( 248) = (   0.8750332   0.6250268   0.0001222  )
       249        C      tau( 249) = (   0.8747238   0.6249581   0.2502947  )
       250        C      tau( 250) = (   0.8749652   0.6250230   0.5001190  )
       251        C      tau( 251) = (   0.8752624   0.6251497   0.7501957  )
       252        C      tau( 252) = (   0.8750228   0.8750230   0.0000963  )
       253        C      tau( 253) = (   0.8749100   0.8749271   0.2500917  )
       254        C      tau( 254) = (   0.8751235   0.8751241   0.5000944  )
       255        C      tau( 255) = (   0.8751443   0.8751285   0.7500928  )
       256        C      tau( 256) = (   0.1874570   0.0624756   0.1874827  )
       257        C      tau( 257) = (   0.1874314   0.0623908   0.4374790  )
       258        C      tau( 258) = (   0.1874924   0.0623902   0.6874802  )
       259        C      tau( 259) = (   0.1874952   0.0624610   0.9374694  )
       260        C      tau( 260) = (   0.1874576   0.3124778   0.1874866  )
       261        C      tau( 261) = (   0.1874555   0.3124148   0.4374588  )
       262        C      tau( 262) = (   0.1874304   0.3124540   0.6874512  )
       263        C      tau( 263) = (   0.1874488   0.3124669   0.9374783  )
       264        C      tau( 264) = (   0.1871660   0.5624177   0.1871639  )
       265        C      tau( 265) = (   0.1876436   0.5623676   0.4374451  )
       266        C      tau( 266) = (   0.1877533   0.5623617   0.6873263  )
       267        C      tau( 267) = (   0.1876020   0.5624509   0.9373543  )
       268        C      tau( 268) = (   0.1874815   0.8124498   0.1874798  )
       269        C      tau( 269) = (   0.1873632   0.8126047   0.4375041  )
       270        C      tau( 270) = (   0.1877495   0.8122899   0.6873814  )
       271        C      tau( 271) = (   0.1875746   0.8124370   0.9374173  )
       272        C      tau( 272) = (   0.4374525   0.0624132   0.1874605  )
       273        C      tau( 273) = (   0.4374535   0.0624462   0.4374830  )
       274        C      tau( 274) = (   0.4374966   0.0624764   0.6874762  )
       275        C      tau( 275) = (   0.4375034   0.0624146   0.9375240  )
       276        C      tau( 276) = (   0.4373891   0.3124267   0.1874252  )
       277        C      tau( 277) = (   0.4374438   0.3127238   0.4375887  )
       278        C      tau( 278) = (   0.4376723   0.3118697   0.6880607  )
       279        C      tau( 279) = (   0.4374844   0.3125107   0.9374028  )
       280        C      tau( 280) = (   0.4374324   0.5624158   0.1875258  )
       281        C      tau( 281) = (   0.4386508   0.5618056   0.6862773  )
       282        C      tau( 282) = (   0.4375453   0.5624895   0.9374248  )
       283        C      tau( 283) = (   0.4375143   0.8126908   0.1872755  )
       284        C      tau( 284) = (   0.4375561   0.8122880   0.4375224  )
       285        C      tau( 285) = (   0.4377484   0.8123224   0.6874441  )
       286        C      tau( 286) = (   0.4375609   0.8124635   0.9374668  )
       287        C      tau( 287) = (   0.6874613   0.0624455   0.1875229  )
       288        C      tau( 288) = (   0.6874402   0.0625233   0.4375265  )
       289        C      tau( 289) = (   0.6874870   0.0626179   0.6875105  )
       290        C      tau( 290) = (   0.6874876   0.0625985   0.9374995  )
       291        C      tau( 291) = (   0.6874117   0.3124937   0.1874469  )
       292        C      tau( 292) = (   0.6877369   0.3121410   0.4376560  )
       293        C      tau( 293) = (   0.6871119   0.3129366   0.6871945  )
       294        C      tau( 294) = (   0.6874496   0.3125873   0.9374270  )
       295        C      tau( 295) = (   0.6873375   0.5624559   0.1876684  )
       296        C      tau( 296) = (   0.6862463   0.5619495   0.4386525  )
       297        C      tau( 297) = (   0.6883559   0.5629007   0.6884012  )
       298        C      tau( 298) = (   0.6875459   0.5625674   0.9375888  )
       299        C      tau( 299) = (   0.6874002   0.8123564   0.1877171  )
       300        C      tau( 300) = (   0.6874718   0.8123832   0.4377277  )
       301        C      tau( 301) = (   0.6877770   0.8128847   0.6877781  )
       302        C      tau( 302) = (   0.6875935   0.8126193   0.9376953  )
       303        C      tau( 303) = (   0.9374510   0.0624857   0.1875197  )
       304        C      tau( 304) = (   0.9374669   0.0624725   0.4375225  )
       305        C      tau( 305) = (   0.9374758   0.0625952   0.6874994  )
       306        C      tau( 306) = (   0.9374937   0.0625420   0.9375082  )
       307        C      tau( 307) = (   0.9374354   0.3124921   0.1874955  )
       308        C      tau( 308) = (   0.9373557   0.3125504   0.4375180  )
       309        C      tau( 309) = (   0.9373883   0.3125984   0.6874609  )
       310        C      tau( 310) = (   0.9374340   0.3125366   0.9374612  )
       311        C      tau( 311) = (   0.9373458   0.5624708   0.1876298  )
       312        C      tau( 312) = (   0.9374228   0.5625029   0.4375620  )
       313        C      tau( 313) = (   0.9375867   0.5625626   0.6875426  )
       314        C      tau( 314) = (   0.9375718   0.5625245   0.9375752  )
       315        C      tau( 315) = (   0.9374314   0.8124593   0.1875814  )
       316        C      tau( 316) = (   0.9374846   0.8124693   0.4375700  )
       317        C      tau( 317) = (   0.9377061   0.8126040   0.6875894  )
       318        C      tau( 318) = (   0.9375864   0.8125367   0.9375825  )
       319        C      tau( 319) = (   0.0624749   0.0624869   0.0624945  )
       320        C      tau( 320) = (   0.0624487   0.0624773   0.3124991  )
       321        C      tau( 321) = (   0.0623970   0.0624056   0.5624768  )
       322        C      tau( 322) = (   0.0625093   0.0625020   0.8124834  )
       323        C      tau( 323) = (   0.0624483   0.3124915   0.0624856  )
       324        C      tau( 324) = (   0.0623979   0.3124707   0.3124790  )
       325        C      tau( 325) = (   0.0624494   0.3124997   0.5624661  )
       326        C      tau( 326) = (   0.0624356   0.3125055   0.8124677  )
       327        C      tau( 327) = (   0.0623974   0.5624685   0.0624152  )
       328        C      tau( 328) = (   0.0624494   0.5624575   0.3125086  )
       329        C      tau( 329) = (   0.0625910   0.5624602   0.5624694  )
       330        C      tau( 330) = (   0.0625984   0.5624859   0.8124564  )
       331        C      tau( 331) = (   0.0625099   0.8124755   0.0625107  )
       332        C      tau( 332) = (   0.0624363   0.8124588   0.3125142  )
       333        C      tau( 333) = (   0.0625986   0.8124472   0.5624944  )
       334        C      tau( 334) = (   0.0626650   0.8124697   0.8124783  )
       335        C      tau( 335) = (   0.3124721   0.0624650   0.0624745  )
       336        C      tau( 336) = (   0.3124381   0.0624030   0.3124648  )
       337        C      tau( 337) = (   0.3124824   0.0624107   0.5624706  )
       338        C      tau( 338) = (   0.3124994   0.0623977   0.8124790  )
       339        C      tau( 339) = (   0.3124379   0.3124562   0.0624118  )
       340        C      tau( 340) = (   0.3125250   0.3125486   0.3125588  )
       341        C      tau( 341) = (   0.3117793   0.3116872   0.5621845  )
       342        C      tau( 342) = (   0.3124831   0.3124477   0.8125244  )
       343        C      tau( 343) = (   0.3124831   0.5624612   0.0624211  )
       344        C      tau( 344) = (   0.3117796   0.5621740   0.3116974  )
       345        C      tau( 345) = (   0.3133592   0.5619417   0.5619516  )
       346        C      tau( 346) = (   0.3128696   0.5623352   0.8120845  )
       347        C      tau( 347) = (   0.3125004   0.8124686   0.0624096  )
       348        C      tau( 348) = (   0.3124841   0.8125135   0.3124589  )
       349        C      tau( 349) = (   0.3128697   0.8120740   0.5623452  )
       350        C      tau( 350) = (   0.3126494   0.8123384   0.8123489  )
       351        C      tau( 351) = (   0.5624642   0.0624341   0.0624420  )
       352        C      tau( 352) = (   0.5624412   0.0624496   0.3125104  )
       353        C      tau( 353) = (   0.5624687   0.0625366   0.5624996  )
       354        C      tau( 354) = (   0.5624976   0.0625473   0.8125044  )
       355        C      tau( 355) = (   0.5624412   0.3125026   0.0624574  )
       356        C      tau( 356) = (   0.5621291   0.3118079   0.3118172  )
       357        C      tau( 357) = (   0.5619822   0.3130164   0.5622209  )
       358        C      tau( 358) = (   0.5623705   0.3127958   0.8121686  )
       359        C      tau( 359) = (   0.5624692   0.5624913   0.0625452  )
       360        C      tau( 360) = (   0.5619827   0.5622107   0.3130266  )
       361        C      tau( 361) = (   0.5626254   0.5625967   0.8125242  )
       362        C      tau( 362) = (   0.5624982   0.8124954   0.0625568  )
       363        C      tau( 363) = (   0.5623710   0.8121599   0.3128046  )
       364        C      tau( 364) = (   0.5626255   0.8125155   0.5626054  )
       365        C      tau( 365) = (   0.5626554   0.8127839   0.8127920  )
       366        C      tau( 366) = (   0.8124716   0.0625229   0.0625298  )
       367        C      tau( 367) = (   0.8124460   0.0624645   0.3125287  )
       368        C      tau( 368) = (   0.8124635   0.0625863   0.5625180  )
       369        C      tau( 369) = (   0.8124893   0.0626504   0.8125050  )
       370        C      tau( 370) = (   0.8124458   0.3125219   0.0624718  )
       371        C      tau( 371) = (   0.8124278   0.3125154   0.3125233  )
       372        C      tau( 372) = (   0.8120602   0.3128779   0.5624164  )
       373        C      tau( 373) = (   0.8123716   0.3126357   0.8123987  )
       374        C      tau( 374) = (   0.8124635   0.5625109   0.0625940  )
       375        C      tau( 375) = (   0.8120600   0.5624072   0.3128874  )
       376        C      tau( 376) = (   0.8124869   0.5626297   0.5626384  )
       377        C      tau( 377) = (   0.8128033   0.5626502   0.8128117  )
       378        C      tau( 378) = (   0.8124893   0.8124978   0.0626579  )
       379        C      tau( 379) = (   0.8123712   0.8123906   0.3126437  )
       380        C      tau( 380) = (   0.8128031   0.8128040   0.5626575  )
       381        C      tau( 381) = (   0.8126812   0.8126707   0.8126778  )
       382        C      tau( 382) = (   0.0624507   0.1874848   0.1874925  )
       383        C      tau( 383) = (   0.0623915   0.1874617   0.4374855  )
       384        C      tau( 384) = (   0.0624139   0.1874988   0.6874810  )
       385        C      tau( 385) = (   0.0624640   0.1875021   0.9374748  )
       386        C      tau( 386) = (   0.0623914   0.4374773   0.1874704  )
       387        C      tau( 387) = (   0.0624777   0.4374747   0.4374834  )
       388        C      tau( 388) = (   0.0625393   0.4374990   0.6874466  )
       389        C      tau( 389) = (   0.0624295   0.4375074   0.9375036  )
       390        C      tau( 390) = (   0.0624146   0.6874725   0.1875082  )
       391        C      tau( 391) = (   0.0625394   0.6874377   0.4375079  )
       392        C      tau( 392) = (   0.0626652   0.6874608   0.6874699  )
       393        C      tau( 393) = (   0.0626031   0.6874802   0.9374663  )
       394        C      tau( 394) = (   0.0624646   0.9374667   0.1875101  )
       395        C      tau( 395) = (   0.0624301   0.9374945   0.4375155  )
       396        C      tau( 396) = (   0.0626030   0.9374568   0.6874881  )
       397        C      tau( 397) = (   0.0625404   0.9374892   0.9374971  )
       398        C      tau( 398) = (   0.3124482   0.1874762   0.1874849  )
       399        C      tau( 399) = (   0.3123745   0.1873927   0.4374617  )
       400        C      tau( 400) = (   0.3124614   0.1873495   0.6874796  )
       401        C      tau( 401) = (   0.3124607   0.1874422   0.9374909  )
       402        C      tau( 402) = (   0.3123750   0.4374516   0.1874024  )
       403        C      tau( 403) = (   0.3129803   0.4375700   0.4375801  )
       404        C      tau( 404) = (   0.3121485   0.4375874   0.6878704  )
       405        C      tau( 405) = (   0.3125229   0.4374813   0.9373801  )
       406        C      tau( 406) = (   0.3124625   0.6874685   0.1873614  )
       407        C      tau( 407) = (   0.3121487   0.6878605   0.4375978  )
       408        C      tau( 408) = (   0.3130129   0.6870804   0.6870908  )
       409        C      tau( 409) = (   0.3125936   0.6874356   0.9373717  )
       410        C      tau( 410) = (   0.3124617   0.9374806   0.1874528  )
       411        C      tau( 411) = (   0.3125233   0.9373707   0.4374904  )
       412        C      tau( 412) = (   0.3125934   0.9373605   0.6874449  )
       413        C      tau( 413) = (   0.3125269   0.9374239   0.9374340  )
       414        C      tau( 414) = (   0.5623941   0.1872321   0.1872401  )
       415        C      tau( 415) = (   0.5623465   0.1875517   0.4374968  )
       416        C      tau( 416) = (   0.5623897   0.1876082   0.6874430  )
       417        C      tau( 417) = (   0.5624573   0.1875840   0.9374038  )
       418        C      tau( 418) = (   0.5623469   0.4374878   0.1875606  )
       419        C      tau( 419) = (   0.5618601   0.4385149   0.6863702  )
       420        C      tau( 420) = (   0.5624974   0.4375379   0.9374471  )
       421        C      tau( 421) = (   0.5623908   0.6874329   0.1876185  )
       422        C      tau( 422) = (   0.5618608   0.6863614   0.4385241  )
       423        C      tau( 423) = (   0.5629186   0.6883343   0.6883436  )
       424        C      tau( 424) = (   0.5625683   0.6875417   0.9375718  )
       425        C      tau( 425) = (   0.5624578   0.9373956   0.1875925  )
       426        C      tau( 426) = (   0.5624975   0.9374390   0.4375458  )
       427        C      tau( 427) = (   0.5625681   0.9375632   0.6875495  )
       428        C      tau( 428) = (   0.5625265   0.9375701   0.9375786  )
       429        C      tau( 429) = (   0.8124275   0.1875070   0.1875139  )
       430        C      tau( 430) = (   0.8125414   0.1874156   0.4375343  )
       431        C      tau( 431) = (   0.8123237   0.1877218   0.6874295  )
       432        C      tau( 432) = (   0.8124477   0.1875776   0.9374589  )
       433        C      tau( 433) = (   0.8125411   0.4375266   0.1874240  )
       434        C      tau( 434) = (   0.8122220   0.4375781   0.4375873  )
       435        C      tau( 435) = (   0.8123376   0.4377445   0.6874929  )
       436        C      tau( 436) = (   0.8124729   0.4375639   0.9375045  )
       437        C      tau( 437) = (   0.8123233   0.6874213   0.1877305  )
       438        C      tau( 438) = (   0.8123372   0.6874843   0.4377534  )
       439        C      tau( 439) = (   0.8128883   0.6877718   0.6877796  )
       440        C      tau( 440) = (   0.8126209   0.6875915   0.9376987  )
       441        C      tau( 441) = (   0.8124477   0.9374516   0.1875847  )
       442        C      tau( 442) = (   0.8124729   0.9374971   0.4375709  )
       443        C      tau( 443) = (   0.8126207   0.9376912   0.6875984  )
       444        C      tau( 444) = (   0.8125417   0.9375835   0.9375905  )
       445        C      tau( 445) = (   0.1874566   0.1874741   0.0624845  )
       446        C      tau( 446) = (   0.1874575   0.1874777   0.3124864  )
       447        C      tau( 447) = (   0.1871656   0.1871533   0.5624278  )
       448        C      tau( 448) = (   0.1874803   0.1874692   0.8124596  )
       449        C      tau( 449) = (   0.1874316   0.4374705   0.0624000  )
       450        C      tau( 450) = (   0.1874555   0.4374489   0.3124246  )
       451        C      tau( 451) = (   0.1876437   0.4374345   0.5623782  )
       452        C      tau( 452) = (   0.1873628   0.4374938   0.8126151  )
       453        C      tau( 453) = (   0.1874933   0.6874707   0.0624015  )
       454        C      tau( 454) = (   0.1874314   0.6874404   0.3124651  )
       455        C      tau( 455) = (   0.1877533   0.6873157   0.5623721  )
       456        C      tau( 456) = (   0.1877494   0.6873716   0.8123007  )
       457        C      tau( 457) = (   0.1874959   0.9374605   0.0624703  )
       458        C      tau( 458) = (   0.1874498   0.9374683   0.3124764  )
       459        C      tau( 459) = (   0.1876022   0.9373442   0.5624597  )
       460        C      tau( 460) = (   0.1875742   0.9374069   0.8124461  )
       461        C      tau( 461) = (   0.4374523   0.1874520   0.0624217  )
       462        C      tau( 462) = (   0.4373889   0.1874163   0.3124357  )
       463        C      tau( 463) = (   0.4374314   0.1875153   0.5624264  )
       464        C      tau( 464) = (   0.4375135   0.1872655   0.8127003  )
       465        C      tau( 465) = (   0.4374538   0.4374745   0.0624548  )
       466        C      tau( 466) = (   0.4374440   0.4375782   0.3127343  )
       467        C      tau( 467) = (   0.4375556   0.4375124   0.8122974  )
       468        C      tau( 468) = (   0.4374976   0.6874665   0.0624873  )
       469        C      tau( 469) = (   0.4376730   0.6880511   0.3118795  )
       470        C      tau( 470) = (   0.4386510   0.6862678   0.5618152  )
       471        C      tau( 471) = (   0.4377484   0.6874348   0.8123323  )
       472        C      tau( 472) = (   0.4375040   0.9375141   0.0624251  )
       473        C      tau( 473) = (   0.4374850   0.9373937   0.3125200  )
       474        C      tau( 474) = (   0.4375452   0.9374156   0.5624980  )
       475        C      tau( 475) = (   0.4375606   0.9374566   0.8124726  )
       476        C      tau( 476) = (   0.6874612   0.1875158   0.0624527  )
       477        C      tau( 477) = (   0.6874117   0.1874392   0.3125014  )
       478        C      tau( 478) = (   0.6873372   0.1876595   0.5624646  )
       479        C      tau( 479) = (   0.6874001   0.1877086   0.8123646  )
       480        C      tau( 480) = (   0.6874402   0.4375191   0.0625309  )
       481        C      tau( 481) = (   0.6877372   0.4376468   0.3121499  )
       482        C      tau( 482) = (   0.6862459   0.4386432   0.5619588  )
       483        C      tau( 483) = (   0.6874719   0.4377196   0.8123914  )
       484        C      tau( 484) = (   0.6874873   0.6875028   0.0626260  )
       485        C      tau( 485) = (   0.6871120   0.6871848   0.3129463  )
       486        C      tau( 486) = (   0.6883560   0.6883922   0.5629097  )
       487        C      tau( 487) = (   0.6877771   0.6877705   0.8128928  )
       488        C      tau( 488) = (   0.6874877   0.9374920   0.0626060  )
       489        C      tau( 489) = (   0.6874497   0.9374195   0.3125947  )
       490        C      tau( 490) = (   0.6875458   0.9375812   0.5625747  )
       491        C      tau( 491) = (   0.6875935   0.9376877   0.8126266  )
       492        C      tau( 492) = (   0.9374508   0.1875128   0.0624929  )
       493        C      tau( 493) = (   0.9374356   0.1874880   0.3124993  )
       494        C      tau( 494) = (   0.9373462   0.1876212   0.5624785  )
       495        C      tau( 495) = (   0.9374312   0.1875736   0.8124669  )
       496        C      tau( 496) = (   0.9374667   0.4375155   0.0624805  )
       497        C      tau( 497) = (   0.9373556   0.4375101   0.3125586  )
       498        C      tau( 498) = (   0.9374229   0.4375536   0.5625111  )
       499        C      tau( 499) = (   0.9374847   0.4375624   0.8124774  )
       500        C      tau( 500) = (   0.9374759   0.6874922   0.0626034  )
       501        C      tau( 501) = (   0.9373879   0.6874529   0.3126068  )
       502        C      tau( 502) = (   0.9375867   0.6875346   0.5625705  )
       503        C      tau( 503) = (   0.9377062   0.6875820   0.8126118  )
       504        C      tau( 504) = (   0.9374939   0.9375011   0.0625492  )
       505        C      tau( 505) = (   0.9374342   0.9374535   0.3125438  )
       506        C      tau( 506) = (   0.9375716   0.9375671   0.5625316  )
       507        C      tau( 507) = (   0.9375863   0.9375750   0.8125438  )
       508        C      tau( 508) = (   0.5660469   0.4325471   0.4325564  )
       509        C      tau( 509) = (   0.4329483   0.4322310   0.5663800  )
       510        C      tau( 510) = (   0.4329486   0.5663708   0.4322404  )
       511        N      tau( 511) = (   0.5678802   0.5678196   0.5678284  )

   Crystallographic axes

     site n.     atom                  positions (cryst. coord.)
         1        C      tau(   1) = ( -0.0000029 -0.0000003  0.0000070  )
         2        C      tau(   2) = ( -0.0000528 -0.0000327  0.2500151  )
         3        C      tau(   3) = ( -0.0000417 -0.0000157  0.5000074  )
         4        C      tau(   4) = (  0.0000462  0.0000326  0.7499964  )
         5        C      tau(   5) = ( -0.0000531  0.2500079 -0.0000250  )
         6        C      tau(   6) = ( -0.0000713  0.2499816  0.2499891  )
         7        C      tau(   7) = ( -0.0001096  0.2500421  0.4999928  )
         8        C      tau(   8) = ( -0.0000919  0.2500358  0.7499692  )
         9        C      tau(   9) = ( -0.0000417  0.5000001 -0.0000070  )
        10        C      tau(  10) = ( -0.0001098  0.4999849  0.2500505  )
        11        C      tau(  11) = ( -0.0000159  0.4999978  0.5000062  )
        12        C      tau(  12) = (  0.0000581  0.5000132  0.7499724  )
        13        C      tau(  13) = (  0.0000463  0.7499891  0.0000409  )
        14        C      tau(  14) = ( -0.0000916  0.7499610  0.2500442  )
        15        C      tau(  15) = (  0.0000581  0.7499641  0.5000211  )
        16        C      tau(  16) = (  0.0001956  0.7500221  0.7500301  )
        17        C      tau(  17) = (  0.2499957 -0.0000514 -0.0000422  )
        18        C      tau(  18) = (  0.2499452 -0.0000453  0.2499620  )
        19        C      tau(  19) = (  0.2500190 -0.0001154  0.4999782  )
        20        C      tau(  20) = (  0.2500331 -0.0001204  0.7499619  )
        21        C      tau(  21) = (  0.2499446  0.2499527 -0.0000357  )
        22        C      tau(  22) = (  0.2500041  0.2500287  0.2500380  )
        23        C      tau(  23) = (  0.2495177  0.2494906  0.5000585  )
        24        C      tau(  24) = (  0.2499804  0.2499501  0.7499554  )
        25        C      tau(  25) = (  0.2500192  0.4999695 -0.0001058  )
        26        C      tau(  26) = (  0.2495177  0.5000482  0.2495005  )
        27        C      tau(  27) = (  0.2504820  0.4998168  0.4998275  )
        28        C      tau(  28) = (  0.2498868  0.4997831  0.7501024  )
        29        C      tau(  29) = (  0.2500337  0.7499525 -0.0001088  )
        30        C      tau(  30) = (  0.2499816  0.7499444  0.2499617  )
        31        C      tau(  31) = (  0.2498867  0.7500921  0.4997934  )
        32        C      tau(  32) = (  0.2503620  0.7497205  0.7497312  )
        33        C      tau(  33) = (  0.4999907 -0.0000173 -0.0000082  )
        34        C      tau(  34) = (  0.4999651 -0.0000824  0.2500289  )
        35        C      tau(  35) = (  0.4999941 -0.0000354  0.5000064  )
        36        C      tau(  36) = (  0.5000215  0.0000179  0.7499933  )
        37        C      tau(  37) = (  0.4999649  0.2500206 -0.0000740  )
        38        C      tau(  38) = (  0.4999431  0.2495812  0.2495901  )
        39        C      tau(  39) = (  0.4998114  0.2502797  0.4998920  )
        40        C      tau(  40) = (  0.4998229  0.2497102  0.7502545  )
        41        C      tau(  41) = (  0.4999943  0.4999983 -0.0000269  )
        42        C      tau(  42) = (  0.4998119  0.4998816  0.2502899  )
        43        C      tau(  43) = (  0.5001168  0.5000601  0.7496092  )
        44        C      tau(  44) = (  0.5000219  0.7499844  0.0000279  )
        45        C      tau(  45) = (  0.4998237  0.7502453  0.2497196  )
        46        C      tau(  46) = (  0.5001172  0.7495999  0.5000695  )
        47        C      tau(  47) = (  0.5002993  0.7503454  0.7503544  )
        48        C      tau(  48) = (  0.7499921  0.0000500  0.0000572  )
        49        C      tau(  49) = (  0.7499509 -0.0000602  0.2500537  )
        50        C      tau(  50) = (  0.7499767  0.0000534  0.5000355  )
        51        C      tau(  51) = (  0.7500455  0.0001681  0.7500542  )
        52        C      tau(  52) = (  0.7499508  0.2500467 -0.0000530  )
        53        C      tau(  53) = (  0.7498989  0.2500060  0.2500134  )
        54        C      tau(  54) = (  0.7500138  0.2499111  0.4999125  )
        55        C      tau(  55) = (  0.7497653  0.2503173  0.7498046  )
        56        C      tau(  56) = (  0.7499767  0.5000285  0.0000609  )
        57        C      tau(  57) = (  0.7500135  0.4999035  0.2499205  )
        58        C      tau(  58) = (  0.7495427  0.5001231  0.5001327  )
        59        C      tau(  59) = (  0.7503700  0.5002889  0.7504045  )
        60        C      tau(  60) = (  0.7500456  0.7500470  0.0001757  )
        61        C      tau(  61) = (  0.7497647  0.7497957  0.2503264  )
        62        C      tau(  62) = (  0.7503697  0.7503961  0.5002973  )
        63        C      tau(  63) = (  0.7502532  0.7502474  0.7502549  )
        64        C      tau(  64) = ( -0.0000435  0.1249897  0.1249969  )
        65        C      tau(  65) = ( -0.0000696  0.1249798  0.3749916  )
        66        C      tau(  66) = ( -0.0000938  0.1250493  0.6249982  )
        67        C      tau(  67) = ( -0.0000308  0.1250275  0.8749777  )
        68        C      tau(  68) = ( -0.0000699  0.3749843  0.1249877  )
        69        C      tau(  69) = ( -0.0001029  0.3750138  0.3750220  )
        70        C      tau(  70) = ( -0.0000474  0.3750334  0.6249693  )
        71        C      tau(  71) = ( -0.0000540  0.3750114  0.8749679  )
        72        C      tau(  72) = ( -0.0000936  0.6249904  0.1250581  )
        73        C      tau(  73) = ( -0.0000476  0.6249611  0.3750418  )
        74        C      tau(  74) = (  0.0001140  0.6249898  0.6249981  )
        75        C      tau(  75) = (  0.0001264  0.6250155  0.8750229  )
        76        C      tau(  76) = ( -0.0000305  0.8749702  0.1250352  )
        77        C      tau(  77) = ( -0.0000536  0.8749596  0.3750191  )
        78        C      tau(  78) = (  0.0001263  0.8750144  0.6250229  )
        79        C      tau(  79) = (  0.0000981  0.8750104  0.8750179  )
        80        C      tau(  80) = (  0.2499599  0.1249762  0.1249850  )
        81        C      tau(  81) = (  0.2499588  0.1249123  0.3749802  )
        82        C      tau(  82) = (  0.2499030  0.1248437  0.6249937  )
        83        C      tau(  83) = (  0.2499789  0.1249441  0.8749653  )
        84        C      tau(  84) = (  0.2499589  0.3749714  0.1249212  )
        85        C      tau(  85) = (  0.2502106  0.3751263  0.3751364  )
        86        C      tau(  86) = (  0.2499667  0.3748475  0.6249217  )
        87        C      tau(  87) = (  0.2499471  0.3749386  0.8749946  )
        88        C      tau(  88) = (  0.2499039  0.6249834  0.1248552  )
        89        C      tau(  89) = (  0.2499673  0.6249105  0.3748588  )
        90        C      tau(  90) = (  0.2506155  0.6245196  0.6245299  )
        91        C      tau(  91) = (  0.2502903  0.6249158  0.8747224  )
        92        C      tau(  92) = (  0.2499799  0.8749555  0.1249549  )
        93        C      tau(  93) = (  0.2499480  0.8749839  0.3749490  )
        94        C      tau(  94) = (  0.2502903  0.8747115  0.6249254  )
        95        C      tau(  95) = (  0.2500855  0.8748875  0.8748976  )
        96        C      tau(  96) = (  0.4999751  0.1248391  0.1248472  )
        97        C      tau(  97) = (  0.4999328  0.1249839  0.3749869  )
        98        C      tau(  98) = (  0.4999276  0.1250536  0.6249377  )
        99        C      tau(  99) = (  0.4999459  0.1248970  0.8750899  )
       100        C      tau( 100) = (  0.4999329  0.3749785  0.1249924  )
       101        C      tau( 101) = (  0.5001297  0.3751861  0.3751965  )
       102        C      tau( 102) = (  0.4989913  0.3755690  0.6240958  )
       103        C      tau( 103) = (  0.4999843  0.3751071  0.8748273  )
       104        C      tau( 104) = (  0.4999287  0.6249279  0.1250638  )
       105        C      tau( 105) = (  0.4989918  0.6240865  0.3755785  )
       106        C      tau( 106) = (  0.5027117  0.6246800  0.6246892  )
       107        C      tau( 107) = (  0.5001172  0.6250061  0.8749726  )
       108        C      tau( 108) = (  0.4999465  0.8750804  0.1249069  )
       109        C      tau( 109) = (  0.4999848  0.8748185  0.3751161  )
       110        C      tau( 110) = (  0.5001171  0.8749636  0.6250146  )
       111        C      tau( 111) = (  0.5000883  0.8751090  0.8751180  )
       112        C      tau( 112) = (  0.7499539  0.1250011  0.1250080  )
       113        C      tau( 113) = (  0.7499592  0.1249715  0.3749978  )
       114        C      tau( 114) = (  0.7498726  0.1251564  0.6249594  )
       115        C      tau( 115) = (  0.7499466  0.1251533  0.8749448  )
       116        C      tau( 116) = (  0.7499590  0.3749906  0.1249791  )
       117        C      tau( 117) = (  0.7498452  0.3750042  0.3750130  )
       118        C      tau( 118) = (  0.7491749  0.3757600  0.6248355  )
       119        C      tau( 119) = (  0.7499044  0.3751149  0.8749191  )
       120        C      tau( 120) = (  0.7498726  0.6249515  0.1251647  )
       121        C      tau( 121) = (  0.7491753  0.6248262  0.3757693  )
       122        C      tau( 122) = (  0.7505138  0.6254002  0.6254089  )
       123        C      tau( 123) = (  0.7501978  0.6251544  0.8752644  )
       124        C      tau( 124) = (  0.7499466  0.8749373  0.1251610  )
       125        C      tau( 125) = (  0.7499042  0.8749114  0.3751225  )
       126        C      tau( 126) = (  0.7501975  0.8752567  0.6251615  )
       127        C      tau( 127) = (  0.7500955  0.8751338  0.8751409  )
       128        C      tau( 128) = (  0.1249709 -0.0000297  0.1249858  )
       129        C      tau( 129) = (  0.1249418 -0.0000490  0.3749804  )
       130        C      tau( 130) = (  0.1250421 -0.0001024  0.6249899  )
       131        C      tau( 131) = (  0.1250290 -0.0000420  0.8749677  )
       132        C      tau( 132) = (  0.1249574  0.2499847  0.1249926  )
       133        C      tau( 133) = (  0.1249258  0.2499959  0.3749879  )
       134        C      tau( 134) = (  0.1248823  0.2499082  0.6249858  )
       135        C      tau( 135) = (  0.1249575  0.2499796  0.8749617  )
       136        C      tau( 136) = (  0.1247900  0.5000038  0.1248071  )
       137        C      tau( 137) = (  0.1250272  0.4999606  0.3749843  )
       138        C      tau( 138) = (  0.1251515  0.4999103  0.6248828  )
       139        C      tau( 139) = (  0.1249525  0.4999403  0.8750279  )
       140        C      tau( 140) = (  0.1249777  0.7499652  0.1249782  )
       141        C      tau( 141) = (  0.1249525  0.7499830  0.3749635  )
       142        C      tau( 142) = (  0.1252093  0.7498295  0.6249081  )
       143        C      tau( 143) = (  0.1251695  0.7499258  0.8749000  )
       144        C      tau( 144) = (  0.3749613 -0.0000390  0.1249548  )
       145        C      tau( 145) = (  0.3749873 -0.0000964  0.3749985  )
       146        C      tau( 146) = (  0.3750284 -0.0000802  0.6249708  )
       147        C      tau( 147) = (  0.3750072 -0.0000763  0.8749687  )
       148        C      tau( 148) = (  0.3749428  0.2499784  0.1249307  )
       149        C      tau( 149) = (  0.3750513  0.2501004  0.3751210  )
       150        C      tau( 150) = (  0.3748804  0.2498315  0.6249869  )
       151        C      tau( 151) = (  0.3749522  0.2499119  0.8750226  )
       152        C      tau( 152) = (  0.3749551  0.4999669  0.1249730  )
       153        C      tau( 153) = (  0.3753484  0.5005441  0.3751735  )
       154        C      tau( 154) = (  0.3760729  0.4989342  0.6237687  )
       155        C      tau( 155) = (  0.3751393  0.4999602  0.8747951  )
       156        C      tau( 156) = (  0.3749600  0.7500222  0.1248961  )
       157        C      tau( 157) = (  0.3749793  0.7499748  0.3748931  )
       158        C      tau( 158) = (  0.3757987  0.7491759  0.6247366  )
       159        C      tau( 159) = (  0.3751265  0.7498776  0.8748657  )
       160        C      tau( 160) = (  0.6249822 -0.0000579  0.1250610  )
       161        C      tau( 161) = (  0.6249579 -0.0000377  0.3750420  )
       162        C      tau( 162) = (  0.6250086  0.0000804  0.6250202  )
       163        C      tau( 163) = (  0.6250265  0.0001047  0.8750491  )
       164        C      tau( 164) = (  0.6249469  0.2499414  0.1249171  )
       165        C      tau( 165) = (  0.6248493  0.2499335  0.3749245  )
       166        C      tau( 166) = (  0.6245816  0.2504191  0.6246759  )
       167        C      tau( 167) = (  0.6249440  0.2502562  0.8747914  )
       168        C      tau( 168) = (  0.6248900  0.4999572  0.1250920  )
       169        C      tau( 169) = (  0.6237145  0.4993569  0.3758403  )
       170        C      tau( 170) = (  0.6246935  0.5027133  0.6247950  )
       171        C      tau( 171) = (  0.6250248  0.5001022  0.8749969  )
       172        C      tau( 172) = (  0.6249335  0.7499034  0.1251387  )
       173        C      tau( 173) = (  0.6247745  0.7492669  0.3757429  )
       174        C      tau( 174) = (  0.6253934  0.7505358  0.6253931  )
       175        C      tau( 175) = (  0.6251582  0.7501904  0.8752557  )
       176        C      tau( 176) = (  0.8749618 -0.0000160  0.1250438  )
       177        C      tau( 177) = (  0.8749476 -0.0000267  0.3750276  )
       178        C      tau( 178) = (  0.8750331  0.0001144  0.6250337  )
       179        C      tau( 179) = (  0.8750228  0.0000890  0.8750300  )
       180        C      tau( 180) = (  0.8749341  0.2500042  0.1249944  )
       181        C      tau( 181) = (  0.8749341  0.2499900  0.3749963  )
       182        C      tau( 182) = (  0.8747245  0.2502855  0.6249666  )
       183        C      tau( 183) = (  0.8749101  0.2500843  0.8749348  )
       184        C      tau( 184) = (  0.8749882  0.4999739  0.1250001  )
       185        C      tau( 185) = (  0.8747647  0.5000033  0.3751563  )
       186        C      tau( 186) = (  0.8749654  0.5001105  0.6250314  )
       187        C      tau( 187) = (  0.8751237  0.5000874  0.8751317  )
       188        C      tau( 188) = (  0.8749193  0.7499561  0.1251620  )
       189        C      tau( 189) = (  0.8748805  0.7499070  0.3751261  )
       190        C      tau( 190) = (  0.8752623  0.7501881  0.6251571  )
       191        C      tau( 191) = (  0.8751444  0.7500859  0.8751358  )
       192        C      tau( 192) = (  0.1249705  0.1249777 -0.0000216  )
       193        C      tau( 193) = (  0.1249576  0.1249842  0.2499926  )
       194        C      tau( 194) = (  0.1247896  0.1247973  0.5000127  )
       195        C      tau( 195) = (  0.1249769  0.1249683  0.7499739  )
       196        C      tau( 196) = (  0.1249413  0.3749721 -0.0000399  )
       197        C      tau( 197) = (  0.1249257  0.3749792  0.2500047  )
       198        C      tau( 198) = (  0.1250273  0.3749750  0.4999699  )
       199        C      tau( 199) = (  0.1249517  0.3749538  0.7499929  )
       200        C      tau( 200) = (  0.1250425  0.6249815 -0.0000921  )
       201        C      tau( 201) = (  0.1248831  0.6249763  0.2499183  )
       202        C      tau( 202) = (  0.1251514  0.6248730  0.4999200  )
       203        C      tau( 203) = (  0.1252093  0.6248986  0.7498396  )
       204        C      tau( 204) = (  0.1250294  0.8749596 -0.0000331  )
       205        C      tau( 205) = (  0.1249584  0.8749527  0.2499887  )
       206        C      tau( 206) = (  0.1249530  0.8750180  0.4999494  )
       207        C      tau( 207) = (  0.1251694  0.8748901  0.7499345  )
       208        C      tau( 208) = (  0.3749609  0.1249449 -0.0000292  )
       209        C      tau( 209) = (  0.3749429  0.1249221  0.2499869  )
       210        C      tau( 210) = (  0.3749544  0.1249632  0.4999766  )
       211        C      tau( 211) = (  0.3749591  0.1248844  0.7500329  )
       212        C      tau( 212) = (  0.3749872  0.3749898 -0.0000876  )
       213        C      tau( 213) = (  0.3750514  0.3751107  0.2501106  )
       214        C      tau( 214) = (  0.3753480  0.3751635  0.5005542  )
       215        C      tau( 215) = (  0.3749786  0.3748828  0.7499847  )
       216        C      tau( 216) = (  0.3750290  0.6249617 -0.0000697  )
       217        C      tau( 217) = (  0.3748812  0.6249764  0.2498421  )
       218        C      tau( 218) = (  0.3760732  0.6237590  0.4989440  )
       219        C      tau( 219) = (  0.3757987  0.6247267  0.7491859  )
       220        C      tau( 220) = (  0.3750076  0.8749588 -0.0000653  )
       221        C      tau( 221) = (  0.3749530  0.8750120  0.2499227  )
       222        C      tau( 222) = (  0.3751394  0.8747856  0.4999696  )
       223        C      tau( 223) = (  0.3751264  0.8748550  0.7498872  )
       224        C      tau( 224) = (  0.6249822  0.1250534 -0.0000503  )
       225        C      tau( 225) = (  0.6249470  0.1249095  0.2499489  )
       226        C      tau( 226) = (  0.6248897  0.1250836  0.4999655  )
       227        C      tau( 227) = (  0.6249330  0.1251296  0.7499122  )
       228        C      tau( 228) = (  0.6249579  0.3750345 -0.0000301  )
       229        C      tau( 229) = (  0.6248494  0.3749157  0.2499424  )
       230        C      tau( 230) = (  0.6237138  0.3758307  0.4993666  )
       231        C      tau( 231) = (  0.6247741  0.3757340  0.7492756  )
       232        C      tau( 232) = (  0.6250089  0.6250126  0.0000886  )
       233        C      tau( 233) = (  0.6245820  0.6246658  0.2504293  )
       234        C      tau( 234) = (  0.6246939  0.6247861  0.5027222  )
       235        C      tau( 235) = (  0.6253936  0.6253844  0.7505449  )
       236        C      tau( 236) = (  0.6250266  0.8750411  0.0001129  )
       237        C      tau( 237) = (  0.6249443  0.8747834  0.2502645  )
       238        C      tau( 238) = (  0.6250248  0.8749889  0.5001101  )
       239        C      tau( 239) = (  0.6251581  0.8752478  0.7501980  )
       240        C      tau( 240) = (  0.8749618  0.1250369 -0.0000089  )
       241        C      tau( 241) = (  0.8749342  0.1249873  0.2500110  )
       242        C      tau( 242) = (  0.8749886  0.1249920  0.4999811  )
       243        C      tau( 243) = (  0.8749195  0.1251538  0.7499637  )
       244        C      tau( 244) = (  0.8749475  0.3750208 -0.0000192  )
       245        C      tau( 245) = (  0.8749340  0.3749888  0.2499978  )
       246        C      tau( 246) = (  0.8747648  0.3751473  0.5000120  )
       247        C      tau( 247) = (  0.8748810  0.3751178  0.7499153  )
       248        C      tau( 248) = (  0.8750332  0.6250268  0.0001222  )
       249        C      tau( 249) = (  0.8747238  0.6249581  0.2502947  )
       250        C      tau( 250) = (  0.8749652  0.6250230  0.5001190  )
       251        C      tau( 251) = (  0.8752624  0.6251497  0.7501957  )
       252        C      tau( 252) = (  0.8750228  0.8750230  0.0000963  )
       253        C      tau( 253) = (  0.8749100  0.8749271  0.2500917  )
       254        C      tau( 254) = (  0.8751235  0.8751241  0.5000944  )
       255        C      tau( 255) = (  0.8751443  0.8751285  0.7500928  )
       256        C      tau( 256) = (  0.1874570  0.0624756  0.1874827  )
       257        C      tau( 257) = (  0.1874314  0.0623908  0.4374790  )
       258        C      tau( 258) = (  0.1874924  0.0623902  0.6874802  )
       259        C      tau( 259) = (  0.1874952  0.0624610  0.9374694  )
       260        C      tau( 260) = (  0.1874576  0.3124778  0.1874866  )
       261        C      tau( 261) = (  0.1874555  0.3124148  0.4374588  )
       262        C      tau( 262) = (  0.1874304  0.3124540  0.6874512  )
       263        C      tau( 263) = (  0.1874488  0.3124669  0.9374783  )
       264        C      tau( 264) = (  0.1871660  0.5624177  0.1871639  )
       265        C      tau( 265) = (  0.1876436  0.5623676  0.4374451  )
       266        C      tau( 266) = (  0.1877533  0.5623617  0.6873263  )
       267        C      tau( 267) = (  0.1876020  0.5624509  0.9373543  )
       268        C      tau( 268) = (  0.1874815  0.8124498  0.1874798  )
       269        C      tau( 269) = (  0.1873632  0.8126047  0.4375041  )
       270        C      tau( 270) = (  0.1877495  0.8122899  0.6873814  )
       271        C      tau( 271) = (  0.1875746  0.8124370  0.9374173  )
       272        C      tau( 272) = (  0.4374525  0.0624132  0.1874605  )
       273        C      tau( 273) = (  0.4374535  0.0624462  0.4374830  )
       274        C      tau( 274) = (  0.4374966  0.0624764  0.6874762  )
       275        C      tau( 275) = (  0.4375034  0.0624146  0.9375240  )
       276        C      tau( 276) = (  0.4373891  0.3124267  0.1874252  )
       277        C      tau( 277) = (  0.4374438  0.3127238  0.4375887  )
       278        C      tau( 278) = (  0.4376723  0.3118697  0.6880607  )
       279        C      tau( 279) = (  0.4374844  0.3125107  0.9374028  )
       280        C      tau( 280) = (  0.4374324  0.5624158  0.1875258  )
       281        C      tau( 281) = (  0.4386508  0.5618056  0.6862773  )
       282        C      tau( 282) = (  0.4375453  0.5624895  0.9374248  )
       283        C      tau( 283) = (  0.4375143  0.8126908  0.1872755  )
       284        C      tau( 284) = (  0.4375561  0.8122880  0.4375224  )
       285        C      tau( 285) = (  0.4377484  0.8123224  0.6874441  )
       286        C      tau( 286) = (  0.4375609  0.8124635  0.9374668  )
       287        C      tau( 287) = (  0.6874613  0.0624455  0.1875229  )
       288        C      tau( 288) = (  0.6874402  0.0625233  0.4375265  )
       289        C      tau( 289) = (  0.6874870  0.0626179  0.6875105  )
       290        C      tau( 290) = (  0.6874876  0.0625985  0.9374995  )
       291        C      tau( 291) = (  0.6874117  0.3124937  0.1874469  )
       292        C      tau( 292) = (  0.6877369  0.3121410  0.4376560  )
       293        C      tau( 293) = (  0.6871119  0.3129366  0.6871945  )
       294        C      tau( 294) = (  0.6874496  0.3125873  0.9374270  )
       295        C      tau( 295) = (  0.6873375  0.5624559  0.1876684  )
       296        C      tau( 296) = (  0.6862463  0.5619495  0.4386525  )
       297        C      tau( 297) = (  0.6883559  0.5629007  0.6884012  )
       298        C      tau( 298) = (  0.6875459  0.5625674  0.9375888  )
       299        C      tau( 299) = (  0.6874002  0.8123564  0.1877171  )
       300        C      tau( 300) = (  0.6874718  0.8123832  0.4377277  )
       301        C      tau( 301) = (  0.6877770  0.8128847  0.6877781  )
       302        C      tau( 302) = (  0.6875935  0.8126193  0.9376953  )
       303        C      tau( 303) = (  0.9374510  0.0624857  0.1875197  )
       304        C      tau( 304) = (  0.9374669  0.0624725  0.4375225  )
       305        C      tau( 305) = (  0.9374758  0.0625952  0.6874994  )
       306        C      tau( 306) = (  0.9374937  0.0625420  0.9375082  )
       307        C      tau( 307) = (  0.9374354  0.3124921  0.1874955  )
       308        C      tau( 308) = (  0.9373557  0.3125504  0.4375180  )
       309        C      tau( 309) = (  0.9373883  0.3125984  0.6874609  )
       310        C      tau( 310) = (  0.9374340  0.3125366  0.9374612  )
       311        C      tau( 311) = (  0.9373458  0.5624708  0.1876298  )
       312        C      tau( 312) = (  0.9374228  0.5625029  0.4375620  )
       313        C      tau( 313) = (  0.9375867  0.5625626  0.6875426  )
       314        C      tau( 314) = (  0.9375718  0.5625245  0.9375752  )
       315        C      tau( 315) = (  0.9374314  0.8124593  0.1875814  )
       316        C      tau( 316) = (  0.9374846  0.8124693  0.4375700  )
       317        C      tau( 317) = (  0.9377061  0.8126040  0.6875894  )
       318        C      tau( 318) = (  0.9375864  0.8125367  0.9375825  )
       319        C      tau( 319) = (  0.0624749  0.0624869  0.0624945  )
       320        C      tau( 320) = (  0.0624487  0.0624773  0.3124991  )
       321        C      tau( 321) = (  0.0623970  0.0624056  0.5624768  )
       322        C      tau( 322) = (  0.0625093  0.0625020  0.8124834  )
       323        C      tau( 323) = (  0.0624483  0.3124915  0.0624856  )
       324        C      tau( 324) = (  0.0623979  0.3124707  0.3124790  )
       325        C      tau( 325) = (  0.0624494  0.3124997  0.5624661  )
       326        C      tau( 326) = (  0.0624356  0.3125055  0.8124677  )
       327        C      tau( 327) = (  0.0623974  0.5624685  0.0624152  )
       328        C      tau( 328) = (  0.0624494  0.5624575  0.3125086  )
       329        C      tau( 329) = (  0.0625910  0.5624602  0.5624694  )
       330        C      tau( 330) = (  0.0625984  0.5624859  0.8124564  )
       331        C      tau( 331) = (  0.0625099  0.8124755  0.0625107  )
       332        C      tau( 332) = (  0.0624363  0.8124588  0.3125142  )
       333        C      tau( 333) = (  0.0625986  0.8124472  0.5624944  )
       334        C      tau( 334) = (  0.0626650  0.8124697  0.8124783  )
       335        C      tau( 335) = (  0.3124721  0.0624650  0.0624745  )
       336        C      tau( 336) = (  0.3124381  0.0624030  0.3124648  )
       337        C      tau( 337) = (  0.3124824  0.0624107  0.5624706  )
       338        C      tau( 338) = (  0.3124994  0.0623977  0.8124790  )
       339        C      tau( 339) = (  0.3124379  0.3124562  0.0624118  )
       340        C      tau( 340) = (  0.3125250  0.3125486  0.3125588  )
       341        C      tau( 341) = (  0.3117793  0.3116872  0.5621845  )
       342        C      tau( 342) = (  0.3124831  0.3124477  0.8125244  )
       343        C      tau( 343) = (  0.3124831  0.5624612  0.0624211  )
       344        C      tau( 344) = (  0.3117796  0.5621740  0.3116974  )
       345        C      tau( 345) = (  0.3133592  0.5619417  0.5619516  )
       346        C      tau( 346) = (  0.3128696  0.5623352  0.8120845  )
       347        C      tau( 347) = (  0.3125004  0.8124686  0.0624096  )
       348        C      tau( 348) = (  0.3124841  0.8125135  0.3124589  )
       349        C      tau( 349) = (  0.3128697  0.8120740  0.5623452  )
       350        C      tau( 350) = (  0.3126494  0.8123384  0.8123489  )
       351        C      tau( 351) = (  0.5624642  0.0624341  0.0624420  )
       352        C      tau( 352) = (  0.5624412  0.0624496  0.3125104  )
       353        C      tau( 353) = (  0.5624687  0.0625366  0.5624996  )
       354        C      tau( 354) = (  0.5624976  0.0625473  0.8125044  )
       355        C      tau( 355) = (  0.5624412  0.3125026  0.0624574  )
       356        C      tau( 356) = (  0.5621291  0.3118079  0.3118172  )
       357        C      tau( 357) = (  0.5619822  0.3130164  0.5622209  )
       358        C      tau( 358) = (  0.5623705  0.3127958  0.8121686  )
       359        C      tau( 359) = (  0.5624692  0.5624913  0.0625452  )
       360        C      tau( 360) = (  0.5619827  0.5622107  0.3130266  )
       361        C      tau( 361) = (  0.5626254  0.5625967  0.8125242  )
       362        C      tau( 362) = (  0.5624982  0.8124954  0.0625568  )
       363        C      tau( 363) = (  0.5623710  0.8121599  0.3128046  )
       364        C      tau( 364) = (  0.5626255  0.8125155  0.5626054  )
       365        C      tau( 365) = (  0.5626554  0.8127839  0.8127920  )
       366        C      tau( 366) = (  0.8124716  0.0625229  0.0625298  )
       367        C      tau( 367) = (  0.8124460  0.0624645  0.3125287  )
       368        C      tau( 368) = (  0.8124635  0.0625863  0.5625180  )
       369        C      tau( 369) = (  0.8124893  0.0626504  0.8125050  )
       370        C      tau( 370) = (  0.8124458  0.3125219  0.0624718  )
       371        C      tau( 371) = (  0.8124278  0.3125154  0.3125233  )
       372        C      tau( 372) = (  0.8120602  0.3128779  0.5624164  )
       373        C      tau( 373) = (  0.8123716  0.3126357  0.8123987  )
       374        C      tau( 374) = (  0.8124635  0.5625109  0.0625940  )
       375        C      tau( 375) = (  0.8120600  0.5624072  0.3128874  )
       376        C      tau( 376) = (  0.8124869  0.5626297  0.5626384  )
       377        C      tau( 377) = (  0.8128033  0.5626502  0.8128117  )
       378        C      tau( 378) = (  0.8124893  0.8124978  0.0626579  )
       379        C      tau( 379) = (  0.8123712  0.8123906  0.3126437  )
       380        C      tau( 380) = (  0.8128031  0.8128040  0.5626575  )
       381        C      tau( 381) = (  0.8126812  0.8126707  0.8126778  )
       382        C      tau( 382) = (  0.0624507  0.1874848  0.1874925  )
       383        C      tau( 383) = (  0.0623915  0.1874617  0.4374855  )
       384        C      tau( 384) = (  0.0624139  0.1874988  0.6874810  )
       385        C      tau( 385) = (  0.0624640  0.1875021  0.9374748  )
       386        C      tau( 386) = (  0.0623914  0.4374773  0.1874704  )
       387        C      tau( 387) = (  0.0624777  0.4374747  0.4374834  )
       388        C      tau( 388) = (  0.0625393  0.4374990  0.6874466  )
       389        C      tau( 389) = (  0.0624295  0.4375074  0.9375036  )
       390        C      tau( 390) = (  0.0624146  0.6874725  0.1875082  )
       391        C      tau( 391) = (  0.0625394  0.6874377  0.4375079  )
       392        C      tau( 392) = (  0.0626652  0.6874608  0.6874699  )
       393        C      tau( 393) = (  0.0626031  0.6874802  0.9374663  )
       394        C      tau( 394) = (  0.0624646  0.9374667  0.1875101  )
       395        C      tau( 395) = (  0.0624301  0.9374945  0.4375155  )
       396        C      tau( 396) = (  0.0626030  0.9374568  0.6874881  )
       397        C      tau( 397) = (  0.0625404  0.9374892  0.9374971  )
       398        C      tau( 398) = (  0.3124482  0.1874762  0.1874849  )
       399        C      tau( 399) = (  0.3123745  0.1873927  0.4374617  )
       400        C      tau( 400) = (  0.3124614  0.1873495  0.6874796  )
       401        C      tau( 401) = (  0.3124607  0.1874422  0.9374909  )
       402        C      tau( 402) = (  0.3123750  0.4374516  0.1874024  )
       403        C      tau( 403) = (  0.3129803  0.4375700  0.4375801  )
       404        C      tau( 404) = (  0.3121485  0.4375874  0.6878704  )
       405        C      tau( 405) = (  0.3125229  0.4374813  0.9373801  )
       406        C      tau( 406) = (  0.3124625  0.6874685  0.1873614  )
       407        C      tau( 407) = (  0.3121487  0.6878605  0.4375978  )
       408        C      tau( 408) = (  0.3130129  0.6870804  0.6870908  )
       409        C      tau( 409) = (  0.3125936  0.6874356  0.9373717  )
       410        C      tau( 410) = (  0.3124617  0.9374806  0.1874528  )
       411        C      tau( 411) = (  0.3125233  0.9373707  0.4374904  )
       412        C      tau( 412) = (  0.3125934  0.9373605  0.6874449  )
       413        C      tau( 413) = (  0.3125269  0.9374239  0.9374340  )
       414        C      tau( 414) = (  0.5623941  0.1872321  0.1872401  )
       415        C      tau( 415) = (  0.5623465  0.1875517  0.4374968  )
       416        C      tau( 416) = (  0.5623897  0.1876082  0.6874430  )
       417        C      tau( 417) = (  0.5624573  0.1875840  0.9374038  )
       418        C      tau( 418) = (  0.5623469  0.4374878  0.1875606  )
       419        C      tau( 419) = (  0.5618601  0.4385149  0.6863702  )
       420        C      tau( 420) = (  0.5624974  0.4375379  0.9374471  )
       421        C      tau( 421) = (  0.5623908  0.6874329  0.1876185  )
       422        C      tau( 422) = (  0.5618608  0.6863614  0.4385241  )
       423        C      tau( 423) = (  0.5629186  0.6883343  0.6883436  )
       424        C      tau( 424) = (  0.5625683  0.6875417  0.9375718  )
       425        C      tau( 425) = (  0.5624578  0.9373956  0.1875925  )
       426        C      tau( 426) = (  0.5624975  0.9374390  0.4375458  )
       427        C      tau( 427) = (  0.5625681  0.9375632  0.6875495  )
       428        C      tau( 428) = (  0.5625265  0.9375701  0.9375786  )
       429        C      tau( 429) = (  0.8124275  0.1875070  0.1875139  )
       430        C      tau( 430) = (  0.8125414  0.1874156  0.4375343  )
       431        C      tau( 431) = (  0.8123237  0.1877218  0.6874295  )
       432        C      tau( 432) = (  0.8124477  0.1875776  0.9374589  )
       433        C      tau( 433) = (  0.8125411  0.4375266  0.1874240  )
       434        C      tau( 434) = (  0.8122220  0.4375781  0.4375873  )
       435        C      tau( 435) = (  0.8123376  0.4377445  0.6874929  )
       436        C      tau( 436) = (  0.8124729  0.4375639  0.9375045  )
       437        C      tau( 437) = (  0.8123233  0.6874213  0.1877305  )
       438        C      tau( 438) = (  0.8123372  0.6874843  0.4377534  )
       439        C      tau( 439) = (  0.8128883  0.6877718  0.6877796  )
       440        C      tau( 440) = (  0.8126209  0.6875915  0.9376987  )
       441        C      tau( 441) = (  0.8124477  0.9374516  0.1875847  )
       442        C      tau( 442) = (  0.8124729  0.9374971  0.4375709  )
       443        C      tau( 443) = (  0.8126207  0.9376912  0.6875984  )
       444        C      tau( 444) = (  0.8125417  0.9375835  0.9375905  )
       445        C      tau( 445) = (  0.1874566  0.1874741  0.0624845  )
       446        C      tau( 446) = (  0.1874575  0.1874777  0.3124864  )
       447        C      tau( 447) = (  0.1871656  0.1871533  0.5624278  )
       448        C      tau( 448) = (  0.1874803  0.1874692  0.8124596  )
       449        C      tau( 449) = (  0.1874316  0.4374705  0.0624000  )
       450        C      tau( 450) = (  0.1874555  0.4374489  0.3124246  )
       451        C      tau( 451) = (  0.1876437  0.4374345  0.5623782  )
       452        C      tau( 452) = (  0.1873628  0.4374938  0.8126151  )
       453        C      tau( 453) = (  0.1874933  0.6874707  0.0624015  )
       454        C      tau( 454) = (  0.1874314  0.6874404  0.3124651  )
       455        C      tau( 455) = (  0.1877533  0.6873157  0.5623721  )
       456        C      tau( 456) = (  0.1877494  0.6873716  0.8123007  )
       457        C      tau( 457) = (  0.1874959  0.9374605  0.0624703  )
       458        C      tau( 458) = (  0.1874498  0.9374683  0.3124764  )
       459        C      tau( 459) = (  0.1876022  0.9373442  0.5624597  )
       460        C      tau( 460) = (  0.1875742  0.9374069  0.8124461  )
       461        C      tau( 461) = (  0.4374523  0.1874520  0.0624217  )
       462        C      tau( 462) = (  0.4373889  0.1874163  0.3124357  )
       463        C      tau( 463) = (  0.4374314  0.1875153  0.5624264  )
       464        C      tau( 464) = (  0.4375135  0.1872655  0.8127003  )
       465        C      tau( 465) = (  0.4374538  0.4374745  0.0624548  )
       466        C      tau( 466) = (  0.4374440  0.4375782  0.3127343  )
       467        C      tau( 467) = (  0.4375556  0.4375124  0.8122974  )
       468        C      tau( 468) = (  0.4374976  0.6874665  0.0624873  )
       469        C      tau( 469) = (  0.4376730  0.6880511  0.3118795  )
       470        C      tau( 470) = (  0.4386510  0.6862678  0.5618152  )
       471        C      tau( 471) = (  0.4377484  0.6874348  0.8123323  )
       472        C      tau( 472) = (  0.4375040  0.9375141  0.0624251  )
       473        C      tau( 473) = (  0.4374850  0.9373937  0.3125200  )
       474        C      tau( 474) = (  0.4375452  0.9374156  0.5624980  )
       475        C      tau( 475) = (  0.4375606  0.9374566  0.8124726  )
       476        C      tau( 476) = (  0.6874612  0.1875158  0.0624527  )
       477        C      tau( 477) = (  0.6874117  0.1874392  0.3125014  )
       478        C      tau( 478) = (  0.6873372  0.1876595  0.5624646  )
       479        C      tau( 479) = (  0.6874001  0.1877086  0.8123646  )
       480        C      tau( 480) = (  0.6874402  0.4375191  0.0625309  )
       481        C      tau( 481) = (  0.6877372  0.4376468  0.3121499  )
       482        C      tau( 482) = (  0.6862459  0.4386432  0.5619588  )
       483        C      tau( 483) = (  0.6874719  0.4377196  0.8123914  )
       484        C      tau( 484) = (  0.6874873  0.6875028  0.0626260  )
       485        C      tau( 485) = (  0.6871120  0.6871848  0.3129463  )
       486        C      tau( 486) = (  0.6883560  0.6883922  0.5629097  )
       487        C      tau( 487) = (  0.6877771  0.6877705  0.8128928  )
       488        C      tau( 488) = (  0.6874877  0.9374920  0.0626060  )
       489        C      tau( 489) = (  0.6874497  0.9374195  0.3125947  )
       490        C      tau( 490) = (  0.6875458  0.9375812  0.5625747  )
       491        C      tau( 491) = (  0.6875935  0.9376877  0.8126266  )
       492        C      tau( 492) = (  0.9374508  0.1875128  0.0624929  )
       493        C      tau( 493) = (  0.9374356  0.1874880  0.3124993  )
       494        C      tau( 494) = (  0.9373462  0.1876212  0.5624785  )
       495        C      tau( 495) = (  0.9374312  0.1875736  0.8124669  )
       496        C      tau( 496) = (  0.9374667  0.4375155  0.0624805  )
       497        C      tau( 497) = (  0.9373556  0.4375101  0.3125586  )
       498        C      tau( 498) = (  0.9374229  0.4375536  0.5625111  )
       499        C      tau( 499) = (  0.9374847  0.4375624  0.8124774  )
       500        C      tau( 500) = (  0.9374759  0.6874922  0.0626034  )
       501        C      tau( 501) = (  0.9373879  0.6874529  0.3126068  )
       502        C      tau( 502) = (  0.9375867  0.6875346  0.5625705  )
       503        C      tau( 503) = (  0.9377062  0.6875820  0.8126118  )
       504        C      tau( 504) = (  0.9374939  0.9375011  0.0625492  )
       505        C      tau( 505) = (  0.9374342  0.9374535  0.3125438  )
       506        C      tau( 506) = (  0.9375716  0.9375671  0.5625316  )
       507        C      tau( 507) = (  0.9375863  0.9375750  0.8125438  )
       508        C      tau( 508) = (  0.5660469  0.4325471  0.4325564  )
       509        C      tau( 509) = (  0.4329483  0.4322310  0.5663800  )
       510        C      tau( 510) = (  0.4329486  0.5663708  0.4322404  )
       511        N      tau( 511) = (  0.5678802  0.5678196  0.5678284  )

     number of k points=     1
                       cart. coord. in units 2pi/alat
        k(    1) = (   0.0000000   0.0000000   0.0000000), wk =   1.0000000

                       cryst. coord.
        k(    1) = (   0.0000000   0.0000000   0.0000000), wk =   1.0000000

     Dense  grid:   948261 G-vectors     FFT dimensions: ( 160, 160, 160)

     Dynamical RAM for                 wfc:      38.88 MB

     Dynamical RAM for     wfc (w. buffer):      38.88 MB

     Dynamical RAM for           str. fact:       0.60 MB

     Dynamical RAM for           local pot:       0.00 MB

     Dynamical RAM for          nlocal pot:     154.01 MB

     Dynamical RAM for                qrad:       0.82 MB

     Dynamical RAM for          rho,v,vnew:       6.50 MB

     Dynamical RAM for               rhoin:       2.17 MB

     Dynamical RAM for            rho*nmix:       9.65 MB

     Dynamical RAM for           G-vectors:       1.28 MB

     Dynamical RAM for          h,s,v(r/c):       2.71 MB

     Dynamical RAM for          <psi|beta>:      32.19 MB

     Dynamical RAM for                 psi:      77.76 MB

     Dynamical RAM for                hpsi:      77.76 MB

     Dynamical RAM for      wfcinit/wfcrot:     102.14 MB

     Estimated static dynamical RAM per process >     209.85 MB

     Estimated max dynamical RAM per process >     409.91 MB

     Estimated total dynamical RAM >      37.98 GB
     Generating pointlists ...
     new r_m :   0.0427 (alat units)  1.1514 (a.u.) for type    1
     new r_m :   0.0427 (alat units)  1.1514 (a.u.) for type    2

     Initial potential from superposition of free atoms

     starting charge    2041.4445, renormalised to    2046.0000
     Starting wfcs are random

     total cpu time spent up to now is       10.4 secs

     Self-consistent Calculation

     iteration #  1     ecut=    80.00 Ry     beta= 0.70
     Davidson diagonalization with overlap

---- Real-time Memory Report at c_bands before calling an iterative solver
           512 MiB given to the printing process from OS
             0 MiB allocation reported by mallinfo(arena+hblkhd)
        161089 MiB available memory on the node where the printing process lives
------------------
     ethr =  1.00E-02,  avg # of iterations = 13.0

     total cpu time spent up to now is       87.2 secs

     total energy              =   -5824.00834648 Ry
     estimated scf accuracy    <      29.00871714 Ry

     total magnetization       =     2.00 Bohr mag/cell
     absolute magnetization    =     2.00 Bohr mag/cell

     iteration #  2     ecut=    80.00 Ry     beta= 0.70
     Davidson diagonalization with overlap

---- Real-time Memory Report at c_bands before calling an iterative solver
           629 MiB given to the printing process from OS
             0 MiB allocation reported by mallinfo(arena+hblkhd)
        159558 MiB available memory on the node where the printing process lives
------------------
     ethr =  1.42E-03,  avg # of iterations = 16.5

     total cpu time spent up to now is      114.0 secs

     total energy              =   -5828.18129696 Ry
     estimated scf accuracy    <       1.19824291 Ry

     total magnetization       =     2.00 Bohr mag/cell
     absolute magnetization    =     2.07 Bohr mag/cell

     iteration #  3     ecut=    80.00 Ry     beta= 0.70
     Davidson diagonalization with overlap

---- Real-time Memory Report at c_bands before calling an iterative solver
           651 MiB given to the printing process from OS
             0 MiB allocation reported by mallinfo(arena+hblkhd)
        159420 MiB available memory on the node where the printing process lives
------------------
     c_bands:  1 eigenvalues not converged
     ethr =  5.86E-05,  avg # of iterations = 20.0

     total cpu time spent up to now is      147.4 secs

     total energy              =   -5828.03476512 Ry
     estimated scf accuracy    <       4.90053730 Ry

     total magnetization       =     2.00 Bohr mag/cell
     absolute magnetization    =     2.21 Bohr mag/cell

     iteration #  4     ecut=    80.00 Ry     beta= 0.70
     Davidson diagonalization with overlap

---- Real-time Memory Report at c_bands before calling an iterative solver
           657 MiB given to the printing process from OS
             0 MiB allocation reported by mallinfo(arena+hblkhd)
        159418 MiB available memory on the node where the printing process lives
------------------
     c_bands:  1 eigenvalues not converged
     ethr =  5.86E-05,  avg # of iterations = 20.0

     total cpu time spent up to now is      174.0 secs

     total energy              =   -5829.07288058 Ry
     estimated scf accuracy    <       0.15895454 Ry

     total magnetization       =     2.00 Bohr mag/cell
     absolute magnetization    =     2.16 Bohr mag/cell

     iteration #  5     ecut=    80.00 Ry     beta= 0.70
     Davidson diagonalization with overlap

---- Real-time Memory Report at c_bands before calling an iterative solver
           657 MiB given to the printing process from OS
             0 MiB allocation reported by mallinfo(arena+hblkhd)
        159417 MiB available memory on the node where the printing process lives
------------------
     c_bands:  2 eigenvalues not converged
     ethr =  7.77E-06,  avg # of iterations = 20.0

     total cpu time spent up to now is      202.6 secs

     total energy              =   -5829.09012891 Ry
     estimated scf accuracy    <       0.05405215 Ry

     total magnetization       =     2.00 Bohr mag/cell
     absolute magnetization    =     2.18 Bohr mag/cell

     iteration #  6     ecut=    80.00 Ry     beta= 0.70
     Davidson diagonalization with overlap

---- Real-time Memory Report at c_bands before calling an iterative solver
           657 MiB given to the printing process from OS
             0 MiB allocation reported by mallinfo(arena+hblkhd)
        159417 MiB available memory on the node where the printing process lives
------------------
     c_bands:  1 eigenvalues not converged
     ethr =  2.64E-06,  avg # of iterations = 20.0

     total cpu time spent up to now is      228.6 secs

     total energy              =   -5829.10027145 Ry
     estimated scf accuracy    <       0.00371138 Ry

     total magnetization       =     2.00 Bohr mag/cell
     absolute magnetization    =     2.21 Bohr mag/cell

     iteration #  7     ecut=    80.00 Ry     beta= 0.70
     Davidson diagonalization with overlap

---- Real-time Memory Report at c_bands before calling an iterative solver
           657 MiB given to the printing process from OS
             0 MiB allocation reported by mallinfo(arena+hblkhd)
        159411 MiB available memory on the node where the printing process lives
------------------
     c_bands:  2 eigenvalues not converged
     ethr =  1.81E-07,  avg # of iterations = 20.0

     total cpu time spent up to now is      255.7 secs

     total energy              =   -5829.10177589 Ry
     estimated scf accuracy    <       0.00049000 Ry

     total magnetization       =     2.00 Bohr mag/cell
     absolute magnetization    =     2.23 Bohr mag/cell

     iteration #  8     ecut=    80.00 Ry     beta= 0.70
     Davidson diagonalization with overlap

---- Real-time Memory Report at c_bands before calling an iterative solver
           657 MiB given to the printing process from OS
             0 MiB allocation reported by mallinfo(arena+hblkhd)
        159201 MiB available memory on the node where the printing process lives
------------------
     c_bands:  2 eigenvalues not converged
     ethr =  2.39E-08,  avg # of iterations = 20.0

     total cpu time spent up to now is      286.1 secs

     total energy              =   -5829.10203577 Ry
     estimated scf accuracy    <       0.00022406 Ry

     total magnetization       =     2.00 Bohr mag/cell
     absolute magnetization    =     2.24 Bohr mag/cell

     iteration #  9     ecut=    80.00 Ry     beta= 0.70
     Davidson diagonalization with overlap

---- Real-time Memory Report at c_bands before calling an iterative solver
           662 MiB given to the printing process from OS
             0 MiB allocation reported by mallinfo(arena+hblkhd)
        159076 MiB available memory on the node where the printing process lives
------------------
     c_bands:  1 eigenvalues not converged
     ethr =  1.10E-08,  avg # of iterations = 20.0

     total cpu time spent up to now is      313.1 secs

     total energy              =   -5829.10211984 Ry
     estimated scf accuracy    <       0.00005113 Ry

     total magnetization       =     2.00 Bohr mag/cell
     absolute magnetization    =     2.26 Bohr mag/cell

     iteration # 10     ecut=    80.00 Ry     beta= 0.70
     Davidson diagonalization with overlap

---- Real-time Memory Report at c_bands before calling an iterative solver
           664 MiB given to the printing process from OS
             0 MiB allocation reported by mallinfo(arena+hblkhd)
        159076 MiB available memory on the node where the printing process lives
------------------
     c_bands:  1 eigenvalues not converged
     ethr =  2.50E-09,  avg # of iterations = 20.0

     total cpu time spent up to now is      345.0 secs

     total energy              =   -5829.10213986 Ry
     estimated scf accuracy    <       0.00001428 Ry

     total magnetization       =     2.00 Bohr mag/cell
     absolute magnetization    =     2.27 Bohr mag/cell

     iteration # 11     ecut=    80.00 Ry     beta= 0.70
     Davidson diagonalization with overlap

---- Real-time Memory Report at c_bands before calling an iterative solver
           664 MiB given to the printing process from OS
             0 MiB allocation reported by mallinfo(arena+hblkhd)
        159055 MiB available memory on the node where the printing process lives
------------------
     c_bands:  1 eigenvalues not converged
     ethr =  6.98E-10,  avg # of iterations = 20.0

     total cpu time spent up to now is      372.6 secs

     total energy              =   -5829.10214417 Ry
     estimated scf accuracy    <       0.00000205 Ry

     total magnetization       =     2.00 Bohr mag/cell
     absolute magnetization    =     2.27 Bohr mag/cell

     iteration # 12     ecut=    80.00 Ry     beta= 0.70
     Davidson diagonalization with overlap

---- Real-time Memory Report at c_bands before calling an iterative solver
           665 MiB given to the printing process from OS
             0 MiB allocation reported by mallinfo(arena+hblkhd)
        159027 MiB available memory on the node where the printing process lives
------------------
     c_bands:  2 eigenvalues not converged
     ethr =  1.00E-10,  avg # of iterations = 18.5

     total cpu time spent up to now is      399.6 secs

     total energy              =   -5829.10214506 Ry
     estimated scf accuracy    <       0.00000123 Ry

     total magnetization       =     2.00 Bohr mag/cell
     absolute magnetization    =     2.28 Bohr mag/cell

     iteration # 13     ecut=    80.00 Ry     beta= 0.70
     Davidson diagonalization with overlap

---- Real-time Memory Report at c_bands before calling an iterative solver
           667 MiB given to the printing process from OS
             0 MiB allocation reported by mallinfo(arena+hblkhd)
        158948 MiB available memory on the node where the printing process lives
------------------
     c_bands:  2 eigenvalues not converged
     ethr =  5.99E-11,  avg # of iterations = 19.5

     total cpu time spent up to now is      427.1 secs

     total energy              =   -5829.10214545 Ry
     estimated scf accuracy    <       0.00000039 Ry

     total magnetization       =     2.00 Bohr mag/cell
     absolute magnetization    =     2.28 Bohr mag/cell

     iteration # 14     ecut=    80.00 Ry     beta= 0.70
     Davidson diagonalization with overlap

---- Real-time Memory Report at c_bands before calling an iterative solver
           668 MiB given to the printing process from OS
             0 MiB allocation reported by mallinfo(arena+hblkhd)
        158948 MiB available memory on the node where the printing process lives
------------------
     c_bands:  1 eigenvalues not converged
     ethr =  1.90E-11,  avg # of iterations = 20.0

     total cpu time spent up to now is      457.6 secs

     total energy              =   -5829.10214556 Ry
     estimated scf accuracy    <       0.00000006 Ry

     total magnetization       =     2.00 Bohr mag/cell
     absolute magnetization    =     2.28 Bohr mag/cell

     iteration # 15     ecut=    80.00 Ry     beta= 0.70
     Davidson diagonalization with overlap

---- Real-time Memory Report at c_bands before calling an iterative solver
           668 MiB given to the printing process from OS
             0 MiB allocation reported by mallinfo(arena+hblkhd)
        158948 MiB available memory on the node where the printing process lives
------------------
     ethr =  2.95E-12,  avg # of iterations = 18.0

     total cpu time spent up to now is      484.0 secs

     total energy              =   -5829.10214559 Ry
     estimated scf accuracy    <       0.00000004 Ry

     total magnetization       =     2.00 Bohr mag/cell
     absolute magnetization    =     2.28 Bohr mag/cell

     iteration # 16     ecut=    80.00 Ry     beta= 0.70
     Davidson diagonalization with overlap

---- Real-time Memory Report at c_bands before calling an iterative solver
           668 MiB given to the printing process from OS
             0 MiB allocation reported by mallinfo(arena+hblkhd)
        158845 MiB available memory on the node where the printing process lives
------------------
     c_bands:  1 eigenvalues not converged
     ethr =  2.06E-12,  avg # of iterations = 20.0

     total cpu time spent up to now is      535.3 secs

     total energy              =   -5829.10214560 Ry
     estimated scf accuracy    <          4.1E-09 Ry

     total magnetization       =     2.00 Bohr mag/cell
     absolute magnetization    =     2.28 Bohr mag/cell

     iteration # 17     ecut=    80.00 Ry     beta= 0.70
     Davidson diagonalization with overlap

---- Real-time Memory Report at c_bands before calling an iterative solver
           670 MiB given to the printing process from OS
             0 MiB allocation reported by mallinfo(arena+hblkhd)
        158786 MiB available memory on the node where the printing process lives
------------------
     c_bands:  1 eigenvalues not converged
     ethr =  2.00E-13,  avg # of iterations = 19.0

     total cpu time spent up to now is      571.3 secs

     total energy              =   -5829.10214561 Ry
     estimated scf accuracy    <          3.1E-09 Ry

     total magnetization       =     2.00 Bohr mag/cell
     absolute magnetization    =     2.28 Bohr mag/cell

     iteration # 18     ecut=    80.00 Ry     beta= 0.70
     Davidson diagonalization with overlap

---- Real-time Memory Report at c_bands before calling an iterative solver
           670 MiB given to the printing process from OS
             0 MiB allocation reported by mallinfo(arena+hblkhd)
        158673 MiB available memory on the node where the printing process lives
------------------
     c_bands:  1 eigenvalues not converged
     ethr =  1.53E-13,  avg # of iterations = 18.5

     total cpu time spent up to now is      601.4 secs

     total energy              =   -5829.10214561 Ry
     estimated scf accuracy    <          3.7E-10 Ry

     total magnetization       =     2.00 Bohr mag/cell
     absolute magnetization    =     2.28 Bohr mag/cell

     iteration # 19     ecut=    80.00 Ry     beta= 0.70
     Davidson diagonalization with overlap

---- Real-time Memory Report at c_bands before calling an iterative solver
           673 MiB given to the printing process from OS
             0 MiB allocation reported by mallinfo(arena+hblkhd)
        158672 MiB available memory on the node where the printing process lives
------------------
     c_bands:  2 eigenvalues not converged
     ethr =  1.00E-13,  avg # of iterations = 20.0

     total cpu time spent up to now is      627.9 secs

     total energy              =   -5829.10214561 Ry
     estimated scf accuracy    <          2.0E-10 Ry

     total magnetization       =     2.00 Bohr mag/cell
     absolute magnetization    =     2.28 Bohr mag/cell

     iteration # 20     ecut=    80.00 Ry     beta= 0.70
     Davidson diagonalization with overlap

---- Real-time Memory Report at c_bands before calling an iterative solver
           673 MiB given to the printing process from OS
             0 MiB allocation reported by mallinfo(arena+hblkhd)
        158672 MiB available memory on the node where the printing process lives
------------------
     ethr =  1.00E-13,  avg # of iterations = 11.0
 
     Magnetic moment per site  (integrated on atomic sphere of radius R)
     atom   1 (R=0.043)  charge=  1.8172  magn= -0.0000
     atom   2 (R=0.043)  charge=  1.8173  magn= -0.0000
     atom   3 (R=0.043)  charge=  1.8188  magn=  0.0002
     atom   4 (R=0.043)  charge=  1.8171  magn=  0.0000
     atom   5 (R=0.043)  charge=  1.8173  magn= -0.0000
     atom   6 (R=0.043)  charge=  1.8176  magn= -0.0000
     atom   7 (R=0.043)  charge=  1.8173  magn= -0.0000
     atom   8 (R=0.043)  charge=  1.8173  magn= -0.0000
     atom   9 (R=0.043)  charge=  1.8188  magn=  0.0002
     atom  10 (R=0.043)  charge=  1.8173  magn= -0.0000
     atom  11 (R=0.043)  charge=  1.8171  magn= -0.0000
     atom  12 (R=0.043)  charge=  1.8175  magn=  0.0000
     atom  13 (R=0.043)  charge=  1.8171  magn=  0.0000
     atom  14 (R=0.043)  charge=  1.8173  magn= -0.0000
     atom  15 (R=0.043)  charge=  1.8175  magn=  0.0000
     atom  16 (R=0.043)  charge=  1.8176  magn= -0.0000
     atom  17 (R=0.043)  charge=  1.8172  magn= -0.0000
     atom  18 (R=0.043)  charge=  1.8177  magn= -0.0000
     atom  19 (R=0.043)  charge=  1.8174  magn= -0.0000
     atom  20 (R=0.043)  charge=  1.8174  magn= -0.0000
     atom  21 (R=0.043)  charge=  1.8177  magn= -0.0000
     atom  22 (R=0.043)  charge=  1.8170  magn= -0.0001
     atom  23 (R=0.043)  charge=  1.8215  magn=  0.0017
     atom  24 (R=0.043)  charge=  1.8169  magn= -0.0001
     atom  25 (R=0.043)  charge=  1.8174  magn= -0.0000
     atom  26 (R=0.043)  charge=  1.8215  magn=  0.0017
     atom  27 (R=0.043)  charge=  1.8178  magn= -0.0009
     atom  28 (R=0.043)  charge=  1.8203  magn=  0.0029
     atom  29 (R=0.043)  charge=  1.8174  magn= -0.0000
     atom  30 (R=0.043)  charge=  1.8169  magn= -0.0001
     atom  31 (R=0.043)  charge=  1.8203  magn=  0.0029
     atom  32 (R=0.043)  charge=  1.8161  magn=  0.0001
     atom  33 (R=0.043)  charge=  1.8190  magn=  0.0002
     atom  34 (R=0.043)  charge=  1.8174  magn= -0.0000
     atom  35 (R=0.043)  charge=  1.8172  magn= -0.0000
     atom  36 (R=0.043)  charge=  1.8176  magn=  0.0000
     atom  37 (R=0.043)  charge=  1.8174  magn= -0.0000
     atom  38 (R=0.043)  charge=  1.8210  magn=  0.0017
     atom  39 (R=0.043)  charge=  1.8177  magn= -0.0009
     atom  40 (R=0.043)  charge=  1.8212  magn=  0.0029
     atom  41 (R=0.043)  charge=  1.8172  magn= -0.0000
     atom  42 (R=0.043)  charge=  1.8177  magn= -0.0009
     atom  43 (R=0.043)  charge=  1.8204  magn= -0.0006
     atom  44 (R=0.043)  charge=  1.8176  magn=  0.0000
     atom  45 (R=0.043)  charge=  1.8212  magn=  0.0029
     atom  46 (R=0.043)  charge=  1.8204  magn= -0.0006
     atom  47 (R=0.043)  charge=  1.8211  magn=  0.0001
     atom  48 (R=0.043)  charge=  1.8171  magn=  0.0000
     atom  49 (R=0.043)  charge=  1.8174  magn= -0.0000
     atom  50 (R=0.043)  charge=  1.8175  magn=  0.0000
     atom  51 (R=0.043)  charge=  1.8177  magn= -0.0000
     atom  52 (R=0.043)  charge=  1.8174  magn= -0.0000
     atom  53 (R=0.043)  charge=  1.8169  magn= -0.0001
     atom  54 (R=0.043)  charge=  1.8199  magn=  0.0029
     atom  55 (R=0.043)  charge=  1.8162  magn=  0.0001
     atom  56 (R=0.043)  charge=  1.8175  magn=  0.0000
     atom  57 (R=0.043)  charge=  1.8199  magn=  0.0029
     atom  58 (R=0.043)  charge=  1.8200  magn= -0.0005
     atom  59 (R=0.043)  charge=  1.8213  magn=  0.0001
     atom  60 (R=0.043)  charge=  1.8177  magn= -0.0000
     atom  61 (R=0.043)  charge=  1.8162  magn=  0.0001
     atom  62 (R=0.043)  charge=  1.8213  magn=  0.0001
     atom  63 (R=0.043)  charge=  1.8176  magn= -0.0000
     atom  64 (R=0.043)  charge=  1.8173  magn= -0.0000
     atom  65 (R=0.043)  charge=  1.8177  magn= -0.0000
     atom  66 (R=0.043)  charge=  1.8171  magn= -0.0000
     atom  67 (R=0.043)  charge=  1.8172  magn= -0.0000
     atom  68 (R=0.043)  charge=  1.8177  magn= -0.0000
     atom  69 (R=0.043)  charge=  1.8172  magn=  0.0000
     atom  70 (R=0.043)  charge=  1.8173  magn=  0.0000
     atom  71 (R=0.043)  charge=  1.8175  magn= -0.0000
     atom  72 (R=0.043)  charge=  1.8171  magn= -0.0000
     atom  73 (R=0.043)  charge=  1.8173  magn=  0.0000
     atom  74 (R=0.043)  charge=  1.8174  magn= -0.0000
     atom  75 (R=0.043)  charge=  1.8177  magn= -0.0000
     atom  76 (R=0.043)  charge=  1.8172  magn= -0.0000
     atom  77 (R=0.043)  charge=  1.8175  magn= -0.0000
     atom  78 (R=0.043)  charge=  1.8177  magn= -0.0000
     atom  79 (R=0.043)  charge=  1.8171  magn=  0.0000
     atom  80 (R=0.043)  charge=  1.8174  magn= -0.0000
     atom  81 (R=0.043)  charge=  1.8175  magn=  0.0000
     atom  82 (R=0.043)  charge=  1.8174  magn= -0.0001
     atom  83 (R=0.043)  charge=  1.8173  magn= -0.0000
     atom  84 (R=0.043)  charge=  1.8175  magn=  0.0000
     atom  85 (R=0.043)  charge=  1.8153  magn= -0.0004
     atom  86 (R=0.043)  charge=  1.8159  magn= -0.0011
     atom  87 (R=0.043)  charge=  1.8176  magn= -0.0001
     atom  88 (R=0.043)  charge=  1.8174  magn= -0.0001
     atom  89 (R=0.043)  charge=  1.8159  magn= -0.0011
     atom  90 (R=0.043)  charge=  1.8147  magn= -0.0007
     atom  91 (R=0.043)  charge=  1.8161  magn= -0.0000
     atom  92 (R=0.043)  charge=  1.8173  magn= -0.0000
     atom  93 (R=0.043)  charge=  1.8176  magn= -0.0001
     atom  94 (R=0.043)  charge=  1.8161  magn= -0.0000
     atom  95 (R=0.043)  charge=  1.8171  magn=  0.0000
     atom  96 (R=0.043)  charge=  1.8187  magn=  0.0004
     atom  97 (R=0.043)  charge=  1.8172  magn= -0.0001
     atom  98 (R=0.043)  charge=  1.8173  magn= -0.0001
     atom  99 (R=0.043)  charge=  1.8188  magn=  0.0005
     atom 100 (R=0.043)  charge=  1.8172  magn= -0.0001
     atom 101 (R=0.043)  charge=  1.8228  magn= -0.0083
     atom 102 (R=0.043)  charge=  1.8228  magn= -0.0044
     atom 103 (R=0.043)  charge=  1.8175  magn= -0.0000
     atom 104 (R=0.043)  charge=  1.8173  magn= -0.0001
     atom 105 (R=0.043)  charge=  1.8228  magn= -0.0044
     atom 106 (R=0.043)  charge=  1.7944  magn=  0.0008
     atom 107 (R=0.043)  charge=  1.8176  magn= -0.0000
     atom 108 (R=0.043)  charge=  1.8188  magn=  0.0005
     atom 109 (R=0.043)  charge=  1.8175  magn= -0.0000
     atom 110 (R=0.043)  charge=  1.8176  magn= -0.0000
     atom 111 (R=0.043)  charge=  1.8187  magn=  0.0000
     atom 112 (R=0.043)  charge=  1.8172  magn= -0.0000
     atom 113 (R=0.043)  charge=  1.8174  magn= -0.0001
     atom 114 (R=0.043)  charge=  1.8172  magn= -0.0000
     atom 115 (R=0.043)  charge=  1.8170  magn=  0.0000
     atom 116 (R=0.043)  charge=  1.8174  magn= -0.0001
     atom 117 (R=0.043)  charge=  1.8163  magn= -0.0011
     atom 118 (R=0.043)  charge=  1.8124  magn= -0.0002
     atom 119 (R=0.043)  charge=  1.8171  magn=  0.0000
     atom 120 (R=0.043)  charge=  1.8172  magn= -0.0000
     atom 121 (R=0.043)  charge=  1.8124  magn= -0.0002
     atom 122 (R=0.043)  charge=  1.8183  magn= -0.0000
     atom 123 (R=0.043)  charge=  1.8182  magn= -0.0000
     atom 124 (R=0.043)  charge=  1.8170  magn=  0.0000
     atom 125 (R=0.043)  charge=  1.8171  magn=  0.0000
     atom 126 (R=0.043)  charge=  1.8182  magn= -0.0000
     atom 127 (R=0.043)  charge=  1.8176  magn=  0.0000
     atom 128 (R=0.043)  charge=  1.8173  magn= -0.0000
     atom 129 (R=0.043)  charge=  1.8177  magn= -0.0000
     atom 130 (R=0.043)  charge=  1.8171  magn= -0.0000
     atom 131 (R=0.043)  charge=  1.8171  magn= -0.0000
     atom 132 (R=0.043)  charge=  1.8174  magn= -0.0000
     atom 133 (R=0.043)  charge=  1.8173  magn=  0.0000
     atom 134 (R=0.043)  charge=  1.8173  magn= -0.0001
     atom 135 (R=0.043)  charge=  1.8173  magn= -0.0000
     atom 136 (R=0.043)  charge=  1.8189  magn=  0.0004
     atom 137 (R=0.043)  charge=  1.8172  magn= -0.0001
     atom 138 (R=0.043)  charge=  1.8172  magn= -0.0001
     atom 139 (R=0.043)  charge=  1.8185  magn=  0.0005
     atom 140 (R=0.043)  charge=  1.8172  magn= -0.0000
     atom 141 (R=0.043)  charge=  1.8174  magn= -0.0001
     atom 142 (R=0.043)  charge=  1.8170  magn= -0.0000
     atom 143 (R=0.043)  charge=  1.8169  magn=  0.0000
     atom 144 (R=0.043)  charge=  1.8178  magn= -0.0000
     atom 145 (R=0.043)  charge=  1.8173  magn=  0.0000
     atom 146 (R=0.043)  charge=  1.8174  magn=  0.0000
     atom 147 (R=0.043)  charge=  1.8176  magn= -0.0000
     atom 148 (R=0.043)  charge=  1.8175  magn=  0.0000
     atom 149 (R=0.043)  charge=  1.8160  magn= -0.0004
     atom 150 (R=0.043)  charge=  1.8160  magn= -0.0011
     atom 151 (R=0.043)  charge=  1.8176  magn= -0.0001
     atom 152 (R=0.043)  charge=  1.8173  magn= -0.0001
     atom 153 (R=0.043)  charge=  1.8232  magn= -0.0082
     atom 154 (R=0.043)  charge=  1.8204  magn= -0.0044
     atom 155 (R=0.043)  charge=  1.8175  magn= -0.0000
     atom 156 (R=0.043)  charge=  1.8175  magn= -0.0001
     atom 157 (R=0.043)  charge=  1.8166  magn= -0.0011
     atom 158 (R=0.043)  charge=  1.8124  magn= -0.0002
     atom 159 (R=0.043)  charge=  1.8170  magn=  0.0000
     atom 160 (R=0.043)  charge=  1.8172  magn= -0.0000
     atom 161 (R=0.043)  charge=  1.8174  magn=  0.0000
     atom 162 (R=0.043)  charge=  1.8175  magn= -0.0000
     atom 163 (R=0.043)  charge=  1.8179  magn= -0.0000
     atom 164 (R=0.043)  charge=  1.8173  magn= -0.0001
     atom 165 (R=0.043)  charge=  1.8159  magn= -0.0011
     atom 166 (R=0.043)  charge=  1.8155  magn= -0.0007
     atom 167 (R=0.043)  charge=  1.8163  magn= -0.0000
     atom 168 (R=0.043)  charge=  1.8172  magn= -0.0001
     atom 169 (R=0.043)  charge=  1.8195  magn= -0.0044
     atom 170 (R=0.043)  charge=  1.7945  magn=  0.0008
     atom 171 (R=0.043)  charge=  1.8176  magn= -0.0000
     atom 172 (R=0.043)  charge=  1.8173  magn= -0.0000
     atom 173 (R=0.043)  charge=  1.8124  magn= -0.0002
     atom 174 (R=0.043)  charge=  1.8185  magn= -0.0000
     atom 175 (R=0.043)  charge=  1.8182  magn= -0.0000
     atom 176 (R=0.043)  charge=  1.8172  magn= -0.0000
     atom 177 (R=0.043)  charge=  1.8175  magn= -0.0000
     atom 178 (R=0.043)  charge=  1.8177  magn=  0.0000
     atom 179 (R=0.043)  charge=  1.8171  magn=  0.0000
     atom 180 (R=0.043)  charge=  1.8173  magn= -0.0000
     atom 181 (R=0.043)  charge=  1.8174  magn= -0.0001
     atom 182 (R=0.043)  charge=  1.8161  magn= -0.0000
     atom 183 (R=0.043)  charge=  1.8171  magn=  0.0000
     atom 184 (R=0.043)  charge=  1.8183  magn=  0.0005
     atom 185 (R=0.043)  charge=  1.8173  magn= -0.0000
     atom 186 (R=0.043)  charge=  1.8175  magn= -0.0000
     atom 187 (R=0.043)  charge=  1.8187  magn=  0.0000
     atom 188 (R=0.043)  charge=  1.8170  magn=  0.0000
     atom 189 (R=0.043)  charge=  1.8170  magn=  0.0000
     atom 190 (R=0.043)  charge=  1.8181  magn= -0.0000
     atom 191 (R=0.043)  charge=  1.8175  magn=  0.0000
     atom 192 (R=0.043)  charge=  1.8173  magn= -0.0000
     atom 193 (R=0.043)  charge=  1.8174  magn= -0.0000
     atom 194 (R=0.043)  charge=  1.8189  magn=  0.0004
     atom 195 (R=0.043)  charge=  1.8172  magn= -0.0000
     atom 196 (R=0.043)  charge=  1.8177  magn= -0.0000
     atom 197 (R=0.043)  charge=  1.8173  magn=  0.0000
     atom 198 (R=0.043)  charge=  1.8172  magn= -0.0001
     atom 199 (R=0.043)  charge=  1.8174  magn= -0.0001
     atom 200 (R=0.043)  charge=  1.8171  magn= -0.0000
     atom 201 (R=0.043)  charge=  1.8173  magn= -0.0001
     atom 202 (R=0.043)  charge=  1.8172  magn= -0.0001
     atom 203 (R=0.043)  charge=  1.8170  magn= -0.0000
     atom 204 (R=0.043)  charge=  1.8171  magn= -0.0000
     atom 205 (R=0.043)  charge=  1.8173  magn= -0.0000
     atom 206 (R=0.043)  charge=  1.8185  magn=  0.0005
     atom 207 (R=0.043)  charge=  1.8169  magn=  0.0000
     atom 208 (R=0.043)  charge=  1.8178  magn= -0.0000
     atom 209 (R=0.043)  charge=  1.8175  magn=  0.0000
     atom 210 (R=0.043)  charge=  1.8173  magn= -0.0001
     atom 211 (R=0.043)  charge=  1.8175  magn= -0.0001
     atom 212 (R=0.043)  charge=  1.8173  magn=  0.0000
     atom 213 (R=0.043)  charge=  1.8160  magn= -0.0004
     atom 214 (R=0.043)  charge=  1.8232  magn= -0.0082
     atom 215 (R=0.043)  charge=  1.8166  magn= -0.0011
     atom 216 (R=0.043)  charge=  1.8174  magn=  0.0000
     atom 217 (R=0.043)  charge=  1.8160  magn= -0.0011
     atom 218 (R=0.043)  charge=  1.8204  magn= -0.0044
     atom 219 (R=0.043)  charge=  1.8124  magn= -0.0002
     atom 220 (R=0.043)  charge=  1.8176  magn= -0.0000
     atom 221 (R=0.043)  charge=  1.8176  magn= -0.0001
     atom 222 (R=0.043)  charge=  1.8175  magn= -0.0000
     atom 223 (R=0.043)  charge=  1.8170  magn=  0.0000
     atom 224 (R=0.043)  charge=  1.8172  magn= -0.0000
     atom 225 (R=0.043)  charge=  1.8173  magn= -0.0001
     atom 226 (R=0.043)  charge=  1.8172  magn= -0.0001
     atom 227 (R=0.043)  charge=  1.8173  magn= -0.0000
     atom 228 (R=0.043)  charge=  1.8174  magn=  0.0000
     atom 229 (R=0.043)  charge=  1.8159  magn= -0.0011
     atom 230 (R=0.043)  charge=  1.8195  magn= -0.0044
     atom 231 (R=0.043)  charge=  1.8124  magn= -0.0002
     atom 232 (R=0.043)  charge=  1.8175  magn= -0.0000
     atom 233 (R=0.043)  charge=  1.8155  magn= -0.0007
     atom 234 (R=0.043)  charge=  1.7945  magn=  0.0008
     atom 235 (R=0.043)  charge=  1.8185  magn= -0.0000
     atom 236 (R=0.043)  charge=  1.8179  magn= -0.0000
     atom 237 (R=0.043)  charge=  1.8163  magn= -0.0000
     atom 238 (R=0.043)  charge=  1.8176  magn= -0.0000
     atom 239 (R=0.043)  charge=  1.8182  magn= -0.0000
     atom 240 (R=0.043)  charge=  1.8172  magn= -0.0000
     atom 241 (R=0.043)  charge=  1.8173  magn= -0.0000
     atom 242 (R=0.043)  charge=  1.8183  magn=  0.0005
     atom 243 (R=0.043)  charge=  1.8170  magn=  0.0000
     atom 244 (R=0.043)  charge=  1.8175  magn= -0.0000
     atom 245 (R=0.043)  charge=  1.8174  magn= -0.0001
     atom 246 (R=0.043)  charge=  1.8173  magn= -0.0000
     atom 247 (R=0.043)  charge=  1.8170  magn=  0.0000
     atom 248 (R=0.043)  charge=  1.8177  magn=  0.0000
     atom 249 (R=0.043)  charge=  1.8161  magn= -0.0000
     atom 250 (R=0.043)  charge=  1.8175  magn= -0.0000
     atom 251 (R=0.043)  charge=  1.8181  magn= -0.0000
     atom 252 (R=0.043)  charge=  1.8171  magn=  0.0000
     atom 253 (R=0.043)  charge=  1.8171  magn=  0.0000
     atom 254 (R=0.043)  charge=  1.8187  magn=  0.0000
     atom 255 (R=0.043)  charge=  1.8175  magn=  0.0000
     atom 256 (R=0.043)  charge=  1.8175  magn=  0.0000
     atom 257 (R=0.043)  charge=  1.8171  magn=  0.0000
     atom 258 (R=0.043)  charge=  1.8178  magn=  0.0001
     atom 259 (R=0.043)  charge=  1.8175  magn=  0.0001
     atom 260 (R=0.043)  charge=  1.8170  magn=  0.0000
     atom 261 (R=0.043)  charge=  1.8165  magn=  0.0001
     atom 262 (R=0.043)  charge=  1.8172  magn=  0.0011
     atom 263 (R=0.043)  charge=  1.8177  magn=  0.0001
     atom 264 (R=0.043)  charge=  1.8194  magn=  0.0012
     atom 265 (R=0.043)  charge=  1.8169  magn=  0.0014
     atom 266 (R=0.043)  charge=  1.8162  magn=  0.0000
     atom 267 (R=0.043)  charge=  1.8165  magn=  0.0000
     atom 268 (R=0.043)  charge=  1.8174  magn=  0.0003
     atom 269 (R=0.043)  charge=  1.8184  magn=  0.0014
     atom 270 (R=0.043)  charge=  1.8170  magn=  0.0000
     atom 271 (R=0.043)  charge=  1.8176  magn=  0.0000
     atom 272 (R=0.043)  charge=  1.8171  magn=  0.0000
     atom 273 (R=0.043)  charge=  1.8173  magn=  0.0003
     atom 274 (R=0.043)  charge=  1.8173  magn=  0.0001
     atom 275 (R=0.043)  charge=  1.8181  magn=  0.0002
     atom 276 (R=0.043)  charge=  1.8168  magn=  0.0001
     atom 277 (R=0.043)  charge=  1.8167  magn=  0.0069
     atom 278 (R=0.043)  charge=  1.8163  magn=  0.0178
     atom 279 (R=0.043)  charge=  1.8170  magn=  0.0001
     atom 280 (R=0.043)  charge=  1.8173  magn=  0.0014
     atom 281 (R=0.043)  charge=  1.8144  magn=  0.0039
     atom 282 (R=0.043)  charge=  1.8172  magn=  0.0002
     atom 283 (R=0.043)  charge=  1.8190  magn=  0.0014
     atom 284 (R=0.043)  charge=  1.8173  magn=  0.0006
     atom 285 (R=0.043)  charge=  1.8166  magn=  0.0001
     atom 286 (R=0.043)  charge=  1.8170  magn=  0.0000
     atom 287 (R=0.043)  charge=  1.8177  magn=  0.0001
     atom 288 (R=0.043)  charge=  1.8172  magn=  0.0001
     atom 289 (R=0.043)  charge=  1.8175  magn=  0.0000
     atom 290 (R=0.043)  charge=  1.8175  magn=  0.0000
     atom 291 (R=0.043)  charge=  1.8172  magn=  0.0011
     atom 292 (R=0.043)  charge=  1.8142  magn=  0.0176
     atom 293 (R=0.043)  charge=  1.8176  magn=  0.0003
     atom 294 (R=0.043)  charge=  1.8174  magn=  0.0000
     atom 295 (R=0.043)  charge=  1.8166  magn=  0.0000
     atom 296 (R=0.043)  charge=  1.8144  magn=  0.0038
     atom 297 (R=0.043)  charge=  1.8255  magn=  0.0001
     atom 298 (R=0.043)  charge=  1.8173  magn=  0.0001
     atom 299 (R=0.043)  charge=  1.8170  magn=  0.0000
     atom 300 (R=0.043)  charge=  1.8167  magn=  0.0001
     atom 301 (R=0.043)  charge=  1.8192  magn=  0.0000
     atom 302 (R=0.043)  charge=  1.8182  magn=  0.0000
     atom 303 (R=0.043)  charge=  1.8174  magn=  0.0001
     atom 304 (R=0.043)  charge=  1.8177  magn=  0.0002
     atom 305 (R=0.043)  charge=  1.8175  magn=  0.0000
     atom 306 (R=0.043)  charge=  1.8176  magn=  0.0000
     atom 307 (R=0.043)  charge=  1.8176  magn=  0.0001
     atom 308 (R=0.043)  charge=  1.8169  magn=  0.0001
     atom 309 (R=0.043)  charge=  1.8174  magn=  0.0000
     atom 310 (R=0.043)  charge=  1.8174  magn=  0.0000
     atom 311 (R=0.043)  charge=  1.8164  magn=  0.0000
     atom 312 (R=0.043)  charge=  1.8171  magn=  0.0002
     atom 313 (R=0.043)  charge=  1.8172  magn=  0.0001
     atom 314 (R=0.043)  charge=  1.8180  magn=  0.0000
     atom 315 (R=0.043)  charge=  1.8176  magn=  0.0000
     atom 316 (R=0.043)  charge=  1.8170  magn=  0.0000
     atom 317 (R=0.043)  charge=  1.8182  magn=  0.0000
     atom 318 (R=0.043)  charge=  1.8177  magn=  0.0000
     atom 319 (R=0.043)  charge=  1.8175  magn=  0.0000
     atom 320 (R=0.043)  charge=  1.8174  magn=  0.0000
     atom 321 (R=0.043)  charge=  1.8178  magn=  0.0001
     atom 322 (R=0.043)  charge=  1.8176  magn=  0.0000
     atom 323 (R=0.043)  charge=  1.8174  magn=  0.0000
     atom 324 (R=0.043)  charge=  1.8173  magn= -0.0000
     atom 325 (R=0.043)  charge=  1.8171  magn=  0.0001
     atom 326 (R=0.043)  charge=  1.8176  magn=  0.0001
     atom 327 (R=0.043)  charge=  1.8178  magn=  0.0001
     atom 328 (R=0.043)  charge=  1.8171  magn=  0.0001
     atom 329 (R=0.043)  charge=  1.8171  magn=  0.0003
     atom 330 (R=0.043)  charge=  1.8170  magn= -0.0000
     atom 331 (R=0.043)  charge=  1.8176  magn=  0.0000
     atom 332 (R=0.043)  charge=  1.8176  magn=  0.0001
     atom 333 (R=0.043)  charge=  1.8170  magn= -0.0000
     atom 334 (R=0.043)  charge=  1.8176  magn=  0.0000
     atom 335 (R=0.043)  charge=  1.8175  magn=  0.0000
     atom 336 (R=0.043)  charge=  1.8174  magn= -0.0000
     atom 337 (R=0.043)  charge=  1.8173  magn=  0.0001
     atom 338 (R=0.043)  charge=  1.8177  magn=  0.0001
     atom 339 (R=0.043)  charge=  1.8174  magn= -0.0000
     atom 340 (R=0.043)  charge=  1.8169  magn=  0.0003
     atom 341 (R=0.043)  charge=  1.8176  magn=  0.0164
     atom 342 (R=0.043)  charge=  1.8174  magn=  0.0010
     atom 343 (R=0.043)  charge=  1.8173  magn=  0.0001
     atom 344 (R=0.043)  charge=  1.8176  magn=  0.0164
     atom 345 (R=0.043)  charge=  1.8164  magn=  0.0057
     atom 346 (R=0.043)  charge=  1.8147  magn=  0.0001
     atom 347 (R=0.043)  charge=  1.8177  magn=  0.0001
     atom 348 (R=0.043)  charge=  1.8174  magn=  0.0010
     atom 349 (R=0.043)  charge=  1.8148  magn=  0.0001
     atom 350 (R=0.043)  charge=  1.8172  magn=  0.0000
     atom 351 (R=0.043)  charge=  1.8178  magn=  0.0001
     atom 352 (R=0.043)  charge=  1.8173  magn=  0.0001
     atom 353 (R=0.043)  charge=  1.8173  magn=  0.0003
     atom 354 (R=0.043)  charge=  1.8172  magn= -0.0000
     atom 355 (R=0.043)  charge=  1.8173  magn=  0.0001
     atom 356 (R=0.043)  charge=  1.8172  magn=  0.0164
     atom 357 (R=0.043)  charge=  1.8170  magn=  0.0058
     atom 358 (R=0.043)  charge=  1.8148  magn=  0.0001
     atom 359 (R=0.043)  charge=  1.8173  magn=  0.0003
     atom 360 (R=0.043)  charge=  1.8170  magn=  0.0058
     atom 361 (R=0.043)  charge=  1.8172  magn=  0.0005
     atom 362 (R=0.043)  charge=  1.8172  magn= -0.0000
     atom 363 (R=0.043)  charge=  1.8148  magn=  0.0001
     atom 364 (R=0.043)  charge=  1.8172  magn=  0.0005
     atom 365 (R=0.043)  charge=  1.8190  magn=  0.0000
     atom 366 (R=0.043)  charge=  1.8175  magn=  0.0000
     atom 367 (R=0.043)  charge=  1.8176  magn=  0.0001
     atom 368 (R=0.043)  charge=  1.8171  magn= -0.0000
     atom 369 (R=0.043)  charge=  1.8176  magn=  0.0000
     atom 370 (R=0.043)  charge=  1.8176  magn=  0.0001
     atom 371 (R=0.043)  charge=  1.8171  magn=  0.0010
     atom 372 (R=0.043)  charge=  1.8147  magn=  0.0001
     atom 373 (R=0.043)  charge=  1.8172  magn=  0.0000
     atom 374 (R=0.043)  charge=  1.8171  magn= -0.0000
     atom 375 (R=0.043)  charge=  1.8148  magn=  0.0001
     atom 376 (R=0.043)  charge=  1.8171  magn=  0.0005
     atom 377 (R=0.043)  charge=  1.8191  magn=  0.0000
     atom 378 (R=0.043)  charge=  1.8176  magn=  0.0000
     atom 379 (R=0.043)  charge=  1.8172  magn=  0.0000
     atom 380 (R=0.043)  charge=  1.8191  magn=  0.0000
     atom 381 (R=0.043)  charge=  1.8182  magn= -0.0000
     atom 382 (R=0.043)  charge=  1.8174  magn=  0.0000
     atom 383 (R=0.043)  charge=  1.8170  magn=  0.0000
     atom 384 (R=0.043)  charge=  1.8177  magn=  0.0001
     atom 385 (R=0.043)  charge=  1.8175  magn=  0.0001
     atom 386 (R=0.043)  charge=  1.8170  magn=  0.0000
     atom 387 (R=0.043)  charge=  1.8171  magn=  0.0003
     atom 388 (R=0.043)  charge=  1.8171  magn=  0.0001
     atom 389 (R=0.043)  charge=  1.8178  magn=  0.0002
     atom 390 (R=0.043)  charge=  1.8177  magn=  0.0001
     atom 391 (R=0.043)  charge=  1.8171  magn=  0.0001
     atom 392 (R=0.043)  charge=  1.8174  magn=  0.0000
     atom 393 (R=0.043)  charge=  1.8175  magn=  0.0000
     atom 394 (R=0.043)  charge=  1.8175  magn=  0.0001
     atom 395 (R=0.043)  charge=  1.8178  magn=  0.0002
     atom 396 (R=0.043)  charge=  1.8175  magn=  0.0000
     atom 397 (R=0.043)  charge=  1.8177  magn=  0.0000
     atom 398 (R=0.043)  charge=  1.8170  magn=  0.0000
     atom 399 (R=0.043)  charge=  1.8169  magn=  0.0001
     atom 400 (R=0.043)  charge=  1.8175  magn=  0.0011
     atom 401 (R=0.043)  charge=  1.8178  magn=  0.0001
     atom 402 (R=0.043)  charge=  1.8169  magn=  0.0001
     atom 403 (R=0.043)  charge=  1.8152  magn=  0.0068
     atom 404 (R=0.043)  charge=  1.8143  magn=  0.0177
     atom 405 (R=0.043)  charge=  1.8170  magn=  0.0001
     atom 406 (R=0.043)  charge=  1.8175  magn=  0.0011
     atom 407 (R=0.043)  charge=  1.8143  magn=  0.0177
     atom 408 (R=0.043)  charge=  1.8176  magn=  0.0003
     atom 409 (R=0.043)  charge=  1.8174  magn=  0.0000
     atom 410 (R=0.043)  charge=  1.8178  magn=  0.0001
     atom 411 (R=0.043)  charge=  1.8170  magn=  0.0001
     atom 412 (R=0.043)  charge=  1.8174  magn=  0.0000
     atom 413 (R=0.043)  charge=  1.8175  magn=  0.0000
     atom 414 (R=0.043)  charge=  1.8190  magn=  0.0012
     atom 415 (R=0.043)  charge=  1.8172  magn=  0.0014
     atom 416 (R=0.043)  charge=  1.8166  magn=  0.0000
     atom 417 (R=0.043)  charge=  1.8165  magn=  0.0000
     atom 418 (R=0.043)  charge=  1.8172  magn=  0.0014
     atom 419 (R=0.043)  charge=  1.8139  magn=  0.0039
     atom 420 (R=0.043)  charge=  1.8173  magn=  0.0002
     atom 421 (R=0.043)  charge=  1.8166  magn=  0.0000
     atom 422 (R=0.043)  charge=  1.8139  magn=  0.0039
     atom 423 (R=0.043)  charge=  1.8251  magn=  0.0000
     atom 424 (R=0.043)  charge=  1.8173  magn=  0.0001
     atom 425 (R=0.043)  charge=  1.8165  magn=  0.0000
     atom 426 (R=0.043)  charge=  1.8173  magn=  0.0002
     atom 427 (R=0.043)  charge=  1.8173  magn=  0.0001
     atom 428 (R=0.043)  charge=  1.8180  magn=  0.0000
     atom 429 (R=0.043)  charge=  1.8173  magn=  0.0003
     atom 430 (R=0.043)  charge=  1.8181  magn=  0.0014
     atom 431 (R=0.043)  charge=  1.8170  magn=  0.0000
     atom 432 (R=0.043)  charge=  1.8176  magn=  0.0000
     atom 433 (R=0.043)  charge=  1.8181  magn=  0.0014
     atom 434 (R=0.043)  charge=  1.8172  magn=  0.0006
     atom 435 (R=0.043)  charge=  1.8166  magn=  0.0001
     atom 436 (R=0.043)  charge=  1.8170  magn=  0.0000
     atom 437 (R=0.043)  charge=  1.8170  magn=  0.0000
     atom 438 (R=0.043)  charge=  1.8167  magn=  0.0001
     atom 439 (R=0.043)  charge=  1.8192  magn=  0.0000
     atom 440 (R=0.043)  charge=  1.8182  magn=  0.0000
     atom 441 (R=0.043)  charge=  1.8176  magn=  0.0000
     atom 442 (R=0.043)  charge=  1.8170  magn=  0.0000
     atom 443 (R=0.043)  charge=  1.8182  magn=  0.0000
     atom 444 (R=0.043)  charge=  1.8177  magn=  0.0000
     atom 445 (R=0.043)  charge=  1.8175  magn=  0.0000
     atom 446 (R=0.043)  charge=  1.8170  magn=  0.0000
     atom 447 (R=0.043)  charge=  1.8194  magn=  0.0012
     atom 448 (R=0.043)  charge=  1.8174  magn=  0.0003
     atom 449 (R=0.043)  charge=  1.8171  magn=  0.0000
     atom 450 (R=0.043)  charge=  1.8165  magn=  0.0001
     atom 451 (R=0.043)  charge=  1.8169  magn=  0.0014
     atom 452 (R=0.043)  charge=  1.8184  magn=  0.0014
     atom 453 (R=0.043)  charge=  1.8178  magn=  0.0001
     atom 454 (R=0.043)  charge=  1.8172  magn=  0.0011
     atom 455 (R=0.043)  charge=  1.8162  magn=  0.0000
     atom 456 (R=0.043)  charge=  1.8170  magn=  0.0000
     atom 457 (R=0.043)  charge=  1.8175  magn=  0.0001
     atom 458 (R=0.043)  charge=  1.8177  magn=  0.0001
     atom 459 (R=0.043)  charge=  1.8165  magn=  0.0000
     atom 460 (R=0.043)  charge=  1.8176  magn=  0.0000
     atom 461 (R=0.043)  charge=  1.8171  magn=  0.0000
     atom 462 (R=0.043)  charge=  1.8168  magn=  0.0001
     atom 463 (R=0.043)  charge=  1.8173  magn=  0.0014
     atom 464 (R=0.043)  charge=  1.8190  magn=  0.0014
     atom 465 (R=0.043)  charge=  1.8173  magn=  0.0003
     atom 466 (R=0.043)  charge=  1.8167  magn=  0.0069
     atom 467 (R=0.043)  charge=  1.8173  magn=  0.0006
     atom 468 (R=0.043)  charge=  1.8173  magn=  0.0001
     atom 469 (R=0.043)  charge=  1.8163  magn=  0.0178
     atom 470 (R=0.043)  charge=  1.8145  magn=  0.0039
     atom 471 (R=0.043)  charge=  1.8166  magn=  0.0001
     atom 472 (R=0.043)  charge=  1.8181  magn=  0.0002
     atom 473 (R=0.043)  charge=  1.8170  magn=  0.0001
     atom 474 (R=0.043)  charge=  1.8172  magn=  0.0002
     atom 475 (R=0.043)  charge=  1.8170  magn=  0.0000
     atom 476 (R=0.043)  charge=  1.8177  magn=  0.0001
     atom 477 (R=0.043)  charge=  1.8172  magn=  0.0011
     atom 478 (R=0.043)  charge=  1.8166  magn=  0.0000
     atom 479 (R=0.043)  charge=  1.8170  magn=  0.0000
     atom 480 (R=0.043)  charge=  1.8172  magn=  0.0001
     atom 481 (R=0.043)  charge=  1.8142  magn=  0.0176
     atom 482 (R=0.043)  charge=  1.8144  magn=  0.0038
     atom 483 (R=0.043)  charge=  1.8167  magn=  0.0001
     atom 484 (R=0.043)  charge=  1.8175  magn=  0.0000
     atom 485 (R=0.043)  charge=  1.8176  magn=  0.0003
     atom 486 (R=0.043)  charge=  1.8255  magn=  0.0001
     atom 487 (R=0.043)  charge=  1.8192  magn=  0.0000
     atom 488 (R=0.043)  charge=  1.8175  magn=  0.0000
     atom 489 (R=0.043)  charge=  1.8174  magn=  0.0000
     atom 490 (R=0.043)  charge=  1.8173  magn=  0.0001
     atom 491 (R=0.043)  charge=  1.8182  magn=  0.0000
     atom 492 (R=0.043)  charge=  1.8174  magn=  0.0001
     atom 493 (R=0.043)  charge=  1.8176  magn=  0.0001
     atom 494 (R=0.043)  charge=  1.8164  magn=  0.0000
     atom 495 (R=0.043)  charge=  1.8176  magn=  0.0000
     atom 496 (R=0.043)  charge=  1.8177  magn=  0.0002
     atom 497 (R=0.043)  charge=  1.8169  magn=  0.0001
     atom 498 (R=0.043)  charge=  1.8171  magn=  0.0002
     atom 499 (R=0.043)  charge=  1.8170  magn=  0.0000
     atom 500 (R=0.043)  charge=  1.8175  magn=  0.0000
     atom 501 (R=0.043)  charge=  1.8174  magn=  0.0000
     atom 502 (R=0.043)  charge=  1.8172  magn=  0.0001
     atom 503 (R=0.043)  charge=  1.8182  magn=  0.0000
     atom 504 (R=0.043)  charge=  1.8176  magn=  0.0000
     atom 505 (R=0.043)  charge=  1.8174  magn=  0.0000
     atom 506 (R=0.043)  charge=  1.8180  magn=  0.0000
     atom 507 (R=0.043)  charge=  1.8177  magn=  0.0000
     atom 508 (R=0.043)  charge=  1.8222  magn=  0.2517
     atom 509 (R=0.043)  charge=  1.8262  magn=  0.2501
     atom 510 (R=0.043)  charge=  1.8262  magn=  0.2501
     atom 511 (R=0.043)  charge=  2.9069  magn= -0.0010

     total cpu time spent up to now is      663.7 secs

     End of self-consistent calculation

 ------ SPIN UP ------------


          k = 0.0000 0.0000 0.0000 (118565 PWs)   bands (ev):

    -8.1978  -7.6636  -7.6370  -7.6370  -7.6142  -7.6128  -7.5586  -7.1702
    -7.0675  -7.0667  -7.0613  -7.0604  -7.0601  -7.0419  -7.0412  -7.0364
    -7.0013  -6.9986  -6.9146  -6.5914  -6.4752  -6.4683  -6.4676  -6.4579
    -6.4485  -6.4468  -6.3738  -5.9946  -5.9116  -5.9111  -5.9026  -5.9020
    -5.8807  -5.6394  -5.3839  -5.3817  -5.3811  -5.3783  -5.3733  -5.3730
    -5.3697  -5.3691  -5.3617  -5.3605  -5.3578  -5.3571  -5.3525  -5.3513
    -5.3407  -5.3316  -5.3307  -5.3181  -5.3168  -5.3162  -5.2784  -5.2753
    -5.1904  -5.0036  -4.8239  -4.8237  -4.8196  -4.8160  -4.8158  -4.8156
    -4.8151  -4.8126  -4.8117  -4.8111  -4.8064  -4.8051  -4.8032  -4.8021
    -4.7943  -4.7933  -4.7717  -4.7532  -4.7523  -4.7267  -4.7093  -4.7047
    -4.4698  -3.8958  -3.7312  -3.7308  -3.7285  -3.7278  -3.7219  -3.7212
    -3.7198  -3.7126  -3.7088  -3.7081  -3.6662  -3.4865  -3.2653  -3.2651
    -3.2622  -3.2607  -3.2604  -3.2599  -3.2585  -3.2573  -3.2531  -3.2528
    -3.2459  -3.2440  -3.2435  -3.2433  -3.2421  -3.2292  -3.2186  -3.1978
    -3.1970  -3.1796  -3.1663  -3.1647  -3.1567  -3.1451  -3.1443  -3.1417
    -3.1339  -3.1326  -3.0113  -2.7852  -2.6580  -2.6576  -2.6574  -2.6563
    -2.6563  -2.6555  -2.6480  -2.6472  -2.6408  -2.6383  -2.6378  -2.6336
    -2.6324  -2.6314  -2.6304  -2.6302  -2.6266  -2.6118  -2.5920  -2.5914
    -2.5631  -2.5612  -2.4980  -2.4441  -2.3982  -2.3979  -2.3762  -2.2967
    -2.1917  -2.1913  -2.1772  -2.1749  -2.1747  -2.1744  -2.1739  -2.1716
    -2.1674  -2.1674  -2.1646  -2.1598  -2.1594  -2.1591  -2.1536  -2.1524
    -2.1522  -2.1343  -2.1340  -2.1252  -2.0831  -2.0796  -1.8442  -1.5825
    -1.4460  -1.4452  -1.4439  -1.4362  -1.4362  -1.4357  -1.4296  -1.4294
    -1.4289  -1.4263  -1.4250  -1.4248  -1.4126  -1.4117  -1.4024  -1.4005
    -1.3931  -1.3871  -1.3860  -1.3842  -1.3673  -1.3672  -1.3512  -1.3033
    -1.2522  -1.2505  -1.2504  -1.2474  -1.2468  -1.2436  -1.2395  -1.2390
    -1.2376  -1.2235  -1.2223  -1.2158  -1.2021  -1.2011  -1.1890  -1.1876
    -1.1832  -1.1563  -1.1521  -1.1437  -1.0771  -1.0727  -0.4527  -0.0884
    -0.0882  -0.0867  -0.0661   0.2132   0.2883   0.2887   0.3038   0.3049
     0.3055   0.3078   0.3081   0.3110   0.3206   0.3211   0.3849   0.4906
     0.4990   0.4994   0.5054   0.5063   0.5339   0.7549   0.8142   0.8148
     0.8217   0.8219   0.8228   0.8247   0.8259   0.8265   0.8431   0.8466
     0.8476   0.8492   0.8503   0.8509   0.8547   0.8556   0.8602   0.8650
     0.8711   0.8717   0.8835   0.8845   0.8848   0.8898   0.8922   0.8922
     0.8924   0.8969   0.8969   0.8981   0.8983   0.8986   0.9145   0.9154
     0.9194   0.9249   0.9253   0.9256   0.9301   0.9304   0.9308   0.9359
     0.9367   1.0033   1.0445   1.0464   1.1377   1.2430   1.2919   1.2921
     1.3127   1.3129   1.3149   1.3225   1.3236   1.3278   1.3402   1.3410
     1.4247   1.5124   1.5296   1.5303   1.5479   1.5485   1.5510   1.5544
     1.5671   1.5674   1.5916   1.5923   1.6737   1.6914   1.6982   1.6984
     1.7040   1.7048   1.7066   1.7097   1.7101   1.7103   1.7105   1.7165
     1.7237   1.7255   1.7265   1.7272   1.7275   1.7361   1.7462   1.7540
     1.7543   1.8643   1.9017   1.9042   2.2095   2.4284   2.4522   2.4528
     2.4800   2.4856   2.4857   2.4861   2.4867   2.4878   2.4879   2.4912
     2.4914   2.4914   2.4931   2.4934   2.4971   2.4978   2.4985   2.5031
     2.5031   2.5579   2.5723   2.5739   2.6691   2.8274   2.8278   2.8322
     2.8440   2.8440   2.8471   2.8501   2.8504   2.8506   2.8614   2.8615
     2.8679   2.8735   2.8822   2.8827   2.8834   2.8872   2.8884   2.8958
     2.9049   2.9055   3.0253   3.0279   3.6781   3.9212   3.9214   3.9462
     3.9467   3.9470   3.9474   3.9475   3.9535   3.9537   3.9647   3.9680
     3.9682   4.0825   4.1044   4.1053   4.1355   4.1356   4.1369   4.1397
     4.1401   4.1417   4.1424   4.1429   4.1433   4.1435   4.1438   4.1443
     4.1448   4.1489   4.1624   4.1627   4.1867   4.1974   4.2050   4.2058
     4.2141   4.2307   4.2308   4.2339   4.2364   4.2398   4.2398   4.2401
     4.2430   4.2434   4.2626   4.2628   4.2643   4.2659   4.2676   4.2689
     4.2711   4.2718   4.2762   4.2796   4.2857   4.2869   4.3325   4.3329
     4.3679   4.3681   4.3728   4.3768   4.3769   4.3782   4.3798   4.3801
     4.3823   4.3858   4.3909   4.3910   4.3912   4.4036   4.4040   4.4124
     4.4164   4.4165   4.4293   4.4356   4.4358   4.4837   4.5054   4.5058
     4.5065   4.5502   4.5507   4.5746   4.5783   4.5813   4.5817   4.5846
     4.5849   4.6131   4.6429   4.6433   4.6547   4.6894   4.7089   4.7098
     4.7883   4.7912   4.9253   4.9253   4.9463   4.9506   4.9509   4.9510
     4.9519   4.9634   4.9636   5.0359   5.0667   5.0698   5.5792   5.6300
     5.6303   5.6538   5.6615   5.6620   5.6659   5.6661   5.6664   5.7002
     5.7004   5.7043   5.8910   5.8983   5.8988   5.9161   5.9192   5.9194
     5.9218   5.9219   5.9222   5.9325   5.9380   5.9382   5.9446   5.9449
     5.9478   5.9514   5.9514   5.9573   5.9721   5.9726   5.9763   6.0034
     6.0075   6.0081   6.0670   6.1958   6.1965   6.2622   6.2624   6.2643
     6.2663   6.2667   6.2668   6.2683   6.2683   6.2702   6.2721   6.2757
     6.2761   6.2768   6.2865   6.2870   6.2953   6.2960   6.2982   6.3156
     6.3314   6.3320   6.3340   6.4770   6.4777   6.4856   6.5154   6.5158
     6.5163   6.5163   6.5190   6.5192   6.5196   6.5217   6.5220   6.5224
     6.5227   6.5247   6.5263   6.5291   6.5297   6.5362   6.5370   6.5742
     6.5799   6.5802   6.5858   6.6550   6.6558   6.6560   6.6653   6.6700
     6.6702   6.6711   6.6822   6.7112   6.7119   6.7272   6.7308   6.7313
     6.7319   6.7349   6.7402   6.7405   6.7425   6.7429   6.7431   6.7450
     6.7452   6.7703   6.7707   6.7772   6.7795   6.7811   6.7815   6.8091
     6.8531   6.8542   6.8992   6.8993   6.9020   6.9315   6.9321   6.9326
     6.9356   6.9404   6.9436   6.9441   6.9444   6.9462   6.9465   6.9480
     6.9549   6.9553   6.9602   6.9605   6.9624   6.9658   6.9683   6.9688
     6.9698   6.9705   6.9849   6.9957   6.9960   7.0776   7.1089   7.1110
     7.2628   7.2637   7.3023   7.3029   7.3031   7.3034   7.3047   7.3075
     7.3079   7.3083   7.3086   7.3088   7.3126   7.3127   7.3133   7.3190
     7.3247   7.3248   7.3278   7.3519   7.3522   7.3762   7.3763   7.3798
     7.4901   7.4906   7.5218   7.5251   7.5261   7.5266   7.5401   7.5405
     7.5617   7.5857   7.5880   7.5885   7.6601   7.6882   7.6886   7.7362
     7.7403   7.7404   7.7406   7.7426   7.7429   7.7434   7.7493   7.7498
     7.7525   7.7532   7.7543   7.7580   7.7612   7.7616   7.7640   7.7650
     7.7652   7.7660   7.7667   7.7667   7.7705   7.7709   7.7715   7.7720
     7.7728   7.7759   7.7774   7.7781   7.7785   7.7792   7.7798   7.7801
     7.7815   7.7836   7.7841   7.7880   7.7980   7.7996   7.8054   7.8204
     7.8210   7.8513   7.8521   7.8649   7.8869   7.8872   7.9008   7.9159
     7.9165   7.9266   7.9385   7.9389   7.9397   8.0946   8.1021   8.1032
     8.3064   8.3068   8.3577   8.3581   8.3595   8.3641   8.3643   8.3645
     8.3674   8.3689   8.3691   8.3707   8.3736   8.3740   8.3743   8.3808
     8.3810   8.3867   8.3980   8.3993   8.4112   8.4142   8.4198   8.4201
     8.4353   8.5162   8.5165   8.5484   8.5520   8.5521   8.5528   8.5540
     8.5541   8.5562   8.5598   8.5630   8.5635   8.5660   8.5662   8.5821
     8.5823   8.5903   8.5956   8.6011   8.6019   8.6077   8.6296   8.6299
     8.6313   8.6507   8.6588   8.6589   8.6599   8.6629   8.6630   8.6762
     8.6799   8.6802   8.6902   8.6902   8.6910   8.6932   8.6950   8.6974
     8.7139   8.7160   8.7200   8.7240   8.7251   8.7372   8.7439   8.7449
     8.7546   8.7589   8.7603   9.0042   9.0319   9.0327   9.1114   9.1117
     9.1325   9.1337   9.1350   9.1351   9.1374   9.1380   9.1439   9.1694
     9.1903   9.2013   9.2018   9.2530   9.2535   9.2604   9.2607   9.2689
     9.2755   9.2760   9.2864   9.4235   9.4484   9.4500   9.6654   9.6659
     9.7101   9.7111   9.7115   9.7116   9.7144   9.7167   9.7194   9.7194
     9.7316   9.7318   9.7335   9.7349   9.7352   9.7427   9.7429   9.7469
     9.7589   9.7599   9.7649   9.8040   9.8425   9.8428   9.8478   9.9760
     9.9766   9.9903   9.9948   9.9949  10.0011  10.0016  10.0017  10.0057
    10.0184  10.0190  10.0192  10.0258  10.0291  10.0294  10.0367  10.0369
    10.0374  10.0395  10.0395  10.0430  10.0443  10.0445  10.0454  10.0459
    10.0471  10.0487  10.0490  10.0501  10.0607  10.0617  10.0626  10.1422
    10.1426  10.1527  10.1982  10.1987  10.2018  10.2021  10.2022  10.2023
    10.2033  10.2042  10.2045  10.2055  10.2058  10.2069  10.2770  10.2826
    10.2831  10.3099  10.3109  10.3123  10.3124  10.3188  10.3188  10.3217
    10.3217  10.3224  10.3247  10.3252  10.3285  10.3286  10.3298  10.3302
    10.3332  10.3341  10.3342  10.3362  10.3364  10.3370  10.3420  10.3425
    10.3431  10.3484  10.3492  10.3513  10.3580  10.3584  10.3587  10.3716
    10.3725  10.3790  10.3949  10.3959  10.4125  10.4224  10.4234  10.4251
    10.4503  10.4518  10.4565  10.4589  10.4767  10.4789  10.5048  10.5048
    10.5805  10.6114  10.6144  11.2427  11.3137  11.3149  11.4649  11.4651
    11.4845  11.4850  11.4888  11.4912  11.4912  11.4912  11.4941  11.4950
    11.4954  11.4960  11.5004  11.5004  11.5050  11.5051  11.5165  11.5176
    11.5209  11.5346  11.5350  11.5423  11.5466  11.5549  11.5554  11.6001
    11.8765  11.8768  11.8821  11.9180  11.9187  12.2231  12.3311  12.3318
    12.3442  12.4580  12.4689  12.4690  12.4749  12.4873  12.4886  12.4996
    12.5269  12.5295  13.1531  13.1819  13.1820  14.0526  15.1060  15.1488
    17.4058  17.4064  17.4069  17.4202  17.4202  17.4317  17.7132  17.7141

     occupation numbers 
     1.0000   1.0000   1.0000   1.0000   1.0000   1.0000   1.0000   1.0000
     1.0000   1.0000   1.0000   1.0000   1.0000   1.0000   1.0000   1.0000
     1.0000   1.0000   1.0000   1.0000   1.0000   1.0000   1.0000   1.0000
     1.0000   1.0000   1.0000   1.0000   1.0000   1.0000   1.0000   1.0000
     1.0000   1.0000   1.0000   1.0000   1.0000   1.0000   1.0000   1.0000
     1.0000   1.0000   1.0000   1.0000   1.0000   1.0000   1.0000   1.0000
     1.0000   1.0000   1.0000   1.0000   1.0000   1.0000   1.0000   1.0000
     1.0000   1.0000   1.0000   1.0000   1.0000   1.0000   1.0000   1.0000
     1.0000   1.0000   1.0000   1.0000   1.0000   1.0000   1.0000   1.0000
     1.0000   1.0000   1.0000   1.0000   1.0000   1.0000   1.0000   1.0000
     1.0000   1.0000   1.0000   1.0000   1.0000   1.0000   1.0000   1.0000
     1.0000   1.0000   1.0000   1.0000   1.0000   1.0000   1.0000   1.0000
     1.0000   1.0000   1.0000   1.0000   1.0000   1.0000   1.0000   1.0000
     1.0000   1.0000   1.0000   1.0000   1.0000   1.0000   1.0000   1.0000
     1.0000   1.0000   1.0000   1.0000   1.0000   1.0000   1.0000   1.0000
     1.0000   1.0000   1.0000   1.0000   1.0000   1.0000   1.0000   1.0000
     1.0000   1.0000   1.0000   1.0000   1.0000   1.0000   1.0000   1.0000
     1.0000   1.0000   1.0000   1.0000   1.0000   1.0000   1.0000   1.0000
     1.0000   1.0000   1.0000   1.0000   1.0000   1.0000   1.0000   1.0000
     1.0000   1.0000   1.0000   1.0000   1.0000   1.0000   1.0000   1.0000
     1.0000   1.0000   1.0000   1.0000   1.0000   1.0000   1.0000   1.0000
     1.0000   1.0000   1.0000   1.0000   1.0000   1.0000   1.0000   1.0000
     1.0000   1.0000   1.0000   1.0000   1.0000   1.0000   1.0000   1.0000
     1.0000   1.0000   1.0000   1.0000   1.0000   1.0000   1.0000   1.0000
     1.0000   1.0000   1.0000   1.0000   1.0000   1.0000   1.0000   1.0000
     1.0000   1.0000   1.0000   1.0000   1.0000   1.0000   1.0000   1.0000
     1.0000   1.0000   1.0000   1.0000   1.0000   1.0000   1.0000   1.0000
     1.0000   1.0000   1.0000   1.0000   1.0000   1.0000   1.0000   1.0000
     1.0000   1.0000   1.0000   1.0000   1.0000   1.0000   1.0000   1.0000
     1.0000   1.0000   1.0000   1.0000   1.0000   1.0000   1.0000   1.0000
     1.0000   1.0000   1.0000   1.0000   1.0000   1.0000   1.0000   1.0000
     1.0000   1.0000   1.0000   1.0000   1.0000   1.0000   1.0000   1.0000
     1.0000   1.0000   1.0000   1.0000   1.0000   1.0000   1.0000   1.0000
     1.0000   1.0000   1.0000   1.0000   1.0000   1.0000   1.0000   1.0000
     1.0000   1.0000   1.0000   1.0000   1.0000   1.0000   1.0000   1.0000
     1.0000   1.0000   1.0000   1.0000   1.0000   1.0000   1.0000   1.0000
     1.0000   1.0000   1.0000   1.0000   1.0000   1.0000   1.0000   1.0000
     1.0000   1.0000   1.0000   1.0000   1.0000   1.0000   1.0000   1.0000
     1.0000   1.0000   1.0000   1.0000   1.0000   1.0000   1.0000   1.0000
     1.0000   1.0000   1.0000   1.0000   1.0000   1.0000   1.0000   1.0000
     1.0000   1.0000   1.0000   1.0000   1.0000   1.0000   1.0000   1.0000
     1.0000   1.0000   1.0000   1.0000   1.0000   1.0000   1.0000   1.0000
     1.0000   1.0000   1.0000   1.0000   1.0000   1.0000   1.0000   1.0000
     1.0000   1.0000   1.0000   1.0000   1.0000   1.0000   1.0000   1.0000
     1.0000   1.0000   1.0000   1.0000   1.0000   1.0000   1.0000   1.0000
     1.0000   1.0000   1.0000   1.0000   1.0000   1.0000   1.0000   1.0000
     1.0000   1.0000   1.0000   1.0000   1.0000   1.0000   1.0000   1.0000
     1.0000   1.0000   1.0000   1.0000   1.0000   1.0000   1.0000   1.0000
     1.0000   1.0000   1.0000   1.0000   1.0000   1.0000   1.0000   1.0000
     1.0000   1.0000   1.0000   1.0000   1.0000   1.0000   1.0000   1.0000
     1.0000   1.0000   1.0000   1.0000   1.0000   1.0000   1.0000   1.0000
     1.0000   1.0000   1.0000   1.0000   1.0000   1.0000   1.0000   1.0000
     1.0000   1.0000   1.0000   1.0000   1.0000   1.0000   1.0000   1.0000
     1.0000   1.0000   1.0000   1.0000   1.0000   1.0000   1.0000   1.0000
     1.0000   1.0000   1.0000   1.0000   1.0000   1.0000   1.0000   1.0000
     1.0000   1.0000   1.0000   1.0000   1.0000   1.0000   1.0000   1.0000
     1.0000   1.0000   1.0000   1.0000   1.0000   1.0000   1.0000   1.0000
     1.0000   1.0000   1.0000   1.0000   1.0000   1.0000   1.0000   1.0000
     1.0000   1.0000   1.0000   1.0000   1.0000   1.0000   1.0000   1.0000
     1.0000   1.0000   1.0000   1.0000   1.0000   1.0000   1.0000   1.0000
     1.0000   1.0000   1.0000   1.0000   1.0000   1.0000   1.0000   1.0000
     1.0000   1.0000   1.0000   1.0000   1.0000   1.0000   1.0000   1.0000
     1.0000   1.0000   1.0000   1.0000   1.0000   1.0000   1.0000   1.0000
     1.0000   1.0000   1.0000   1.0000   1.0000   1.0000   1.0000   1.0000
     1.0000   1.0000   1.0000   1.0000   1.0000   1.0000   1.0000   1.0000
     1.0000   1.0000   1.0000   1.0000   1.0000   1.0000   1.0000   1.0000
     1.0000   1.0000   1.0000   1.0000   1.0000   1.0000   1.0000   1.0000
     1.0000   1.0000   1.0000   1.0000   1.0000   1.0000   1.0000   1.0000
     1.0000   1.0000   1.0000   1.0000   1.0000   1.0000   1.0000   1.0000
     1.0000   1.0000   1.0000   1.0000   1.0000   1.0000   1.0000   1.0000
     1.0000   1.0000   1.0000   1.0000   1.0000   1.0000   1.0000   1.0000
     1.0000   1.0000   1.0000   1.0000   1.0000   1.0000   1.0000   1.0000
     1.0000   1.0000   1.0000   1.0000   1.0000   1.0000   1.0000   1.0000
     1.0000   1.0000   1.0000   1.0000   1.0000   1.0000   1.0000   1.0000
     1.0000   1.0000   1.0000   1.0000   1.0000   1.0000   1.0000   1.0000
     1.0000   1.0000   1.0000   1.0000   1.0000   1.0000   1.0000   1.0000
     1.0000   1.0000   1.0000   1.0000   1.0000   1.0000   1.0000   1.0000
     1.0000   1.0000   1.0000   1.0000   1.0000   1.0000   1.0000   1.0000
     1.0000   1.0000   1.0000   1.0000   1.0000   1.0000   1.0000   1.0000
     1.0000   1.0000   1.0000   1.0000   1.0000   1.0000   1.0000   1.0000
     1.0000   1.0000   1.0000   1.0000   1.0000   1.0000   1.0000   1.0000
     1.0000   1.0000   1.0000   1.0000   1.0000   1.0000   1.0000   1.0000
     1.0000   1.0000   1.0000   1.0000   1.0000   1.0000   1.0000   1.0000
     1.0000   1.0000   1.0000   1.0000   1.0000   1.0000   1.0000   1.0000
     1.0000   1.0000   1.0000   1.0000   1.0000   1.0000   1.0000   1.0000
     1.0000   1.0000   1.0000   1.0000   1.0000   1.0000   1.0000   1.0000
     1.0000   1.0000   1.0000   1.0000   1.0000   1.0000   1.0000   1.0000
     1.0000   1.0000   1.0000   1.0000   1.0000   1.0000   1.0000   1.0000
     1.0000   1.0000   1.0000   1.0000   1.0000   1.0000   1.0000   1.0000
     1.0000   1.0000   1.0000   1.0000   1.0000   1.0000   1.0000   1.0000
     1.0000   1.0000   1.0000   1.0000   1.0000   1.0000   1.0000   1.0000
     1.0000   1.0000   1.0000   1.0000   1.0000   1.0000   1.0000   1.0000
     1.0000   1.0000   1.0000   1.0000   1.0000   1.0000   1.0000   1.0000
     1.0000   1.0000   1.0000   1.0000   1.0000   1.0000   1.0000   1.0000
     1.0000   1.0000   1.0000   1.0000   1.0000   1.0000   1.0000   1.0000
     1.0000   1.0000   1.0000   1.0000   1.0000   1.0000   1.0000   1.0000
     1.0000   1.0000   1.0000   1.0000   1.0000   1.0000   1.0000   1.0000
     1.0000   1.0000   1.0000   1.0000   1.0000   1.0000   1.0000   1.0000
     1.0000   1.0000   1.0000   1.0000   1.0000   1.0000   1.0000   1.0000
     1.0000   1.0000   1.0000   1.0000   1.0000   1.0000   1.0000   1.0000
     1.0000   1.0000   1.0000   1.0000   1.0000   1.0000   1.0000   1.0000
     1.0000   1.0000   1.0000   1.0000   1.0000   1.0000   1.0000   1.0000
     1.0000   1.0000   1.0000   1.0000   1.0000   1.0000   1.0000   1.0000
     1.0000   1.0000   1.0000   1.0000   1.0000   1.0000   1.0000   1.0000
     1.0000   1.0000   1.0000   1.0000   1.0000   1.0000   1.0000   1.0000
     1.0000   1.0000   1.0000   1.0000   1.0000   1.0000   1.0000   1.0000
     1.0000   1.0000   1.0000   1.0000   1.0000   1.0000   1.0000   1.0000
     1.0000   1.0000   1.0000   1.0000   1.0000   1.0000   1.0000   1.0000
     1.0000   1.0000   1.0000   1.0000   1.0000   1.0000   1.0000   1.0000
     1.0000   1.0000   1.0000   1.0000   1.0000   1.0000   1.0000   1.0000
     1.0000   1.0000   1.0000   1.0000   1.0000   1.0000   1.0000   1.0000
     1.0000   1.0000   1.0000   1.0000   1.0000   1.0000   1.0000   1.0000
     1.0000   1.0000   1.0000   1.0000   1.0000   1.0000   1.0000   1.0000
     1.0000   1.0000   1.0000   1.0000   1.0000   1.0000   1.0000   1.0000
     1.0000   1.0000   1.0000   1.0000   1.0000   1.0000   1.0000   1.0000
     1.0000   1.0000   1.0000   1.0000   1.0000   1.0000   1.0000   1.0000
     1.0000   1.0000   1.0000   1.0000   1.0000   1.0000   1.0000   1.0000
     1.0000   1.0000   1.0000   1.0000   1.0000   1.0000   1.0000   1.0000
     1.0000   1.0000   1.0000   1.0000   1.0000   1.0000   1.0000   1.0000
     1.0000   1.0000   1.0000   1.0000   1.0000   1.0000   1.0000   1.0000
     1.0000   1.0000   1.0000   1.0000   1.0000   1.0000   1.0000   1.0000
     1.0000   1.0000   1.0000   1.0000   1.0000   1.0000   1.0000   1.0000
     1.0000   1.0000   1.0000   1.0000   1.0000   1.0000   1.0000   1.0000
     1.0000   1.0000   1.0000   1.0000   1.0000   1.0000   1.0000   1.0000
     1.0000   1.0000   1.0000   1.0000   1.0000   1.0000   1.0000   1.0000
     1.0000   1.0000   1.0000   1.0000   1.0000   1.0000   1.0000   1.0000
     1.0000   1.0000   1.0000   1.0000   1.0000   1.0000   1.0000   1.0000
     1.0000   1.0000   1.0000   1.0000   1.0000   1.0000   1.0000   1.0000
     0.0000   0.0000   0.0000   0.0000   0.0000   0.0000   0.0000   0.0000

 ------ SPIN DOWN ----------


          k = 0.0000 0.0000 0.0000 (118565 PWs)   bands (ev):

    -8.1964  -7.6624  -7.6365  -7.6365  -7.6124  -7.6111  -7.5538  -7.1685
    -7.0671  -7.0662  -7.0604  -7.0599  -7.0596  -7.0406  -7.0399  -7.0353
    -6.9961  -6.9934  -6.9050  -6.5902  -6.4744  -6.4660  -6.4653  -6.4557
    -6.4435  -6.4419  -6.3636  -5.9919  -5.9100  -5.9095  -5.8996  -5.8991
    -5.8773  -5.6342  -5.3836  -5.3813  -5.3806  -5.3777  -5.3725  -5.3723
    -5.3691  -5.3685  -5.3614  -5.3601  -5.3573  -5.3566  -5.3511  -5.3500
    -5.3374  -5.3286  -5.3276  -5.3170  -5.3133  -5.3127  -5.2669  -5.2641
    -5.1820  -5.0012  -4.8234  -4.8233  -4.8185  -4.8152  -4.8146  -4.8145
    -4.8145  -4.8117  -4.8108  -4.8106  -4.8048  -4.8035  -4.8022  -4.7987
    -4.7915  -4.7904  -4.7681  -4.7450  -4.7440  -4.7223  -4.6905  -4.6858
    -4.4432  -3.8893  -3.7293  -3.7290  -3.7271  -3.7264  -3.7178  -3.7166
    -3.7162  -3.7115  -3.7053  -3.7045  -3.6605  -3.4811  -3.2649  -3.2647
    -3.2617  -3.2599  -3.2596  -3.2592  -3.2571  -3.2559  -3.2511  -3.2511
    -3.2437  -3.2429  -3.2420  -3.2400  -3.2386  -3.2264  -3.2134  -3.1936
    -3.1927  -3.1761  -3.1574  -3.1565  -3.1538  -3.1425  -3.1417  -3.1404
    -3.1244  -3.1227  -2.9989  -2.7775  -2.6574  -2.6571  -2.6571  -2.6556
    -2.6555  -2.6549  -2.6466  -2.6458  -2.6402  -2.6374  -2.6369  -2.6317
    -2.6304  -2.6301  -2.6278  -2.6272  -2.6232  -2.6103  -2.5873  -2.5868
    -2.5519  -2.5502  -2.4939  -2.4426  -2.3934  -2.3930  -2.3695  -2.2927
    -2.1903  -2.1900  -2.1748  -2.1732  -2.1731  -2.1699  -2.1696  -2.1691
    -2.1650  -2.1647  -2.1633  -2.1584  -2.1578  -2.1573  -2.1494  -2.1486
    -2.1483  -2.1285  -2.1282  -2.1230  -2.0590  -2.0556  -1.8277  -1.5778
    -1.4455  -1.4447  -1.4431  -1.4355  -1.4354  -1.4353  -1.4289  -1.4287
    -1.4282  -1.4260  -1.4239  -1.4237  -1.4115  -1.4106  -1.3974  -1.3955
    -1.3910  -1.3857  -1.3847  -1.3814  -1.3616  -1.3615  -1.3465  -1.3002
    -1.2520  -1.2493  -1.2491  -1.2463  -1.2456  -1.2428  -1.2373  -1.2368
    -1.2367  -1.2210  -1.2198  -1.2114  -1.1979  -1.1969  -1.1831  -1.1815
    -1.1807  -1.1503  -1.1462  -1.1350  -1.0200  -1.0148  -0.3811  -0.0862
    -0.0861  -0.0847  -0.0617   0.2193   0.2899   0.2903   0.3057   0.3074
     0.3075   0.3104   0.3107   0.3127   0.3307   0.3313   0.3974   0.4926
     0.5003   0.5006   0.5081   0.5090   0.5392   0.7674   0.8154   0.8160
     0.8223   0.8226   0.8230   0.8253   0.8266   0.8272   0.8441   0.8482
     0.8492   0.8511   0.8525   0.8525   0.8572   0.8580   0.8611   0.8667
     0.8741   0.8747   0.8840   0.8851   0.8854   0.8906   0.8928   0.8929
     0.8931   0.8982   0.8983   0.8990   0.8991   0.8994   0.9213   0.9223
     0.9257   0.9287   0.9291   0.9296   0.9346   0.9346   0.9361   0.9439
     0.9445   1.0067   1.0566   1.0582   1.1458   1.2481   1.2935   1.2937
     1.3156   1.3158   1.3193   1.3245   1.3256   1.3297   1.3539   1.3548
     1.4319   1.5165   1.5316   1.5323   1.5503   1.5508   1.5533   1.5592
     1.5704   1.5706   1.6077   1.6086   1.6790   1.6935   1.6989   1.6991
     1.7057   1.7064   1.7077   1.7105   1.7109   1.7114   1.7118   1.7193
     1.7256   1.7274   1.7284   1.7299   1.7303   1.7409   1.7597   1.7602
     1.7649   1.8727   1.9246   1.9273   2.2311   2.4323   2.4539   2.4545
     2.4869   2.4870   2.4885   2.4886   2.4898   2.4901   2.4911   2.4922
     2.4924   2.4948   2.4966   2.4970   2.5004   2.5007   2.5013   2.5082
     2.5083   2.5627   2.5839   2.5855   2.6790   2.8286   2.8291   2.8391
     2.8448   2.8449   2.8480   2.8511   2.8519   2.8521   2.8631   2.8633
     2.8732   2.8756   2.8856   2.8860   2.8881   2.8903   2.8915   2.9021
     2.9087   2.9094   3.0721   3.0755   3.7275   3.9228   3.9230   3.9478
     3.9482   3.9486   3.9489   3.9489   3.9553   3.9555   3.9660   3.9707
     3.9709   4.0911   4.1074   4.1082   4.1361   4.1362   4.1376   4.1414
     4.1418   4.1428   4.1434   4.1438   4.1442   4.1445   4.1451   4.1454
     4.1460   4.1542   4.1653   4.1657   4.1923   4.1997   4.2068   4.2076
     4.2173   4.2325   4.2328   4.2374   4.2402   4.2408   4.2410   4.2443
     4.2446   4.2481   4.2658   4.2659   4.2681   4.2695   4.2714   4.2728
     4.2734   4.2741   4.2801   4.2828   4.2893   4.2906   4.3476   4.3480
     4.3688   4.3689   4.3760   4.3775   4.3775   4.3795   4.3806   4.3809
     4.3837   4.3893   4.3924   4.3930   4.3934   4.4078   4.4083   4.4144
     4.4181   4.4181   4.4310   4.4416   4.4419   4.4894   4.5125   4.5131
     4.5134   4.5534   4.5539   4.5784   4.5829   4.5849   4.5850   4.5887
     4.5893   4.6215   4.6486   4.6489   4.6582   4.6975   4.7123   4.7132
     4.8247   4.8275   4.9272   4.9272   4.9493   4.9530   4.9533   4.9536
     4.9537   4.9682   4.9683   5.0411   5.0924   5.0961   5.6010   5.6328
     5.6332   5.6563   5.6630   5.6634   5.6676   5.6702   5.6705   5.7047
     5.7050   5.7077   5.9005   5.9010   5.9066   5.9187   5.9196   5.9197
     5.9223   5.9232   5.9235   5.9336   5.9392   5.9394   5.9458   5.9461
     5.9490   5.9538   5.9538   5.9595   5.9762   5.9767   5.9808   6.0054
     6.0133   6.0139   6.1046   6.1977   6.1983   6.2633   6.2635   6.2672
     6.2682   6.2686   6.2686   6.2704   6.2704   6.2716   6.2755   6.2773
     6.2785   6.2791   6.2905   6.2909   6.3000   6.3006   6.3039   6.3306
     6.3382   6.3387   6.3412   6.4798   6.4804   6.4887   6.5174   6.5176
     6.5180   6.5190   6.5205   6.5206   6.5219   6.5235   6.5235   6.5256
     6.5265   6.5270   6.5288   6.5323   6.5329   6.5414   6.5420   6.5772
     6.5865   6.5867   6.5958   6.6589   6.6599   6.6600   6.6664   6.6709
     6.6711   6.6727   6.6849   6.7146   6.7154   6.7275   6.7312   6.7317
     6.7324   6.7389   6.7415   6.7418   6.7433   6.7443   6.7445   6.7471
     6.7473   6.7731   6.7735   6.7810   6.7873   6.7873   6.7884   6.8209
     6.8618   6.8628   6.9025   6.9026   6.9078   6.9323   6.9329   6.9334
     6.9365   6.9431   6.9457   6.9461   6.9465   6.9490   6.9491   6.9532
     6.9577   6.9580   6.9641   6.9646   6.9665   6.9673   6.9700   6.9706
     6.9756   6.9761   6.9895   7.0128   7.0133   7.0854   7.1282   7.1305
     7.2648   7.2657   7.3031   7.3039   7.3042   7.3057   7.3073   7.3089
     7.3092   7.3094   7.3097   7.3098   7.3150   7.3156   7.3158   7.3215
     7.3273   7.3274   7.3296   7.3567   7.3571   7.3822   7.3826   7.3828
     7.4932   7.4937   7.5251   7.5271   7.5285   7.5287   7.5453   7.5457
     7.5679   7.5895   7.5953   7.5958   7.6817   7.6910   7.6914   7.7371
     7.7411   7.7412   7.7414   7.7437   7.7439   7.7448   7.7504   7.7511
     7.7554   7.7559   7.7566   7.7608   7.7627   7.7631   7.7670   7.7671
     7.7672   7.7678   7.7679   7.7685   7.7725   7.7729   7.7738   7.7745
     7.7751   7.7780   7.7789   7.7801   7.7804   7.7815   7.7819   7.7827
     7.7848   7.7860   7.7865   7.7907   7.8023   7.8038   7.8117   7.8302
     7.8305   7.8544   7.8552   7.8705   7.8938   7.8942   7.9072   7.9223
     7.9226   7.9290   7.9460   7.9484   7.9486   8.1032   8.1202   8.1212
     8.3086   8.3089   8.3597   8.3600   8.3611   8.3652   8.3653   8.3670
     8.3692   8.3702   8.3704   8.3712   8.3757   8.3767   8.3770   8.3837
     8.3838   8.3890   8.4012   8.4025   8.4164   8.4249   8.4256   8.4258
     8.4723   8.5191   8.5195   8.5504   8.5533   8.5537   8.5550   8.5556
     8.5557   8.5590   8.5616   8.5649   8.5658   8.5680   8.5682   8.5845
     8.5847   8.5964   8.5998   8.6066   8.6075   8.6095   8.6341   8.6344
     8.6358   8.6526   8.6602   8.6603   8.6609   8.6679   8.6679   8.6800
     8.6845   8.6848   8.6932   8.6934   8.6939   8.6995   8.7013   8.7033
     8.7225   8.7241   8.7267   8.7326   8.7330   8.7415   8.7522   8.7529
     8.7694   8.7695   8.7733   9.0111   9.0501   9.0506   9.1161   9.1164
     9.1368   9.1371   9.1375   9.1377   9.1419   9.1422   9.1463   9.1856
     9.2030   9.2122   9.2128   9.2561   9.2567   9.2614   9.2617   9.2713
     9.2838   9.2840   9.2955   9.4349   9.4728   9.4744   9.6695   9.6699
     9.7109   9.7119   9.7124   9.7135   9.7153   9.7178   9.7224   9.7224
     9.7349   9.7350   9.7386   9.7395   9.7395   9.7449   9.7450   9.7493
     9.7685   9.7693   9.7739   9.8336   9.8536   9.8540   9.8766   9.9805
     9.9813   9.9921   9.9970   9.9971  10.0025  10.0041  10.0042  10.0110
    10.0195  10.0199  10.0206  10.0291  10.0319  10.0322  10.0396  10.0401
    10.0404  10.0406  10.0409  10.0452  10.0463  10.0469  10.0481  10.0482
    10.0487  10.0502  10.0504  10.0522  10.0684  10.0703  10.0713  10.1496
    10.1499  10.1593  10.1991  10.1996  10.2024  10.2026  10.2027  10.2028
    10.2038  10.2049  10.2051  10.2066  10.2069  10.2080  10.2863  10.2867
    10.2939  10.3103  10.3113  10.3127  10.3128  10.3199  10.3199  10.3226
    10.3228  10.3229  10.3255  10.3265  10.3293  10.3294  10.3306  10.3310
    10.3340  10.3356  10.3357  10.3374  10.3375  10.3382  10.3436  10.3441
    10.3448  10.3505  10.3513  10.3538  10.3606  10.3610  10.3632  10.3774
    10.3785  10.3867  10.4047  10.4058  10.4156  10.4249  10.4259  10.4287
    10.4543  10.4559  10.4603  10.4774  10.4898  10.4918  10.5206  10.5206
    10.6056  10.6429  10.6463  11.2477  11.3471  11.3480  11.4685  11.4687
    11.4853  11.4858  11.4898  11.4924  11.4924  11.4930  11.4967  11.4968
    11.4970  11.4978  11.5041  11.5045  11.5083  11.5087  11.5205  11.5217
    11.5257  11.5394  11.5400  11.5479  11.5620  11.5712  11.5713  11.7450
    11.8843  11.8846  11.8896  11.9198  11.9206  12.2701  12.3597  12.3602
    12.4585  12.4706  12.4706  12.4760  12.4907  12.4920  12.5050  12.5335
    12.5363  12.5879  13.1992  13.1993  13.2033  14.7288  16.5220  16.5717
    17.4071  17.4078  17.4095  17.4231  17.4234  17.4359  17.7151  17.7161

     occupation numbers 
     1.0000   1.0000   1.0000   1.0000   1.0000   1.0000   1.0000   1.0000
     1.0000   1.0000   1.0000   1.0000   1.0000   1.0000   1.0000   1.0000
     1.0000   1.0000   1.0000   1.0000   1.0000   1.0000   1.0000   1.0000
     1.0000   1.0000   1.0000   1.0000   1.0000   1.0000   1.0000   1.0000
     1.0000   1.0000   1.0000   1.0000   1.0000   1.0000   1.0000   1.0000
     1.0000   1.0000   1.0000   1.0000   1.0000   1.0000   1.0000   1.0000
     1.0000   1.0000   1.0000   1.0000   1.0000   1.0000   1.0000   1.0000
     1.0000   1.0000   1.0000   1.0000   1.0000   1.0000   1.0000   1.0000
     1.0000   1.0000   1.0000   1.0000   1.0000   1.0000   1.0000   1.0000
     1.0000   1.0000   1.0000   1.0000   1.0000   1.0000   1.0000   1.0000
     1.0000   1.0000   1.0000   1.0000   1.0000   1.0000   1.0000   1.0000
     1.0000   1.0000   1.0000   1.0000   1.0000   1.0000   1.0000   1.0000
     1.0000   1.0000   1.0000   1.0000   1.0000   1.0000   1.0000   1.0000
     1.0000   1.0000   1.0000   1.0000   1.0000   1.0000   1.0000   1.0000
     1.0000   1.0000   1.0000   1.0000   1.0000   1.0000   1.0000   1.0000
     1.0000   1.0000   1.0000   1.0000   1.0000   1.0000   1.0000   1.0000
     1.0000   1.0000   1.0000   1.0000   1.0000   1.0000   1.0000   1.0000
     1.0000   1.0000   1.0000   1.0000   1.0000   1.0000   1.0000   1.0000
     1.0000   1.0000   1.0000   1.0000   1.0000   1.0000   1.0000   1.0000
     1.0000   1.0000   1.0000   1.0000   1.0000   1.0000   1.0000   1.0000
     1.0000   1.0000   1.0000   1.0000   1.0000   1.0000   1.0000   1.0000
     1.0000   1.0000   1.0000   1.0000   1.0000   1.0000   1.0000   1.0000
     1.0000   1.0000   1.0000   1.0000   1.0000   1.0000   1.0000   1.0000
     1.0000   1.0000   1.0000   1.0000   1.0000   1.0000   1.0000   1.0000
     1.0000   1.0000   1.0000   1.0000   1.0000   1.0000   1.0000   1.0000
     1.0000   1.0000   1.0000   1.0000   1.0000   1.0000   1.0000   1.0000
     1.0000   1.0000   1.0000   1.0000   1.0000   1.0000   1.0000   1.0000
     1.0000   1.0000   1.0000   1.0000   1.0000   1.0000   1.0000   1.0000
     1.0000   1.0000   1.0000   1.0000   1.0000   1.0000   1.0000   1.0000
     1.0000   1.0000   1.0000   1.0000   1.0000   1.0000   1.0000   1.0000
     1.0000   1.0000   1.0000   1.0000   1.0000   1.0000   1.0000   1.0000
     1.0000   1.0000   1.0000   1.0000   1.0000   1.0000   1.0000   1.0000
     1.0000   1.0000   1.0000   1.0000   1.0000   1.0000   1.0000   1.0000
     1.0000   1.0000   1.0000   1.0000   1.0000   1.0000   1.0000   1.0000
     1.0000   1.0000   1.0000   1.0000   1.0000   1.0000   1.0000   1.0000
     1.0000   1.0000   1.0000   1.0000   1.0000   1.0000   1.0000   1.0000
     1.0000   1.0000   1.0000   1.0000   1.0000   1.0000   1.0000   1.0000
     1.0000   1.0000   1.0000   1.0000   1.0000   1.0000   1.0000   1.0000
     1.0000   1.0000   1.0000   1.0000   1.0000   1.0000   1.0000   1.0000
     1.0000   1.0000   1.0000   1.0000   1.0000   1.0000   1.0000   1.0000
     1.0000   1.0000   1.0000   1.0000   1.0000   1.0000   1.0000   1.0000
     1.0000   1.0000   1.0000   1.0000   1.0000   1.0000   1.0000   1.0000
     1.0000   1.0000   1.0000   1.0000   1.0000   1.0000   1.0000   1.0000
     1.0000   1.0000   1.0000   1.0000   1.0000   1.0000   1.0000   1.0000
     1.0000   1.0000   1.0000   1.0000   1.0000   1.0000   1.0000   1.0000
     1.0000   1.0000   1.0000   1.0000   1.0000   1.0000   1.0000   1.0000
     1.0000   1.0000   1.0000   1.0000   1.0000   1.0000   1.0000   1.0000
     1.0000   1.0000   1.0000   1.0000   1.0000   1.0000   1.0000   1.0000
     1.0000   1.0000   1.0000   1.0000   1.0000   1.0000   1.0000   1.0000
     1.0000   1.0000   1.0000   1.0000   1.0000   1.0000   1.0000   1.0000
     1.0000   1.0000   1.0000   1.0000   1.0000   1.0000   1.0000   1.0000
     1.0000   1.0000   1.0000   1.0000   1.0000   1.0000   1.0000   1.0000
     1.0000   1.0000   1.0000   1.0000   1.0000   1.0000   1.0000   1.0000
     1.0000   1.0000   1.0000   1.0000   1.0000   1.0000   1.0000   1.0000
     1.0000   1.0000   1.0000   1.0000   1.0000   1.0000   1.0000   1.0000
     1.0000   1.0000   1.0000   1.0000   1.0000   1.0000   1.0000   1.0000
     1.0000   1.0000   1.0000   1.0000   1.0000   1.0000   1.0000   1.0000
     1.0000   1.0000   1.0000   1.0000   1.0000   1.0000   1.0000   1.0000
     1.0000   1.0000   1.0000   1.0000   1.0000   1.0000   1.0000   1.0000
     1.0000   1.0000   1.0000   1.0000   1.0000   1.0000   1.0000   1.0000
     1.0000   1.0000   1.0000   1.0000   1.0000   1.0000   1.0000   1.0000
     1.0000   1.0000   1.0000   1.0000   1.0000   1.0000   1.0000   1.0000
     1.0000   1.0000   1.0000   1.0000   1.0000   1.0000   1.0000   1.0000
     1.0000   1.0000   1.0000   1.0000   1.0000   1.0000   1.0000   1.0000
     1.0000   1.0000   1.0000   1.0000   1.0000   1.0000   1.0000   1.0000
     1.0000   1.0000   1.0000   1.0000   1.0000   1.0000   1.0000   1.0000
     1.0000   1.0000   1.0000   1.0000   1.0000   1.0000   1.0000   1.0000
     1.0000   1.0000   1.0000   1.0000   1.0000   1.0000   1.0000   1.0000
     1.0000   1.0000   1.0000   1.0000   1.0000   1.0000   1.0000   1.0000
     1.0000   1.0000   1.0000   1.0000   1.0000   1.0000   1.0000   1.0000
     1.0000   1.0000   1.0000   1.0000   1.0000   1.0000   1.0000   1.0000
     1.0000   1.0000   1.0000   1.0000   1.0000   1.0000   1.0000   1.0000
     1.0000   1.0000   1.0000   1.0000   1.0000   1.0000   1.0000   1.0000
     1.0000   1.0000   1.0000   1.0000   1.0000   1.0000   1.0000   1.0000
     1.0000   1.0000   1.0000   1.0000   1.0000   1.0000   1.0000   1.0000
     1.0000   1.0000   1.0000   1.0000   1.0000   1.0000   1.0000   1.0000
     1.0000   1.0000   1.0000   1.0000   1.0000   1.0000   1.0000   1.0000
     1.0000   1.0000   1.0000   1.0000   1.0000   1.0000   1.0000   1.0000
     1.0000   1.0000   1.0000   1.0000   1.0000   1.0000   1.0000   1.0000
     1.0000   1.0000   1.0000   1.0000   1.0000   1.0000   1.0000   1.0000
     1.0000   1.0000   1.0000   1.0000   1.0000   1.0000   1.0000   1.0000
     1.0000   1.0000   1.0000   1.0000   1.0000   1.0000   1.0000   1.0000
     1.0000   1.0000   1.0000   1.0000   1.0000   1.0000   1.0000   1.0000
     1.0000   1.0000   1.0000   1.0000   1.0000   1.0000   1.0000   1.0000
     1.0000   1.0000   1.0000   1.0000   1.0000   1.0000   1.0000   1.0000
     1.0000   1.0000   1.0000   1.0000   1.0000   1.0000   1.0000   1.0000
     1.0000   1.0000   1.0000   1.0000   1.0000   1.0000   1.0000   1.0000
     1.0000   1.0000   1.0000   1.0000   1.0000   1.0000   1.0000   1.0000
     1.0000   1.0000   1.0000   1.0000   1.0000   1.0000   1.0000   1.0000
     1.0000   1.0000   1.0000   1.0000   1.0000   1.0000   1.0000   1.0000
     1.0000   1.0000   1.0000   1.0000   1.0000   1.0000   1.0000   1.0000
     1.0000   1.0000   1.0000   1.0000   1.0000   1.0000   1.0000   1.0000
     1.0000   1.0000   1.0000   1.0000   1.0000   1.0000   1.0000   1.0000
     1.0000   1.0000   1.0000   1.0000   1.0000   1.0000   1.0000   1.0000
     1.0000   1.0000   1.0000   1.0000   1.0000   1.0000   1.0000   1.0000
     1.0000   1.0000   1.0000   1.0000   1.0000   1.0000   1.0000   1.0000
     1.0000   1.0000   1.0000   1.0000   1.0000   1.0000   1.0000   1.0000
     1.0000   1.0000   1.0000   1.0000   1.0000   1.0000   1.0000   1.0000
     1.0000   1.0000   1.0000   1.0000   1.0000   1.0000   1.0000   1.0000
     1.0000   1.0000   1.0000   1.0000   1.0000   1.0000   1.0000   1.0000
     1.0000   1.0000   1.0000   1.0000   1.0000   1.0000   1.0000   1.0000
     1.0000   1.0000   1.0000   1.0000   1.0000   1.0000   1.0000   1.0000
     1.0000   1.0000   1.0000   1.0000   1.0000   1.0000   1.0000   1.0000
     1.0000   1.0000   1.0000   1.0000   1.0000   1.0000   1.0000   1.0000
     1.0000   1.0000   1.0000   1.0000   1.0000   1.0000   1.0000   1.0000
     1.0000   1.0000   1.0000   1.0000   1.0000   1.0000   1.0000   1.0000
     1.0000   1.0000   1.0000   1.0000   1.0000   1.0000   1.0000   1.0000
     1.0000   1.0000   1.0000   1.0000   1.0000   1.0000   1.0000   1.0000
     1.0000   1.0000   1.0000   1.0000   1.0000   1.0000   1.0000   1.0000
     1.0000   1.0000   1.0000   1.0000   1.0000   1.0000   1.0000   1.0000
     1.0000   1.0000   1.0000   1.0000   1.0000   1.0000   1.0000   1.0000
     1.0000   1.0000   1.0000   1.0000   1.0000   1.0000   1.0000   1.0000
     1.0000   1.0000   1.0000   1.0000   1.0000   1.0000   1.0000   1.0000
     1.0000   1.0000   1.0000   1.0000   1.0000   1.0000   1.0000   1.0000
     1.0000   1.0000   1.0000   1.0000   1.0000   1.0000   1.0000   1.0000
     1.0000   1.0000   1.0000   1.0000   1.0000   1.0000   1.0000   1.0000
     1.0000   1.0000   1.0000   1.0000   1.0000   1.0000   1.0000   1.0000
     1.0000   1.0000   1.0000   1.0000   1.0000   1.0000   1.0000   1.0000
     1.0000   1.0000   1.0000   1.0000   1.0000   1.0000   1.0000   1.0000
     1.0000   1.0000   1.0000   1.0000   1.0000   1.0000   1.0000   1.0000
     1.0000   1.0000   1.0000   1.0000   1.0000   1.0000   1.0000   1.0000
     1.0000   1.0000   1.0000   1.0000   1.0000   1.0000   1.0000   1.0000
     1.0000   1.0000   1.0000   1.0000   1.0000   1.0000   1.0000   1.0000
     1.0000   1.0000   1.0000   1.0000   1.0000   1.0000   1.0000   1.0000
     1.0000   1.0000   1.0000   1.0000   1.0000   1.0000   1.0000   1.0000
     1.0000   1.0000   1.0000   1.0000   1.0000   1.0000   1.0000   1.0000
     1.0000   1.0000   1.0000   1.0000   1.0000   1.0000   1.0000   1.0000
     1.0000   1.0000   1.0000   1.0000   1.0000   1.0000   0.0000   0.0000
     0.0000   0.0000   0.0000   0.0000   0.0000   0.0000   0.0000   0.0000

     highest occupied, lowest unoccupied level (ev):    15.1488   16.5220

!    total energy              =   -5829.10214561 Ry
     estimated scf accuracy    <          4.1E-11 Ry

     The total energy is the sum of the following terms:
     one-electron contribution =    2012.29041509 Ry
     hartree contribution      =     505.01061125 Ry
     xc contribution           =   -1820.29415443 Ry
     ewald contribution        =   -6526.10901752 Ry

     total magnetization       =     2.00 Bohr mag/cell
     absolute magnetization    =     2.28 Bohr mag/cell

     convergence has been achieved in  20 iterations

 %%%%%%%%%%%%%%%%%%%%%%%%%%%%%%%%%%%%%%%%%%%%%%%%%%%%%%%%%%%%%%%%%%%%%%%%%%%%%%
     Error in routine write_rhog (3):
     error writing file ./pwscf.save/charge-density
 %%%%%%%%%%%%%%%%%%%%%%%%%%%%%%%%%%%%%%%%%%%%%%%%%%%%%%%%%%%%%%%%%%%%%%%%%%%%%%

     stopping ...

 %%%%%%%%%%%%%%%%%%%%%%%%%%%%%%%%%%%%%%%%%%%%%%%%%%%%%%%%%%%%%%%%%%%%%%%%%%%%%%
     Error in routine write_rhog (3):
     error writing file ./pwscf.save/charge-density
 %%%%%%%%%%%%%%%%%%%%%%%%%%%%%%%%%%%%%%%%%%%%%%%%%%%%%%%%%%%%%%%%%%%%%%%%%%%%%%

     stopping ...

 %%%%%%%%%%%%%%%%%%%%%%%%%%%%%%%%%%%%%%%%%%%%%%%%%%%%%%%%%%%%%%%%%%%%%%%%%%%%%%
     Error in routine write_rhog (3):
     error writing file ./pwscf.save/charge-density
 %%%%%%%%%%%%%%%%%%%%%%%%%%%%%%%%%%%%%%%%%%%%%%%%%%%%%%%%%%%%%%%%%%%%%%%%%%%%%%

     stopping ...

 %%%%%%%%%%%%%%%%%%%%%%%%%%%%%%%%%%%%%%%%%%%%%%%%%%%%%%%%%%%%%%%%%%%%%%%%%%%%%%
     Error in routine write_rhog (3):
     error writing file ./pwscf.save/charge-density
 %%%%%%%%%%%%%%%%%%%%%%%%%%%%%%%%%%%%%%%%%%%%%%%%%%%%%%%%%%%%%%%%%%%%%%%%%%%%%%

     stopping ...

 %%%%%%%%%%%%%%%%%%%%%%%%%%%%%%%%%%%%%%%%%%%%%%%%%%%%%%%%%%%%%%%%%%%%%%%%%%%%%%
     Error in routine write_rhog (3):
     error writing file ./pwscf.save/charge-density
 %%%%%%%%%%%%%%%%%%%%%%%%%%%%%%%%%%%%%%%%%%%%%%%%%%%%%%%%%%%%%%%%%%%%%%%%%%%%%%

     stopping ...

 %%%%%%%%%%%%%%%%%%%%%%%%%%%%%%%%%%%%%%%%%%%%%%%%%%%%%%%%%%%%%%%%%%%%%%%%%%%%%%
     Error in routine write_rhog (3):
     error writing file ./pwscf.save/charge-density
 %%%%%%%%%%%%%%%%%%%%%%%%%%%%%%%%%%%%%%%%%%%%%%%%%%%%%%%%%%%%%%%%%%%%%%%%%%%%%%

     stopping ...

 %%%%%%%%%%%%%%%%%%%%%%%%%%%%%%%%%%%%%%%%%%%%%%%%%%%%%%%%%%%%%%%%%%%%%%%%%%%%%%
     Error in routine write_rhog (3):
     error writing file ./pwscf.save/charge-density
 %%%%%%%%%%%%%%%%%%%%%%%%%%%%%%%%%%%%%%%%%%%%%%%%%%%%%%%%%%%%%%%%%%%%%%%%%%%%%%

     stopping ...

 %%%%%%%%%%%%%%%%%%%%%%%%%%%%%%%%%%%%%%%%%%%%%%%%%%%%%%%%%%%%%%%%%%%%%%%%%%%%%%
     Error in routine write_rhog (3):
     error writing file ./pwscf.save/charge-density
 %%%%%%%%%%%%%%%%%%%%%%%%%%%%%%%%%%%%%%%%%%%%%%%%%%%%%%%%%%%%%%%%%%%%%%%%%%%%%%

     stopping ...

 %%%%%%%%%%%%%%%%%%%%%%%%%%%%%%%%%%%%%%%%%%%%%%%%%%%%%%%%%%%%%%%%%%%%%%%%%%%%%%
     Error in routine write_rhog (3):
     error writing file ./pwscf.save/charge-density
 %%%%%%%%%%%%%%%%%%%%%%%%%%%%%%%%%%%%%%%%%%%%%%%%%%%%%%%%%%%%%%%%%%%%%%%%%%%%%%

     stopping ...

 %%%%%%%%%%%%%%%%%%%%%%%%%%%%%%%%%%%%%%%%%%%%%%%%%%%%%%%%%%%%%%%%%%%%%%%%%%%%%%
     Error in routine write_rhog (3):
     error writing file ./pwscf.save/charge-density
 %%%%%%%%%%%%%%%%%%%%%%%%%%%%%%%%%%%%%%%%%%%%%%%%%%%%%%%%%%%%%%%%%%%%%%%%%%%%%%

     stopping ...

 %%%%%%%%%%%%%%%%%%%%%%%%%%%%%%%%%%%%%%%%%%%%%%%%%%%%%%%%%%%%%%%%%%%%%%%%%%%%%%
     Error in routine write_rhog (3):
     error writing file ./pwscf.save/charge-density
 %%%%%%%%%%%%%%%%%%%%%%%%%%%%%%%%%%%%%%%%%%%%%%%%%%%%%%%%%%%%%%%%%%%%%%%%%%%%%%

     stopping ...

 %%%%%%%%%%%%%%%%%%%%%%%%%%%%%%%%%%%%%%%%%%%%%%%%%%%%%%%%%%%%%%%%%%%%%%%%%%%%%%
     Error in routine write_rhog (3):
     error writing file ./pwscf.save/charge-density
 %%%%%%%%%%%%%%%%%%%%%%%%%%%%%%%%%%%%%%%%%%%%%%%%%%%%%%%%%%%%%%%%%%%%%%%%%%%%%%

     stopping ...

 %%%%%%%%%%%%%%%%%%%%%%%%%%%%%%%%%%%%%%%%%%%%%%%%%%%%%%%%%%%%%%%%%%%%%%%%%%%%%%
     Error in routine write_rhog (3):
     error writing file ./pwscf.save/charge-density
 %%%%%%%%%%%%%%%%%%%%%%%%%%%%%%%%%%%%%%%%%%%%%%%%%%%%%%%%%%%%%%%%%%%%%%%%%%%%%%

     stopping ...

 %%%%%%%%%%%%%%%%%%%%%%%%%%%%%%%%%%%%%%%%%%%%%%%%%%%%%%%%%%%%%%%%%%%%%%%%%%%%%%
     Error in routine write_rhog (3):
     error writing file ./pwscf.save/charge-density
 %%%%%%%%%%%%%%%%%%%%%%%%%%%%%%%%%%%%%%%%%%%%%%%%%%%%%%%%%%%%%%%%%%%%%%%%%%%%%%

     stopping ...

 %%%%%%%%%%%%%%%%%%%%%%%%%%%%%%%%%%%%%%%%%%%%%%%%%%%%%%%%%%%%%%%%%%%%%%%%%%%%%%
     Error in routine write_rhog (3):
     error writing file ./pwscf.save/charge-density
 %%%%%%%%%%%%%%%%%%%%%%%%%%%%%%%%%%%%%%%%%%%%%%%%%%%%%%%%%%%%%%%%%%%%%%%%%%%%%%

     stopping ...

 %%%%%%%%%%%%%%%%%%%%%%%%%%%%%%%%%%%%%%%%%%%%%%%%%%%%%%%%%%%%%%%%%%%%%%%%%%%%%%
     Error in routine write_rhog (3):
     error writing file ./pwscf.save/charge-density
 %%%%%%%%%%%%%%%%%%%%%%%%%%%%%%%%%%%%%%%%%%%%%%%%%%%%%%%%%%%%%%%%%%%%%%%%%%%%%%

     stopping ...

 %%%%%%%%%%%%%%%%%%%%%%%%%%%%%%%%%%%%%%%%%%%%%%%%%%%%%%%%%%%%%%%%%%%%%%%%%%%%%%
     Error in routine write_rhog (3):
     error writing file ./pwscf.save/charge-density
 %%%%%%%%%%%%%%%%%%%%%%%%%%%%%%%%%%%%%%%%%%%%%%%%%%%%%%%%%%%%%%%%%%%%%%%%%%%%%%

     stopping ...

 %%%%%%%%%%%%%%%%%%%%%%%%%%%%%%%%%%%%%%%%%%%%%%%%%%%%%%%%%%%%%%%%%%%%%%%%%%%%%%
     Error in routine write_rhog (3):
     error writing file ./pwscf.save/charge-density
 %%%%%%%%%%%%%%%%%%%%%%%%%%%%%%%%%%%%%%%%%%%%%%%%%%%%%%%%%%%%%%%%%%%%%%%%%%%%%%

     stopping ...

 %%%%%%%%%%%%%%%%%%%%%%%%%%%%%%%%%%%%%%%%%%%%%%%%%%%%%%%%%%%%%%%%%%%%%%%%%%%%%%
     Error in routine write_rhog (3):
     error writing file ./pwscf.save/charge-density
 %%%%%%%%%%%%%%%%%%%%%%%%%%%%%%%%%%%%%%%%%%%%%%%%%%%%%%%%%%%%%%%%%%%%%%%%%%%%%%

     stopping ...

 %%%%%%%%%%%%%%%%%%%%%%%%%%%%%%%%%%%%%%%%%%%%%%%%%%%%%%%%%%%%%%%%%%%%%%%%%%%%%%
     Error in routine write_rhog (3):
     error writing file ./pwscf.save/charge-density
 %%%%%%%%%%%%%%%%%%%%%%%%%%%%%%%%%%%%%%%%%%%%%%%%%%%%%%%%%%%%%%%%%%%%%%%%%%%%%%

     stopping ...

 %%%%%%%%%%%%%%%%%%%%%%%%%%%%%%%%%%%%%%%%%%%%%%%%%%%%%%%%%%%%%%%%%%%%%%%%%%%%%%
     Error in routine write_rhog (3):
     error writing file ./pwscf.save/charge-density
 %%%%%%%%%%%%%%%%%%%%%%%%%%%%%%%%%%%%%%%%%%%%%%%%%%%%%%%%%%%%%%%%%%%%%%%%%%%%%%

     stopping ...

 %%%%%%%%%%%%%%%%%%%%%%%%%%%%%%%%%%%%%%%%%%%%%%%%%%%%%%%%%%%%%%%%%%%%%%%%%%%%%%
     Error in routine write_rhog (3):
     error writing file ./pwscf.save/charge-density
 %%%%%%%%%%%%%%%%%%%%%%%%%%%%%%%%%%%%%%%%%%%%%%%%%%%%%%%%%%%%%%%%%%%%%%%%%%%%%%

     stopping ...

 %%%%%%%%%%%%%%%%%%%%%%%%%%%%%%%%%%%%%%%%%%%%%%%%%%%%%%%%%%%%%%%%%%%%%%%%%%%%%%
     Error in routine write_rhog (3):
     error writing file ./pwscf.save/charge-density
 %%%%%%%%%%%%%%%%%%%%%%%%%%%%%%%%%%%%%%%%%%%%%%%%%%%%%%%%%%%%%%%%%%%%%%%%%%%%%%

     stopping ...

 %%%%%%%%%%%%%%%%%%%%%%%%%%%%%%%%%%%%%%%%%%%%%%%%%%%%%%%%%%%%%%%%%%%%%%%%%%%%%%
     Error in routine write_rhog (3):
     error writing file ./pwscf.save/charge-density
 %%%%%%%%%%%%%%%%%%%%%%%%%%%%%%%%%%%%%%%%%%%%%%%%%%%%%%%%%%%%%%%%%%%%%%%%%%%%%%

     stopping ...

 %%%%%%%%%%%%%%%%%%%%%%%%%%%%%%%%%%%%%%%%%%%%%%%%%%%%%%%%%%%%%%%%%%%%%%%%%%%%%%
     Error in routine write_rhog (3):
     error writing file ./pwscf.save/charge-density
 %%%%%%%%%%%%%%%%%%%%%%%%%%%%%%%%%%%%%%%%%%%%%%%%%%%%%%%%%%%%%%%%%%%%%%%%%%%%%%

     stopping ...

 %%%%%%%%%%%%%%%%%%%%%%%%%%%%%%%%%%%%%%%%%%%%%%%%%%%%%%%%%%%%%%%%%%%%%%%%%%%%%%
     Error in routine write_rhog (3):
     error writing file ./pwscf.save/charge-density
 %%%%%%%%%%%%%%%%%%%%%%%%%%%%%%%%%%%%%%%%%%%%%%%%%%%%%%%%%%%%%%%%%%%%%%%%%%%%%%

     stopping ...

 %%%%%%%%%%%%%%%%%%%%%%%%%%%%%%%%%%%%%%%%%%%%%%%%%%%%%%%%%%%%%%%%%%%%%%%%%%%%%%
     Error in routine write_rhog (3):
     error writing file ./pwscf.save/charge-density
 %%%%%%%%%%%%%%%%%%%%%%%%%%%%%%%%%%%%%%%%%%%%%%%%%%%%%%%%%%%%%%%%%%%%%%%%%%%%%%

     stopping ...

 %%%%%%%%%%%%%%%%%%%%%%%%%%%%%%%%%%%%%%%%%%%%%%%%%%%%%%%%%%%%%%%%%%%%%%%%%%%%%%
     Error in routine write_rhog (3):
     error writing file ./pwscf.save/charge-density
 %%%%%%%%%%%%%%%%%%%%%%%%%%%%%%%%%%%%%%%%%%%%%%%%%%%%%%%%%%%%%%%%%%%%%%%%%%%%%%

     stopping ...

 %%%%%%%%%%%%%%%%%%%%%%%%%%%%%%%%%%%%%%%%%%%%%%%%%%%%%%%%%%%%%%%%%%%%%%%%%%%%%%
     Error in routine write_rhog (3):
     error writing file ./pwscf.save/charge-density
 %%%%%%%%%%%%%%%%%%%%%%%%%%%%%%%%%%%%%%%%%%%%%%%%%%%%%%%%%%%%%%%%%%%%%%%%%%%%%%

     stopping ...

 %%%%%%%%%%%%%%%%%%%%%%%%%%%%%%%%%%%%%%%%%%%%%%%%%%%%%%%%%%%%%%%%%%%%%%%%%%%%%%
     Error in routine write_rhog (3):
     error writing file ./pwscf.save/charge-density
 %%%%%%%%%%%%%%%%%%%%%%%%%%%%%%%%%%%%%%%%%%%%%%%%%%%%%%%%%%%%%%%%%%%%%%%%%%%%%%

     stopping ...

 %%%%%%%%%%%%%%%%%%%%%%%%%%%%%%%%%%%%%%%%%%%%%%%%%%%%%%%%%%%%%%%%%%%%%%%%%%%%%%
     Error in routine write_rhog (3):
     error writing file ./pwscf.save/charge-density
 %%%%%%%%%%%%%%%%%%%%%%%%%%%%%%%%%%%%%%%%%%%%%%%%%%%%%%%%%%%%%%%%%%%%%%%%%%%%%%

     stopping ...

 %%%%%%%%%%%%%%%%%%%%%%%%%%%%%%%%%%%%%%%%%%%%%%%%%%%%%%%%%%%%%%%%%%%%%%%%%%%%%%
     Error in routine write_rhog (3):
     error writing file ./pwscf.save/charge-density
 %%%%%%%%%%%%%%%%%%%%%%%%%%%%%%%%%%%%%%%%%%%%%%%%%%%%%%%%%%%%%%%%%%%%%%%%%%%%%%

     stopping ...

 %%%%%%%%%%%%%%%%%%%%%%%%%%%%%%%%%%%%%%%%%%%%%%%%%%%%%%%%%%%%%%%%%%%%%%%%%%%%%%
     Error in routine write_rhog (3):
     error writing file ./pwscf.save/charge-density
 %%%%%%%%%%%%%%%%%%%%%%%%%%%%%%%%%%%%%%%%%%%%%%%%%%%%%%%%%%%%%%%%%%%%%%%%%%%%%%

     stopping ...

 %%%%%%%%%%%%%%%%%%%%%%%%%%%%%%%%%%%%%%%%%%%%%%%%%%%%%%%%%%%%%%%%%%%%%%%%%%%%%%
     Error in routine write_rhog (3):
     error writing file ./pwscf.save/charge-density
 %%%%%%%%%%%%%%%%%%%%%%%%%%%%%%%%%%%%%%%%%%%%%%%%%%%%%%%%%%%%%%%%%%%%%%%%%%%%%%

     stopping ...

 %%%%%%%%%%%%%%%%%%%%%%%%%%%%%%%%%%%%%%%%%%%%%%%%%%%%%%%%%%%%%%%%%%%%%%%%%%%%%%
     Error in routine write_rhog (3):
     error writing file ./pwscf.save/charge-density
 %%%%%%%%%%%%%%%%%%%%%%%%%%%%%%%%%%%%%%%%%%%%%%%%%%%%%%%%%%%%%%%%%%%%%%%%%%%%%%

     stopping ...

 %%%%%%%%%%%%%%%%%%%%%%%%%%%%%%%%%%%%%%%%%%%%%%%%%%%%%%%%%%%%%%%%%%%%%%%%%%%%%%
     Error in routine write_rhog (3):
     error writing file ./pwscf.save/charge-density
 %%%%%%%%%%%%%%%%%%%%%%%%%%%%%%%%%%%%%%%%%%%%%%%%%%%%%%%%%%%%%%%%%%%%%%%%%%%%%%

     stopping ...

 %%%%%%%%%%%%%%%%%%%%%%%%%%%%%%%%%%%%%%%%%%%%%%%%%%%%%%%%%%%%%%%%%%%%%%%%%%%%%%
     Error in routine write_rhog (3):
     error writing file ./pwscf.save/charge-density
 %%%%%%%%%%%%%%%%%%%%%%%%%%%%%%%%%%%%%%%%%%%%%%%%%%%%%%%%%%%%%%%%%%%%%%%%%%%%%%

     stopping ...

 %%%%%%%%%%%%%%%%%%%%%%%%%%%%%%%%%%%%%%%%%%%%%%%%%%%%%%%%%%%%%%%%%%%%%%%%%%%%%%
     Error in routine write_rhog (3):
     error writing file ./pwscf.save/charge-density
 %%%%%%%%%%%%%%%%%%%%%%%%%%%%%%%%%%%%%%%%%%%%%%%%%%%%%%%%%%%%%%%%%%%%%%%%%%%%%%

     stopping ...

 %%%%%%%%%%%%%%%%%%%%%%%%%%%%%%%%%%%%%%%%%%%%%%%%%%%%%%%%%%%%%%%%%%%%%%%%%%%%%%
     Error in routine write_rhog (3):
     error writing file ./pwscf.save/charge-density
 %%%%%%%%%%%%%%%%%%%%%%%%%%%%%%%%%%%%%%%%%%%%%%%%%%%%%%%%%%%%%%%%%%%%%%%%%%%%%%

     stopping ...

 %%%%%%%%%%%%%%%%%%%%%%%%%%%%%%%%%%%%%%%%%%%%%%%%%%%%%%%%%%%%%%%%%%%%%%%%%%%%%%
     Error in routine write_rhog (3):
     error writing file ./pwscf.save/charge-density
 %%%%%%%%%%%%%%%%%%%%%%%%%%%%%%%%%%%%%%%%%%%%%%%%%%%%%%%%%%%%%%%%%%%%%%%%%%%%%%

     stopping ...

 %%%%%%%%%%%%%%%%%%%%%%%%%%%%%%%%%%%%%%%%%%%%%%%%%%%%%%%%%%%%%%%%%%%%%%%%%%%%%%
     Error in routine write_rhog (3):
     error writing file ./pwscf.save/charge-density
 %%%%%%%%%%%%%%%%%%%%%%%%%%%%%%%%%%%%%%%%%%%%%%%%%%%%%%%%%%%%%%%%%%%%%%%%%%%%%%

     stopping ...

 %%%%%%%%%%%%%%%%%%%%%%%%%%%%%%%%%%%%%%%%%%%%%%%%%%%%%%%%%%%%%%%%%%%%%%%%%%%%%%
     Error in routine write_rhog (3):
     error writing file ./pwscf.save/charge-density
 %%%%%%%%%%%%%%%%%%%%%%%%%%%%%%%%%%%%%%%%%%%%%%%%%%%%%%%%%%%%%%%%%%%%%%%%%%%%%%

     stopping ...

 %%%%%%%%%%%%%%%%%%%%%%%%%%%%%%%%%%%%%%%%%%%%%%%%%%%%%%%%%%%%%%%%%%%%%%%%%%%%%%
     Error in routine write_rhog (3):
     error writing file ./pwscf.save/charge-density
 %%%%%%%%%%%%%%%%%%%%%%%%%%%%%%%%%%%%%%%%%%%%%%%%%%%%%%%%%%%%%%%%%%%%%%%%%%%%%%

     stopping ...

 %%%%%%%%%%%%%%%%%%%%%%%%%%%%%%%%%%%%%%%%%%%%%%%%%%%%%%%%%%%%%%%%%%%%%%%%%%%%%%
     Error in routine write_rhog (3):
     error writing file ./pwscf.save/charge-density
 %%%%%%%%%%%%%%%%%%%%%%%%%%%%%%%%%%%%%%%%%%%%%%%%%%%%%%%%%%%%%%%%%%%%%%%%%%%%%%

     stopping ...

 %%%%%%%%%%%%%%%%%%%%%%%%%%%%%%%%%%%%%%%%%%%%%%%%%%%%%%%%%%%%%%%%%%%%%%%%%%%%%%
     Error in routine write_rhog (3):
     error writing file ./pwscf.save/charge-density
 %%%%%%%%%%%%%%%%%%%%%%%%%%%%%%%%%%%%%%%%%%%%%%%%%%%%%%%%%%%%%%%%%%%%%%%%%%%%%%

     stopping ...

 %%%%%%%%%%%%%%%%%%%%%%%%%%%%%%%%%%%%%%%%%%%%%%%%%%%%%%%%%%%%%%%%%%%%%%%%%%%%%%
     Error in routine write_rhog (3):
     error writing file ./pwscf.save/charge-density
 %%%%%%%%%%%%%%%%%%%%%%%%%%%%%%%%%%%%%%%%%%%%%%%%%%%%%%%%%%%%%%%%%%%%%%%%%%%%%%

     stopping ...

 %%%%%%%%%%%%%%%%%%%%%%%%%%%%%%%%%%%%%%%%%%%%%%%%%%%%%%%%%%%%%%%%%%%%%%%%%%%%%%
     Error in routine write_rhog (3):
     error writing file ./pwscf.save/charge-density
 %%%%%%%%%%%%%%%%%%%%%%%%%%%%%%%%%%%%%%%%%%%%%%%%%%%%%%%%%%%%%%%%%%%%%%%%%%%%%%

     stopping ...

 %%%%%%%%%%%%%%%%%%%%%%%%%%%%%%%%%%%%%%%%%%%%%%%%%%%%%%%%%%%%%%%%%%%%%%%%%%%%%%
     Error in routine write_rhog (3):
     error writing file ./pwscf.save/charge-density
 %%%%%%%%%%%%%%%%%%%%%%%%%%%%%%%%%%%%%%%%%%%%%%%%%%%%%%%%%%%%%%%%%%%%%%%%%%%%%%

     stopping ...
