
     Program PWSCF v.7.5 starts on  4Dec2025 at 23:26:16 

     This program is part of the open-source Quantum ESPRESSO suite
     for quantum simulation of materials; please cite
         "P. Giannozzi et al., J. Phys.:Condens. Matter 21 395502 (2009);
         "P. Giannozzi et al., J. Phys.:Condens. Matter 29 465901 (2017);
         "P. Giannozzi et al., J. Chem. Phys. 152 154105 (2020);
          URL http://www.quantum-espresso.org", 
     in publications or presentations arising from this work. More details at
     http://www.quantum-espresso.org/quote

     Parallel version (MPI), running on    96 processors

     MPI processes distributed on     2 nodes
     173914 MiB available memory on the printing compute node when the environment starts
 
     Reading input from pw.in

     Current dimensions of program PWSCF are:
     Max number of different atomic species (ntypx) = 10
     Max number of k-points (npk) =  40000
     Max angular momentum in pseudopotentials (lmaxx) =  4

     gamma-point specific algorithms are used
 
     K-points division:     npool     =       2
     R & G space division:  proc/nbgrp/npool/nimage =      48
     Subspace diagonalization in iterative solution of the eigenvalue problem:
     one sub-group per band group will be used
     scalapack distributed-memory algorithm (size of sub-group:  6*  6 procs)

 
     Parallelization info
     --------------------
     sticks:   dense  smooth     PW     G-vecs:    dense   smooth      PW
     Min         384     384     96                39496    39496    4936
     Max         386     386     98                39521    39521    4949
     Sum       18505   18505   4637              1896521  1896521  237129
 
     Using Slab Decomposition
 


     bravais-lattice index     =            0
     lattice parameter (alat)  =      26.9702  a.u.
     unit-cell volume          =   19617.8366 (a.u.)^3
     number of atoms/cell      =          511
     number of atomic types    =            2
     number of electrons       =      2046.00 (up:1024.00, down:1022.00)
     number of Kohn-Sham states=         1032
     kinetic-energy cutoff     =      80.0000  Ry
     charge density cutoff     =     320.0000  Ry
     scf convergence threshold =      1.0E-10
     mixing beta               =       0.7000
     number of iterations used =            8  plain     mixing
     Exchange-correlation= PBE
                           (   1   4   3   4   0   0   0)

     celldm(1)=  26.970171  celldm(2)=   0.000000  celldm(3)=   0.000000
     celldm(4)=   0.000000  celldm(5)=   0.000000  celldm(6)=   0.000000

     crystal axes: (cart. coord. in units of alat)
               a(1) = (   1.000000   0.000000   0.000000 )  
               a(2) = (   0.000000   1.000000   0.000000 )  
               a(3) = (   0.000000   0.000000   1.000000 )  

     reciprocal axes: (cart. coord. in units 2 pi/alat)
               b(1) = (  1.000000  0.000000  0.000000 )  
               b(2) = (  0.000000  1.000000  0.000000 )  
               b(3) = (  0.000000  0.000000  1.000000 )  


     PseudoPot. # 1 for C  read from file:
     ./C_ONCV_PBE-1.2.upf
     MD5 check sum: d60b57d9bdca4133f5fde4b584ee909d
     Pseudo is Norm-conserving, Zval =  4.0
     Generated using ONCVPSP code by D. R. Hamann
     Using radial grid of  602 points,  4 beta functions with: 
                l(1) =   0
                l(2) =   0
                l(3) =   1
                l(4) =   1

     PseudoPot. # 2 for N  read from file:
     ./N_ONCV_PBE-1.2.upf
     MD5 check sum: 5312fdf34e96954e02a33bdc911c617a
     Pseudo is Norm-conserving, Zval =  5.0
     Generated using ONCVPSP code by D. R. Hamann
     Using radial grid of  602 points,  4 beta functions with: 
                l(1) =   0
                l(2) =   0
                l(3) =   1
                l(4) =   1

     atomic species   valence    mass     pseudopotential
     C                 4.00    12.01100     C ( 1.00)
     N                 5.00    14.00670     N ( 1.00)

     Starting magnetic structure 
     atomic species   magnetization
     C               0.000
     N               0.000

     No symmetry found


                                    s                        frac. trans.

      isym =  1     identity                                     

 cryst.   s( 1) = (     1          0          0      )
                  (     0          1          0      )
                  (     0          0          1      )

 cart.    s( 1) = (  1.0000000  0.0000000  0.0000000 )
                  (  0.0000000  1.0000000  0.0000000 )
                  (  0.0000000  0.0000000  1.0000000 )


   Cartesian axes

     site n.     atom                  positions (alat units)
         1        C      tau(   1) = (  -0.0000284  -0.0000205   0.0000013  )
         2        C      tau(   2) = (  -0.0000510   0.0000090   0.2500135  )
         3        C      tau(   3) = (  -0.0001207  -0.0000427   0.5000078  )
         4        C      tau(   4) = (  -0.0000121  -0.0000530   0.7499944  )
         5        C      tau(   5) = (  -0.0000520   0.2499920   0.0000322  )
         6        C      tau(   6) = (   0.0000001   0.2500251   0.2500476  )
         7        C      tau(   7) = (  -0.0000526   0.2500406   0.5000461  )
         8        C      tau(   8) = (  -0.0001186   0.2499686   0.7500265  )
         9        C      tau(   9) = (  -0.0001208   0.4999858  -0.0000168  )
        10        C      tau(  10) = (  -0.0000530   0.5000224   0.2500658  )
        11        C      tau(  11) = (   0.0000313   0.4999866   0.5000117  )
        12        C      tau(  12) = (   0.0000117   0.4999545   0.7499546  )
        13        C      tau(  13) = (  -0.0000116   0.7499726  -0.0000279  )
        14        C      tau(  14) = (  -0.0001178   0.7500020   0.2499939  )
        15        C      tau(  15) = (   0.0000117   0.7499296   0.4999784  )
        16        C      tau(  16) = (   0.0000884   0.7499274   0.7499516  )
        17        C      tau(  17) = (   0.2499552  -0.0000468  -0.0000192  )
        18        C      tau(  18) = (   0.2499161   0.0000781   0.2499663  )
        19        C      tau(  19) = (   0.2499715  -0.0000701   0.5000024  )
        20        C      tau(  20) = (   0.2499604  -0.0002041   0.7500046  )
        21        C      tau(  21) = (   0.2499140   0.2499384   0.0001070  )
        22        C      tau(  22) = (   0.2501135   0.2501872   0.2502150  )
        23        C      tau(  23) = (   0.2495660   0.2494847   0.5002902  )
        24        C      tau(  24) = (   0.2499283   0.2498374   0.7501224  )
        25        C      tau(  25) = (   0.2499719   0.4999763  -0.0000411  )
        26        C      tau(  26) = (   0.2495662   0.5002594   0.2495146  )
        27        C      tau(  27) = (   0.2508158   0.4999104   0.4999423  )
        28        C      tau(  28) = (   0.2496761   0.4996243   0.7504011  )
        29        C      tau(  29) = (   0.2499622   0.7499763  -0.0001695  )
        30        C      tau(  30) = (   0.2499318   0.7500893   0.2498723  )
        31        C      tau(  31) = (   0.2496758   0.7503699   0.4996552  )
        32        C      tau(  32) = (   0.2502936   0.7496464   0.7496785  )
        33        C      tau(  33) = (   0.4999578  -0.0000477  -0.0000203  )
        34        C      tau(  34) = (   0.4999630   0.0000288   0.2500012  )
        35        C      tau(  35) = (   0.4999754  -0.0000272   0.5000124  )
        36        C      tau(  36) = (   0.4999794  -0.0001089   0.7500171  )
        37        C      tau(  37) = (   0.4999623   0.2499762   0.0000541  )
        38        C      tau(  38) = (   0.4999441   0.2497565   0.2497833  )
        39        C      tau(  39) = (   0.4998941   0.2502088   0.5001358  )
        40        C      tau(  40) = (   0.4997436   0.2491463   0.7508572  )
        41        C      tau(  41) = (   0.4999760   0.4999880  -0.0000017  )
        42        C      tau(  42) = (   0.4998956   0.5001048   0.2502394  )
        43        C      tau(  43) = (   0.5000192   0.4998489   0.7497694  )
        44        C      tau(  44) = (   0.4999808   0.7499905  -0.0000791  )
        45        C      tau(  45) = (   0.4997460   0.7508297   0.2491745  )
        46        C      tau(  46) = (   0.5000203   0.7497415   0.4998773  )
        47        C      tau(  47) = (   0.5000834   0.7500036   0.7500307  )
        48        C      tau(  48) = (   0.7499815  -0.0000005   0.0000210  )
        49        C      tau(  49) = (   0.7499718  -0.0000237   0.2500222  )
        50        C      tau(  50) = (   0.7499674  -0.0000026   0.5000214  )
        51        C      tau(  51) = (   0.7499976   0.0000058   0.7500238  )
        52        C      tau(  52) = (   0.7499714   0.2500014  -0.0000020  )
        53        C      tau(  53) = (   0.7499530   0.2500050   0.2500272  )
        54        C      tau(  54) = (   0.7501351   0.2497491   0.5000124  )
        55        C      tau(  55) = (   0.7497810   0.2501596   0.7498986  )
        56        C      tau(  56) = (   0.7499675   0.5000005   0.0000199  )
        57        C      tau(  57) = (   0.7501344   0.4999855   0.2497773  )
        58        C      tau(  58) = (   0.7495700   0.5000380   0.5000667  )
        59        C      tau(  59) = (   0.7500776   0.5000525   0.7501809  )
        60        C      tau(  60) = (   0.7499980   0.7500023   0.0000286  )
        61        C      tau(  61) = (   0.7497791   0.7498721   0.2501868  )
        62        C      tau(  62) = (   0.7500767   0.7501557   0.5000775  )
        63        C      tau(  63) = (   0.7500805   0.7500631   0.7500856  )
        64        C      tau(  64) = (  -0.0000273   0.1250085   0.1250300  )
        65        C      tau(  65) = (  -0.0000328   0.1250187   0.3750260  )
        66        C      tau(  66) = (  -0.0001214   0.1249836   0.6250361  )
        67        C      tau(  67) = (  -0.0000572   0.1249713   0.8750124  )
        68        C      tau(  68) = (  -0.0000335   0.3750042   0.1250426  )
        69        C      tau(  69) = (  -0.0000090   0.3750455   0.3750700  )
        70        C      tau(  70) = (  -0.0000261   0.3749957   0.6250028  )
        71        C      tau(  71) = (  -0.0001055   0.3749677   0.8750109  )
        72        C      tau(  72) = (  -0.0001209   0.6250129   0.1250101  )
        73        C      tau(  73) = (  -0.0000264   0.6249782   0.3750209  )
        74        C      tau(  74) = (   0.0000772   0.6249241   0.6249492  )
        75        C      tau(  75) = (   0.0000310   0.6249647   0.8749447  )
        76        C      tau(  76) = (  -0.0000562   0.8749899   0.1249946  )
        77        C      tau(  77) = (  -0.0001045   0.8749859   0.3749908  )
        78        C      tau(  78) = (   0.0000307   0.8749191   0.6249871  )
        79        C      tau(  79) = (   0.0000286   0.8749480   0.8749707  )
        80        C      tau(  80) = (   0.2499572   0.1250482   0.1250746  )
        81        C      tau(  81) = (   0.2499993   0.1250186   0.3750768  )
        82        C      tau(  82) = (   0.2498443   0.1247526   0.6251118  )
        83        C      tau(  83) = (   0.2499293   0.1248732   0.8750650  )
        84        C      tau(  84) = (   0.2499997   0.3750502   0.1250455  )
        85        C      tau(  85) = (   0.2506021   0.3754049   0.3754351  )
        86        C      tau(  86) = (   0.2499835   0.3747838   0.6251567  )
        87        C      tau(  87) = (   0.2498443   0.3748530   0.8751895  )
        88        C      tau(  88) = (   0.2498472   0.6250808   0.1247874  )
        89        C      tau(  89) = (   0.2499852   0.6251230   0.3748179  )
        90        C      tau(  90) = (   0.2507976   0.6244024   0.6244334  )
        91        C      tau(  91) = (   0.2501976   0.6248719   0.8747569  )
        92        C      tau(  92) = (   0.2499322   0.8750355   0.1249053  )
        93        C      tau(  93) = (   0.2498469   0.8751574   0.3748842  )
        94        C      tau(  94) = (   0.2501978   0.8747240   0.6249006  )
        95        C      tau(  95) = (   0.2500142   0.8748388   0.8748690  )
        96        C      tau(  96) = (   0.4999735   0.1249154   0.1249397  )
        97        C      tau(  97) = (   0.4999631   0.1250331   0.3750669  )
        98        C      tau(  98) = (   0.4999210   0.1249237   0.6250665  )
        99        C      tau(  99) = (   0.4999045   0.1246563   0.8753180  )
       100        C      tau( 100) = (   0.4999635   0.3750416   0.1250586  )
       101        C      tau( 101) = (   0.4999495   0.3754627   0.3754937  )
       102        C      tau( 102) = (   0.4985340   0.3746379   0.6252604  )
       103        C      tau( 103) = (   0.4999522   0.3749668   0.8750131  )
       104        C      tau( 104) = (   0.4999242   0.6250371   0.1249544  )
       105        C      tau( 105) = (   0.4985356   0.6252324   0.3746665  )
       106        C      tau( 106) = (   0.5018845   0.6241415   0.6241692  )
       107        C      tau( 107) = (   0.5000358   0.6249163   0.8749354  )
       108        C      tau( 108) = (   0.4999061   0.8752895   0.1246860  )
       109        C      tau( 109) = (   0.4999536   0.8749868   0.3749937  )
       110        C      tau( 110) = (   0.5000355   0.8749083   0.6249418  )
       111        C      tau( 111) = (   0.5000109   0.8749567   0.8749836  )
       112        C      tau( 112) = (   0.7499769   0.1249984   0.1250191  )
       113        C      tau( 113) = (   0.7500004   0.1249495   0.3750200  )
       114        C      tau( 114) = (   0.7498919   0.1250221   0.6250179  )
       115        C      tau( 115) = (   0.7499439   0.1250392   0.8749804  )
       116        C      tau( 116) = (   0.7499998   0.3749984   0.1249724  )
       117        C      tau( 117) = (   0.7499955   0.3749592   0.3749855  )
       118        C      tau( 118) = (   0.7492119   0.3755439   0.6249198  )
       119        C      tau( 119) = (   0.7499018   0.3750183   0.8749652  )
       120        C      tau( 120) = (   0.7498919   0.6249944   0.1250470  )
       121        C      tau( 121) = (   0.7492129   0.6248920   0.3755721  )
       122        C      tau( 122) = (   0.7501983   0.6251608   0.6251871  )
       123        C      tau( 123) = (   0.7500563   0.6250297   0.8750947  )
       124        C      tau( 124) = (   0.7499438   0.8749577   0.1250622  )
       125        C      tau( 125) = (   0.7499013   0.8749420   0.3750410  )
       126        C      tau( 126) = (   0.7500555   0.8750718   0.6250509  )
       127        C      tau( 127) = (   0.7500230   0.8750110   0.8750324  )
       128        C      tau( 128) = (   0.1249519   0.0000141   0.1249968  )
       129        C      tau( 129) = (   0.1249047   0.0000291   0.3749924  )
       130        C      tau( 130) = (   0.1249621  -0.0001472   0.6250112  )
       131        C      tau( 131) = (   0.1249760  -0.0000907   0.8749825  )
       132        C      tau( 132) = (   0.1249918   0.2500315   0.1250974  )
       133        C      tau( 133) = (   0.1250591   0.2501106   0.3750998  )
       134        C      tau( 134) = (   0.1248686   0.2498599   0.6250880  )
       135        C      tau( 135) = (   0.1249134   0.2499314   0.8750541  )
       136        C      tau( 136) = (   0.1247681   0.5000596   0.1248194  )
       137        C      tau( 137) = (   0.1251631   0.5000465   0.3750591  )
       138        C      tau( 138) = (   0.1252174   0.4998692   0.6249020  )
       139        C      tau( 139) = (   0.1248226   0.4998878   0.8751321  )
       140        C      tau( 140) = (   0.1249282   0.7500109   0.1249297  )
       141        C      tau( 141) = (   0.1248927   0.7500720   0.3749171  )
       142        C      tau( 142) = (   0.1251809   0.7497624   0.6248641  )
       143        C      tau( 143) = (   0.1250878   0.7498813   0.8748460  )
       144        C      tau( 144) = (   0.3749350   0.0000591   0.1249438  )
       145        C      tau( 145) = (   0.3749659   0.0000102   0.3749993  )
       146        C      tau( 146) = (   0.3749807  -0.0001245   0.6250071  )
       147        C      tau( 147) = (   0.3749552  -0.0001726   0.8750131  )
       148        C      tau( 148) = (   0.3749644   0.2500581   0.1250740  )
       149        C      tau( 149) = (   0.3751798   0.2502716   0.3753891  )
       150        C      tau( 150) = (   0.3748827   0.2495778   0.6253522  )
       151        C      tau( 151) = (   0.3748936   0.2497386   0.8752735  )
       152        C      tau( 152) = (   0.3749714   0.5000654   0.1250003  )
       153        C      tau( 153) = (   0.3759495   0.5011927   0.3754248  )
       154        C      tau( 154) = (   0.3761496   0.4983628   0.6242791  )
       155        C      tau( 155) = (   0.3750631   0.4998800   0.8749166  )
       156        C      tau( 156) = (   0.3749066   0.7501893   0.1247236  )
       157        C      tau( 157) = (   0.3748843   0.7503840   0.3746260  )
       158        C      tau( 158) = (   0.3756601   0.7492148   0.6246231  )
       159        C      tau( 159) = (   0.3750529   0.7498214   0.8748051  )
       160        C      tau( 160) = (   0.6249883  -0.0000137   0.1250189  )
       161        C      tau( 161) = (   0.6249686   0.0000031   0.3750215  )
       162        C      tau( 162) = (   0.6249806  -0.0000236   0.6250154  )
       163        C      tau( 163) = (   0.6249979  -0.0000343   0.8750231  )
       164        C      tau( 164) = (   0.6249712   0.2499596   0.1249731  )
       165        C      tau( 165) = (   0.6249393   0.2498839   0.3750149  )
       166        C      tau( 166) = (   0.6245886   0.2502085   0.6248713  )
       167        C      tau( 167) = (   0.6249567   0.2500956   0.8749639  )
       168        C      tau( 168) = (   0.6249235   0.5000099   0.1250389  )
       169        C      tau( 169) = (   0.6241165   0.4996308   0.3754516  )
       170        C      tau( 170) = (   0.6241822   0.5018894   0.6244866  )
       171        C      tau( 171) = (   0.6249725   0.4999910   0.8750083  )
       172        C      tau( 172) = (   0.6249403   0.7499843   0.1249691  )
       173        C      tau( 173) = (   0.6247368   0.7494878   0.3754928  )
       174        C      tau( 174) = (   0.6251405   0.7502642   0.6251398  )
       175        C      tau( 175) = (   0.6250411   0.7500342   0.8750687  )
       176        C      tau( 176) = (   0.8749648  -0.0000126   0.1250204  )
       177        C      tau( 177) = (   0.8749500  -0.0000236   0.3750163  )
       178        C      tau( 178) = (   0.8749751  -0.0000051   0.6250195  )
       179        C      tau( 179) = (   0.8749853   0.0000013   0.8750068  )
       180        C      tau( 180) = (   0.8749714   0.2500052   0.1250239  )
       181        C      tau( 181) = (   0.8750081   0.2499729   0.3750261  )
       182        C      tau( 182) = (   0.8747630   0.2501835   0.6250244  )
       183        C      tau( 183) = (   0.8749064   0.2500106   0.8749807  )
       184        C      tau( 184) = (   0.8750129   0.4999885   0.1249656  )
       185        C      tau( 185) = (   0.8748253   0.5000094   0.3751143  )
       186        C      tau( 186) = (   0.8749138   0.5000160   0.6249922  )
       187        C      tau( 187) = (   0.8750008   0.5000081   0.8750250  )
       188        C      tau( 188) = (   0.8749038   0.7499725   0.1250652  )
       189        C      tau( 189) = (   0.8748495   0.7499097   0.3750517  )
       190        C      tau( 190) = (   0.8750884   0.7500271   0.6250378  )
       191        C      tau( 191) = (   0.8750429   0.7499940   0.8750172  )
       192        C      tau( 192) = (   0.1249507   0.1249725   0.0000386  )
       193        C      tau( 193) = (   0.1249923   0.1250720   0.2500553  )
       194        C      tau( 194) = (   0.1247667   0.1247899   0.5000863  )
       195        C      tau( 195) = (   0.1249258   0.1249000   0.7500370  )
       196        C      tau( 196) = (   0.1249032   0.3749676   0.0000564  )
       197        C      tau( 197) = (   0.1250591   0.3750738   0.2501372  )
       198        C      tau( 198) = (   0.1251633   0.3750311   0.5000746  )
       199        C      tau( 199) = (   0.1248904   0.3748880   0.7501016  )
       200        C      tau( 200) = (   0.1249632   0.6249860  -0.0001163  )
       201        C      tau( 201) = (   0.1248710   0.6250596   0.2498902  )
       202        C      tau( 202) = (   0.1252171   0.6248726   0.4998983  )
       203        C      tau( 203) = (   0.1251808   0.6248356   0.7497927  )
       204        C      tau( 204) = (   0.1249771   0.8749581  -0.0000640  )
       205        C      tau( 205) = (   0.1249161   0.8750271   0.2499585  )
       206        C      tau( 206) = (   0.1248242   0.8751023   0.4999149  )
       207        C      tau( 207) = (   0.1250875   0.8748162   0.7499075  )
       208        C      tau( 208) = (   0.3749338   0.1249142   0.0000883  )
       209        C      tau( 209) = (   0.3749646   0.1250481   0.2500837  )
       210        C      tau( 210) = (   0.3749694   0.1249710   0.5000946  )
       211        C      tau( 211) = (   0.3749038   0.1246883   0.7502217  )
       212        C      tau( 212) = (   0.3749655   0.3749733   0.0000369  )
       213        C      tau( 213) = (   0.3751802   0.3753582   0.2503023  )
       214        C      tau( 214) = (   0.3759484   0.3753946   0.5012229  )
       215        C      tau( 215) = (   0.3748824   0.3745950   0.7504139  )
       216        C      tau( 216) = (   0.3749824   0.6249798  -0.0000930  )
       217        C      tau( 217) = (   0.3748851   0.6253206   0.2496098  )
       218        C      tau( 218) = (   0.3761504   0.6242502   0.4983923  )
       219        C      tau( 219) = (   0.3756602   0.6245934   0.7492449  )
       220        C      tau( 220) = (   0.3749565   0.8749835  -0.0001394  )
       221        C      tau( 221) = (   0.3748961   0.8752418   0.2497711  )
       222        C      tau( 222) = (   0.3750635   0.8748881   0.4999081  )
       223        C      tau( 223) = (   0.3750526   0.8747729   0.7498503  )
       224        C      tau( 224) = (   0.6249880   0.1249961   0.0000091  )
       225        C      tau( 225) = (   0.6249715   0.1249502   0.2499819  )
       226        C      tau( 226) = (   0.6249226   0.1250137   0.5000347  )
       227        C      tau( 227) = (   0.6249387   0.1249418   0.7500106  )
       228        C      tau( 228) = (   0.6249684   0.3749991   0.0000261  )
       229        C      tau( 229) = (   0.6249397   0.3749885   0.2499105  )
       230        C      tau( 230) = (   0.6241144   0.3754230   0.4996600  )
       231        C      tau( 231) = (   0.6247355   0.3754660   0.7495140  )
       232        C      tau( 232) = (   0.6249814   0.6249926   0.0000008  )
       233        C      tau( 233) = (   0.6245896   0.6248411   0.2502390  )
       234        C      tau( 234) = (   0.6241833   0.6244600   0.5019161  )
       235        C      tau( 235) = (   0.6251410   0.6251135   0.7502915  )
       236        C      tau( 236) = (   0.6249981   0.8749991  -0.0000096  )
       237        C      tau( 237) = (   0.6249574   0.8749399   0.2501204  )
       238        C      tau( 238) = (   0.6249724   0.8749842   0.5000147  )
       239        C      tau( 239) = (   0.6250409   0.8750449   0.7500569  )
       240        C      tau( 240) = (   0.8749646   0.1249997   0.0000085  )
       241        C      tau( 241) = (   0.8749718   0.1250027   0.2500256  )
       242        C      tau( 242) = (   0.8750140   0.1249413   0.5000102  )
       243        C      tau( 243) = (   0.8749043   0.1250407   0.7499951  )
       244        C      tau( 244) = (   0.8749495   0.3749960  -0.0000011  )
       245        C      tau( 245) = (   0.8750078   0.3750034   0.2499964  )
       246        C      tau( 246) = (   0.8748258   0.3750872   0.5000355  )
       247        C      tau( 247) = (   0.8748510   0.3750268   0.7499345  )
       248        C      tau( 248) = (   0.8749754   0.6249988   0.0000182  )
       249        C      tau( 249) = (   0.8747611   0.6249988   0.2502108  )
       250        C      tau( 250) = (   0.8749134   0.6249671   0.5000413  )
       251        C      tau( 251) = (   0.8750888   0.6250155   0.7500501  )
       252        C      tau( 252) = (   0.8749854   0.8749858   0.0000231  )
       253        C      tau( 253) = (   0.8749061   0.8749575   0.2500329  )
       254        C      tau( 254) = (   0.8750003   0.8750020   0.5000292  )
       255        C      tau( 255) = (   0.8750426   0.8749952   0.7500148  )
       256        C      tau( 256) = (   0.1874475   0.0625604   0.1875243  )
       257        C      tau( 257) = (   0.1874174   0.0624537   0.4375287  )
       258        C      tau( 258) = (   0.1874185   0.0623092   0.6875365  )
       259        C      tau( 259) = (   0.1874481   0.0624286   0.9375187  )
       260        C      tau( 260) = (   0.1875355   0.3125694   0.1876226  )
       261        C      tau( 261) = (   0.1876724   0.3125523   0.4376394  )
       262        C      tau( 262) = (   0.1874004   0.3123780   0.6875920  )
       263        C      tau( 263) = (   0.1873879   0.3124283   0.9376218  )
       264        C      tau( 264) = (   0.1871405   0.5625100   0.1871340  )
       265        C      tau( 265) = (   0.1877947   0.5624532   0.4374652  )
       266        C      tau( 266) = (   0.1877987   0.5622736   0.6873334  )
       267        C      tau( 267) = (   0.1875131   0.5624307   0.9374005  )
       268        C      tau( 268) = (   0.1874276   0.8125361   0.1874226  )
       269        C      tau( 269) = (   0.1871891   0.8128047   0.4374656  )
       270        C      tau( 270) = (   0.1876797   0.8122366   0.6873433  )
       271        C      tau( 271) = (   0.1874985   0.8124160   0.9373684  )
       272        C      tau( 272) = (   0.4374493   0.0625209   0.1875045  )
       273        C      tau( 273) = (   0.4374457   0.0624887   0.4375344  )
       274        C      tau( 274) = (   0.4374499   0.0623579   0.6875657  )
       275        C      tau( 275) = (   0.4374763   0.0622984   0.9376381  )
       276        C      tau( 276) = (   0.4374302   0.3125880   0.1875814  )
       277        C      tau( 277) = (   0.4376166   0.3128768   0.4380515  )
       278        C      tau( 278) = (   0.4377172   0.3110738   0.6889842  )
       279        C      tau( 279) = (   0.4374457   0.3124204   0.9375751  )
       280        C      tau( 280) = (   0.4374271   0.5625979   0.1874411  )
       281        C      tau( 281) = (   0.4383767   0.5615330   0.6864692  )
       282        C      tau( 282) = (   0.4374837   0.5624474   0.9374532  )
       283        C      tau( 283) = (   0.4374963   0.8130630   0.1869258  )
       284        C      tau( 284) = (   0.4374651   0.8125055   0.4373638  )
       285        C      tau( 285) = (   0.4376149   0.8122350   0.6873138  )
       286        C      tau( 286) = (   0.4374970   0.8124210   0.9373791  )
       287        C      tau( 287) = (   0.6874798   0.0624753   0.1875099  )
       288        C      tau( 288) = (   0.6874577   0.0624986   0.4375395  )
       289        C      tau( 289) = (   0.6874750   0.0624702   0.6875456  )
       290        C      tau( 290) = (   0.6874741   0.0625060   0.9375044  )
       291        C      tau( 291) = (   0.6874733   0.3124972   0.1874502  )
       292        C      tau( 292) = (   0.6880130   0.3118875   0.4376684  )
       293        C      tau( 293) = (   0.6870968   0.3127315   0.6873446  )
       294        C      tau( 294) = (   0.6874599   0.3125003   0.9375098  )
       295        C      tau( 295) = (   0.6873671   0.5625561   0.1875439  )
       296        C      tau( 296) = (   0.6863763   0.5619646   0.4383817  )
       297        C      tau( 297) = (   0.6878754   0.5627233   0.6880111  )
       298        C      tau( 298) = (   0.6874912   0.5624954   0.9375271  )
       299        C      tau( 299) = (   0.6873997   0.8124360   0.1875825  )
       300        C      tau( 300) = (   0.6873970   0.8124176   0.4375528  )
       301        C      tau( 301) = (   0.6876062   0.8126524   0.6876095  )
       302        C      tau( 302) = (   0.6875224   0.8125244   0.9375395  )
       303        C      tau( 303) = (   0.9374635   0.0625027   0.1875214  )
       304        C      tau( 304) = (   0.9374669   0.0624721   0.4375334  )
       305        C      tau( 305) = (   0.9374333   0.0624962   0.6875096  )
       306        C      tau( 306) = (   0.9374677   0.0624890   0.9375112  )
       307        C      tau( 307) = (   0.9374934   0.3125040   0.1875280  )
       308        C      tau( 308) = (   0.9374337   0.3125393   0.4375464  )
       309        C      tau( 309) = (   0.9373938   0.3125335   0.6874940  )
       310        C      tau( 310) = (   0.9374212   0.3124949   0.9375029  )
       311        C      tau( 311) = (   0.9373750   0.5624906   0.1875963  )
       312        C      tau( 312) = (   0.9374472   0.5624877   0.4375339  )
       313        C      tau( 313) = (   0.9375207   0.5624808   0.6874813  )
       314        C      tau( 314) = (   0.9374753   0.5624872   0.9374854  )
       315        C      tau( 315) = (   0.9374107   0.8124827   0.1875190  )
       316        C      tau( 316) = (   0.9374325   0.8124385   0.4375242  )
       317        C      tau( 317) = (   0.9375720   0.8124786   0.6875100  )
       318        C      tau( 318) = (   0.9375132   0.8124818   0.9375017  )
       319        C      tau( 319) = (   0.0624580   0.0624939   0.0625168  )
       320        C      tau( 320) = (   0.0624579   0.0625437   0.3125236  )
       321        C      tau( 321) = (   0.0623350   0.0623606   0.5625053  )
       322        C      tau( 322) = (   0.0624573   0.0624354   0.8125091  )
       323        C      tau( 323) = (   0.0624569   0.3125009   0.0625688  )
       324        C      tau( 324) = (   0.0625077   0.3125353   0.3125601  )
       325        C      tau( 325) = (   0.0625119   0.3124944   0.5625252  )
       326        C      tau( 326) = (   0.0623852   0.3124500   0.8125378  )
       327        C      tau( 327) = (   0.0623362   0.5624807   0.0623896  )
       328        C      tau( 328) = (   0.0625119   0.5624995   0.3125211  )
       329        C      tau( 329) = (   0.0626327   0.5624321   0.5624594  )
       330        C      tau( 330) = (   0.0625366   0.5624335   0.8124380  )
       331        C      tau( 331) = (   0.0624590   0.8124855   0.0624615  )
       332        C      tau( 332) = (   0.0623874   0.8125112   0.3124761  )
       333        C      tau( 333) = (   0.0625370   0.8124106   0.5624590  )
       334        C      tau( 334) = (   0.0625696   0.8124002   0.8124261  )
       335        C      tau( 335) = (   0.3124428   0.0625071   0.0625354  )
       336        C      tau( 336) = (   0.3124374   0.0625231   0.3125177  )
       337        C      tau( 337) = (   0.3124426   0.0623960   0.5625389  )
       338        C      tau( 338) = (   0.3124315   0.0622716   0.8125718  )
       339        C      tau( 339) = (   0.3124369   0.3124917   0.0625496  )
       340        C      tau( 340) = (   0.3127060   0.3127767   0.3128076  )
       341        C      tau( 341) = (   0.3118569   0.3115805   0.5624982  )
       342        C      tau( 342) = (   0.3123894   0.3122832   0.8128214  )
       343        C      tau( 343) = (   0.3124446   0.5625107   0.0624271  )
       344        C      tau( 344) = (   0.3118578   0.5624666   0.3116111  )
       345        C      tau( 345) = (   0.3137941   0.5617586   0.5617884  )
       346        C      tau( 346) = (   0.3127271   0.5622242   0.8122054  )
       347        C      tau( 347) = (   0.3124346   0.8125406   0.0623072  )
       348        C      tau( 348) = (   0.3123923   0.8127888   0.3123166  )
       349        C      tau( 349) = (   0.3127275   0.8121741   0.5622541  )
       350        C      tau( 350) = (   0.3125733   0.8122684   0.8122997  )
       351        C      tau( 351) = (   0.5624676   0.0624464   0.0624701  )
       352        C      tau( 352) = (   0.5624508   0.0625125   0.3125264  )
       353        C      tau( 353) = (   0.5624573   0.0624694   0.5625501  )
       354        C      tau( 354) = (   0.5624686   0.0623832   0.8125821  )
       355        C      tau( 355) = (   0.5624505   0.3125031   0.0625361  )
       356        C      tau( 356) = (   0.5623319   0.3119426   0.3119706  )
       357        C      tau( 357) = (   0.5618803   0.3127657   0.5625964  )
       358        C      tau( 358) = (   0.5623300   0.3125057   0.8124578  )
       359        C      tau( 359) = (   0.5624589   0.5625252   0.0624952  )
       360        C      tau( 360) = (   0.5618817   0.5625656   0.3127962  )
       361        C      tau( 361) = (   0.5625028   0.5624170   0.8125239  )
       362        C      tau( 362) = (   0.5624703   0.8125553   0.0624118  )
       363        C      tau( 363) = (   0.5623317   0.8124317   0.3125323  )
       364        C      tau( 364) = (   0.5625033   0.8124979   0.5624428  )
       365        C      tau( 365) = (   0.5625512   0.8125246   0.8125490  )
       366        C      tau( 366) = (   0.8124736   0.0624981   0.0625188  )
       367        C      tau( 367) = (   0.8124728   0.0624721   0.3125195  )
       368        C      tau( 368) = (   0.8124596   0.0625001   0.5625297  )
       369        C      tau( 369) = (   0.8124589   0.0625256   0.8125059  )
       370        C      tau( 370) = (   0.8124723   0.3124992   0.0624938  )
       371        C      tau( 371) = (   0.8125318   0.3124863   0.3125098  )
       372        C      tau( 372) = (   0.8121327   0.3127520   0.5624677  )
       373        C      tau( 373) = (   0.8123678   0.3125321   0.8124493  )
       374        C      tau( 374) = (   0.8124595   0.5625085   0.0625234  )
       375        C      tau( 375) = (   0.8121318   0.5624402   0.3127808  )
       376        C      tau( 376) = (   0.8124121   0.5625159   0.5625419  )
       377        C      tau( 377) = (   0.8125827   0.5625356   0.8126079  )
       378        C      tau( 378) = (   0.8124590   0.8124843   0.0625483  )
       379        C      tau( 379) = (   0.8123667   0.8124249   0.3125561  )
       380        C      tau( 380) = (   0.8125822   0.8125848   0.5625575  )
       381        C      tau( 381) = (   0.8125610   0.8125296   0.8125509  )
       382        C      tau( 382) = (   0.0624859   0.1875307   0.1875538  )
       383        C      tau( 383) = (   0.0624557   0.1875083   0.4375482  )
       384        C      tau( 384) = (   0.0623804   0.1874378   0.6875391  )
       385        C      tau( 385) = (   0.0624376   0.1874687   0.9375349  )
       386        C      tau( 386) = (   0.0624555   0.4375238   0.1875342  )
       387        C      tau( 387) = (   0.0625832   0.4375093   0.4375356  )
       388        C      tau( 388) = (   0.0625469   0.4374573   0.6874769  )
       389        C      tau( 389) = (   0.0623432   0.4374880   0.9375769  )
       390        C      tau( 390) = (   0.0623824   0.6875135   0.1874659  )
       391        C      tau( 391) = (   0.0625471   0.6874502   0.4374838  )
       392        C      tau( 392) = (   0.0626124   0.6873966   0.6874239  )
       393        C      tau( 393) = (   0.0625199   0.6874520   0.9374047  )
       394        C      tau( 394) = (   0.0624396   0.9375106   0.1874927  )
       395        C      tau( 395) = (   0.0623448   0.9375496   0.4375125  )
       396        C      tau( 396) = (   0.0625194   0.9373763   0.6874758  )
       397        C      tau( 397) = (   0.0624842   0.9374541   0.9374779  )
       398        C      tau( 398) = (   0.3124806   0.1875914   0.1876175  )
       399        C      tau( 399) = (   0.3124314   0.1874839   0.4376480  )
       400        C      tau( 400) = (   0.3124002   0.1871578   0.6876771  )
       401        C      tau( 401) = (   0.3124097   0.1873681   0.9376599  )
       402        C      tau( 402) = (   0.3124328   0.4376178   0.1875131  )
       403        C      tau( 403) = (   0.3136464   0.4379954   0.4380256  )
       404        C      tau( 404) = (   0.3119103   0.4374628   0.6884134  )
       405        C      tau( 405) = (   0.3124570   0.4374364   0.9375070  )
       406        C      tau( 406) = (   0.3124034   0.6876439   0.1871934  )
       407        C      tau( 407) = (   0.3119109   0.6883835   0.4374937  )
       408        C      tau( 408) = (   0.3129604   0.6870025   0.6870337  )
       409        C      tau( 409) = (   0.3125192   0.6874181   0.9373440  )
       410        C      tau( 410) = (   0.3124128   0.9376288   0.1874002  )
       411        C      tau( 411) = (   0.3124580   0.9374787   0.4374637  )
       412        C      tau( 412) = (   0.3125185   0.9373105   0.6874458  )
       413        C      tau( 413) = (   0.3124657   0.9373910   0.9374214  )
       414        C      tau( 414) = (   0.5624392   0.1873386   0.1873626  )
       415        C      tau( 415) = (   0.5623901   0.1875189   0.4376205  )
       416        C      tau( 416) = (   0.5623575   0.1873633   0.6876837  )
       417        C      tau( 417) = (   0.5624500   0.1874591   0.9375489  )
       418        C      tau( 418) = (   0.5623913   0.4375935   0.1875454  )
       419        C      tau( 419) = (   0.5616964   0.4379690   0.6867478  )
       420        C      tau( 420) = (   0.5624711   0.4374615   0.9375199  )
       421        C      tau( 421) = (   0.5623609   0.6876535   0.1873943  )
       422        C      tau( 422) = (   0.5616983   0.6867215   0.4379964  )
       423        C      tau( 423) = (   0.5627772   0.6878104   0.6878384  )
       424        C      tau( 424) = (   0.5624978   0.6874784   0.9374761  )
       425        C      tau( 425) = (   0.5624513   0.9375242   0.1874843  )
       426        C      tau( 426) = (   0.5624715   0.9374958   0.4374853  )
       427        C      tau( 427) = (   0.5624973   0.9374504   0.6875020  )
       428        C      tau( 428) = (   0.5624932   0.9374704   0.9374957  )
       429        C      tau( 429) = (   0.8124693   0.1875043   0.1875250  )
       430        C      tau( 430) = (   0.8126150   0.1873461   0.4375564  )
       431        C      tau( 431) = (   0.8123381   0.1875966   0.6874876  )
       432        C      tau( 432) = (   0.8124480   0.1875075   0.9374933  )
       433        C      tau( 433) = (   0.8126139   0.4375331   0.1873715  )
       434        C      tau( 434) = (   0.8123077   0.4375311   0.4375585  )
       435        C      tau( 435) = (   0.8122807   0.4376033   0.6874603  )
       436        C      tau( 436) = (   0.8124492   0.4375061   0.9374922  )
       437        C      tau( 437) = (   0.8123368   0.6874631   0.1876228  )
       438        C      tau( 438) = (   0.8122796   0.6874343   0.4376299  )
       439        C      tau( 439) = (   0.8126633   0.6875906   0.6876140  )
       440        C      tau( 440) = (   0.8125292   0.6875163   0.9375497  )
       441        C      tau( 441) = (   0.8124482   0.9374714   0.1875288  )
       442        C      tau( 442) = (   0.8124491   0.9374699   0.4375268  )
       443        C      tau( 443) = (   0.8125286   0.9375273   0.6875369  )
       444        C      tau( 444) = (   0.8124968   0.9375046   0.9375257  )
       445        C      tau( 445) = (   0.1874462   0.1874987   0.0625871  )
       446        C      tau( 446) = (   0.1875352   0.1875959   0.3125952  )
       447        C      tau( 447) = (   0.1871393   0.1871024   0.5625404  )
       448        C      tau( 448) = (   0.1874241   0.1873908   0.8125658  )
       449        C      tau( 449) = (   0.1874178   0.4375031   0.0624813  )
       450        C      tau( 450) = (   0.1876722   0.4376097   0.3125815  )
       451        C      tau( 451) = (   0.1877949   0.4374335   0.5624850  )
       452        C      tau( 452) = (   0.1871878   0.4374349   0.8128360  )
       453        C      tau( 453) = (   0.1874213   0.6875081   0.0623432  )
       454        C      tau( 454) = (   0.1874035   0.6875596   0.3124114  )
       455        C      tau( 455) = (   0.1877985   0.6873018   0.5623045  )
       456        C      tau( 456) = (   0.1876795   0.6873138   0.8122689  )
       457        C      tau( 457) = (   0.1874500   0.9374920   0.0624566  )
       458        C      tau( 458) = (   0.1873910   0.9375921   0.3124568  )
       459        C      tau( 459) = (   0.1875135   0.9373701   0.5624571  )
       460        C      tau( 460) = (   0.1874975   0.9373373   0.8124434  )
       461        C      tau( 461) = (   0.4374487   0.1874790   0.0625465  )
       462        C      tau( 462) = (   0.4374297   0.1875547   0.3126149  )
       463        C      tau( 463) = (   0.4374242   0.1874096   0.5626295  )
       464        C      tau( 464) = (   0.4374938   0.1868959   0.8130916  )
       465        C      tau( 465) = (   0.4374465   0.4375088   0.0625147  )
       466        C      tau( 466) = (   0.4376174   0.4380199   0.3129083  )
       467        C      tau( 467) = (   0.4374634   0.4373340   0.8125339  )
       468        C      tau( 468) = (   0.4374529   0.6875365   0.0623906  )
       469        C      tau( 469) = (   0.4377195   0.6889555   0.3111032  )
       470        C      tau( 470) = (   0.4383773   0.6864409   0.5615617  )
       471        C      tau( 471) = (   0.4376148   0.6872859   0.8122648  )
       472        C      tau( 472) = (   0.4374781   0.9376084   0.0623299  )
       473        C      tau( 473) = (   0.4374474   0.9375477   0.3124481  )
       474        C      tau( 474) = (   0.4374835   0.9374256   0.5624730  )
       475        C      tau( 475) = (   0.4374961   0.9373483   0.8124484  )
       476        C      tau( 476) = (   0.6874795   0.1874887   0.0624969  )
       477        C      tau( 477) = (   0.6874735   0.1874270   0.3125200  )
       478        C      tau( 478) = (   0.6873662   0.1875173   0.5625823  )
       479        C      tau( 479) = (   0.6873995   0.1875571   0.8124607  )
       480        C      tau( 480) = (   0.6874578   0.4375175   0.0625215  )
       481        C      tau( 481) = (   0.6880138   0.4376409   0.3119143  )
       482        C      tau( 482) = (   0.6863750   0.4383538   0.5619925  )
       483        C      tau( 483) = (   0.6873971   0.4375284   0.8124420  )
       484        C      tau( 484) = (   0.6874759   0.6875226   0.0624947  )
       485        C      tau( 485) = (   0.6870970   0.6873157   0.3127608  )
       486        C      tau( 486) = (   0.6878755   0.6879842   0.5627505  )
       487        C      tau( 487) = (   0.6876067   0.6875867   0.8126766  )
       488        C      tau( 488) = (   0.6874743   0.9374820   0.0625286  )
       489        C      tau( 489) = (   0.6874603   0.9374873   0.3125224  )
       490        C      tau( 490) = (   0.6874908   0.9375042   0.5625170  )
       491        C      tau( 491) = (   0.6875222   0.9375168   0.8125462  )
       492        C      tau( 492) = (   0.9374630   0.1875007   0.0625242  )
       493        C      tau( 493) = (   0.9374938   0.1875055   0.3125255  )
       494        C      tau( 494) = (   0.9373762   0.1875706   0.5625136  )
       495        C      tau( 495) = (   0.9374101   0.1874956   0.8125056  )
       496        C      tau( 496) = (   0.9374661   0.4375124   0.0624960  )
       497        C      tau( 497) = (   0.9374334   0.4375226   0.3125640  )
       498        C      tau( 498) = (   0.9374474   0.4375088   0.5625123  )
       499        C      tau( 499) = (   0.9374329   0.4375015   0.8124626  )
       500        C      tau( 500) = (   0.9374337   0.6874879   0.0625208  )
       501        C      tau( 501) = (   0.9373928   0.6874698   0.3125586  )
       502        C      tau( 502) = (   0.9375207   0.6874572   0.5625046  )
       503        C      tau( 503) = (   0.9375722   0.6874879   0.8125021  )
       504        C      tau( 504) = (   0.9374682   0.9374900   0.0625106  )
       505        C      tau( 505) = (   0.9374220   0.9374796   0.3125163  )
       506        C      tau( 506) = (   0.9374749   0.9374612   0.5625083  )
       507        C      tau( 507) = (   0.9375129   0.9374791   0.8125031  )
       508        C      tau( 508) = (   0.5681529   0.4316189   0.4316468  )
       509        C      tau( 509) = (   0.4328225   0.4306706   0.5691523  )
       510        C      tau( 510) = (   0.4328235   0.5691245   0.4306988  )
       511        N      tau( 511) = (   0.5663944   0.5662126   0.5662391  )

   Crystallographic axes

     site n.     atom                  positions (cryst. coord.)
         1        C      tau(   1) = ( -0.0000284 -0.0000205  0.0000013  )
         2        C      tau(   2) = ( -0.0000510  0.0000090  0.2500135  )
         3        C      tau(   3) = ( -0.0001207 -0.0000427  0.5000078  )
         4        C      tau(   4) = ( -0.0000121 -0.0000530  0.7499944  )
         5        C      tau(   5) = ( -0.0000520  0.2499920  0.0000322  )
         6        C      tau(   6) = (  0.0000001  0.2500251  0.2500476  )
         7        C      tau(   7) = ( -0.0000526  0.2500406  0.5000461  )
         8        C      tau(   8) = ( -0.0001186  0.2499686  0.7500265  )
         9        C      tau(   9) = ( -0.0001208  0.4999858 -0.0000168  )
        10        C      tau(  10) = ( -0.0000530  0.5000224  0.2500658  )
        11        C      tau(  11) = (  0.0000313  0.4999866  0.5000117  )
        12        C      tau(  12) = (  0.0000117  0.4999545  0.7499546  )
        13        C      tau(  13) = ( -0.0000116  0.7499726 -0.0000279  )
        14        C      tau(  14) = ( -0.0001178  0.7500020  0.2499939  )
        15        C      tau(  15) = (  0.0000117  0.7499296  0.4999784  )
        16        C      tau(  16) = (  0.0000884  0.7499274  0.7499516  )
        17        C      tau(  17) = (  0.2499552 -0.0000468 -0.0000192  )
        18        C      tau(  18) = (  0.2499161  0.0000781  0.2499663  )
        19        C      tau(  19) = (  0.2499715 -0.0000701  0.5000024  )
        20        C      tau(  20) = (  0.2499604 -0.0002041  0.7500046  )
        21        C      tau(  21) = (  0.2499140  0.2499384  0.0001070  )
        22        C      tau(  22) = (  0.2501135  0.2501872  0.2502150  )
        23        C      tau(  23) = (  0.2495660  0.2494847  0.5002902  )
        24        C      tau(  24) = (  0.2499283  0.2498374  0.7501224  )
        25        C      tau(  25) = (  0.2499719  0.4999763 -0.0000411  )
        26        C      tau(  26) = (  0.2495662  0.5002594  0.2495146  )
        27        C      tau(  27) = (  0.2508158  0.4999104  0.4999423  )
        28        C      tau(  28) = (  0.2496761  0.4996243  0.7504011  )
        29        C      tau(  29) = (  0.2499622  0.7499763 -0.0001695  )
        30        C      tau(  30) = (  0.2499318  0.7500893  0.2498723  )
        31        C      tau(  31) = (  0.2496758  0.7503699  0.4996552  )
        32        C      tau(  32) = (  0.2502936  0.7496464  0.7496785  )
        33        C      tau(  33) = (  0.4999578 -0.0000477 -0.0000203  )
        34        C      tau(  34) = (  0.4999630  0.0000288  0.2500012  )
        35        C      tau(  35) = (  0.4999754 -0.0000272  0.5000124  )
        36        C      tau(  36) = (  0.4999794 -0.0001089  0.7500171  )
        37        C      tau(  37) = (  0.4999623  0.2499762  0.0000541  )
        38        C      tau(  38) = (  0.4999441  0.2497565  0.2497833  )
        39        C      tau(  39) = (  0.4998941  0.2502088  0.5001358  )
        40        C      tau(  40) = (  0.4997436  0.2491463  0.7508572  )
        41        C      tau(  41) = (  0.4999760  0.4999880 -0.0000017  )
        42        C      tau(  42) = (  0.4998956  0.5001048  0.2502394  )
        43        C      tau(  43) = (  0.5000192  0.4998489  0.7497694  )
        44        C      tau(  44) = (  0.4999808  0.7499905 -0.0000791  )
        45        C      tau(  45) = (  0.4997460  0.7508297  0.2491745  )
        46        C      tau(  46) = (  0.5000203  0.7497415  0.4998773  )
        47        C      tau(  47) = (  0.5000834  0.7500036  0.7500307  )
        48        C      tau(  48) = (  0.7499815 -0.0000005  0.0000210  )
        49        C      tau(  49) = (  0.7499718 -0.0000237  0.2500222  )
        50        C      tau(  50) = (  0.7499674 -0.0000026  0.5000214  )
        51        C      tau(  51) = (  0.7499976  0.0000058  0.7500238  )
        52        C      tau(  52) = (  0.7499714  0.2500014 -0.0000020  )
        53        C      tau(  53) = (  0.7499530  0.2500050  0.2500272  )
        54        C      tau(  54) = (  0.7501351  0.2497491  0.5000124  )
        55        C      tau(  55) = (  0.7497810  0.2501596  0.7498986  )
        56        C      tau(  56) = (  0.7499675  0.5000005  0.0000199  )
        57        C      tau(  57) = (  0.7501344  0.4999855  0.2497773  )
        58        C      tau(  58) = (  0.7495700  0.5000380  0.5000667  )
        59        C      tau(  59) = (  0.7500776  0.5000525  0.7501809  )
        60        C      tau(  60) = (  0.7499980  0.7500023  0.0000286  )
        61        C      tau(  61) = (  0.7497791  0.7498721  0.2501868  )
        62        C      tau(  62) = (  0.7500767  0.7501557  0.5000775  )
        63        C      tau(  63) = (  0.7500805  0.7500631  0.7500856  )
        64        C      tau(  64) = ( -0.0000273  0.1250085  0.1250300  )
        65        C      tau(  65) = ( -0.0000328  0.1250187  0.3750260  )
        66        C      tau(  66) = ( -0.0001214  0.1249836  0.6250361  )
        67        C      tau(  67) = ( -0.0000572  0.1249713  0.8750124  )
        68        C      tau(  68) = ( -0.0000335  0.3750042  0.1250426  )
        69        C      tau(  69) = ( -0.0000090  0.3750455  0.3750700  )
        70        C      tau(  70) = ( -0.0000261  0.3749957  0.6250028  )
        71        C      tau(  71) = ( -0.0001055  0.3749677  0.8750109  )
        72        C      tau(  72) = ( -0.0001209  0.6250129  0.1250101  )
        73        C      tau(  73) = ( -0.0000264  0.6249782  0.3750209  )
        74        C      tau(  74) = (  0.0000772  0.6249241  0.6249492  )
        75        C      tau(  75) = (  0.0000310  0.6249647  0.8749447  )
        76        C      tau(  76) = ( -0.0000562  0.8749899  0.1249946  )
        77        C      tau(  77) = ( -0.0001045  0.8749859  0.3749908  )
        78        C      tau(  78) = (  0.0000307  0.8749191  0.6249871  )
        79        C      tau(  79) = (  0.0000286  0.8749480  0.8749707  )
        80        C      tau(  80) = (  0.2499572  0.1250482  0.1250746  )
        81        C      tau(  81) = (  0.2499993  0.1250186  0.3750768  )
        82        C      tau(  82) = (  0.2498443  0.1247526  0.6251118  )
        83        C      tau(  83) = (  0.2499293  0.1248732  0.8750650  )
        84        C      tau(  84) = (  0.2499997  0.3750502  0.1250455  )
        85        C      tau(  85) = (  0.2506021  0.3754049  0.3754351  )
        86        C      tau(  86) = (  0.2499835  0.3747838  0.6251567  )
        87        C      tau(  87) = (  0.2498443  0.3748530  0.8751895  )
        88        C      tau(  88) = (  0.2498472  0.6250808  0.1247874  )
        89        C      tau(  89) = (  0.2499852  0.6251230  0.3748179  )
        90        C      tau(  90) = (  0.2507976  0.6244024  0.6244334  )
        91        C      tau(  91) = (  0.2501976  0.6248719  0.8747569  )
        92        C      tau(  92) = (  0.2499322  0.8750355  0.1249053  )
        93        C      tau(  93) = (  0.2498469  0.8751574  0.3748842  )
        94        C      tau(  94) = (  0.2501978  0.8747240  0.6249006  )
        95        C      tau(  95) = (  0.2500142  0.8748388  0.8748690  )
        96        C      tau(  96) = (  0.4999735  0.1249154  0.1249397  )
        97        C      tau(  97) = (  0.4999631  0.1250331  0.3750669  )
        98        C      tau(  98) = (  0.4999210  0.1249237  0.6250665  )
        99        C      tau(  99) = (  0.4999045  0.1246563  0.8753180  )
       100        C      tau( 100) = (  0.4999635  0.3750416  0.1250586  )
       101        C      tau( 101) = (  0.4999495  0.3754627  0.3754937  )
       102        C      tau( 102) = (  0.4985340  0.3746379  0.6252604  )
       103        C      tau( 103) = (  0.4999522  0.3749668  0.8750131  )
       104        C      tau( 104) = (  0.4999242  0.6250371  0.1249544  )
       105        C      tau( 105) = (  0.4985356  0.6252324  0.3746665  )
       106        C      tau( 106) = (  0.5018845  0.6241415  0.6241692  )
       107        C      tau( 107) = (  0.5000358  0.6249163  0.8749354  )
       108        C      tau( 108) = (  0.4999061  0.8752895  0.1246860  )
       109        C      tau( 109) = (  0.4999536  0.8749868  0.3749937  )
       110        C      tau( 110) = (  0.5000355  0.8749083  0.6249418  )
       111        C      tau( 111) = (  0.5000109  0.8749567  0.8749836  )
       112        C      tau( 112) = (  0.7499769  0.1249984  0.1250191  )
       113        C      tau( 113) = (  0.7500004  0.1249495  0.3750200  )
       114        C      tau( 114) = (  0.7498919  0.1250221  0.6250179  )
       115        C      tau( 115) = (  0.7499439  0.1250392  0.8749804  )
       116        C      tau( 116) = (  0.7499998  0.3749984  0.1249724  )
       117        C      tau( 117) = (  0.7499955  0.3749592  0.3749855  )
       118        C      tau( 118) = (  0.7492119  0.3755439  0.6249198  )
       119        C      tau( 119) = (  0.7499018  0.3750183  0.8749652  )
       120        C      tau( 120) = (  0.7498919  0.6249944  0.1250470  )
       121        C      tau( 121) = (  0.7492129  0.6248920  0.3755721  )
       122        C      tau( 122) = (  0.7501983  0.6251608  0.6251871  )
       123        C      tau( 123) = (  0.7500563  0.6250297  0.8750947  )
       124        C      tau( 124) = (  0.7499438  0.8749577  0.1250622  )
       125        C      tau( 125) = (  0.7499013  0.8749420  0.3750410  )
       126        C      tau( 126) = (  0.7500555  0.8750718  0.6250509  )
       127        C      tau( 127) = (  0.7500230  0.8750110  0.8750324  )
       128        C      tau( 128) = (  0.1249519  0.0000141  0.1249968  )
       129        C      tau( 129) = (  0.1249047  0.0000291  0.3749924  )
       130        C      tau( 130) = (  0.1249621 -0.0001472  0.6250112  )
       131        C      tau( 131) = (  0.1249760 -0.0000907  0.8749825  )
       132        C      tau( 132) = (  0.1249918  0.2500315  0.1250974  )
       133        C      tau( 133) = (  0.1250591  0.2501106  0.3750998  )
       134        C      tau( 134) = (  0.1248686  0.2498599  0.6250880  )
       135        C      tau( 135) = (  0.1249134  0.2499314  0.8750541  )
       136        C      tau( 136) = (  0.1247681  0.5000596  0.1248194  )
       137        C      tau( 137) = (  0.1251631  0.5000465  0.3750591  )
       138        C      tau( 138) = (  0.1252174  0.4998692  0.6249020  )
       139        C      tau( 139) = (  0.1248226  0.4998878  0.8751321  )
       140        C      tau( 140) = (  0.1249282  0.7500109  0.1249297  )
       141        C      tau( 141) = (  0.1248927  0.7500720  0.3749171  )
       142        C      tau( 142) = (  0.1251809  0.7497624  0.6248641  )
       143        C      tau( 143) = (  0.1250878  0.7498813  0.8748460  )
       144        C      tau( 144) = (  0.3749350  0.0000591  0.1249438  )
       145        C      tau( 145) = (  0.3749659  0.0000102  0.3749993  )
       146        C      tau( 146) = (  0.3749807 -0.0001245  0.6250071  )
       147        C      tau( 147) = (  0.3749552 -0.0001726  0.8750131  )
       148        C      tau( 148) = (  0.3749644  0.2500581  0.1250740  )
       149        C      tau( 149) = (  0.3751798  0.2502716  0.3753891  )
       150        C      tau( 150) = (  0.3748827  0.2495778  0.6253522  )
       151        C      tau( 151) = (  0.3748936  0.2497386  0.8752735  )
       152        C      tau( 152) = (  0.3749714  0.5000654  0.1250003  )
       153        C      tau( 153) = (  0.3759495  0.5011927  0.3754248  )
       154        C      tau( 154) = (  0.3761496  0.4983628  0.6242791  )
       155        C      tau( 155) = (  0.3750631  0.4998800  0.8749166  )
       156        C      tau( 156) = (  0.3749066  0.7501893  0.1247236  )
       157        C      tau( 157) = (  0.3748843  0.7503840  0.3746260  )
       158        C      tau( 158) = (  0.3756601  0.7492148  0.6246231  )
       159        C      tau( 159) = (  0.3750529  0.7498214  0.8748051  )
       160        C      tau( 160) = (  0.6249883 -0.0000137  0.1250189  )
       161        C      tau( 161) = (  0.6249686  0.0000031  0.3750215  )
       162        C      tau( 162) = (  0.6249806 -0.0000236  0.6250154  )
       163        C      tau( 163) = (  0.6249979 -0.0000343  0.8750231  )
       164        C      tau( 164) = (  0.6249712  0.2499596  0.1249731  )
       165        C      tau( 165) = (  0.6249393  0.2498839  0.3750149  )
       166        C      tau( 166) = (  0.6245886  0.2502085  0.6248713  )
       167        C      tau( 167) = (  0.6249567  0.2500956  0.8749639  )
       168        C      tau( 168) = (  0.6249235  0.5000099  0.1250389  )
       169        C      tau( 169) = (  0.6241165  0.4996308  0.3754516  )
       170        C      tau( 170) = (  0.6241822  0.5018894  0.6244866  )
       171        C      tau( 171) = (  0.6249725  0.4999910  0.8750083  )
       172        C      tau( 172) = (  0.6249403  0.7499843  0.1249691  )
       173        C      tau( 173) = (  0.6247368  0.7494878  0.3754928  )
       174        C      tau( 174) = (  0.6251405  0.7502642  0.6251398  )
       175        C      tau( 175) = (  0.6250411  0.7500342  0.8750687  )
       176        C      tau( 176) = (  0.8749648 -0.0000126  0.1250204  )
       177        C      tau( 177) = (  0.8749500 -0.0000236  0.3750163  )
       178        C      tau( 178) = (  0.8749751 -0.0000051  0.6250195  )
       179        C      tau( 179) = (  0.8749853  0.0000013  0.8750068  )
       180        C      tau( 180) = (  0.8749714  0.2500052  0.1250239  )
       181        C      tau( 181) = (  0.8750081  0.2499729  0.3750261  )
       182        C      tau( 182) = (  0.8747630  0.2501835  0.6250244  )
       183        C      tau( 183) = (  0.8749064  0.2500106  0.8749807  )
       184        C      tau( 184) = (  0.8750129  0.4999885  0.1249656  )
       185        C      tau( 185) = (  0.8748253  0.5000094  0.3751143  )
       186        C      tau( 186) = (  0.8749138  0.5000160  0.6249922  )
       187        C      tau( 187) = (  0.8750008  0.5000081  0.8750250  )
       188        C      tau( 188) = (  0.8749038  0.7499725  0.1250652  )
       189        C      tau( 189) = (  0.8748495  0.7499097  0.3750517  )
       190        C      tau( 190) = (  0.8750884  0.7500271  0.6250378  )
       191        C      tau( 191) = (  0.8750429  0.7499940  0.8750172  )
       192        C      tau( 192) = (  0.1249507  0.1249725  0.0000386  )
       193        C      tau( 193) = (  0.1249923  0.1250720  0.2500553  )
       194        C      tau( 194) = (  0.1247667  0.1247899  0.5000863  )
       195        C      tau( 195) = (  0.1249258  0.1249000  0.7500370  )
       196        C      tau( 196) = (  0.1249032  0.3749676  0.0000564  )
       197        C      tau( 197) = (  0.1250591  0.3750738  0.2501372  )
       198        C      tau( 198) = (  0.1251633  0.3750311  0.5000746  )
       199        C      tau( 199) = (  0.1248904  0.3748880  0.7501016  )
       200        C      tau( 200) = (  0.1249632  0.6249860 -0.0001163  )
       201        C      tau( 201) = (  0.1248710  0.6250596  0.2498902  )
       202        C      tau( 202) = (  0.1252171  0.6248726  0.4998983  )
       203        C      tau( 203) = (  0.1251808  0.6248356  0.7497927  )
       204        C      tau( 204) = (  0.1249771  0.8749581 -0.0000640  )
       205        C      tau( 205) = (  0.1249161  0.8750271  0.2499585  )
       206        C      tau( 206) = (  0.1248242  0.8751023  0.4999149  )
       207        C      tau( 207) = (  0.1250875  0.8748162  0.7499075  )
       208        C      tau( 208) = (  0.3749338  0.1249142  0.0000883  )
       209        C      tau( 209) = (  0.3749646  0.1250481  0.2500837  )
       210        C      tau( 210) = (  0.3749694  0.1249710  0.5000946  )
       211        C      tau( 211) = (  0.3749038  0.1246883  0.7502217  )
       212        C      tau( 212) = (  0.3749655  0.3749733  0.0000369  )
       213        C      tau( 213) = (  0.3751802  0.3753582  0.2503023  )
       214        C      tau( 214) = (  0.3759484  0.3753946  0.5012229  )
       215        C      tau( 215) = (  0.3748824  0.3745950  0.7504139  )
       216        C      tau( 216) = (  0.3749824  0.6249798 -0.0000930  )
       217        C      tau( 217) = (  0.3748851  0.6253206  0.2496098  )
       218        C      tau( 218) = (  0.3761504  0.6242502  0.4983923  )
       219        C      tau( 219) = (  0.3756602  0.6245934  0.7492449  )
       220        C      tau( 220) = (  0.3749565  0.8749835 -0.0001394  )
       221        C      tau( 221) = (  0.3748961  0.8752418  0.2497711  )
       222        C      tau( 222) = (  0.3750635  0.8748881  0.4999081  )
       223        C      tau( 223) = (  0.3750526  0.8747729  0.7498503  )
       224        C      tau( 224) = (  0.6249880  0.1249961  0.0000091  )
       225        C      tau( 225) = (  0.6249715  0.1249502  0.2499819  )
       226        C      tau( 226) = (  0.6249226  0.1250137  0.5000347  )
       227        C      tau( 227) = (  0.6249387  0.1249418  0.7500106  )
       228        C      tau( 228) = (  0.6249684  0.3749991  0.0000261  )
       229        C      tau( 229) = (  0.6249397  0.3749885  0.2499105  )
       230        C      tau( 230) = (  0.6241144  0.3754230  0.4996600  )
       231        C      tau( 231) = (  0.6247355  0.3754660  0.7495140  )
       232        C      tau( 232) = (  0.6249814  0.6249926  0.0000008  )
       233        C      tau( 233) = (  0.6245896  0.6248411  0.2502390  )
       234        C      tau( 234) = (  0.6241833  0.6244600  0.5019161  )
       235        C      tau( 235) = (  0.6251410  0.6251135  0.7502915  )
       236        C      tau( 236) = (  0.6249981  0.8749991 -0.0000096  )
       237        C      tau( 237) = (  0.6249574  0.8749399  0.2501204  )
       238        C      tau( 238) = (  0.6249724  0.8749842  0.5000147  )
       239        C      tau( 239) = (  0.6250409  0.8750449  0.7500569  )
       240        C      tau( 240) = (  0.8749646  0.1249997  0.0000085  )
       241        C      tau( 241) = (  0.8749718  0.1250027  0.2500256  )
       242        C      tau( 242) = (  0.8750140  0.1249413  0.5000102  )
       243        C      tau( 243) = (  0.8749043  0.1250407  0.7499951  )
       244        C      tau( 244) = (  0.8749495  0.3749960 -0.0000011  )
       245        C      tau( 245) = (  0.8750078  0.3750034  0.2499964  )
       246        C      tau( 246) = (  0.8748258  0.3750872  0.5000355  )
       247        C      tau( 247) = (  0.8748510  0.3750268  0.7499345  )
       248        C      tau( 248) = (  0.8749754  0.6249988  0.0000182  )
       249        C      tau( 249) = (  0.8747611  0.6249988  0.2502108  )
       250        C      tau( 250) = (  0.8749134  0.6249671  0.5000413  )
       251        C      tau( 251) = (  0.8750888  0.6250155  0.7500501  )
       252        C      tau( 252) = (  0.8749854  0.8749858  0.0000231  )
       253        C      tau( 253) = (  0.8749061  0.8749575  0.2500329  )
       254        C      tau( 254) = (  0.8750003  0.8750020  0.5000292  )
       255        C      tau( 255) = (  0.8750426  0.8749952  0.7500148  )
       256        C      tau( 256) = (  0.1874475  0.0625604  0.1875243  )
       257        C      tau( 257) = (  0.1874174  0.0624537  0.4375287  )
       258        C      tau( 258) = (  0.1874185  0.0623092  0.6875365  )
       259        C      tau( 259) = (  0.1874481  0.0624286  0.9375187  )
       260        C      tau( 260) = (  0.1875355  0.3125694  0.1876226  )
       261        C      tau( 261) = (  0.1876724  0.3125523  0.4376394  )
       262        C      tau( 262) = (  0.1874004  0.3123780  0.6875920  )
       263        C      tau( 263) = (  0.1873879  0.3124283  0.9376218  )
       264        C      tau( 264) = (  0.1871405  0.5625100  0.1871340  )
       265        C      tau( 265) = (  0.1877947  0.5624532  0.4374652  )
       266        C      tau( 266) = (  0.1877987  0.5622736  0.6873334  )
       267        C      tau( 267) = (  0.1875131  0.5624307  0.9374005  )
       268        C      tau( 268) = (  0.1874276  0.8125361  0.1874226  )
       269        C      tau( 269) = (  0.1871891  0.8128047  0.4374656  )
       270        C      tau( 270) = (  0.1876797  0.8122366  0.6873433  )
       271        C      tau( 271) = (  0.1874985  0.8124160  0.9373684  )
       272        C      tau( 272) = (  0.4374493  0.0625209  0.1875045  )
       273        C      tau( 273) = (  0.4374457  0.0624887  0.4375344  )
       274        C      tau( 274) = (  0.4374499  0.0623579  0.6875657  )
       275        C      tau( 275) = (  0.4374763  0.0622984  0.9376381  )
       276        C      tau( 276) = (  0.4374302  0.3125880  0.1875814  )
       277        C      tau( 277) = (  0.4376166  0.3128768  0.4380515  )
       278        C      tau( 278) = (  0.4377172  0.3110738  0.6889842  )
       279        C      tau( 279) = (  0.4374457  0.3124204  0.9375751  )
       280        C      tau( 280) = (  0.4374271  0.5625979  0.1874411  )
       281        C      tau( 281) = (  0.4383767  0.5615330  0.6864692  )
       282        C      tau( 282) = (  0.4374837  0.5624474  0.9374532  )
       283        C      tau( 283) = (  0.4374963  0.8130630  0.1869258  )
       284        C      tau( 284) = (  0.4374651  0.8125055  0.4373638  )
       285        C      tau( 285) = (  0.4376149  0.8122350  0.6873138  )
       286        C      tau( 286) = (  0.4374970  0.8124210  0.9373791  )
       287        C      tau( 287) = (  0.6874798  0.0624753  0.1875099  )
       288        C      tau( 288) = (  0.6874577  0.0624986  0.4375395  )
       289        C      tau( 289) = (  0.6874750  0.0624702  0.6875456  )
       290        C      tau( 290) = (  0.6874741  0.0625060  0.9375044  )
       291        C      tau( 291) = (  0.6874733  0.3124972  0.1874502  )
       292        C      tau( 292) = (  0.6880130  0.3118875  0.4376684  )
       293        C      tau( 293) = (  0.6870968  0.3127315  0.6873446  )
       294        C      tau( 294) = (  0.6874599  0.3125003  0.9375098  )
       295        C      tau( 295) = (  0.6873671  0.5625561  0.1875439  )
       296        C      tau( 296) = (  0.6863763  0.5619646  0.4383817  )
       297        C      tau( 297) = (  0.6878754  0.5627233  0.6880111  )
       298        C      tau( 298) = (  0.6874912  0.5624954  0.9375271  )
       299        C      tau( 299) = (  0.6873997  0.8124360  0.1875825  )
       300        C      tau( 300) = (  0.6873970  0.8124176  0.4375528  )
       301        C      tau( 301) = (  0.6876062  0.8126524  0.6876095  )
       302        C      tau( 302) = (  0.6875224  0.8125244  0.9375395  )
       303        C      tau( 303) = (  0.9374635  0.0625027  0.1875214  )
       304        C      tau( 304) = (  0.9374669  0.0624721  0.4375334  )
       305        C      tau( 305) = (  0.9374333  0.0624962  0.6875096  )
       306        C      tau( 306) = (  0.9374677  0.0624890  0.9375112  )
       307        C      tau( 307) = (  0.9374934  0.3125040  0.1875280  )
       308        C      tau( 308) = (  0.9374337  0.3125393  0.4375464  )
       309        C      tau( 309) = (  0.9373938  0.3125335  0.6874940  )
       310        C      tau( 310) = (  0.9374212  0.3124949  0.9375029  )
       311        C      tau( 311) = (  0.9373750  0.5624906  0.1875963  )
       312        C      tau( 312) = (  0.9374472  0.5624877  0.4375339  )
       313        C      tau( 313) = (  0.9375207  0.5624808  0.6874813  )
       314        C      tau( 314) = (  0.9374753  0.5624872  0.9374854  )
       315        C      tau( 315) = (  0.9374107  0.8124827  0.1875190  )
       316        C      tau( 316) = (  0.9374325  0.8124385  0.4375242  )
       317        C      tau( 317) = (  0.9375720  0.8124786  0.6875100  )
       318        C      tau( 318) = (  0.9375132  0.8124818  0.9375017  )
       319        C      tau( 319) = (  0.0624580  0.0624939  0.0625168  )
       320        C      tau( 320) = (  0.0624579  0.0625437  0.3125236  )
       321        C      tau( 321) = (  0.0623350  0.0623606  0.5625053  )
       322        C      tau( 322) = (  0.0624573  0.0624354  0.8125091  )
       323        C      tau( 323) = (  0.0624569  0.3125009  0.0625688  )
       324        C      tau( 324) = (  0.0625077  0.3125353  0.3125601  )
       325        C      tau( 325) = (  0.0625119  0.3124944  0.5625252  )
       326        C      tau( 326) = (  0.0623852  0.3124500  0.8125378  )
       327        C      tau( 327) = (  0.0623362  0.5624807  0.0623896  )
       328        C      tau( 328) = (  0.0625119  0.5624995  0.3125211  )
       329        C      tau( 329) = (  0.0626327  0.5624321  0.5624594  )
       330        C      tau( 330) = (  0.0625366  0.5624335  0.8124380  )
       331        C      tau( 331) = (  0.0624590  0.8124855  0.0624615  )
       332        C      tau( 332) = (  0.0623874  0.8125112  0.3124761  )
       333        C      tau( 333) = (  0.0625370  0.8124106  0.5624590  )
       334        C      tau( 334) = (  0.0625696  0.8124002  0.8124261  )
       335        C      tau( 335) = (  0.3124428  0.0625071  0.0625354  )
       336        C      tau( 336) = (  0.3124374  0.0625231  0.3125177  )
       337        C      tau( 337) = (  0.3124426  0.0623960  0.5625389  )
       338        C      tau( 338) = (  0.3124315  0.0622716  0.8125718  )
       339        C      tau( 339) = (  0.3124369  0.3124917  0.0625496  )
       340        C      tau( 340) = (  0.3127060  0.3127767  0.3128076  )
       341        C      tau( 341) = (  0.3118569  0.3115805  0.5624982  )
       342        C      tau( 342) = (  0.3123894  0.3122832  0.8128214  )
       343        C      tau( 343) = (  0.3124446  0.5625107  0.0624271  )
       344        C      tau( 344) = (  0.3118578  0.5624666  0.3116111  )
       345        C      tau( 345) = (  0.3137941  0.5617586  0.5617884  )
       346        C      tau( 346) = (  0.3127271  0.5622242  0.8122054  )
       347        C      tau( 347) = (  0.3124346  0.8125406  0.0623072  )
       348        C      tau( 348) = (  0.3123923  0.8127888  0.3123166  )
       349        C      tau( 349) = (  0.3127275  0.8121741  0.5622541  )
       350        C      tau( 350) = (  0.3125733  0.8122684  0.8122997  )
       351        C      tau( 351) = (  0.5624676  0.0624464  0.0624701  )
       352        C      tau( 352) = (  0.5624508  0.0625125  0.3125264  )
       353        C      tau( 353) = (  0.5624573  0.0624694  0.5625501  )
       354        C      tau( 354) = (  0.5624686  0.0623832  0.8125821  )
       355        C      tau( 355) = (  0.5624505  0.3125031  0.0625361  )
       356        C      tau( 356) = (  0.5623319  0.3119426  0.3119706  )
       357        C      tau( 357) = (  0.5618803  0.3127657  0.5625964  )
       358        C      tau( 358) = (  0.5623300  0.3125057  0.8124578  )
       359        C      tau( 359) = (  0.5624589  0.5625252  0.0624952  )
       360        C      tau( 360) = (  0.5618817  0.5625656  0.3127962  )
       361        C      tau( 361) = (  0.5625028  0.5624170  0.8125239  )
       362        C      tau( 362) = (  0.5624703  0.8125553  0.0624118  )
       363        C      tau( 363) = (  0.5623317  0.8124317  0.3125323  )
       364        C      tau( 364) = (  0.5625033  0.8124979  0.5624428  )
       365        C      tau( 365) = (  0.5625512  0.8125246  0.8125490  )
       366        C      tau( 366) = (  0.8124736  0.0624981  0.0625188  )
       367        C      tau( 367) = (  0.8124728  0.0624721  0.3125195  )
       368        C      tau( 368) = (  0.8124596  0.0625001  0.5625297  )
       369        C      tau( 369) = (  0.8124589  0.0625256  0.8125059  )
       370        C      tau( 370) = (  0.8124723  0.3124992  0.0624938  )
       371        C      tau( 371) = (  0.8125318  0.3124863  0.3125098  )
       372        C      tau( 372) = (  0.8121327  0.3127520  0.5624677  )
       373        C      tau( 373) = (  0.8123678  0.3125321  0.8124493  )
       374        C      tau( 374) = (  0.8124595  0.5625085  0.0625234  )
       375        C      tau( 375) = (  0.8121318  0.5624402  0.3127808  )
       376        C      tau( 376) = (  0.8124121  0.5625159  0.5625419  )
       377        C      tau( 377) = (  0.8125827  0.5625356  0.8126079  )
       378        C      tau( 378) = (  0.8124590  0.8124843  0.0625483  )
       379        C      tau( 379) = (  0.8123667  0.8124249  0.3125561  )
       380        C      tau( 380) = (  0.8125822  0.8125848  0.5625575  )
       381        C      tau( 381) = (  0.8125610  0.8125296  0.8125509  )
       382        C      tau( 382) = (  0.0624859  0.1875307  0.1875538  )
       383        C      tau( 383) = (  0.0624557  0.1875083  0.4375482  )
       384        C      tau( 384) = (  0.0623804  0.1874378  0.6875391  )
       385        C      tau( 385) = (  0.0624376  0.1874687  0.9375349  )
       386        C      tau( 386) = (  0.0624555  0.4375238  0.1875342  )
       387        C      tau( 387) = (  0.0625832  0.4375093  0.4375356  )
       388        C      tau( 388) = (  0.0625469  0.4374573  0.6874769  )
       389        C      tau( 389) = (  0.0623432  0.4374880  0.9375769  )
       390        C      tau( 390) = (  0.0623824  0.6875135  0.1874659  )
       391        C      tau( 391) = (  0.0625471  0.6874502  0.4374838  )
       392        C      tau( 392) = (  0.0626124  0.6873966  0.6874239  )
       393        C      tau( 393) = (  0.0625199  0.6874520  0.9374047  )
       394        C      tau( 394) = (  0.0624396  0.9375106  0.1874927  )
       395        C      tau( 395) = (  0.0623448  0.9375496  0.4375125  )
       396        C      tau( 396) = (  0.0625194  0.9373763  0.6874758  )
       397        C      tau( 397) = (  0.0624842  0.9374541  0.9374779  )
       398        C      tau( 398) = (  0.3124806  0.1875914  0.1876175  )
       399        C      tau( 399) = (  0.3124314  0.1874839  0.4376480  )
       400        C      tau( 400) = (  0.3124002  0.1871578  0.6876771  )
       401        C      tau( 401) = (  0.3124097  0.1873681  0.9376599  )
       402        C      tau( 402) = (  0.3124328  0.4376178  0.1875131  )
       403        C      tau( 403) = (  0.3136464  0.4379954  0.4380256  )
       404        C      tau( 404) = (  0.3119103  0.4374628  0.6884134  )
       405        C      tau( 405) = (  0.3124570  0.4374364  0.9375070  )
       406        C      tau( 406) = (  0.3124034  0.6876439  0.1871934  )
       407        C      tau( 407) = (  0.3119109  0.6883835  0.4374937  )
       408        C      tau( 408) = (  0.3129604  0.6870025  0.6870337  )
       409        C      tau( 409) = (  0.3125192  0.6874181  0.9373440  )
       410        C      tau( 410) = (  0.3124128  0.9376288  0.1874002  )
       411        C      tau( 411) = (  0.3124580  0.9374787  0.4374637  )
       412        C      tau( 412) = (  0.3125185  0.9373105  0.6874458  )
       413        C      tau( 413) = (  0.3124657  0.9373910  0.9374214  )
       414        C      tau( 414) = (  0.5624392  0.1873386  0.1873626  )
       415        C      tau( 415) = (  0.5623901  0.1875189  0.4376205  )
       416        C      tau( 416) = (  0.5623575  0.1873633  0.6876837  )
       417        C      tau( 417) = (  0.5624500  0.1874591  0.9375489  )
       418        C      tau( 418) = (  0.5623913  0.4375935  0.1875454  )
       419        C      tau( 419) = (  0.5616964  0.4379690  0.6867478  )
       420        C      tau( 420) = (  0.5624711  0.4374615  0.9375199  )
       421        C      tau( 421) = (  0.5623609  0.6876535  0.1873943  )
       422        C      tau( 422) = (  0.5616983  0.6867215  0.4379964  )
       423        C      tau( 423) = (  0.5627772  0.6878104  0.6878384  )
       424        C      tau( 424) = (  0.5624978  0.6874784  0.9374761  )
       425        C      tau( 425) = (  0.5624513  0.9375242  0.1874843  )
       426        C      tau( 426) = (  0.5624715  0.9374958  0.4374853  )
       427        C      tau( 427) = (  0.5624973  0.9374504  0.6875020  )
       428        C      tau( 428) = (  0.5624932  0.9374704  0.9374957  )
       429        C      tau( 429) = (  0.8124693  0.1875043  0.1875250  )
       430        C      tau( 430) = (  0.8126150  0.1873461  0.4375564  )
       431        C      tau( 431) = (  0.8123381  0.1875966  0.6874876  )
       432        C      tau( 432) = (  0.8124480  0.1875075  0.9374933  )
       433        C      tau( 433) = (  0.8126139  0.4375331  0.1873715  )
       434        C      tau( 434) = (  0.8123077  0.4375311  0.4375585  )
       435        C      tau( 435) = (  0.8122807  0.4376033  0.6874603  )
       436        C      tau( 436) = (  0.8124492  0.4375061  0.9374922  )
       437        C      tau( 437) = (  0.8123368  0.6874631  0.1876228  )
       438        C      tau( 438) = (  0.8122796  0.6874343  0.4376299  )
       439        C      tau( 439) = (  0.8126633  0.6875906  0.6876140  )
       440        C      tau( 440) = (  0.8125292  0.6875163  0.9375497  )
       441        C      tau( 441) = (  0.8124482  0.9374714  0.1875288  )
       442        C      tau( 442) = (  0.8124491  0.9374699  0.4375268  )
       443        C      tau( 443) = (  0.8125286  0.9375273  0.6875369  )
       444        C      tau( 444) = (  0.8124968  0.9375046  0.9375257  )
       445        C      tau( 445) = (  0.1874462  0.1874987  0.0625871  )
       446        C      tau( 446) = (  0.1875352  0.1875959  0.3125952  )
       447        C      tau( 447) = (  0.1871393  0.1871024  0.5625404  )
       448        C      tau( 448) = (  0.1874241  0.1873908  0.8125658  )
       449        C      tau( 449) = (  0.1874178  0.4375031  0.0624813  )
       450        C      tau( 450) = (  0.1876722  0.4376097  0.3125815  )
       451        C      tau( 451) = (  0.1877949  0.4374335  0.5624850  )
       452        C      tau( 452) = (  0.1871878  0.4374349  0.8128360  )
       453        C      tau( 453) = (  0.1874213  0.6875081  0.0623432  )
       454        C      tau( 454) = (  0.1874035  0.6875596  0.3124114  )
       455        C      tau( 455) = (  0.1877985  0.6873018  0.5623045  )
       456        C      tau( 456) = (  0.1876795  0.6873138  0.8122689  )
       457        C      tau( 457) = (  0.1874500  0.9374920  0.0624566  )
       458        C      tau( 458) = (  0.1873910  0.9375921  0.3124568  )
       459        C      tau( 459) = (  0.1875135  0.9373701  0.5624571  )
       460        C      tau( 460) = (  0.1874975  0.9373373  0.8124434  )
       461        C      tau( 461) = (  0.4374487  0.1874790  0.0625465  )
       462        C      tau( 462) = (  0.4374297  0.1875547  0.3126149  )
       463        C      tau( 463) = (  0.4374242  0.1874096  0.5626295  )
       464        C      tau( 464) = (  0.4374938  0.1868959  0.8130916  )
       465        C      tau( 465) = (  0.4374465  0.4375088  0.0625147  )
       466        C      tau( 466) = (  0.4376174  0.4380199  0.3129083  )
       467        C      tau( 467) = (  0.4374634  0.4373340  0.8125339  )
       468        C      tau( 468) = (  0.4374529  0.6875365  0.0623906  )
       469        C      tau( 469) = (  0.4377195  0.6889555  0.3111032  )
       470        C      tau( 470) = (  0.4383773  0.6864409  0.5615617  )
       471        C      tau( 471) = (  0.4376148  0.6872859  0.8122648  )
       472        C      tau( 472) = (  0.4374781  0.9376084  0.0623299  )
       473        C      tau( 473) = (  0.4374474  0.9375477  0.3124481  )
       474        C      tau( 474) = (  0.4374835  0.9374256  0.5624730  )
       475        C      tau( 475) = (  0.4374961  0.9373483  0.8124484  )
       476        C      tau( 476) = (  0.6874795  0.1874887  0.0624969  )
       477        C      tau( 477) = (  0.6874735  0.1874270  0.3125200  )
       478        C      tau( 478) = (  0.6873662  0.1875173  0.5625823  )
       479        C      tau( 479) = (  0.6873995  0.1875571  0.8124607  )
       480        C      tau( 480) = (  0.6874578  0.4375175  0.0625215  )
       481        C      tau( 481) = (  0.6880138  0.4376409  0.3119143  )
       482        C      tau( 482) = (  0.6863750  0.4383538  0.5619925  )
       483        C      tau( 483) = (  0.6873971  0.4375284  0.8124420  )
       484        C      tau( 484) = (  0.6874759  0.6875226  0.0624947  )
       485        C      tau( 485) = (  0.6870970  0.6873157  0.3127608  )
       486        C      tau( 486) = (  0.6878755  0.6879842  0.5627505  )
       487        C      tau( 487) = (  0.6876067  0.6875867  0.8126766  )
       488        C      tau( 488) = (  0.6874743  0.9374820  0.0625286  )
       489        C      tau( 489) = (  0.6874603  0.9374873  0.3125224  )
       490        C      tau( 490) = (  0.6874908  0.9375042  0.5625170  )
       491        C      tau( 491) = (  0.6875222  0.9375168  0.8125462  )
       492        C      tau( 492) = (  0.9374630  0.1875007  0.0625242  )
       493        C      tau( 493) = (  0.9374938  0.1875055  0.3125255  )
       494        C      tau( 494) = (  0.9373762  0.1875706  0.5625136  )
       495        C      tau( 495) = (  0.9374101  0.1874956  0.8125056  )
       496        C      tau( 496) = (  0.9374661  0.4375124  0.0624960  )
       497        C      tau( 497) = (  0.9374334  0.4375226  0.3125640  )
       498        C      tau( 498) = (  0.9374474  0.4375088  0.5625123  )
       499        C      tau( 499) = (  0.9374329  0.4375015  0.8124626  )
       500        C      tau( 500) = (  0.9374337  0.6874879  0.0625208  )
       501        C      tau( 501) = (  0.9373928  0.6874698  0.3125586  )
       502        C      tau( 502) = (  0.9375207  0.6874572  0.5625046  )
       503        C      tau( 503) = (  0.9375722  0.6874879  0.8125021  )
       504        C      tau( 504) = (  0.9374682  0.9374900  0.0625106  )
       505        C      tau( 505) = (  0.9374220  0.9374796  0.3125163  )
       506        C      tau( 506) = (  0.9374749  0.9374612  0.5625083  )
       507        C      tau( 507) = (  0.9375129  0.9374791  0.8125031  )
       508        C      tau( 508) = (  0.5681529  0.4316189  0.4316468  )
       509        C      tau( 509) = (  0.4328225  0.4306706  0.5691523  )
       510        C      tau( 510) = (  0.4328235  0.5691245  0.4306988  )
       511        N      tau( 511) = (  0.5663944  0.5662126  0.5662391  )

     number of k points=     1
                       cart. coord. in units 2pi/alat
        k(    1) = (   0.0000000   0.0000000   0.0000000), wk =   1.0000000

                       cryst. coord.
        k(    1) = (   0.0000000   0.0000000   0.0000000), wk =   1.0000000

     Dense  grid:   948261 G-vectors     FFT dimensions: ( 160, 160, 160)

     Dynamical RAM for                 wfc:      38.88 MB

     Dynamical RAM for     wfc (w. buffer):      38.88 MB

     Dynamical RAM for           str. fact:       0.60 MB

     Dynamical RAM for           local pot:       0.00 MB

     Dynamical RAM for          nlocal pot:     154.01 MB

     Dynamical RAM for                qrad:       0.82 MB

     Dynamical RAM for          rho,v,vnew:       6.50 MB

     Dynamical RAM for               rhoin:       2.17 MB

     Dynamical RAM for            rho*nmix:       9.65 MB

     Dynamical RAM for           G-vectors:       1.28 MB

     Dynamical RAM for          h,s,v(r/c):       2.71 MB

     Dynamical RAM for          <psi|beta>:      32.19 MB

     Dynamical RAM for                 psi:      77.76 MB

     Dynamical RAM for                hpsi:      77.76 MB

     Dynamical RAM for      wfcinit/wfcrot:     102.14 MB

     Estimated static dynamical RAM per process >     209.85 MB

     Estimated max dynamical RAM per process >     409.91 MB

     Estimated total dynamical RAM >      37.98 GB
     Generating pointlists ...
     new r_m :   0.0425 (alat units)  1.1457 (a.u.) for type    1
     new r_m :   0.0430 (alat units)  1.1599 (a.u.) for type    2

     Initial potential from superposition of free atoms

     starting charge    2041.4445, renormalised to    2046.0000
     Starting wfcs are random

     total cpu time spent up to now is       13.4 secs

     Self-consistent Calculation

     iteration #  1     ecut=    80.00 Ry     beta= 0.70
     Davidson diagonalization with overlap

---- Real-time Memory Report at c_bands before calling an iterative solver
           512 MiB given to the printing process from OS
             0 MiB allocation reported by mallinfo(arena+hblkhd)
        161137 MiB available memory on the node where the printing process lives
------------------
     ethr =  1.00E-02,  avg # of iterations = 13.0

     total cpu time spent up to now is       95.4 secs

     total energy              =   -5823.98439051 Ry
     estimated scf accuracy    <      29.03374033 Ry

     total magnetization       =     2.00 Bohr mag/cell
     absolute magnetization    =     2.00 Bohr mag/cell

     iteration #  2     ecut=    80.00 Ry     beta= 0.70
     Davidson diagonalization with overlap

---- Real-time Memory Report at c_bands before calling an iterative solver
           629 MiB given to the printing process from OS
             0 MiB allocation reported by mallinfo(arena+hblkhd)
        159596 MiB available memory on the node where the printing process lives
------------------
     ethr =  1.42E-03,  avg # of iterations = 15.0

     total cpu time spent up to now is      122.7 secs

     total energy              =   -5828.15187475 Ry
     estimated scf accuracy    <       1.22316671 Ry

     total magnetization       =     2.00 Bohr mag/cell
     absolute magnetization    =     2.07 Bohr mag/cell

     iteration #  3     ecut=    80.00 Ry     beta= 0.70
     Davidson diagonalization with overlap

---- Real-time Memory Report at c_bands before calling an iterative solver
           651 MiB given to the printing process from OS
             0 MiB allocation reported by mallinfo(arena+hblkhd)
        159462 MiB available memory on the node where the printing process lives
------------------
     c_bands:  1 eigenvalues not converged
     ethr =  5.98E-05,  avg # of iterations = 20.0

     total cpu time spent up to now is      155.0 secs

     total energy              =   -5827.99036506 Ry
     estimated scf accuracy    <       5.07550315 Ry

     total magnetization       =     2.00 Bohr mag/cell
     absolute magnetization    =     2.23 Bohr mag/cell

     iteration #  4     ecut=    80.00 Ry     beta= 0.70
     Davidson diagonalization with overlap

---- Real-time Memory Report at c_bands before calling an iterative solver
           657 MiB given to the printing process from OS
             0 MiB allocation reported by mallinfo(arena+hblkhd)
        159460 MiB available memory on the node where the printing process lives
------------------
     c_bands:  1 eigenvalues not converged
     ethr =  5.98E-05,  avg # of iterations = 20.0

     total cpu time spent up to now is      182.3 secs

     total energy              =   -5829.06026905 Ry
     estimated scf accuracy    <       0.17186045 Ry

     total magnetization       =     2.00 Bohr mag/cell
     absolute magnetization    =     2.17 Bohr mag/cell

     iteration #  5     ecut=    80.00 Ry     beta= 0.70
     Davidson diagonalization with overlap

---- Real-time Memory Report at c_bands before calling an iterative solver
           657 MiB given to the printing process from OS
             0 MiB allocation reported by mallinfo(arena+hblkhd)
        159459 MiB available memory on the node where the printing process lives
------------------
     c_bands:  1 eigenvalues not converged
     ethr =  8.40E-06,  avg # of iterations = 20.0

     total cpu time spent up to now is      206.9 secs

     total energy              =   -5829.07899806 Ry
     estimated scf accuracy    <       0.05486756 Ry

     total magnetization       =     2.00 Bohr mag/cell
     absolute magnetization    =     2.19 Bohr mag/cell

     iteration #  6     ecut=    80.00 Ry     beta= 0.70
     Davidson diagonalization with overlap

---- Real-time Memory Report at c_bands before calling an iterative solver
           657 MiB given to the printing process from OS
             0 MiB allocation reported by mallinfo(arena+hblkhd)
        159458 MiB available memory on the node where the printing process lives
------------------
     c_bands:  1 eigenvalues not converged
     ethr =  2.68E-06,  avg # of iterations = 20.0

     total cpu time spent up to now is      234.9 secs

     total energy              =   -5829.08929576 Ry
     estimated scf accuracy    <       0.00397787 Ry

     total magnetization       =     2.00 Bohr mag/cell
     absolute magnetization    =     2.22 Bohr mag/cell

     iteration #  7     ecut=    80.00 Ry     beta= 0.70
     Davidson diagonalization with overlap

---- Real-time Memory Report at c_bands before calling an iterative solver
           657 MiB given to the printing process from OS
             0 MiB allocation reported by mallinfo(arena+hblkhd)
        159452 MiB available memory on the node where the printing process lives
------------------
     c_bands:  1 eigenvalues not converged
     ethr =  1.94E-07,  avg # of iterations = 20.0

     total cpu time spent up to now is      266.0 secs

     total energy              =   -5829.09087411 Ry
     estimated scf accuracy    <       0.00045334 Ry

     total magnetization       =     2.00 Bohr mag/cell
     absolute magnetization    =     2.24 Bohr mag/cell

     iteration #  8     ecut=    80.00 Ry     beta= 0.70
     Davidson diagonalization with overlap

---- Real-time Memory Report at c_bands before calling an iterative solver
           657 MiB given to the printing process from OS
             0 MiB allocation reported by mallinfo(arena+hblkhd)
        159248 MiB available memory on the node where the printing process lives
------------------
     c_bands:  2 eigenvalues not converged
     ethr =  2.22E-08,  avg # of iterations = 20.0

     total cpu time spent up to now is      291.9 secs

     total energy              =   -5829.09114621 Ry
     estimated scf accuracy    <       0.00023869 Ry

     total magnetization       =     2.00 Bohr mag/cell
     absolute magnetization    =     2.26 Bohr mag/cell

     iteration #  9     ecut=    80.00 Ry     beta= 0.70
     Davidson diagonalization with overlap

---- Real-time Memory Report at c_bands before calling an iterative solver
           661 MiB given to the printing process from OS
             0 MiB allocation reported by mallinfo(arena+hblkhd)
        158998 MiB available memory on the node where the printing process lives
------------------
     c_bands:  1 eigenvalues not converged
     ethr =  1.17E-08,  avg # of iterations = 20.0

     total cpu time spent up to now is      318.8 secs

     total energy              =   -5829.09123450 Ry
     estimated scf accuracy    <       0.00006389 Ry

     total magnetization       =     2.00 Bohr mag/cell
     absolute magnetization    =     2.27 Bohr mag/cell

     iteration # 10     ecut=    80.00 Ry     beta= 0.70
     Davidson diagonalization with overlap

---- Real-time Memory Report at c_bands before calling an iterative solver
           668 MiB given to the printing process from OS
             0 MiB allocation reported by mallinfo(arena+hblkhd)
        158936 MiB available memory on the node where the printing process lives
------------------
     c_bands:  1 eigenvalues not converged
     ethr =  3.12E-09,  avg # of iterations = 20.0

     total cpu time spent up to now is      355.3 secs

     total energy              =   -5829.09125645 Ry
     estimated scf accuracy    <       0.00001915 Ry

     total magnetization       =     2.00 Bohr mag/cell
     absolute magnetization    =     2.28 Bohr mag/cell

     iteration # 11     ecut=    80.00 Ry     beta= 0.70
     Davidson diagonalization with overlap

---- Real-time Memory Report at c_bands before calling an iterative solver
           668 MiB given to the printing process from OS
             0 MiB allocation reported by mallinfo(arena+hblkhd)
        158934 MiB available memory on the node where the printing process lives
------------------
     ethr =  9.36E-10,  avg # of iterations = 15.5

     total cpu time spent up to now is      380.2 secs

     total energy              =   -5829.09126155 Ry
     estimated scf accuracy    <       0.00000601 Ry

     total magnetization       =     2.00 Bohr mag/cell
     absolute magnetization    =     2.29 Bohr mag/cell

     iteration # 12     ecut=    80.00 Ry     beta= 0.70
     Davidson diagonalization with overlap

---- Real-time Memory Report at c_bands before calling an iterative solver
           668 MiB given to the printing process from OS
             0 MiB allocation reported by mallinfo(arena+hblkhd)
        158934 MiB available memory on the node where the printing process lives
------------------
     c_bands:  1 eigenvalues not converged
     ethr =  2.94E-10,  avg # of iterations = 20.0

     total cpu time spent up to now is      421.9 secs

     total energy              =   -5829.09126358 Ry
     estimated scf accuracy    <       0.00000182 Ry

     total magnetization       =     2.00 Bohr mag/cell
     absolute magnetization    =     2.29 Bohr mag/cell

     iteration # 13     ecut=    80.00 Ry     beta= 0.70
     Davidson diagonalization with overlap

---- Real-time Memory Report at c_bands before calling an iterative solver
           668 MiB given to the printing process from OS
             0 MiB allocation reported by mallinfo(arena+hblkhd)
        158935 MiB available memory on the node where the printing process lives
------------------
     c_bands:  2 eigenvalues not converged
     ethr =  8.88E-11,  avg # of iterations = 20.0

     total cpu time spent up to now is      448.1 secs

     total energy              =   -5829.09126420 Ry
     estimated scf accuracy    <       0.00000027 Ry

     total magnetization       =     2.00 Bohr mag/cell
     absolute magnetization    =     2.29 Bohr mag/cell

     iteration # 14     ecut=    80.00 Ry     beta= 0.70
     Davidson diagonalization with overlap

---- Real-time Memory Report at c_bands before calling an iterative solver
           668 MiB given to the printing process from OS
             0 MiB allocation reported by mallinfo(arena+hblkhd)
        158934 MiB available memory on the node where the printing process lives
------------------
     ethr =  1.33E-11,  avg # of iterations = 16.0

     total cpu time spent up to now is      473.3 secs

     total energy              =   -5829.09126431 Ry
     estimated scf accuracy    <       0.00000012 Ry

     total magnetization       =     2.00 Bohr mag/cell
     absolute magnetization    =     2.29 Bohr mag/cell

     iteration # 15     ecut=    80.00 Ry     beta= 0.70
     Davidson diagonalization with overlap

---- Real-time Memory Report at c_bands before calling an iterative solver
           668 MiB given to the printing process from OS
             0 MiB allocation reported by mallinfo(arena+hblkhd)
        158891 MiB available memory on the node where the printing process lives
------------------
     c_bands:  1 eigenvalues not converged
     ethr =  5.71E-12,  avg # of iterations = 20.0

     total cpu time spent up to now is      512.5 secs

     total energy              =   -5829.09126435 Ry
     estimated scf accuracy    <       0.00000007 Ry

     total magnetization       =     2.00 Bohr mag/cell
     absolute magnetization    =     2.29 Bohr mag/cell

     iteration # 16     ecut=    80.00 Ry     beta= 0.70
     Davidson diagonalization with overlap

---- Real-time Memory Report at c_bands before calling an iterative solver
           669 MiB given to the printing process from OS
             0 MiB allocation reported by mallinfo(arena+hblkhd)
        158890 MiB available memory on the node where the printing process lives
------------------
     c_bands:  1 eigenvalues not converged
     ethr =  3.49E-12,  avg # of iterations = 20.0

     total cpu time spent up to now is      539.8 secs

     total energy              =   -5829.09126437 Ry
     estimated scf accuracy    <          5.7E-09 Ry

     total magnetization       =     2.00 Bohr mag/cell
     absolute magnetization    =     2.30 Bohr mag/cell

     iteration # 17     ecut=    80.00 Ry     beta= 0.70
     Davidson diagonalization with overlap

---- Real-time Memory Report at c_bands before calling an iterative solver
           669 MiB given to the printing process from OS
             0 MiB allocation reported by mallinfo(arena+hblkhd)
        158890 MiB available memory on the node where the printing process lives
------------------
     ethr =  2.77E-13,  avg # of iterations = 13.5

     total cpu time spent up to now is      570.0 secs

     total energy              =   -5829.09126438 Ry
     estimated scf accuracy    <          7.2E-09 Ry

     total magnetization       =     2.00 Bohr mag/cell
     absolute magnetization    =     2.30 Bohr mag/cell

     iteration # 18     ecut=    80.00 Ry     beta= 0.70
     Davidson diagonalization with overlap

---- Real-time Memory Report at c_bands before calling an iterative solver
           669 MiB given to the printing process from OS
             0 MiB allocation reported by mallinfo(arena+hblkhd)
        158695 MiB available memory on the node where the printing process lives
------------------
     ethr =  2.77E-13,  avg # of iterations = 15.5

     total cpu time spent up to now is      606.1 secs

     total energy              =   -5829.09126438 Ry
     estimated scf accuracy    <          1.3E-09 Ry

     total magnetization       =     2.00 Bohr mag/cell
     absolute magnetization    =     2.30 Bohr mag/cell

     iteration # 19     ecut=    80.00 Ry     beta= 0.70
     Davidson diagonalization with overlap

---- Real-time Memory Report at c_bands before calling an iterative solver
           673 MiB given to the printing process from OS
             0 MiB allocation reported by mallinfo(arena+hblkhd)
        158694 MiB available memory on the node where the printing process lives
------------------
     c_bands:  1 eigenvalues not converged
     ethr =  1.00E-13,  avg # of iterations = 20.0

     total cpu time spent up to now is      637.2 secs

     total energy              =   -5829.09126438 Ry
     estimated scf accuracy    <          6.8E-10 Ry

     total magnetization       =     2.00 Bohr mag/cell
     absolute magnetization    =     2.30 Bohr mag/cell

     iteration # 20     ecut=    80.00 Ry     beta= 0.70
     Davidson diagonalization with overlap

---- Real-time Memory Report at c_bands before calling an iterative solver
           673 MiB given to the printing process from OS
             0 MiB allocation reported by mallinfo(arena+hblkhd)
        158694 MiB available memory on the node where the printing process lives
------------------
     c_bands:  1 eigenvalues not converged
     ethr =  1.00E-13,  avg # of iterations = 20.0

     total cpu time spent up to now is      661.5 secs

     total energy              =   -5829.09126438 Ry
     estimated scf accuracy    <          2.3E-10 Ry

     total magnetization       =     2.00 Bohr mag/cell
     absolute magnetization    =     2.30 Bohr mag/cell

     iteration # 21     ecut=    80.00 Ry     beta= 0.70
     Davidson diagonalization with overlap

---- Real-time Memory Report at c_bands before calling an iterative solver
           673 MiB given to the printing process from OS
             0 MiB allocation reported by mallinfo(arena+hblkhd)
        158693 MiB available memory on the node where the printing process lives
------------------
     ethr =  1.00E-13,  avg # of iterations = 11.0
 
     Magnetic moment per site  (integrated on atomic sphere of radius R)
     atom   1 (R=0.042)  charge=  1.7968  magn= -0.0000
     atom   2 (R=0.042)  charge=  1.7967  magn= -0.0000
     atom   3 (R=0.042)  charge=  1.7984  magn=  0.0002
     atom   4 (R=0.042)  charge=  1.7966  magn=  0.0000
     atom   5 (R=0.042)  charge=  1.7968  magn= -0.0000
     atom   6 (R=0.042)  charge=  1.7970  magn= -0.0000
     atom   7 (R=0.042)  charge=  1.7968  magn= -0.0000
     atom   8 (R=0.042)  charge=  1.7969  magn= -0.0000
     atom   9 (R=0.042)  charge=  1.7984  magn=  0.0002
     atom  10 (R=0.042)  charge=  1.7968  magn= -0.0000
     atom  11 (R=0.042)  charge=  1.7965  magn= -0.0000
     atom  12 (R=0.042)  charge=  1.7969  magn=  0.0000
     atom  13 (R=0.042)  charge=  1.7966  magn=  0.0000
     atom  14 (R=0.042)  charge=  1.7969  magn= -0.0000
     atom  15 (R=0.042)  charge=  1.7969  magn=  0.0000
     atom  16 (R=0.042)  charge=  1.7969  magn= -0.0000
     atom  17 (R=0.042)  charge=  1.7967  magn= -0.0000
     atom  18 (R=0.042)  charge=  1.7973  magn= -0.0000
     atom  19 (R=0.042)  charge=  1.7970  magn= -0.0000
     atom  20 (R=0.042)  charge=  1.7969  magn= -0.0000
     atom  21 (R=0.042)  charge=  1.7972  magn= -0.0000
     atom  22 (R=0.042)  charge=  1.7957  magn= -0.0001
     atom  23 (R=0.042)  charge=  1.8007  magn=  0.0018
     atom  24 (R=0.042)  charge=  1.7963  magn= -0.0001
     atom  25 (R=0.042)  charge=  1.7970  magn= -0.0000
     atom  26 (R=0.042)  charge=  1.8007  magn=  0.0018
     atom  27 (R=0.042)  charge=  1.7981  magn= -0.0009
     atom  28 (R=0.042)  charge=  1.8010  magn=  0.0030
     atom  29 (R=0.042)  charge=  1.7970  magn= -0.0000
     atom  30 (R=0.042)  charge=  1.7964  magn= -0.0001
     atom  31 (R=0.042)  charge=  1.8010  magn=  0.0030
     atom  32 (R=0.042)  charge=  1.7953  magn=  0.0000
     atom  33 (R=0.042)  charge=  1.7990  magn=  0.0002
     atom  34 (R=0.042)  charge=  1.7971  magn= -0.0000
     atom  35 (R=0.042)  charge=  1.7968  magn= -0.0000
     atom  36 (R=0.042)  charge=  1.7972  magn=  0.0000
     atom  37 (R=0.042)  charge=  1.7971  magn= -0.0000
     atom  38 (R=0.042)  charge=  1.7995  magn=  0.0020
     atom  39 (R=0.042)  charge=  1.7975  magn= -0.0010
     atom  40 (R=0.042)  charge=  1.8045  magn=  0.0029
     atom  41 (R=0.042)  charge=  1.7968  magn= -0.0000
     atom  42 (R=0.042)  charge=  1.7975  magn= -0.0010
     atom  43 (R=0.042)  charge=  1.7997  magn= -0.0006
     atom  44 (R=0.042)  charge=  1.7972  magn=  0.0000
     atom  45 (R=0.042)  charge=  1.8044  magn=  0.0029
     atom  46 (R=0.042)  charge=  1.7997  magn= -0.0006
     atom  47 (R=0.042)  charge=  1.7985  magn=  0.0001
     atom  48 (R=0.042)  charge=  1.7968  magn=  0.0000
     atom  49 (R=0.042)  charge=  1.7971  magn= -0.0000
     atom  50 (R=0.042)  charge=  1.7971  magn=  0.0000
     atom  51 (R=0.042)  charge=  1.7973  magn= -0.0000
     atom  52 (R=0.042)  charge=  1.7971  magn= -0.0000
     atom  53 (R=0.042)  charge=  1.7964  magn= -0.0001
     atom  54 (R=0.042)  charge=  1.7999  magn=  0.0031
     atom  55 (R=0.042)  charge=  1.7957  magn=  0.0000
     atom  56 (R=0.042)  charge=  1.7971  magn=  0.0000
     atom  57 (R=0.042)  charge=  1.7999  magn=  0.0031
     atom  58 (R=0.042)  charge=  1.7985  magn= -0.0006
     atom  59 (R=0.042)  charge=  1.7988  magn=  0.0001
     atom  60 (R=0.042)  charge=  1.7973  magn= -0.0000
     atom  61 (R=0.042)  charge=  1.7957  magn=  0.0000
     atom  62 (R=0.042)  charge=  1.7988  magn=  0.0001
     atom  63 (R=0.042)  charge=  1.7969  magn= -0.0000
     atom  64 (R=0.042)  charge=  1.7968  magn= -0.0000
     atom  65 (R=0.042)  charge=  1.7971  magn= -0.0000
     atom  66 (R=0.042)  charge=  1.7967  magn= -0.0000
     atom  67 (R=0.042)  charge=  1.7968  magn= -0.0000
     atom  68 (R=0.042)  charge=  1.7971  magn= -0.0000
     atom  69 (R=0.042)  charge=  1.7965  magn=  0.0000
     atom  70 (R=0.042)  charge=  1.7967  magn=  0.0000
     atom  71 (R=0.042)  charge=  1.7970  magn= -0.0000
     atom  72 (R=0.042)  charge=  1.7967  magn= -0.0000
     atom  73 (R=0.042)  charge=  1.7967  magn=  0.0000
     atom  74 (R=0.042)  charge=  1.7967  magn= -0.0000
     atom  75 (R=0.042)  charge=  1.7971  magn= -0.0000
     atom  76 (R=0.042)  charge=  1.7968  magn= -0.0000
     atom  77 (R=0.042)  charge=  1.7970  magn= -0.0000
     atom  78 (R=0.042)  charge=  1.7971  magn= -0.0000
     atom  79 (R=0.042)  charge=  1.7966  magn=  0.0000
     atom  80 (R=0.042)  charge=  1.7968  magn= -0.0000
     atom  81 (R=0.042)  charge=  1.7967  magn=  0.0000
     atom  82 (R=0.042)  charge=  1.7970  magn= -0.0001
     atom  83 (R=0.042)  charge=  1.7968  magn= -0.0000
     atom  84 (R=0.042)  charge=  1.7968  magn=  0.0000
     atom  85 (R=0.042)  charge=  1.7924  magn= -0.0004
     atom  86 (R=0.042)  charge=  1.7952  magn= -0.0011
     atom  87 (R=0.042)  charge=  1.7972  magn= -0.0001
     atom  88 (R=0.042)  charge=  1.7970  magn= -0.0001
     atom  89 (R=0.042)  charge=  1.7953  magn= -0.0011
     atom  90 (R=0.042)  charge=  1.7925  magn= -0.0007
     atom  91 (R=0.042)  charge=  1.7957  magn= -0.0000
     atom  92 (R=0.042)  charge=  1.7968  magn= -0.0000
     atom  93 (R=0.042)  charge=  1.7972  magn= -0.0001
     atom  94 (R=0.042)  charge=  1.7957  magn= -0.0000
     atom  95 (R=0.042)  charge=  1.7965  magn=  0.0000
     atom  96 (R=0.042)  charge=  1.7979  magn=  0.0004
     atom  97 (R=0.042)  charge=  1.7967  magn= -0.0001
     atom  98 (R=0.042)  charge=  1.7970  magn= -0.0001
     atom  99 (R=0.042)  charge=  1.7995  magn=  0.0005
     atom 100 (R=0.042)  charge=  1.7967  magn= -0.0001
     atom 101 (R=0.042)  charge=  1.7991  magn= -0.0084
     atom 102 (R=0.042)  charge=  1.8113  magn= -0.0050
     atom 103 (R=0.042)  charge=  1.7973  magn= -0.0000
     atom 104 (R=0.042)  charge=  1.7971  magn= -0.0001
     atom 105 (R=0.042)  charge=  1.8113  magn= -0.0050
     atom 106 (R=0.042)  charge=  1.7684  magn=  0.0009
     atom 107 (R=0.042)  charge=  1.7970  magn= -0.0000
     atom 108 (R=0.042)  charge=  1.7995  magn=  0.0005
     atom 109 (R=0.042)  charge=  1.7973  magn= -0.0001
     atom 110 (R=0.042)  charge=  1.7970  magn= -0.0000
     atom 111 (R=0.042)  charge=  1.7976  magn=  0.0000
     atom 112 (R=0.042)  charge=  1.7969  magn= -0.0000
     atom 113 (R=0.042)  charge=  1.7970  magn= -0.0001
     atom 114 (R=0.042)  charge=  1.7969  magn= -0.0000
     atom 115 (R=0.042)  charge=  1.7967  magn=  0.0000
     atom 116 (R=0.042)  charge=  1.7970  magn= -0.0001
     atom 117 (R=0.042)  charge=  1.7956  magn= -0.0010
     atom 118 (R=0.042)  charge=  1.7919  magn= -0.0002
     atom 119 (R=0.042)  charge=  1.7967  magn=  0.0000
     atom 120 (R=0.042)  charge=  1.7969  magn= -0.0000
     atom 121 (R=0.042)  charge=  1.7919  magn= -0.0002
     atom 122 (R=0.042)  charge=  1.7969  magn= -0.0000
     atom 123 (R=0.042)  charge=  1.7974  magn= -0.0000
     atom 124 (R=0.042)  charge=  1.7967  magn=  0.0000
     atom 125 (R=0.042)  charge=  1.7967  magn=  0.0000
     atom 126 (R=0.042)  charge=  1.7974  magn= -0.0000
     atom 127 (R=0.042)  charge=  1.7972  magn=  0.0000
     atom 128 (R=0.042)  charge=  1.7968  magn= -0.0000
     atom 129 (R=0.042)  charge=  1.7973  magn= -0.0000
     atom 130 (R=0.042)  charge=  1.7968  magn= -0.0000
     atom 131 (R=0.042)  charge=  1.7967  magn= -0.0000
     atom 132 (R=0.042)  charge=  1.7967  magn= -0.0000
     atom 133 (R=0.042)  charge=  1.7961  magn=  0.0000
     atom 134 (R=0.042)  charge=  1.7968  magn= -0.0001
     atom 135 (R=0.042)  charge=  1.7968  magn= -0.0000
     atom 136 (R=0.042)  charge=  1.7983  magn=  0.0004
     atom 137 (R=0.042)  charge=  1.7964  magn= -0.0001
     atom 138 (R=0.042)  charge=  1.7964  magn= -0.0001
     atom 139 (R=0.042)  charge=  1.7984  magn=  0.0005
     atom 140 (R=0.042)  charge=  1.7967  magn= -0.0000
     atom 141 (R=0.042)  charge=  1.7969  magn= -0.0001
     atom 142 (R=0.042)  charge=  1.7960  magn= -0.0000
     atom 143 (R=0.042)  charge=  1.7963  magn=  0.0000
     atom 144 (R=0.042)  charge=  1.7974  magn= -0.0000
     atom 145 (R=0.042)  charge=  1.7969  magn=  0.0000
     atom 146 (R=0.042)  charge=  1.7970  magn=  0.0000
     atom 147 (R=0.042)  charge=  1.7972  magn= -0.0000
     atom 148 (R=0.042)  charge=  1.7968  magn=  0.0000
     atom 149 (R=0.042)  charge=  1.7944  magn= -0.0004
     atom 150 (R=0.042)  charge=  1.7956  magn= -0.0011
     atom 151 (R=0.042)  charge=  1.7973  magn= -0.0001
     atom 152 (R=0.042)  charge=  1.7969  magn= -0.0001
     atom 153 (R=0.042)  charge=  1.8011  magn= -0.0081
     atom 154 (R=0.042)  charge=  1.8025  magn= -0.0051
     atom 155 (R=0.042)  charge=  1.7972  magn= -0.0000
     atom 156 (R=0.042)  charge=  1.7971  magn= -0.0001
     atom 157 (R=0.042)  charge=  1.7964  magn= -0.0011
     atom 158 (R=0.042)  charge=  1.7918  magn= -0.0002
     atom 159 (R=0.042)  charge=  1.7964  magn=  0.0000
     atom 160 (R=0.042)  charge=  1.7972  magn= -0.0000
     atom 161 (R=0.042)  charge=  1.7970  magn=  0.0000
     atom 162 (R=0.042)  charge=  1.7971  magn= -0.0000
     atom 163 (R=0.042)  charge=  1.7976  magn= -0.0000
     atom 164 (R=0.042)  charge=  1.7969  magn= -0.0001
     atom 165 (R=0.042)  charge=  1.7954  magn= -0.0011
     atom 166 (R=0.042)  charge=  1.7948  magn= -0.0007
     atom 167 (R=0.042)  charge=  1.7963  magn= -0.0000
     atom 168 (R=0.042)  charge=  1.7968  magn= -0.0001
     atom 169 (R=0.042)  charge=  1.7990  magn= -0.0052
     atom 170 (R=0.042)  charge=  1.7684  magn=  0.0010
     atom 171 (R=0.042)  charge=  1.7971  magn= -0.0000
     atom 172 (R=0.042)  charge=  1.7972  magn= -0.0000
     atom 173 (R=0.042)  charge=  1.7922  magn= -0.0002
     atom 174 (R=0.042)  charge=  1.7974  magn= -0.0000
     atom 175 (R=0.042)  charge=  1.7975  magn= -0.0000
     atom 176 (R=0.042)  charge=  1.7968  magn= -0.0000
     atom 177 (R=0.042)  charge=  1.7971  magn= -0.0000
     atom 178 (R=0.042)  charge=  1.7972  magn=  0.0000
     atom 179 (R=0.042)  charge=  1.7968  magn=  0.0000
     atom 180 (R=0.042)  charge=  1.7969  magn= -0.0000
     atom 181 (R=0.042)  charge=  1.7969  magn= -0.0001
     atom 182 (R=0.042)  charge=  1.7956  magn= -0.0000
     atom 183 (R=0.042)  charge=  1.7968  magn=  0.0000
     atom 184 (R=0.042)  charge=  1.7980  magn=  0.0005
     atom 185 (R=0.042)  charge=  1.7965  magn= -0.0000
     atom 186 (R=0.042)  charge=  1.7967  magn= -0.0000
     atom 187 (R=0.042)  charge=  1.7976  magn=  0.0000
     atom 188 (R=0.042)  charge=  1.7966  magn=  0.0000
     atom 189 (R=0.042)  charge=  1.7964  magn=  0.0000
     atom 190 (R=0.042)  charge=  1.7972  magn= -0.0000
     atom 191 (R=0.042)  charge=  1.7970  magn=  0.0000
     atom 192 (R=0.042)  charge=  1.7968  magn= -0.0000
     atom 193 (R=0.042)  charge=  1.7967  magn= -0.0000
     atom 194 (R=0.042)  charge=  1.7983  magn=  0.0004
     atom 195 (R=0.042)  charge=  1.7967  magn= -0.0000
     atom 196 (R=0.042)  charge=  1.7973  magn= -0.0000
     atom 197 (R=0.042)  charge=  1.7961  magn=  0.0000
     atom 198 (R=0.042)  charge=  1.7964  magn= -0.0001
     atom 199 (R=0.042)  charge=  1.7969  magn= -0.0001
     atom 200 (R=0.042)  charge=  1.7968  magn= -0.0000
     atom 201 (R=0.042)  charge=  1.7968  magn= -0.0001
     atom 202 (R=0.042)  charge=  1.7964  magn= -0.0001
     atom 203 (R=0.042)  charge=  1.7960  magn= -0.0000
     atom 204 (R=0.042)  charge=  1.7967  magn= -0.0000
     atom 205 (R=0.042)  charge=  1.7968  magn= -0.0000
     atom 206 (R=0.042)  charge=  1.7984  magn=  0.0005
     atom 207 (R=0.042)  charge=  1.7963  magn=  0.0000
     atom 208 (R=0.042)  charge=  1.7974  magn= -0.0000
     atom 209 (R=0.042)  charge=  1.7968  magn=  0.0000
     atom 210 (R=0.042)  charge=  1.7969  magn= -0.0001
     atom 211 (R=0.042)  charge=  1.7972  magn= -0.0001
     atom 212 (R=0.042)  charge=  1.7969  magn=  0.0000
     atom 213 (R=0.042)  charge=  1.7944  magn= -0.0004
     atom 214 (R=0.042)  charge=  1.8012  magn= -0.0081
     atom 215 (R=0.042)  charge=  1.7964  magn= -0.0011
     atom 216 (R=0.042)  charge=  1.7970  magn=  0.0000
     atom 217 (R=0.042)  charge=  1.7956  magn= -0.0011
     atom 218 (R=0.042)  charge=  1.8025  magn= -0.0051
     atom 219 (R=0.042)  charge=  1.7918  magn= -0.0002
     atom 220 (R=0.042)  charge=  1.7972  magn= -0.0000
     atom 221 (R=0.042)  charge=  1.7973  magn= -0.0001
     atom 222 (R=0.042)  charge=  1.7972  magn= -0.0000
     atom 223 (R=0.042)  charge=  1.7963  magn=  0.0000
     atom 224 (R=0.042)  charge=  1.7972  magn= -0.0000
     atom 225 (R=0.042)  charge=  1.7969  magn= -0.0001
     atom 226 (R=0.042)  charge=  1.7968  magn= -0.0001
     atom 227 (R=0.042)  charge=  1.7972  magn= -0.0000
     atom 228 (R=0.042)  charge=  1.7970  magn=  0.0000
     atom 229 (R=0.042)  charge=  1.7954  magn= -0.0011
     atom 230 (R=0.042)  charge=  1.7990  magn= -0.0052
     atom 231 (R=0.042)  charge=  1.7921  magn= -0.0002
     atom 232 (R=0.042)  charge=  1.7971  magn= -0.0000
     atom 233 (R=0.042)  charge=  1.7949  magn= -0.0007
     atom 234 (R=0.042)  charge=  1.7684  magn=  0.0010
     atom 235 (R=0.042)  charge=  1.7974  magn= -0.0000
     atom 236 (R=0.042)  charge=  1.7976  magn= -0.0000
     atom 237 (R=0.042)  charge=  1.7963  magn= -0.0000
     atom 238 (R=0.042)  charge=  1.7971  magn= -0.0000
     atom 239 (R=0.042)  charge=  1.7975  magn= -0.0000
     atom 240 (R=0.042)  charge=  1.7968  magn= -0.0000
     atom 241 (R=0.042)  charge=  1.7969  magn= -0.0000
     atom 242 (R=0.042)  charge=  1.7980  magn=  0.0005
     atom 243 (R=0.042)  charge=  1.7966  magn=  0.0000
     atom 244 (R=0.042)  charge=  1.7971  magn= -0.0000
     atom 245 (R=0.042)  charge=  1.7969  magn= -0.0001
     atom 246 (R=0.042)  charge=  1.7965  magn= -0.0000
     atom 247 (R=0.042)  charge=  1.7964  magn=  0.0000
     atom 248 (R=0.042)  charge=  1.7972  magn=  0.0000
     atom 249 (R=0.042)  charge=  1.7956  magn= -0.0000
     atom 250 (R=0.042)  charge=  1.7967  magn= -0.0000
     atom 251 (R=0.042)  charge=  1.7972  magn= -0.0000
     atom 252 (R=0.042)  charge=  1.7968  magn=  0.0000
     atom 253 (R=0.042)  charge=  1.7968  magn=  0.0000
     atom 254 (R=0.042)  charge=  1.7976  magn=  0.0000
     atom 255 (R=0.042)  charge=  1.7970  magn=  0.0000
     atom 256 (R=0.042)  charge=  1.7973  magn=  0.0000
     atom 257 (R=0.042)  charge=  1.7966  magn= -0.0000
     atom 258 (R=0.042)  charge=  1.7974  magn=  0.0001
     atom 259 (R=0.042)  charge=  1.7973  magn=  0.0001
     atom 260 (R=0.042)  charge=  1.7963  magn=  0.0000
     atom 261 (R=0.042)  charge=  1.7949  magn=  0.0001
     atom 262 (R=0.042)  charge=  1.7966  magn=  0.0011
     atom 263 (R=0.042)  charge=  1.7975  magn=  0.0001
     atom 264 (R=0.042)  charge=  1.7988  magn=  0.0012
     atom 265 (R=0.042)  charge=  1.7956  magn=  0.0014
     atom 266 (R=0.042)  charge=  1.7947  magn=  0.0000
     atom 267 (R=0.042)  charge=  1.7960  magn=  0.0000
     atom 268 (R=0.042)  charge=  1.7971  magn=  0.0003
     atom 269 (R=0.042)  charge=  1.7987  magn=  0.0014
     atom 270 (R=0.042)  charge=  1.7963  magn=  0.0000
     atom 271 (R=0.042)  charge=  1.7972  magn=  0.0000
     atom 272 (R=0.042)  charge=  1.7967  magn=  0.0000
     atom 273 (R=0.042)  charge=  1.7968  magn=  0.0003
     atom 274 (R=0.042)  charge=  1.7969  magn=  0.0001
     atom 275 (R=0.042)  charge=  1.7984  magn=  0.0002
     atom 276 (R=0.042)  charge=  1.7959  magn=  0.0001
     atom 277 (R=0.042)  charge=  1.7959  magn=  0.0070
     atom 278 (R=0.042)  charge=  1.8017  magn=  0.0185
     atom 279 (R=0.042)  charge=  1.7968  magn=  0.0001
     atom 280 (R=0.042)  charge=  1.7969  magn=  0.0014
     atom 281 (R=0.042)  charge=  1.7946  magn=  0.0041
     atom 282 (R=0.042)  charge=  1.7969  magn=  0.0002
     atom 283 (R=0.042)  charge=  1.8004  magn=  0.0015
     atom 284 (R=0.042)  charge=  1.7972  magn=  0.0007
     atom 285 (R=0.042)  charge=  1.7962  magn=  0.0001
     atom 286 (R=0.042)  charge=  1.7967  magn=  0.0000
     atom 287 (R=0.042)  charge=  1.7972  magn=  0.0001
     atom 288 (R=0.042)  charge=  1.7968  magn=  0.0001
     atom 289 (R=0.042)  charge=  1.7971  magn=  0.0000
     atom 290 (R=0.042)  charge=  1.7969  magn=  0.0000
     atom 291 (R=0.042)  charge=  1.7968  magn=  0.0010
     atom 292 (R=0.042)  charge=  1.7944  magn=  0.0178
     atom 293 (R=0.042)  charge=  1.7968  magn=  0.0003
     atom 294 (R=0.042)  charge=  1.7971  magn=  0.0000
     atom 295 (R=0.042)  charge=  1.7959  magn=  0.0001
     atom 296 (R=0.042)  charge=  1.7944  magn=  0.0041
     atom 297 (R=0.042)  charge=  1.8012  magn=  0.0001
     atom 298 (R=0.042)  charge=  1.7970  magn=  0.0001
     atom 299 (R=0.042)  charge=  1.7965  magn=  0.0000
     atom 300 (R=0.042)  charge=  1.7965  magn=  0.0001
     atom 301 (R=0.042)  charge=  1.7980  magn=  0.0000
     atom 302 (R=0.042)  charge=  1.7974  magn=  0.0000
     atom 303 (R=0.042)  charge=  1.7970  magn=  0.0001
     atom 304 (R=0.042)  charge=  1.7974  magn=  0.0002
     atom 305 (R=0.042)  charge=  1.7970  magn=  0.0000
     atom 306 (R=0.042)  charge=  1.7972  magn=  0.0000
     atom 307 (R=0.042)  charge=  1.7972  magn=  0.0001
     atom 308 (R=0.042)  charge=  1.7963  magn=  0.0001
     atom 309 (R=0.042)  charge=  1.7968  magn=  0.0000
     atom 310 (R=0.042)  charge=  1.7970  magn=  0.0000
     atom 311 (R=0.042)  charge=  1.7959  magn=  0.0000
     atom 312 (R=0.042)  charge=  1.7966  magn=  0.0002
     atom 313 (R=0.042)  charge=  1.7966  magn=  0.0001
     atom 314 (R=0.042)  charge=  1.7973  magn=  0.0000
     atom 315 (R=0.042)  charge=  1.7971  magn=  0.0000
     atom 316 (R=0.042)  charge=  1.7965  magn=  0.0000
     atom 317 (R=0.042)  charge=  1.7974  magn=  0.0000
     atom 318 (R=0.042)  charge=  1.7971  magn=  0.0000
     atom 319 (R=0.042)  charge=  1.7972  magn=  0.0000
     atom 320 (R=0.042)  charge=  1.7971  magn=  0.0000
     atom 321 (R=0.042)  charge=  1.7973  magn=  0.0001
     atom 322 (R=0.042)  charge=  1.7971  magn=  0.0000
     atom 323 (R=0.042)  charge=  1.7971  magn=  0.0000
     atom 324 (R=0.042)  charge=  1.7966  magn= -0.0000
     atom 325 (R=0.042)  charge=  1.7964  magn=  0.0001
     atom 326 (R=0.042)  charge=  1.7972  magn=  0.0001
     atom 327 (R=0.042)  charge=  1.7973  magn=  0.0001
     atom 328 (R=0.042)  charge=  1.7964  magn=  0.0001
     atom 329 (R=0.042)  charge=  1.7963  magn=  0.0003
     atom 330 (R=0.042)  charge=  1.7963  magn= -0.0000
     atom 331 (R=0.042)  charge=  1.7971  magn=  0.0000
     atom 332 (R=0.042)  charge=  1.7972  magn=  0.0001
     atom 333 (R=0.042)  charge=  1.7963  magn= -0.0000
     atom 334 (R=0.042)  charge=  1.7970  magn=  0.0000
     atom 335 (R=0.042)  charge=  1.7974  magn=  0.0000
     atom 336 (R=0.042)  charge=  1.7969  magn= -0.0000
     atom 337 (R=0.042)  charge=  1.7968  magn=  0.0001
     atom 338 (R=0.042)  charge=  1.7976  magn=  0.0001
     atom 339 (R=0.042)  charge=  1.7969  magn= -0.0000
     atom 340 (R=0.042)  charge=  1.7958  magn=  0.0003
     atom 341 (R=0.042)  charge=  1.7951  magn=  0.0166
     atom 342 (R=0.042)  charge=  1.7975  magn=  0.0010
     atom 343 (R=0.042)  charge=  1.7968  magn=  0.0001
     atom 344 (R=0.042)  charge=  1.7951  magn=  0.0166
     atom 345 (R=0.042)  charge=  1.7925  magn=  0.0058
     atom 346 (R=0.042)  charge=  1.7943  magn=  0.0001
     atom 347 (R=0.042)  charge=  1.7976  magn=  0.0001
     atom 348 (R=0.042)  charge=  1.7975  magn=  0.0010
     atom 349 (R=0.042)  charge=  1.7943  magn=  0.0001
     atom 350 (R=0.042)  charge=  1.7966  magn=  0.0000
     atom 351 (R=0.042)  charge=  1.7971  magn=  0.0001
     atom 352 (R=0.042)  charge=  1.7968  magn=  0.0001
     atom 353 (R=0.042)  charge=  1.7969  magn=  0.0003
     atom 354 (R=0.042)  charge=  1.7968  magn= -0.0000
     atom 355 (R=0.042)  charge=  1.7968  magn=  0.0001
     atom 356 (R=0.042)  charge=  1.7941  magn=  0.0167
     atom 357 (R=0.042)  charge=  1.7946  magn=  0.0062
     atom 358 (R=0.042)  charge=  1.7945  magn=  0.0001
     atom 359 (R=0.042)  charge=  1.7969  magn=  0.0003
     atom 360 (R=0.042)  charge=  1.7946  magn=  0.0062
     atom 361 (R=0.042)  charge=  1.7969  magn=  0.0006
     atom 362 (R=0.042)  charge=  1.7968  magn= -0.0000
     atom 363 (R=0.042)  charge=  1.7945  magn=  0.0001
     atom 364 (R=0.042)  charge=  1.7969  magn=  0.0006
     atom 365 (R=0.042)  charge=  1.7974  magn= -0.0000
     atom 366 (R=0.042)  charge=  1.7970  magn=  0.0000
     atom 367 (R=0.042)  charge=  1.7972  magn=  0.0001
     atom 368 (R=0.042)  charge=  1.7967  magn= -0.0000
     atom 369 (R=0.042)  charge=  1.7970  magn=  0.0000
     atom 370 (R=0.042)  charge=  1.7972  magn=  0.0001
     atom 371 (R=0.042)  charge=  1.7968  magn=  0.0010
     atom 372 (R=0.042)  charge=  1.7942  magn=  0.0001
     atom 373 (R=0.042)  charge=  1.7967  magn=  0.0000
     atom 374 (R=0.042)  charge=  1.7967  magn= -0.0000
     atom 375 (R=0.042)  charge=  1.7943  magn=  0.0001
     atom 376 (R=0.042)  charge=  1.7966  magn=  0.0005
     atom 377 (R=0.042)  charge=  1.7976  magn= -0.0000
     atom 378 (R=0.042)  charge=  1.7970  magn=  0.0000
     atom 379 (R=0.042)  charge=  1.7967  magn=  0.0000
     atom 380 (R=0.042)  charge=  1.7976  magn= -0.0000
     atom 381 (R=0.042)  charge=  1.7974  magn= -0.0000
     atom 382 (R=0.042)  charge=  1.7971  magn=  0.0000
     atom 383 (R=0.042)  charge=  1.7962  magn= -0.0000
     atom 384 (R=0.042)  charge=  1.7972  magn=  0.0001
     atom 385 (R=0.042)  charge=  1.7971  magn=  0.0001
     atom 386 (R=0.042)  charge=  1.7963  magn= -0.0000
     atom 387 (R=0.042)  charge=  1.7963  magn=  0.0003
     atom 388 (R=0.042)  charge=  1.7964  magn=  0.0001
     atom 389 (R=0.042)  charge=  1.7976  magn=  0.0002
     atom 390 (R=0.042)  charge=  1.7972  magn=  0.0001
     atom 391 (R=0.042)  charge=  1.7964  magn=  0.0001
     atom 392 (R=0.042)  charge=  1.7967  magn=  0.0000
     atom 393 (R=0.042)  charge=  1.7970  magn=  0.0000
     atom 394 (R=0.042)  charge=  1.7971  magn=  0.0001
     atom 395 (R=0.042)  charge=  1.7976  magn=  0.0002
     atom 396 (R=0.042)  charge=  1.7970  magn=  0.0000
     atom 397 (R=0.042)  charge=  1.7972  magn=  0.0000
     atom 398 (R=0.042)  charge=  1.7964  magn=  0.0000
     atom 399 (R=0.042)  charge=  1.7960  magn=  0.0001
     atom 400 (R=0.042)  charge=  1.7973  magn=  0.0010
     atom 401 (R=0.042)  charge=  1.7977  magn=  0.0001
     atom 402 (R=0.042)  charge=  1.7961  magn=  0.0001
     atom 403 (R=0.042)  charge=  1.7925  magn=  0.0067
     atom 404 (R=0.042)  charge=  1.7952  magn=  0.0180
     atom 405 (R=0.042)  charge=  1.7966  magn=  0.0001
     atom 406 (R=0.042)  charge=  1.7973  magn=  0.0010
     atom 407 (R=0.042)  charge=  1.7951  magn=  0.0180
     atom 408 (R=0.042)  charge=  1.7969  magn=  0.0003
     atom 409 (R=0.042)  charge=  1.7969  magn=  0.0000
     atom 410 (R=0.042)  charge=  1.7977  magn=  0.0001
     atom 411 (R=0.042)  charge=  1.7966  magn=  0.0001
     atom 412 (R=0.042)  charge=  1.7969  magn=  0.0000
     atom 413 (R=0.042)  charge=  1.7974  magn=  0.0000
     atom 414 (R=0.042)  charge=  1.7978  magn=  0.0013
     atom 415 (R=0.042)  charge=  1.7964  magn=  0.0014
     atom 416 (R=0.042)  charge=  1.7960  magn=  0.0001
     atom 417 (R=0.042)  charge=  1.7963  magn=  0.0000
     atom 418 (R=0.042)  charge=  1.7964  magn=  0.0014
     atom 419 (R=0.042)  charge=  1.7929  magn=  0.0044
     atom 420 (R=0.042)  charge=  1.7969  magn=  0.0002
     atom 421 (R=0.042)  charge=  1.7960  magn=  0.0001
     atom 422 (R=0.042)  charge=  1.7930  magn=  0.0044
     atom 423 (R=0.042)  charge=  1.8005  magn=  0.0000
     atom 424 (R=0.042)  charge=  1.7969  magn=  0.0001
     atom 425 (R=0.042)  charge=  1.7963  magn=  0.0000
     atom 426 (R=0.042)  charge=  1.7969  magn=  0.0002
     atom 427 (R=0.042)  charge=  1.7969  magn=  0.0001
     atom 428 (R=0.042)  charge=  1.7973  magn=  0.0000
     atom 429 (R=0.042)  charge=  1.7969  magn=  0.0003
     atom 430 (R=0.042)  charge=  1.7979  magn=  0.0014
     atom 431 (R=0.042)  charge=  1.7964  magn=  0.0000
     atom 432 (R=0.042)  charge=  1.7971  magn=  0.0000
     atom 433 (R=0.042)  charge=  1.7979  magn=  0.0014
     atom 434 (R=0.042)  charge=  1.7965  magn=  0.0007
     atom 435 (R=0.042)  charge=  1.7963  magn=  0.0001
     atom 436 (R=0.042)  charge=  1.7967  magn=  0.0000
     atom 437 (R=0.042)  charge=  1.7964  magn=  0.0000
     atom 438 (R=0.042)  charge=  1.7963  magn=  0.0001
     atom 439 (R=0.042)  charge=  1.7978  magn=  0.0000
     atom 440 (R=0.042)  charge=  1.7974  magn=  0.0000
     atom 441 (R=0.042)  charge=  1.7971  magn=  0.0000
     atom 442 (R=0.042)  charge=  1.7967  magn=  0.0000
     atom 443 (R=0.042)  charge=  1.7974  magn=  0.0000
     atom 444 (R=0.042)  charge=  1.7971  magn=  0.0000
     atom 445 (R=0.042)  charge=  1.7973  magn=  0.0000
     atom 446 (R=0.042)  charge=  1.7964  magn=  0.0000
     atom 447 (R=0.042)  charge=  1.7988  magn=  0.0012
     atom 448 (R=0.042)  charge=  1.7971  magn=  0.0003
     atom 449 (R=0.042)  charge=  1.7966  magn= -0.0000
     atom 450 (R=0.042)  charge=  1.7949  magn=  0.0001
     atom 451 (R=0.042)  charge=  1.7956  magn=  0.0014
     atom 452 (R=0.042)  charge=  1.7987  magn=  0.0014
     atom 453 (R=0.042)  charge=  1.7974  magn=  0.0001
     atom 454 (R=0.042)  charge=  1.7967  magn=  0.0011
     atom 455 (R=0.042)  charge=  1.7947  magn=  0.0000
     atom 456 (R=0.042)  charge=  1.7963  magn=  0.0000
     atom 457 (R=0.042)  charge=  1.7972  magn=  0.0001
     atom 458 (R=0.042)  charge=  1.7975  magn=  0.0001
     atom 459 (R=0.042)  charge=  1.7960  magn=  0.0000
     atom 460 (R=0.042)  charge=  1.7972  magn=  0.0000
     atom 461 (R=0.042)  charge=  1.7967  magn=  0.0000
     atom 462 (R=0.042)  charge=  1.7959  magn=  0.0001
     atom 463 (R=0.042)  charge=  1.7968  magn=  0.0014
     atom 464 (R=0.042)  charge=  1.8005  magn=  0.0015
     atom 465 (R=0.042)  charge=  1.7968  magn=  0.0003
     atom 466 (R=0.042)  charge=  1.7959  magn=  0.0070
     atom 467 (R=0.042)  charge=  1.7972  magn=  0.0007
     atom 468 (R=0.042)  charge=  1.7969  magn=  0.0001
     atom 469 (R=0.042)  charge=  1.8016  magn=  0.0185
     atom 470 (R=0.042)  charge=  1.7946  magn=  0.0041
     atom 471 (R=0.042)  charge=  1.7962  magn=  0.0001
     atom 472 (R=0.042)  charge=  1.7985  magn=  0.0002
     atom 473 (R=0.042)  charge=  1.7968  magn=  0.0001
     atom 474 (R=0.042)  charge=  1.7969  magn=  0.0002
     atom 475 (R=0.042)  charge=  1.7967  magn=  0.0000
     atom 476 (R=0.042)  charge=  1.7972  magn=  0.0001
     atom 477 (R=0.042)  charge=  1.7968  magn=  0.0010
     atom 478 (R=0.042)  charge=  1.7959  magn=  0.0001
     atom 479 (R=0.042)  charge=  1.7965  magn=  0.0000
     atom 480 (R=0.042)  charge=  1.7968  magn=  0.0001
     atom 481 (R=0.042)  charge=  1.7944  magn=  0.0178
     atom 482 (R=0.042)  charge=  1.7943  magn=  0.0041
     atom 483 (R=0.042)  charge=  1.7965  magn=  0.0001
     atom 484 (R=0.042)  charge=  1.7971  magn=  0.0000
     atom 485 (R=0.042)  charge=  1.7969  magn=  0.0003
     atom 486 (R=0.042)  charge=  1.8012  magn=  0.0001
     atom 487 (R=0.042)  charge=  1.7980  magn=  0.0000
     atom 488 (R=0.042)  charge=  1.7969  magn=  0.0000
     atom 489 (R=0.042)  charge=  1.7971  magn=  0.0000
     atom 490 (R=0.042)  charge=  1.7970  magn=  0.0001
     atom 491 (R=0.042)  charge=  1.7974  magn=  0.0000
     atom 492 (R=0.042)  charge=  1.7970  magn=  0.0001
     atom 493 (R=0.042)  charge=  1.7972  magn=  0.0001
     atom 494 (R=0.042)  charge=  1.7959  magn=  0.0000
     atom 495 (R=0.042)  charge=  1.7971  magn=  0.0000
     atom 496 (R=0.042)  charge=  1.7974  magn=  0.0002
     atom 497 (R=0.042)  charge=  1.7963  magn=  0.0001
     atom 498 (R=0.042)  charge=  1.7966  magn=  0.0002
     atom 499 (R=0.042)  charge=  1.7965  magn=  0.0000
     atom 500 (R=0.042)  charge=  1.7970  magn=  0.0000
     atom 501 (R=0.042)  charge=  1.7968  magn=  0.0000
     atom 502 (R=0.042)  charge=  1.7966  magn=  0.0001
     atom 503 (R=0.042)  charge=  1.7974  magn=  0.0000
     atom 504 (R=0.042)  charge=  1.7972  magn=  0.0000
     atom 505 (R=0.042)  charge=  1.7970  magn=  0.0000
     atom 506 (R=0.042)  charge=  1.7973  magn=  0.0000
     atom 507 (R=0.042)  charge=  1.7971  magn=  0.0000
     atom 508 (R=0.042)  charge=  1.8043  magn=  0.2493
     atom 509 (R=0.042)  charge=  1.8191  magn=  0.2437
     atom 510 (R=0.042)  charge=  1.8191  magn=  0.2438
     atom 511 (R=0.043)  charge=  2.9333  magn= -0.0011

     total cpu time spent up to now is      676.9 secs

     End of self-consistent calculation

 ------ SPIN UP ------------


          k = 0.0000 0.0000 0.0000 (118565 PWs)   bands (ev):

    -8.1980  -7.6529  -7.6386  -7.6386  -7.6182  -7.6140  -7.5561  -7.1449
    -7.0688  -7.0662  -7.0650  -7.0622  -7.0612  -7.0443  -7.0425  -7.0344
    -7.0073  -6.9993  -6.9119  -6.5762  -6.4763  -6.4705  -6.4679  -6.4592
    -6.4528  -6.4476  -6.3732  -5.9839  -5.9137  -5.9122  -5.9050  -5.9031
    -5.8815  -5.6179  -5.3865  -5.3833  -5.3813  -5.3806  -5.3746  -5.3736
    -5.3708  -5.3687  -5.3642  -5.3604  -5.3586  -5.3567  -5.3549  -5.3505
    -5.3454  -5.3335  -5.3315  -5.3202  -5.3178  -5.3167  -5.2852  -5.2765
    -5.1906  -4.9963  -4.8230  -4.8224  -4.8208  -4.8183  -4.8173  -4.8171
    -4.8153  -4.8140  -4.8128  -4.8111  -4.8097  -4.8059  -4.8054  -4.8023
    -4.7976  -4.7956  -4.7731  -4.7569  -4.7551  -4.7259  -4.7184  -4.7052
    -4.4684  -3.8877  -3.7329  -3.7319  -3.7313  -3.7285  -3.7240  -3.7218
    -3.7215  -3.7136  -3.7102  -3.7087  -3.6672  -3.4808  -3.2664  -3.2659
    -3.2627  -3.2622  -3.2615  -3.2598  -3.2597  -3.2582  -3.2539  -3.2519
    -3.2475  -3.2469  -3.2457  -3.2436  -3.2411  -3.2344  -3.2202  -3.1980
    -3.1948  -3.1828  -3.1714  -3.1666  -3.1583  -3.1476  -3.1460  -3.1411
    -3.1367  -3.1334  -3.0120  -2.7838  -2.6596  -2.6591  -2.6585  -2.6578
    -2.6576  -2.6575  -2.6468  -2.6446  -2.6406  -2.6402  -2.6378  -2.6364
    -2.6345  -2.6329  -2.6320  -2.6315  -2.6300  -2.6112  -2.5948  -2.5928
    -2.5671  -2.5615  -2.4982  -2.4429  -2.3998  -2.3992  -2.3789  -2.2959
    -2.1896  -2.1880  -2.1810  -2.1776  -2.1771  -2.1752  -2.1751  -2.1722
    -2.1678  -2.1678  -2.1656  -2.1620  -2.1608  -2.1602  -2.1576  -2.1537
    -2.1531  -2.1376  -2.1375  -2.1245  -2.0884  -2.0784  -1.8427  -1.5777
    -1.4480  -1.4455  -1.4445  -1.4383  -1.4363  -1.4360  -1.4305  -1.4299
    -1.4284  -1.4279  -1.4267  -1.4264  -1.4122  -1.4092  -1.4081  -1.4023
    -1.3963  -1.3890  -1.3860  -1.3812  -1.3680  -1.3678  -1.3532  -1.3036
    -1.2534  -1.2517  -1.2499  -1.2483  -1.2480  -1.2428  -1.2415  -1.2401
    -1.2387  -1.2259  -1.2222  -1.2208  -1.2025  -1.1995  -1.1926  -1.1888
    -1.1823  -1.1637  -1.1517  -1.1442  -1.0858  -1.0748  -0.4599  -0.0889
    -0.0882  -0.0873  -0.0654   0.2150   0.2905   0.2913   0.3003   0.3027
     0.3035   0.3050   0.3073   0.3086   0.3204   0.3210   0.3814   0.4906
     0.4997   0.4998   0.5021   0.5036   0.5303   0.7544   0.8160   0.8170
     0.8204   0.8214   0.8221   0.8226   0.8257   0.8284   0.8405   0.8454
     0.8467   0.8477   0.8478   0.8490   0.8538   0.8557   0.8584   0.8657
     0.8730   0.8747   0.8819   0.8838   0.8841   0.8867   0.8913   0.8922
     0.8927   0.8957   0.8958   0.8969   0.8971   0.8977   0.9086   0.9131
     0.9159   0.9204   0.9235   0.9253   0.9282   0.9286   0.9309   0.9321
     0.9336   1.0067   1.0439   1.0493   1.1371   1.2449   1.2932   1.2934
     1.3097   1.3124   1.3125   1.3208   1.3243   1.3251   1.3383   1.3405
     1.4246   1.5127   1.5313   1.5338   1.5451   1.5467   1.5474   1.5516
     1.5664   1.5676   1.5897   1.5916   1.6734   1.6909   1.6984   1.6994
     1.7007   1.7033   1.7036   1.7082   1.7094   1.7113   1.7114   1.7149
     1.7203   1.7228   1.7245   1.7258   1.7264   1.7362   1.7420   1.7511
     1.7524   1.8644   1.9015   1.9086   2.2135   2.4304   2.4554   2.4570
     2.4747   2.4820   2.4821   2.4854   2.4856   2.4866   2.4871   2.4895
     2.4902   2.4909   2.4916   2.4922   2.4937   2.4961   2.4977   2.5034
     2.5036   2.5590   2.5703   2.5752   2.6698   2.8290   2.8302   2.8323
     2.8417   2.8419   2.8453   2.8490   2.8497   2.8503   2.8602   2.8602
     2.8687   2.8699   2.8811   2.8834   2.8836   2.8852   2.8881   2.8884
     2.9048   2.9067   3.0215   3.0284   3.6858   3.9257   3.9260   3.9446
     3.9452   3.9455   3.9456   3.9458   3.9518   3.9525   3.9657   3.9669
     3.9673   4.0862   4.1104   4.1127   4.1358   4.1358   4.1366   4.1369
     4.1382   4.1390   4.1396   4.1412   4.1418   4.1425   4.1425   4.1430
     4.1437   4.1478   4.1643   4.1650   4.1851   4.1967   4.2022   4.2051
     4.2139   4.2307   4.2308   4.2321   4.2333   4.2382   4.2384   4.2390
     4.2430   4.2443   4.2583   4.2603   4.2611   4.2640   4.2644   4.2660
     4.2703   4.2726   4.2753   4.2764   4.2839   4.2864   4.3308   4.3316
     4.3681   4.3684   4.3695   4.3762   4.3768   4.3773   4.3780   4.3791
     4.3796   4.3864   4.3884   4.3890   4.3900   4.4042   4.4053   4.4109
     4.4159   4.4161   4.4289   4.4321   4.4330   4.4833   4.5029   4.5043
     4.5087   4.5489   4.5504   4.5700   4.5780   4.5781   4.5820   4.5832
     4.5833   4.6151   4.6417   4.6427   4.6541   4.6905   4.7070   4.7100
     4.7848   4.7929   4.9254   4.9254   4.9424   4.9490   4.9493   4.9503
     4.9515   4.9629   4.9634   5.0413   5.0668   5.0760   5.5792   5.6328
     5.6336   5.6528   5.6602   5.6620   5.6633   5.6635   5.6655   5.6995
     5.7004   5.7052   5.8936   5.9030   5.9043   5.9164   5.9185   5.9189
     5.9205   5.9210   5.9213   5.9298   5.9355   5.9362   5.9445   5.9450
     5.9453   5.9506   5.9509   5.9558   5.9718   5.9719   5.9733   6.0032
     6.0050   6.0075   6.0725   6.2033   6.2054   6.2602   6.2609   6.2626
     6.2628   6.2651   6.2657   6.2664   6.2670   6.2694   6.2713   6.2733
     6.2749   6.2773   6.2850   6.2862   6.2921   6.2980   6.2990   6.3170
     6.3283   6.3300   6.3363   6.4799   6.4819   6.4853   6.5101   6.5138
     6.5146   6.5150   6.5177   6.5179   6.5184   6.5197   6.5201   6.5209
     6.5219   6.5236   6.5266   6.5281   6.5295   6.5343   6.5367   6.5758
     6.5774   6.5789   6.5863   6.6540   6.6550   6.6553   6.6650   6.6688
     6.6698   6.6703   6.6807   6.7125   6.7144   6.7254   6.7297   6.7308
     6.7313   6.7357   6.7383   6.7391   6.7408   6.7416   6.7423   6.7447
     6.7455   6.7698   6.7699   6.7736   6.7760   6.7764   6.7787   6.8117
     6.8510   6.8543   6.8967   6.8969   6.9023   6.9295   6.9310   6.9323
     6.9340   6.9395   6.9402   6.9421   6.9428   6.9435   6.9455   6.9485
     6.9516   6.9525   6.9558   6.9563   6.9605   6.9639   6.9677   6.9696
     6.9698   6.9724   6.9808   6.9960   6.9972   7.0824   7.1071   7.1133
     7.2633   7.2659   7.2997   7.3006   7.3016   7.3017   7.3025   7.3059
     7.3066   7.3069   7.3074   7.3076   7.3112   7.3117   7.3131   7.3192
     7.3237   7.3239   7.3272   7.3530   7.3537   7.3772   7.3773   7.3815
     7.4923   7.4933   7.5205   7.5220   7.5238   7.5285   7.5393   7.5406
     7.5577   7.5841   7.5855   7.5870   7.6604   7.6906   7.6918   7.7340
     7.7394   7.7397   7.7403   7.7406   7.7418   7.7419   7.7480   7.7490
     7.7494   7.7505   7.7527   7.7555   7.7590   7.7605   7.7625   7.7625
     7.7637   7.7646   7.7648   7.7655   7.7673   7.7690   7.7698   7.7705
     7.7724   7.7739   7.7759   7.7763   7.7765   7.7772   7.7801   7.7809
     7.7813   7.7820   7.7839   7.7847   7.7970   7.8015   7.8112   7.8195
     7.8199   7.8499   7.8524   7.8670   7.8832   7.8843   7.8918   7.9150
     7.9176   7.9233   7.9352   7.9412   7.9436   8.0980   8.0996   8.1034
     8.3112   8.3123   8.3552   8.3561   8.3570   8.3607   8.3628   8.3635
     8.3665   8.3682   8.3683   8.3703   8.3719   8.3726   8.3738   8.3790
     8.3793   8.3849   8.3999   8.4042   8.4087   8.4146   8.4186   8.4197
     8.4384   8.5170   8.5182   8.5497   8.5500   8.5511   8.5513   8.5523
     8.5537   8.5541   8.5590   8.5610   8.5614   8.5635   8.5669   8.5800
     8.5803   8.5814   8.5927   8.6009   8.6035   8.6084   8.6262   8.6271
     8.6274   8.6508   8.6577   8.6577   8.6591   8.6593   8.6618   8.6766
     8.6781   8.6790   8.6840   8.6871   8.6880   8.6926   8.6934   8.6994
     8.7125   8.7184   8.7210   8.7238   8.7261   8.7373   8.7377   8.7423
     8.7461   8.7645   8.7664   9.0083   9.0277   9.0300   9.1103   9.1115
     9.1296   9.1320   9.1336   9.1345   9.1377   9.1398   9.1419   9.1727
     9.1925   9.1970   9.1989   9.2507   9.2518   9.2592   9.2601   9.2656
     9.2724   9.2741   9.2862   9.4252   9.4485   9.4529   9.6669   9.6682
     9.7069   9.7084   9.7098   9.7110   9.7139   9.7160   9.7169   9.7173
     9.7281   9.7284   9.7332   9.7355   9.7361   9.7423   9.7429   9.7454
     9.7552   9.7600   9.7623   9.8092   9.8392   9.8400   9.8507   9.9745
     9.9765   9.9910   9.9938   9.9938   9.9984  10.0005  10.0006  10.0060
    10.0167  10.0184  10.0196  10.0248  10.0264  10.0273  10.0354  10.0365
    10.0380  10.0389  10.0389  10.0421  10.0422  10.0426  10.0427  10.0451
    10.0452  10.0454  10.0482  10.0495  10.0607  10.0623  10.0635  10.1421
    10.1436  10.1532  10.1970  10.1982  10.2005  10.2010  10.2014  10.2014
    10.2021  10.2033  10.2038  10.2042  10.2053  10.2064  10.2791  10.2832
    10.2845  10.3088  10.3092  10.3109  10.3115  10.3160  10.3174  10.3192
    10.3206  10.3214  10.3233  10.3245  10.3273  10.3274  10.3298  10.3305
    10.3313  10.3329  10.3331  10.3348  10.3364  10.3379  10.3387  10.3407
    10.3416  10.3466  10.3472  10.3485  10.3587  10.3588  10.3605  10.3696
    10.3722  10.3840  10.3897  10.3925  10.4042  10.4207  10.4249  10.4256
    10.4352  10.4470  10.4508  10.4574  10.4740  10.4793  10.4941  10.4952
    10.5694  10.6261  10.6348  11.2471  11.3091  11.3121  11.4642  11.4647
    11.4840  11.4855  11.4869  11.4893  11.4903  11.4904  11.4926  11.4927
    11.4938  11.4953  11.4998  11.5002  11.5031  11.5035  11.5150  11.5171
    11.5192  11.5333  11.5357  11.5361  11.5466  11.5491  11.5525  11.6239
    11.8732  11.8738  11.8833  11.9162  11.9185  12.2300  12.3298  12.3312
    12.3694  12.4570  12.4681  12.4683  12.4728  12.4858  12.4896  12.4919
    12.5246  12.5328  13.1620  13.1802  13.1804  14.1686  15.0552  15.1659
    17.4044  17.4049  17.4065  17.4206  17.4211  17.4312  17.7117  17.7146

     occupation numbers 
     1.0000   1.0000   1.0000   1.0000   1.0000   1.0000   1.0000   1.0000
     1.0000   1.0000   1.0000   1.0000   1.0000   1.0000   1.0000   1.0000
     1.0000   1.0000   1.0000   1.0000   1.0000   1.0000   1.0000   1.0000
     1.0000   1.0000   1.0000   1.0000   1.0000   1.0000   1.0000   1.0000
     1.0000   1.0000   1.0000   1.0000   1.0000   1.0000   1.0000   1.0000
     1.0000   1.0000   1.0000   1.0000   1.0000   1.0000   1.0000   1.0000
     1.0000   1.0000   1.0000   1.0000   1.0000   1.0000   1.0000   1.0000
     1.0000   1.0000   1.0000   1.0000   1.0000   1.0000   1.0000   1.0000
     1.0000   1.0000   1.0000   1.0000   1.0000   1.0000   1.0000   1.0000
     1.0000   1.0000   1.0000   1.0000   1.0000   1.0000   1.0000   1.0000
     1.0000   1.0000   1.0000   1.0000   1.0000   1.0000   1.0000   1.0000
     1.0000   1.0000   1.0000   1.0000   1.0000   1.0000   1.0000   1.0000
     1.0000   1.0000   1.0000   1.0000   1.0000   1.0000   1.0000   1.0000
     1.0000   1.0000   1.0000   1.0000   1.0000   1.0000   1.0000   1.0000
     1.0000   1.0000   1.0000   1.0000   1.0000   1.0000   1.0000   1.0000
     1.0000   1.0000   1.0000   1.0000   1.0000   1.0000   1.0000   1.0000
     1.0000   1.0000   1.0000   1.0000   1.0000   1.0000   1.0000   1.0000
     1.0000   1.0000   1.0000   1.0000   1.0000   1.0000   1.0000   1.0000
     1.0000   1.0000   1.0000   1.0000   1.0000   1.0000   1.0000   1.0000
     1.0000   1.0000   1.0000   1.0000   1.0000   1.0000   1.0000   1.0000
     1.0000   1.0000   1.0000   1.0000   1.0000   1.0000   1.0000   1.0000
     1.0000   1.0000   1.0000   1.0000   1.0000   1.0000   1.0000   1.0000
     1.0000   1.0000   1.0000   1.0000   1.0000   1.0000   1.0000   1.0000
     1.0000   1.0000   1.0000   1.0000   1.0000   1.0000   1.0000   1.0000
     1.0000   1.0000   1.0000   1.0000   1.0000   1.0000   1.0000   1.0000
     1.0000   1.0000   1.0000   1.0000   1.0000   1.0000   1.0000   1.0000
     1.0000   1.0000   1.0000   1.0000   1.0000   1.0000   1.0000   1.0000
     1.0000   1.0000   1.0000   1.0000   1.0000   1.0000   1.0000   1.0000
     1.0000   1.0000   1.0000   1.0000   1.0000   1.0000   1.0000   1.0000
     1.0000   1.0000   1.0000   1.0000   1.0000   1.0000   1.0000   1.0000
     1.0000   1.0000   1.0000   1.0000   1.0000   1.0000   1.0000   1.0000
     1.0000   1.0000   1.0000   1.0000   1.0000   1.0000   1.0000   1.0000
     1.0000   1.0000   1.0000   1.0000   1.0000   1.0000   1.0000   1.0000
     1.0000   1.0000   1.0000   1.0000   1.0000   1.0000   1.0000   1.0000
     1.0000   1.0000   1.0000   1.0000   1.0000   1.0000   1.0000   1.0000
     1.0000   1.0000   1.0000   1.0000   1.0000   1.0000   1.0000   1.0000
     1.0000   1.0000   1.0000   1.0000   1.0000   1.0000   1.0000   1.0000
     1.0000   1.0000   1.0000   1.0000   1.0000   1.0000   1.0000   1.0000
     1.0000   1.0000   1.0000   1.0000   1.0000   1.0000   1.0000   1.0000
     1.0000   1.0000   1.0000   1.0000   1.0000   1.0000   1.0000   1.0000
     1.0000   1.0000   1.0000   1.0000   1.0000   1.0000   1.0000   1.0000
     1.0000   1.0000   1.0000   1.0000   1.0000   1.0000   1.0000   1.0000
     1.0000   1.0000   1.0000   1.0000   1.0000   1.0000   1.0000   1.0000
     1.0000   1.0000   1.0000   1.0000   1.0000   1.0000   1.0000   1.0000
     1.0000   1.0000   1.0000   1.0000   1.0000   1.0000   1.0000   1.0000
     1.0000   1.0000   1.0000   1.0000   1.0000   1.0000   1.0000   1.0000
     1.0000   1.0000   1.0000   1.0000   1.0000   1.0000   1.0000   1.0000
     1.0000   1.0000   1.0000   1.0000   1.0000   1.0000   1.0000   1.0000
     1.0000   1.0000   1.0000   1.0000   1.0000   1.0000   1.0000   1.0000
     1.0000   1.0000   1.0000   1.0000   1.0000   1.0000   1.0000   1.0000
     1.0000   1.0000   1.0000   1.0000   1.0000   1.0000   1.0000   1.0000
     1.0000   1.0000   1.0000   1.0000   1.0000   1.0000   1.0000   1.0000
     1.0000   1.0000   1.0000   1.0000   1.0000   1.0000   1.0000   1.0000
     1.0000   1.0000   1.0000   1.0000   1.0000   1.0000   1.0000   1.0000
     1.0000   1.0000   1.0000   1.0000   1.0000   1.0000   1.0000   1.0000
     1.0000   1.0000   1.0000   1.0000   1.0000   1.0000   1.0000   1.0000
     1.0000   1.0000   1.0000   1.0000   1.0000   1.0000   1.0000   1.0000
     1.0000   1.0000   1.0000   1.0000   1.0000   1.0000   1.0000   1.0000
     1.0000   1.0000   1.0000   1.0000   1.0000   1.0000   1.0000   1.0000
     1.0000   1.0000   1.0000   1.0000   1.0000   1.0000   1.0000   1.0000
     1.0000   1.0000   1.0000   1.0000   1.0000   1.0000   1.0000   1.0000
     1.0000   1.0000   1.0000   1.0000   1.0000   1.0000   1.0000   1.0000
     1.0000   1.0000   1.0000   1.0000   1.0000   1.0000   1.0000   1.0000
     1.0000   1.0000   1.0000   1.0000   1.0000   1.0000   1.0000   1.0000
     1.0000   1.0000   1.0000   1.0000   1.0000   1.0000   1.0000   1.0000
     1.0000   1.0000   1.0000   1.0000   1.0000   1.0000   1.0000   1.0000
     1.0000   1.0000   1.0000   1.0000   1.0000   1.0000   1.0000   1.0000
     1.0000   1.0000   1.0000   1.0000   1.0000   1.0000   1.0000   1.0000
     1.0000   1.0000   1.0000   1.0000   1.0000   1.0000   1.0000   1.0000
     1.0000   1.0000   1.0000   1.0000   1.0000   1.0000   1.0000   1.0000
     1.0000   1.0000   1.0000   1.0000   1.0000   1.0000   1.0000   1.0000
     1.0000   1.0000   1.0000   1.0000   1.0000   1.0000   1.0000   1.0000
     1.0000   1.0000   1.0000   1.0000   1.0000   1.0000   1.0000   1.0000
     1.0000   1.0000   1.0000   1.0000   1.0000   1.0000   1.0000   1.0000
     1.0000   1.0000   1.0000   1.0000   1.0000   1.0000   1.0000   1.0000
     1.0000   1.0000   1.0000   1.0000   1.0000   1.0000   1.0000   1.0000
     1.0000   1.0000   1.0000   1.0000   1.0000   1.0000   1.0000   1.0000
     1.0000   1.0000   1.0000   1.0000   1.0000   1.0000   1.0000   1.0000
     1.0000   1.0000   1.0000   1.0000   1.0000   1.0000   1.0000   1.0000
     1.0000   1.0000   1.0000   1.0000   1.0000   1.0000   1.0000   1.0000
     1.0000   1.0000   1.0000   1.0000   1.0000   1.0000   1.0000   1.0000
     1.0000   1.0000   1.0000   1.0000   1.0000   1.0000   1.0000   1.0000
     1.0000   1.0000   1.0000   1.0000   1.0000   1.0000   1.0000   1.0000
     1.0000   1.0000   1.0000   1.0000   1.0000   1.0000   1.0000   1.0000
     1.0000   1.0000   1.0000   1.0000   1.0000   1.0000   1.0000   1.0000
     1.0000   1.0000   1.0000   1.0000   1.0000   1.0000   1.0000   1.0000
     1.0000   1.0000   1.0000   1.0000   1.0000   1.0000   1.0000   1.0000
     1.0000   1.0000   1.0000   1.0000   1.0000   1.0000   1.0000   1.0000
     1.0000   1.0000   1.0000   1.0000   1.0000   1.0000   1.0000   1.0000
     1.0000   1.0000   1.0000   1.0000   1.0000   1.0000   1.0000   1.0000
     1.0000   1.0000   1.0000   1.0000   1.0000   1.0000   1.0000   1.0000
     1.0000   1.0000   1.0000   1.0000   1.0000   1.0000   1.0000   1.0000
     1.0000   1.0000   1.0000   1.0000   1.0000   1.0000   1.0000   1.0000
     1.0000   1.0000   1.0000   1.0000   1.0000   1.0000   1.0000   1.0000
     1.0000   1.0000   1.0000   1.0000   1.0000   1.0000   1.0000   1.0000
     1.0000   1.0000   1.0000   1.0000   1.0000   1.0000   1.0000   1.0000
     1.0000   1.0000   1.0000   1.0000   1.0000   1.0000   1.0000   1.0000
     1.0000   1.0000   1.0000   1.0000   1.0000   1.0000   1.0000   1.0000
     1.0000   1.0000   1.0000   1.0000   1.0000   1.0000   1.0000   1.0000
     1.0000   1.0000   1.0000   1.0000   1.0000   1.0000   1.0000   1.0000
     1.0000   1.0000   1.0000   1.0000   1.0000   1.0000   1.0000   1.0000
     1.0000   1.0000   1.0000   1.0000   1.0000   1.0000   1.0000   1.0000
     1.0000   1.0000   1.0000   1.0000   1.0000   1.0000   1.0000   1.0000
     1.0000   1.0000   1.0000   1.0000   1.0000   1.0000   1.0000   1.0000
     1.0000   1.0000   1.0000   1.0000   1.0000   1.0000   1.0000   1.0000
     1.0000   1.0000   1.0000   1.0000   1.0000   1.0000   1.0000   1.0000
     1.0000   1.0000   1.0000   1.0000   1.0000   1.0000   1.0000   1.0000
     1.0000   1.0000   1.0000   1.0000   1.0000   1.0000   1.0000   1.0000
     1.0000   1.0000   1.0000   1.0000   1.0000   1.0000   1.0000   1.0000
     1.0000   1.0000   1.0000   1.0000   1.0000   1.0000   1.0000   1.0000
     1.0000   1.0000   1.0000   1.0000   1.0000   1.0000   1.0000   1.0000
     1.0000   1.0000   1.0000   1.0000   1.0000   1.0000   1.0000   1.0000
     1.0000   1.0000   1.0000   1.0000   1.0000   1.0000   1.0000   1.0000
     1.0000   1.0000   1.0000   1.0000   1.0000   1.0000   1.0000   1.0000
     1.0000   1.0000   1.0000   1.0000   1.0000   1.0000   1.0000   1.0000
     1.0000   1.0000   1.0000   1.0000   1.0000   1.0000   1.0000   1.0000
     1.0000   1.0000   1.0000   1.0000   1.0000   1.0000   1.0000   1.0000
     1.0000   1.0000   1.0000   1.0000   1.0000   1.0000   1.0000   1.0000
     1.0000   1.0000   1.0000   1.0000   1.0000   1.0000   1.0000   1.0000
     1.0000   1.0000   1.0000   1.0000   1.0000   1.0000   1.0000   1.0000
     1.0000   1.0000   1.0000   1.0000   1.0000   1.0000   1.0000   1.0000
     1.0000   1.0000   1.0000   1.0000   1.0000   1.0000   1.0000   1.0000
     1.0000   1.0000   1.0000   1.0000   1.0000   1.0000   1.0000   1.0000
     1.0000   1.0000   1.0000   1.0000   1.0000   1.0000   1.0000   1.0000
     1.0000   1.0000   1.0000   1.0000   1.0000   1.0000   1.0000   1.0000
     1.0000   1.0000   1.0000   1.0000   1.0000   1.0000   1.0000   1.0000
     1.0000   1.0000   1.0000   1.0000   1.0000   1.0000   1.0000   1.0000
     1.0000   1.0000   1.0000   1.0000   1.0000   1.0000   1.0000   1.0000
     0.0000   0.0000   0.0000   0.0000   0.0000   0.0000   0.0000   0.0000

 ------ SPIN DOWN ----------


          k = 0.0000 0.0000 0.0000 (118565 PWs)   bands (ev):

    -8.1965  -7.6519  -7.6380  -7.6380  -7.6163  -7.6122  -7.5511  -7.1431
    -7.0683  -7.0658  -7.0641  -7.0616  -7.0606  -7.0430  -7.0411  -7.0332
    -7.0017  -6.9940  -6.9018  -6.5749  -6.4753  -6.4679  -6.4654  -6.4568
    -6.4474  -6.4425  -6.3624  -5.9814  -5.9119  -5.9105  -5.9019  -5.9001
    -5.8780  -5.6124  -5.3859  -5.3828  -5.3808  -5.3801  -5.3738  -5.3728
    -5.3702  -5.3682  -5.3638  -5.3599  -5.3581  -5.3561  -5.3531  -5.3490
    -5.3421  -5.3298  -5.3275  -5.3162  -5.3156  -5.3143  -5.2734  -5.2651
    -5.1821  -4.9939  -4.8224  -4.8220  -4.8196  -4.8170  -4.8158  -4.8158
    -4.8146  -4.8134  -4.8122  -4.8102  -4.8080  -4.8039  -4.8026  -4.8013
    -4.7943  -4.7920  -4.7691  -4.7481  -4.7451  -4.7214  -4.7004  -4.6865
    -4.4418  -3.8812  -3.7309  -3.7300  -3.7282  -3.7260  -3.7211  -3.7178
    -3.7168  -3.7124  -3.7072  -3.7054  -3.6615  -3.4752  -3.2660  -3.2655
    -3.2620  -3.2606  -3.2605  -3.2586  -3.2582  -3.2564  -3.2521  -3.2506
    -3.2449  -3.2444  -3.2437  -3.2414  -3.2383  -3.2315  -3.2144  -3.1933
    -3.1904  -3.1787  -3.1604  -3.1582  -3.1552  -3.1454  -3.1433  -3.1397
    -3.1288  -3.1240  -2.9997  -2.7760  -2.6590  -2.6586  -2.6578  -2.6571
    -2.6569  -2.6569  -2.6451  -2.6430  -2.6395  -2.6390  -2.6367  -2.6350
    -2.6326  -2.6309  -2.6296  -2.6284  -2.6267  -2.6096  -2.5897  -2.5878
    -2.5558  -2.5508  -2.4942  -2.4413  -2.3950  -2.3942  -2.3719  -2.2919
    -2.1876  -2.1865  -2.1782  -2.1742  -2.1738  -2.1720  -2.1712  -2.1697
    -2.1658  -2.1652  -2.1641  -2.1599  -2.1582  -2.1582  -2.1542  -2.1492
    -2.1491  -2.1319  -2.1314  -2.1222  -2.0654  -2.0551  -1.8270  -1.5726
    -1.4472  -1.4448  -1.4440  -1.4380  -1.4354  -1.4352  -1.4299  -1.4293
    -1.4277  -1.4274  -1.4258  -1.4253  -1.4106  -1.4079  -1.4031  -1.3972
    -1.3940  -1.3876  -1.3845  -1.3782  -1.3620  -1.3619  -1.3483  -1.3003
    -1.2531  -1.2499  -1.2486  -1.2470  -1.2467  -1.2417  -1.2393  -1.2383
    -1.2377  -1.2232  -1.2195  -1.2164  -1.1976  -1.1946  -1.1868  -1.1826
    -1.1797  -1.1557  -1.1443  -1.1377  -1.0318  -1.0178  -0.3879  -0.0868
    -0.0860  -0.0853  -0.0608   0.2214   0.2923   0.2933   0.3031   0.3049
     0.3054   0.3086   0.3098   0.3104   0.3296   0.3309   0.3945   0.4926
     0.5009   0.5010   0.5048   0.5064   0.5351   0.7666   0.8171   0.8178
     0.8212   0.8222   0.8223   0.8233   0.8267   0.8296   0.8426   0.8466
     0.8489   0.8496   0.8497   0.8508   0.8559   0.8579   0.8594   0.8675
     0.8764   0.8783   0.8824   0.8844   0.8848   0.8876   0.8920   0.8929
     0.8935   0.8972   0.8977   0.8978   0.8979   0.8986   0.9149   0.9198
     0.9223   0.9239   0.9288   0.9302   0.9339   0.9342   0.9356   0.9379
     0.9398   1.0099   1.0561   1.0607   1.1446   1.2502   1.2948   1.2950
     1.3138   1.3153   1.3162   1.3233   1.3261   1.3272   1.3515   1.3543
     1.4319   1.5168   1.5335   1.5359   1.5476   1.5492   1.5522   1.5539
     1.5697   1.5707   1.6053   1.6078   1.6792   1.6935   1.6992   1.7002
     1.7025   1.7049   1.7052   1.7089   1.7102   1.7122   1.7125   1.7183
     1.7223   1.7247   1.7265   1.7283   1.7292   1.7436   1.7536   1.7579
     1.7610   1.8728   1.9239   1.9315   2.2339   2.4344   2.4573   2.4589
     2.4821   2.4852   2.4864   2.4865   2.4888   2.4890   2.4892   2.4912
     2.4914   2.4945   2.4945   2.4954   2.4970   2.4990   2.5007   2.5080
     2.5082   2.5635   2.5820   2.5866   2.6795   2.8304   2.8315   2.8388
     2.8429   2.8429   2.8467   2.8495   2.8513   2.8518   2.8620   2.8623
     2.8723   2.8753   2.8852   2.8860   2.8868   2.8896   2.8911   2.8940
     2.9086   2.9106   3.0673   3.0766   3.7335   3.9273   3.9275   3.9464
     3.9468   3.9471   3.9473   3.9475   3.9537   3.9543   3.9671   3.9696
     3.9703   4.0954   4.1134   4.1154   4.1364   4.1367   4.1375   4.1388
     4.1401   4.1403   4.1408   4.1423   4.1428   4.1432   4.1437   4.1440
     4.1450   4.1532   4.1677   4.1686   4.1915   4.1994   4.2041   4.2070
     4.2167   4.2325   4.2329   4.2344   4.2390   4.2391   4.2397   4.2446
     4.2451   4.2468   4.2623   4.2637   4.2643   4.2671   4.2691   4.2700
     4.2726   4.2750   4.2790   4.2798   4.2873   4.2900   4.3457   4.3466
     4.3692   4.3693   4.3728   4.3772   4.3774   4.3782   4.3788   4.3800
     4.3811   4.3897   4.3898   4.3908   4.3922   4.4086   4.4101   4.4129
     4.4174   4.4176   4.4307   4.4379   4.4392   4.4890   4.5110   4.5117
     4.5144   4.5523   4.5539   4.5738   4.5828   4.5828   4.5856   4.5859
     4.5872   4.6229   4.6473   4.6480   4.6577   4.6989   4.7104   4.7132
     4.8209   4.8290   4.9274   4.9274   4.9455   4.9520   4.9523   4.9529
     4.9530   4.9675   4.9678   5.0462   5.0930   5.1039   5.6007   5.6357
     5.6366   5.6552   5.6621   5.6633   5.6668   5.6675   5.6684   5.7042
     5.7050   5.7084   5.9052   5.9065   5.9079   5.9189   5.9193   5.9193
     5.9215   5.9218   5.9226   5.9312   5.9368   5.9375   5.9457   5.9463
     5.9466   5.9532   5.9534   5.9582   5.9758   5.9765   5.9772   6.0057
     6.0111   6.0128   6.1090   6.2052   6.2073   6.2622   6.2624   6.2647
     6.2655   6.2667   6.2678   6.2687   6.2689   6.2709   6.2748   6.2751
     6.2772   6.2794   6.2890   6.2900   6.2981   6.3026   6.3037   6.3314
     6.3353   6.3368   6.3440   6.4825   6.4845   6.4887   6.5134   6.5159
     6.5163   6.5176   6.5192   6.5196   6.5203   6.5217   6.5220   6.5244
     6.5246   6.5259   6.5293   6.5314   6.5328   6.5394   6.5414   6.5789
     6.5846   6.5854   6.5965   6.6580   6.6595   6.6597   6.6662   6.6699
     6.6708   6.6718   6.6835   6.7163   6.7182   6.7257   6.7301   6.7313
     6.7318   6.7396   6.7398   6.7409   6.7417   6.7434   6.7438   6.7468
     6.7476   6.7726   6.7730   6.7777   6.7822   6.7830   6.7866   6.8236
     6.8599   6.8632   6.9000   6.9002   6.9083   6.9309   6.9321   6.9331
     6.9347   6.9423   6.9428   6.9446   6.9447   6.9464   6.9475   6.9537
     6.9545   6.9557   6.9601   6.9605   6.9649   6.9655   6.9694   6.9713
     6.9746   6.9772   6.9853   7.0125   7.0142   7.0902   7.1267   7.1334
     7.2654   7.2680   7.3013   7.3023   7.3031   7.3033   7.3043   7.3076
     7.3080   7.3083   7.3085   7.3089   7.3140   7.3144   7.3151   7.3218
     7.3263   7.3265   7.3292   7.3576   7.3584   7.3838   7.3839   7.3843
     7.4954   7.4965   7.5232   7.5252   7.5259   7.5309   7.5445   7.5457
     7.5640   7.5880   7.5930   7.5947   7.6815   7.6934   7.6946   7.7349
     7.7406   7.7408   7.7410   7.7418   7.7433   7.7433   7.7494   7.7509
     7.7524   7.7532   7.7550   7.7594   7.7607   7.7623   7.7651   7.7659
     7.7659   7.7665   7.7669   7.7671   7.7695   7.7714   7.7716   7.7730
     7.7741   7.7758   7.7777   7.7783   7.7788   7.7806   7.7823   7.7826
     7.7830   7.7842   7.7859   7.7867   7.8012   7.8053   7.8184   7.8294
     7.8295   7.8529   7.8553   7.8732   7.8893   7.8908   7.8979   7.9222
     7.9239   7.9266   7.9406   7.9508   7.9520   8.1067   8.1183   8.1212
     8.3136   8.3145   8.3574   8.3583   8.3592   8.3632   8.3642   8.3647
     8.3684   8.3696   8.3701   8.3710   8.3744   8.3749   8.3754   8.3820
     8.3821   8.3871   8.4033   8.4073   8.4139   8.4219   8.4247   8.4255
     8.4760   8.5200   8.5212   8.5516   8.5522   8.5530   8.5543   8.5544
     8.5555   8.5560   8.5609   8.5631   8.5637   8.5661   8.5687   8.5827
     8.5833   8.5869   8.5965   8.6061   8.6088   8.6103   8.6309   8.6316
     8.6320   8.6528   8.6602   8.6604   8.6621   8.6641   8.6646   8.6805
     8.6823   8.6834   8.6897   8.6908   8.6949   8.6956   8.6958   8.7052
     8.7212   8.7265   8.7281   8.7307   8.7317   8.7423   8.7469   8.7495
     8.7603   8.7771   8.7777   9.0146   9.0465   9.0482   9.1156   9.1165
     9.1332   9.1354   9.1362   9.1386   9.1416   9.1432   9.1444   9.1868
     9.2059   9.2077   9.2099   9.2543   9.2559   9.2601   9.2610   9.2679
     9.2803   9.2814   9.2951   9.4366   9.4728   9.4774   9.6709   9.6723
     9.7087   9.7097   9.7110   9.7119   9.7150   9.7169   9.7201   9.7205
     9.7323   9.7328   9.7374   9.7390   9.7411   9.7444   9.7451   9.7477
     9.7642   9.7689   9.7713   9.8339   9.8501   9.8515   9.8801   9.9788
     9.9811   9.9928   9.9963   9.9965  10.0002  10.0032  10.0032  10.0118
    10.0178  10.0192  10.0209  10.0275  10.0293  10.0301  10.0382  10.0396
    10.0400  10.0402  10.0418  10.0437  10.0442  10.0454  10.0459  10.0466
    10.0467  10.0477  10.0498  10.0509  10.0686  10.0705  10.0727  10.1494
    10.1506  10.1596  10.1980  10.1990  10.2012  10.2015  10.2019  10.2020
    10.2027  10.2041  10.2045  10.2052  10.2063  10.2075  10.2869  10.2881
    10.2951  10.3092  10.3097  10.3114  10.3119  10.3172  10.3185  10.3202
    10.3212  10.3224  10.3246  10.3254  10.3281  10.3282  10.3306  10.3314
    10.3323  10.3344  10.3345  10.3363  10.3375  10.3393  10.3405  10.3427
    10.3433  10.3483  10.3493  10.3507  10.3615  10.3631  10.3642  10.3751
    10.3782  10.3916  10.3990  10.4018  10.4075  10.4240  10.4280  10.4294
    10.4504  10.4519  10.4549  10.4614  10.4868  10.4913  10.5093  10.5108
    10.5923  10.6568  10.6661  11.2520  11.3431  11.3457  11.4679  11.4683
    11.4848  11.4864  11.4879  11.4910  11.4917  11.4924  11.4937  11.4947
    11.4956  11.4983  11.5028  11.5039  11.5066  11.5084  11.5186  11.5219
    11.5233  11.5377  11.5403  11.5408  11.5615  11.5659  11.5671  11.7483
    11.8809  11.8816  11.8906  11.9180  11.9203  12.2684  12.3579  12.3592
    12.4574  12.4697  12.4699  12.4740  12.4890  12.4929  12.4970  12.5306
    12.5396  12.5901  13.1968  13.1974  13.2081  14.9019  16.4323  16.5686
    17.4058  17.4073  17.4080  17.4234  17.4245  17.4361  17.7137  17.7165

     occupation numbers 
     1.0000   1.0000   1.0000   1.0000   1.0000   1.0000   1.0000   1.0000
     1.0000   1.0000   1.0000   1.0000   1.0000   1.0000   1.0000   1.0000
     1.0000   1.0000   1.0000   1.0000   1.0000   1.0000   1.0000   1.0000
     1.0000   1.0000   1.0000   1.0000   1.0000   1.0000   1.0000   1.0000
     1.0000   1.0000   1.0000   1.0000   1.0000   1.0000   1.0000   1.0000
     1.0000   1.0000   1.0000   1.0000   1.0000   1.0000   1.0000   1.0000
     1.0000   1.0000   1.0000   1.0000   1.0000   1.0000   1.0000   1.0000
     1.0000   1.0000   1.0000   1.0000   1.0000   1.0000   1.0000   1.0000
     1.0000   1.0000   1.0000   1.0000   1.0000   1.0000   1.0000   1.0000
     1.0000   1.0000   1.0000   1.0000   1.0000   1.0000   1.0000   1.0000
     1.0000   1.0000   1.0000   1.0000   1.0000   1.0000   1.0000   1.0000
     1.0000   1.0000   1.0000   1.0000   1.0000   1.0000   1.0000   1.0000
     1.0000   1.0000   1.0000   1.0000   1.0000   1.0000   1.0000   1.0000
     1.0000   1.0000   1.0000   1.0000   1.0000   1.0000   1.0000   1.0000
     1.0000   1.0000   1.0000   1.0000   1.0000   1.0000   1.0000   1.0000
     1.0000   1.0000   1.0000   1.0000   1.0000   1.0000   1.0000   1.0000
     1.0000   1.0000   1.0000   1.0000   1.0000   1.0000   1.0000   1.0000
     1.0000   1.0000   1.0000   1.0000   1.0000   1.0000   1.0000   1.0000
     1.0000   1.0000   1.0000   1.0000   1.0000   1.0000   1.0000   1.0000
     1.0000   1.0000   1.0000   1.0000   1.0000   1.0000   1.0000   1.0000
     1.0000   1.0000   1.0000   1.0000   1.0000   1.0000   1.0000   1.0000
     1.0000   1.0000   1.0000   1.0000   1.0000   1.0000   1.0000   1.0000
     1.0000   1.0000   1.0000   1.0000   1.0000   1.0000   1.0000   1.0000
     1.0000   1.0000   1.0000   1.0000   1.0000   1.0000   1.0000   1.0000
     1.0000   1.0000   1.0000   1.0000   1.0000   1.0000   1.0000   1.0000
     1.0000   1.0000   1.0000   1.0000   1.0000   1.0000   1.0000   1.0000
     1.0000   1.0000   1.0000   1.0000   1.0000   1.0000   1.0000   1.0000
     1.0000   1.0000   1.0000   1.0000   1.0000   1.0000   1.0000   1.0000
     1.0000   1.0000   1.0000   1.0000   1.0000   1.0000   1.0000   1.0000
     1.0000   1.0000   1.0000   1.0000   1.0000   1.0000   1.0000   1.0000
     1.0000   1.0000   1.0000   1.0000   1.0000   1.0000   1.0000   1.0000
     1.0000   1.0000   1.0000   1.0000   1.0000   1.0000   1.0000   1.0000
     1.0000   1.0000   1.0000   1.0000   1.0000   1.0000   1.0000   1.0000
     1.0000   1.0000   1.0000   1.0000   1.0000   1.0000   1.0000   1.0000
     1.0000   1.0000   1.0000   1.0000   1.0000   1.0000   1.0000   1.0000
     1.0000   1.0000   1.0000   1.0000   1.0000   1.0000   1.0000   1.0000
     1.0000   1.0000   1.0000   1.0000   1.0000   1.0000   1.0000   1.0000
     1.0000   1.0000   1.0000   1.0000   1.0000   1.0000   1.0000   1.0000
     1.0000   1.0000   1.0000   1.0000   1.0000   1.0000   1.0000   1.0000
     1.0000   1.0000   1.0000   1.0000   1.0000   1.0000   1.0000   1.0000
     1.0000   1.0000   1.0000   1.0000   1.0000   1.0000   1.0000   1.0000
     1.0000   1.0000   1.0000   1.0000   1.0000   1.0000   1.0000   1.0000
     1.0000   1.0000   1.0000   1.0000   1.0000   1.0000   1.0000   1.0000
     1.0000   1.0000   1.0000   1.0000   1.0000   1.0000   1.0000   1.0000
     1.0000   1.0000   1.0000   1.0000   1.0000   1.0000   1.0000   1.0000
     1.0000   1.0000   1.0000   1.0000   1.0000   1.0000   1.0000   1.0000
     1.0000   1.0000   1.0000   1.0000   1.0000   1.0000   1.0000   1.0000
     1.0000   1.0000   1.0000   1.0000   1.0000   1.0000   1.0000   1.0000
     1.0000   1.0000   1.0000   1.0000   1.0000   1.0000   1.0000   1.0000
     1.0000   1.0000   1.0000   1.0000   1.0000   1.0000   1.0000   1.0000
     1.0000   1.0000   1.0000   1.0000   1.0000   1.0000   1.0000   1.0000
     1.0000   1.0000   1.0000   1.0000   1.0000   1.0000   1.0000   1.0000
     1.0000   1.0000   1.0000   1.0000   1.0000   1.0000   1.0000   1.0000
     1.0000   1.0000   1.0000   1.0000   1.0000   1.0000   1.0000   1.0000
     1.0000   1.0000   1.0000   1.0000   1.0000   1.0000   1.0000   1.0000
     1.0000   1.0000   1.0000   1.0000   1.0000   1.0000   1.0000   1.0000
     1.0000   1.0000   1.0000   1.0000   1.0000   1.0000   1.0000   1.0000
     1.0000   1.0000   1.0000   1.0000   1.0000   1.0000   1.0000   1.0000
     1.0000   1.0000   1.0000   1.0000   1.0000   1.0000   1.0000   1.0000
     1.0000   1.0000   1.0000   1.0000   1.0000   1.0000   1.0000   1.0000
     1.0000   1.0000   1.0000   1.0000   1.0000   1.0000   1.0000   1.0000
     1.0000   1.0000   1.0000   1.0000   1.0000   1.0000   1.0000   1.0000
     1.0000   1.0000   1.0000   1.0000   1.0000   1.0000   1.0000   1.0000
     1.0000   1.0000   1.0000   1.0000   1.0000   1.0000   1.0000   1.0000
     1.0000   1.0000   1.0000   1.0000   1.0000   1.0000   1.0000   1.0000
     1.0000   1.0000   1.0000   1.0000   1.0000   1.0000   1.0000   1.0000
     1.0000   1.0000   1.0000   1.0000   1.0000   1.0000   1.0000   1.0000
     1.0000   1.0000   1.0000   1.0000   1.0000   1.0000   1.0000   1.0000
     1.0000   1.0000   1.0000   1.0000   1.0000   1.0000   1.0000   1.0000
     1.0000   1.0000   1.0000   1.0000   1.0000   1.0000   1.0000   1.0000
     1.0000   1.0000   1.0000   1.0000   1.0000   1.0000   1.0000   1.0000
     1.0000   1.0000   1.0000   1.0000   1.0000   1.0000   1.0000   1.0000
     1.0000   1.0000   1.0000   1.0000   1.0000   1.0000   1.0000   1.0000
     1.0000   1.0000   1.0000   1.0000   1.0000   1.0000   1.0000   1.0000
     1.0000   1.0000   1.0000   1.0000   1.0000   1.0000   1.0000   1.0000
     1.0000   1.0000   1.0000   1.0000   1.0000   1.0000   1.0000   1.0000
     1.0000   1.0000   1.0000   1.0000   1.0000   1.0000   1.0000   1.0000
     1.0000   1.0000   1.0000   1.0000   1.0000   1.0000   1.0000   1.0000
     1.0000   1.0000   1.0000   1.0000   1.0000   1.0000   1.0000   1.0000
     1.0000   1.0000   1.0000   1.0000   1.0000   1.0000   1.0000   1.0000
     1.0000   1.0000   1.0000   1.0000   1.0000   1.0000   1.0000   1.0000
     1.0000   1.0000   1.0000   1.0000   1.0000   1.0000   1.0000   1.0000
     1.0000   1.0000   1.0000   1.0000   1.0000   1.0000   1.0000   1.0000
     1.0000   1.0000   1.0000   1.0000   1.0000   1.0000   1.0000   1.0000
     1.0000   1.0000   1.0000   1.0000   1.0000   1.0000   1.0000   1.0000
     1.0000   1.0000   1.0000   1.0000   1.0000   1.0000   1.0000   1.0000
     1.0000   1.0000   1.0000   1.0000   1.0000   1.0000   1.0000   1.0000
     1.0000   1.0000   1.0000   1.0000   1.0000   1.0000   1.0000   1.0000
     1.0000   1.0000   1.0000   1.0000   1.0000   1.0000   1.0000   1.0000
     1.0000   1.0000   1.0000   1.0000   1.0000   1.0000   1.0000   1.0000
     1.0000   1.0000   1.0000   1.0000   1.0000   1.0000   1.0000   1.0000
     1.0000   1.0000   1.0000   1.0000   1.0000   1.0000   1.0000   1.0000
     1.0000   1.0000   1.0000   1.0000   1.0000   1.0000   1.0000   1.0000
     1.0000   1.0000   1.0000   1.0000   1.0000   1.0000   1.0000   1.0000
     1.0000   1.0000   1.0000   1.0000   1.0000   1.0000   1.0000   1.0000
     1.0000   1.0000   1.0000   1.0000   1.0000   1.0000   1.0000   1.0000
     1.0000   1.0000   1.0000   1.0000   1.0000   1.0000   1.0000   1.0000
     1.0000   1.0000   1.0000   1.0000   1.0000   1.0000   1.0000   1.0000
     1.0000   1.0000   1.0000   1.0000   1.0000   1.0000   1.0000   1.0000
     1.0000   1.0000   1.0000   1.0000   1.0000   1.0000   1.0000   1.0000
     1.0000   1.0000   1.0000   1.0000   1.0000   1.0000   1.0000   1.0000
     1.0000   1.0000   1.0000   1.0000   1.0000   1.0000   1.0000   1.0000
     1.0000   1.0000   1.0000   1.0000   1.0000   1.0000   1.0000   1.0000
     1.0000   1.0000   1.0000   1.0000   1.0000   1.0000   1.0000   1.0000
     1.0000   1.0000   1.0000   1.0000   1.0000   1.0000   1.0000   1.0000
     1.0000   1.0000   1.0000   1.0000   1.0000   1.0000   1.0000   1.0000
     1.0000   1.0000   1.0000   1.0000   1.0000   1.0000   1.0000   1.0000
     1.0000   1.0000   1.0000   1.0000   1.0000   1.0000   1.0000   1.0000
     1.0000   1.0000   1.0000   1.0000   1.0000   1.0000   1.0000   1.0000
     1.0000   1.0000   1.0000   1.0000   1.0000   1.0000   1.0000   1.0000
     1.0000   1.0000   1.0000   1.0000   1.0000   1.0000   1.0000   1.0000
     1.0000   1.0000   1.0000   1.0000   1.0000   1.0000   1.0000   1.0000
     1.0000   1.0000   1.0000   1.0000   1.0000   1.0000   1.0000   1.0000
     1.0000   1.0000   1.0000   1.0000   1.0000   1.0000   1.0000   1.0000
     1.0000   1.0000   1.0000   1.0000   1.0000   1.0000   1.0000   1.0000
     1.0000   1.0000   1.0000   1.0000   1.0000   1.0000   1.0000   1.0000
     1.0000   1.0000   1.0000   1.0000   1.0000   1.0000   1.0000   1.0000
     1.0000   1.0000   1.0000   1.0000   1.0000   1.0000   1.0000   1.0000
     1.0000   1.0000   1.0000   1.0000   1.0000   1.0000   1.0000   1.0000
     1.0000   1.0000   1.0000   1.0000   1.0000   1.0000   1.0000   1.0000
     1.0000   1.0000   1.0000   1.0000   1.0000   1.0000   1.0000   1.0000
     1.0000   1.0000   1.0000   1.0000   1.0000   1.0000   1.0000   1.0000
     1.0000   1.0000   1.0000   1.0000   1.0000   1.0000   1.0000   1.0000
     1.0000   1.0000   1.0000   1.0000   1.0000   1.0000   1.0000   1.0000
     1.0000   1.0000   1.0000   1.0000   1.0000   1.0000   1.0000   1.0000
     1.0000   1.0000   1.0000   1.0000   1.0000   1.0000   1.0000   1.0000
     1.0000   1.0000   1.0000   1.0000   1.0000   1.0000   1.0000   1.0000
     1.0000   1.0000   1.0000   1.0000   1.0000   1.0000   0.0000   0.0000
     0.0000   0.0000   0.0000   0.0000   0.0000   0.0000   0.0000   0.0000

     highest occupied, lowest unoccupied level (ev):    15.1659   16.4323

!    total energy              =   -5829.09126438 Ry
     estimated scf accuracy    <          8.6E-11 Ry

     The total energy is the sum of the following terms:
     one-electron contribution =    2011.43766625 Ry
     hartree contribution      =     505.40770033 Ry
     xc contribution           =   -1820.32352482 Ry
     ewald contribution        =   -6525.61310615 Ry

     total magnetization       =     2.00 Bohr mag/cell
     absolute magnetization    =     2.30 Bohr mag/cell

     convergence has been achieved in  21 iterations

 %%%%%%%%%%%%%%%%%%%%%%%%%%%%%%%%%%%%%%%%%%%%%%%%%%%%%%%%%%%%%%%%%%%%%%%%%%%%%%
     Error in routine write_rhog (2):
     error writing file ./pwscf.save/charge-density
 %%%%%%%%%%%%%%%%%%%%%%%%%%%%%%%%%%%%%%%%%%%%%%%%%%%%%%%%%%%%%%%%%%%%%%%%%%%%%%

     stopping ...

 %%%%%%%%%%%%%%%%%%%%%%%%%%%%%%%%%%%%%%%%%%%%%%%%%%%%%%%%%%%%%%%%%%%%%%%%%%%%%%
     Error in routine write_rhog (2):
     error writing file ./pwscf.save/charge-density
 %%%%%%%%%%%%%%%%%%%%%%%%%%%%%%%%%%%%%%%%%%%%%%%%%%%%%%%%%%%%%%%%%%%%%%%%%%%%%%

     stopping ...

 %%%%%%%%%%%%%%%%%%%%%%%%%%%%%%%%%%%%%%%%%%%%%%%%%%%%%%%%%%%%%%%%%%%%%%%%%%%%%%
     Error in routine write_rhog (2):
     error writing file ./pwscf.save/charge-density
 %%%%%%%%%%%%%%%%%%%%%%%%%%%%%%%%%%%%%%%%%%%%%%%%%%%%%%%%%%%%%%%%%%%%%%%%%%%%%%

     stopping ...

 %%%%%%%%%%%%%%%%%%%%%%%%%%%%%%%%%%%%%%%%%%%%%%%%%%%%%%%%%%%%%%%%%%%%%%%%%%%%%%
     Error in routine write_rhog (2):
     error writing file ./pwscf.save/charge-density
 %%%%%%%%%%%%%%%%%%%%%%%%%%%%%%%%%%%%%%%%%%%%%%%%%%%%%%%%%%%%%%%%%%%%%%%%%%%%%%

     stopping ...

 %%%%%%%%%%%%%%%%%%%%%%%%%%%%%%%%%%%%%%%%%%%%%%%%%%%%%%%%%%%%%%%%%%%%%%%%%%%%%%
     Error in routine write_rhog (2):
     error writing file ./pwscf.save/charge-density
 %%%%%%%%%%%%%%%%%%%%%%%%%%%%%%%%%%%%%%%%%%%%%%%%%%%%%%%%%%%%%%%%%%%%%%%%%%%%%%

     stopping ...

 %%%%%%%%%%%%%%%%%%%%%%%%%%%%%%%%%%%%%%%%%%%%%%%%%%%%%%%%%%%%%%%%%%%%%%%%%%%%%%
     Error in routine write_rhog (2):
     error writing file ./pwscf.save/charge-density
 %%%%%%%%%%%%%%%%%%%%%%%%%%%%%%%%%%%%%%%%%%%%%%%%%%%%%%%%%%%%%%%%%%%%%%%%%%%%%%

     stopping ...

 %%%%%%%%%%%%%%%%%%%%%%%%%%%%%%%%%%%%%%%%%%%%%%%%%%%%%%%%%%%%%%%%%%%%%%%%%%%%%%
     Error in routine write_rhog (2):
     error writing file ./pwscf.save/charge-density
 %%%%%%%%%%%%%%%%%%%%%%%%%%%%%%%%%%%%%%%%%%%%%%%%%%%%%%%%%%%%%%%%%%%%%%%%%%%%%%

     stopping ...

 %%%%%%%%%%%%%%%%%%%%%%%%%%%%%%%%%%%%%%%%%%%%%%%%%%%%%%%%%%%%%%%%%%%%%%%%%%%%%%
     Error in routine write_rhog (2):
     error writing file ./pwscf.save/charge-density
 %%%%%%%%%%%%%%%%%%%%%%%%%%%%%%%%%%%%%%%%%%%%%%%%%%%%%%%%%%%%%%%%%%%%%%%%%%%%%%

     stopping ...

 %%%%%%%%%%%%%%%%%%%%%%%%%%%%%%%%%%%%%%%%%%%%%%%%%%%%%%%%%%%%%%%%%%%%%%%%%%%%%%
     Error in routine write_rhog (2):
     error writing file ./pwscf.save/charge-density
 %%%%%%%%%%%%%%%%%%%%%%%%%%%%%%%%%%%%%%%%%%%%%%%%%%%%%%%%%%%%%%%%%%%%%%%%%%%%%%

     stopping ...

 %%%%%%%%%%%%%%%%%%%%%%%%%%%%%%%%%%%%%%%%%%%%%%%%%%%%%%%%%%%%%%%%%%%%%%%%%%%%%%
     Error in routine write_rhog (2):
     error writing file ./pwscf.save/charge-density
 %%%%%%%%%%%%%%%%%%%%%%%%%%%%%%%%%%%%%%%%%%%%%%%%%%%%%%%%%%%%%%%%%%%%%%%%%%%%%%

     stopping ...

 %%%%%%%%%%%%%%%%%%%%%%%%%%%%%%%%%%%%%%%%%%%%%%%%%%%%%%%%%%%%%%%%%%%%%%%%%%%%%%
     Error in routine write_rhog (2):
     error writing file ./pwscf.save/charge-density
 %%%%%%%%%%%%%%%%%%%%%%%%%%%%%%%%%%%%%%%%%%%%%%%%%%%%%%%%%%%%%%%%%%%%%%%%%%%%%%

     stopping ...

 %%%%%%%%%%%%%%%%%%%%%%%%%%%%%%%%%%%%%%%%%%%%%%%%%%%%%%%%%%%%%%%%%%%%%%%%%%%%%%
     Error in routine write_rhog (2):
     error writing file ./pwscf.save/charge-density
 %%%%%%%%%%%%%%%%%%%%%%%%%%%%%%%%%%%%%%%%%%%%%%%%%%%%%%%%%%%%%%%%%%%%%%%%%%%%%%

     stopping ...

 %%%%%%%%%%%%%%%%%%%%%%%%%%%%%%%%%%%%%%%%%%%%%%%%%%%%%%%%%%%%%%%%%%%%%%%%%%%%%%
     Error in routine write_rhog (2):
     error writing file ./pwscf.save/charge-density
 %%%%%%%%%%%%%%%%%%%%%%%%%%%%%%%%%%%%%%%%%%%%%%%%%%%%%%%%%%%%%%%%%%%%%%%%%%%%%%

     stopping ...

 %%%%%%%%%%%%%%%%%%%%%%%%%%%%%%%%%%%%%%%%%%%%%%%%%%%%%%%%%%%%%%%%%%%%%%%%%%%%%%
     Error in routine write_rhog (2):
     error writing file ./pwscf.save/charge-density
 %%%%%%%%%%%%%%%%%%%%%%%%%%%%%%%%%%%%%%%%%%%%%%%%%%%%%%%%%%%%%%%%%%%%%%%%%%%%%%

     stopping ...

 %%%%%%%%%%%%%%%%%%%%%%%%%%%%%%%%%%%%%%%%%%%%%%%%%%%%%%%%%%%%%%%%%%%%%%%%%%%%%%
     Error in routine write_rhog (2):
     error writing file ./pwscf.save/charge-density
 %%%%%%%%%%%%%%%%%%%%%%%%%%%%%%%%%%%%%%%%%%%%%%%%%%%%%%%%%%%%%%%%%%%%%%%%%%%%%%

     stopping ...

 %%%%%%%%%%%%%%%%%%%%%%%%%%%%%%%%%%%%%%%%%%%%%%%%%%%%%%%%%%%%%%%%%%%%%%%%%%%%%%
     Error in routine write_rhog (2):
     error writing file ./pwscf.save/charge-density
 %%%%%%%%%%%%%%%%%%%%%%%%%%%%%%%%%%%%%%%%%%%%%%%%%%%%%%%%%%%%%%%%%%%%%%%%%%%%%%

     stopping ...

 %%%%%%%%%%%%%%%%%%%%%%%%%%%%%%%%%%%%%%%%%%%%%%%%%%%%%%%%%%%%%%%%%%%%%%%%%%%%%%
     Error in routine write_rhog (2):
     error writing file ./pwscf.save/charge-density
 %%%%%%%%%%%%%%%%%%%%%%%%%%%%%%%%%%%%%%%%%%%%%%%%%%%%%%%%%%%%%%%%%%%%%%%%%%%%%%

     stopping ...

 %%%%%%%%%%%%%%%%%%%%%%%%%%%%%%%%%%%%%%%%%%%%%%%%%%%%%%%%%%%%%%%%%%%%%%%%%%%%%%
     Error in routine write_rhog (2):
     error writing file ./pwscf.save/charge-density
 %%%%%%%%%%%%%%%%%%%%%%%%%%%%%%%%%%%%%%%%%%%%%%%%%%%%%%%%%%%%%%%%%%%%%%%%%%%%%%

     stopping ...

 %%%%%%%%%%%%%%%%%%%%%%%%%%%%%%%%%%%%%%%%%%%%%%%%%%%%%%%%%%%%%%%%%%%%%%%%%%%%%%
     Error in routine write_rhog (2):
     error writing file ./pwscf.save/charge-density
 %%%%%%%%%%%%%%%%%%%%%%%%%%%%%%%%%%%%%%%%%%%%%%%%%%%%%%%%%%%%%%%%%%%%%%%%%%%%%%

     stopping ...

 %%%%%%%%%%%%%%%%%%%%%%%%%%%%%%%%%%%%%%%%%%%%%%%%%%%%%%%%%%%%%%%%%%%%%%%%%%%%%%
     Error in routine write_rhog (2):
     error writing file ./pwscf.save/charge-density
 %%%%%%%%%%%%%%%%%%%%%%%%%%%%%%%%%%%%%%%%%%%%%%%%%%%%%%%%%%%%%%%%%%%%%%%%%%%%%%

     stopping ...

 %%%%%%%%%%%%%%%%%%%%%%%%%%%%%%%%%%%%%%%%%%%%%%%%%%%%%%%%%%%%%%%%%%%%%%%%%%%%%%
     Error in routine write_rhog (2):
     error writing file ./pwscf.save/charge-density
 %%%%%%%%%%%%%%%%%%%%%%%%%%%%%%%%%%%%%%%%%%%%%%%%%%%%%%%%%%%%%%%%%%%%%%%%%%%%%%

     stopping ...

 %%%%%%%%%%%%%%%%%%%%%%%%%%%%%%%%%%%%%%%%%%%%%%%%%%%%%%%%%%%%%%%%%%%%%%%%%%%%%%
     Error in routine write_rhog (2):
     error writing file ./pwscf.save/charge-density
 %%%%%%%%%%%%%%%%%%%%%%%%%%%%%%%%%%%%%%%%%%%%%%%%%%%%%%%%%%%%%%%%%%%%%%%%%%%%%%

     stopping ...

 %%%%%%%%%%%%%%%%%%%%%%%%%%%%%%%%%%%%%%%%%%%%%%%%%%%%%%%%%%%%%%%%%%%%%%%%%%%%%%
     Error in routine write_rhog (2):
     error writing file ./pwscf.save/charge-density
 %%%%%%%%%%%%%%%%%%%%%%%%%%%%%%%%%%%%%%%%%%%%%%%%%%%%%%%%%%%%%%%%%%%%%%%%%%%%%%

     stopping ...

 %%%%%%%%%%%%%%%%%%%%%%%%%%%%%%%%%%%%%%%%%%%%%%%%%%%%%%%%%%%%%%%%%%%%%%%%%%%%%%
     Error in routine write_rhog (2):
     error writing file ./pwscf.save/charge-density
 %%%%%%%%%%%%%%%%%%%%%%%%%%%%%%%%%%%%%%%%%%%%%%%%%%%%%%%%%%%%%%%%%%%%%%%%%%%%%%

     stopping ...

 %%%%%%%%%%%%%%%%%%%%%%%%%%%%%%%%%%%%%%%%%%%%%%%%%%%%%%%%%%%%%%%%%%%%%%%%%%%%%%
     Error in routine write_rhog (2):
     error writing file ./pwscf.save/charge-density
 %%%%%%%%%%%%%%%%%%%%%%%%%%%%%%%%%%%%%%%%%%%%%%%%%%%%%%%%%%%%%%%%%%%%%%%%%%%%%%

     stopping ...

 %%%%%%%%%%%%%%%%%%%%%%%%%%%%%%%%%%%%%%%%%%%%%%%%%%%%%%%%%%%%%%%%%%%%%%%%%%%%%%
     Error in routine write_rhog (2):
     error writing file ./pwscf.save/charge-density
 %%%%%%%%%%%%%%%%%%%%%%%%%%%%%%%%%%%%%%%%%%%%%%%%%%%%%%%%%%%%%%%%%%%%%%%%%%%%%%

     stopping ...

 %%%%%%%%%%%%%%%%%%%%%%%%%%%%%%%%%%%%%%%%%%%%%%%%%%%%%%%%%%%%%%%%%%%%%%%%%%%%%%
     Error in routine write_rhog (2):
     error writing file ./pwscf.save/charge-density
 %%%%%%%%%%%%%%%%%%%%%%%%%%%%%%%%%%%%%%%%%%%%%%%%%%%%%%%%%%%%%%%%%%%%%%%%%%%%%%

     stopping ...

 %%%%%%%%%%%%%%%%%%%%%%%%%%%%%%%%%%%%%%%%%%%%%%%%%%%%%%%%%%%%%%%%%%%%%%%%%%%%%%
     Error in routine write_rhog (2):
     error writing file ./pwscf.save/charge-density
 %%%%%%%%%%%%%%%%%%%%%%%%%%%%%%%%%%%%%%%%%%%%%%%%%%%%%%%%%%%%%%%%%%%%%%%%%%%%%%

     stopping ...

 %%%%%%%%%%%%%%%%%%%%%%%%%%%%%%%%%%%%%%%%%%%%%%%%%%%%%%%%%%%%%%%%%%%%%%%%%%%%%%
     Error in routine write_rhog (2):
     error writing file ./pwscf.save/charge-density
 %%%%%%%%%%%%%%%%%%%%%%%%%%%%%%%%%%%%%%%%%%%%%%%%%%%%%%%%%%%%%%%%%%%%%%%%%%%%%%

     stopping ...

 %%%%%%%%%%%%%%%%%%%%%%%%%%%%%%%%%%%%%%%%%%%%%%%%%%%%%%%%%%%%%%%%%%%%%%%%%%%%%%
     Error in routine write_rhog (2):
     error writing file ./pwscf.save/charge-density
 %%%%%%%%%%%%%%%%%%%%%%%%%%%%%%%%%%%%%%%%%%%%%%%%%%%%%%%%%%%%%%%%%%%%%%%%%%%%%%

     stopping ...

 %%%%%%%%%%%%%%%%%%%%%%%%%%%%%%%%%%%%%%%%%%%%%%%%%%%%%%%%%%%%%%%%%%%%%%%%%%%%%%
     Error in routine write_rhog (2):
     error writing file ./pwscf.save/charge-density
 %%%%%%%%%%%%%%%%%%%%%%%%%%%%%%%%%%%%%%%%%%%%%%%%%%%%%%%%%%%%%%%%%%%%%%%%%%%%%%

     stopping ...

 %%%%%%%%%%%%%%%%%%%%%%%%%%%%%%%%%%%%%%%%%%%%%%%%%%%%%%%%%%%%%%%%%%%%%%%%%%%%%%
     Error in routine write_rhog (2):
     error writing file ./pwscf.save/charge-density
 %%%%%%%%%%%%%%%%%%%%%%%%%%%%%%%%%%%%%%%%%%%%%%%%%%%%%%%%%%%%%%%%%%%%%%%%%%%%%%

     stopping ...

 %%%%%%%%%%%%%%%%%%%%%%%%%%%%%%%%%%%%%%%%%%%%%%%%%%%%%%%%%%%%%%%%%%%%%%%%%%%%%%
     Error in routine write_rhog (2):
     error writing file ./pwscf.save/charge-density
 %%%%%%%%%%%%%%%%%%%%%%%%%%%%%%%%%%%%%%%%%%%%%%%%%%%%%%%%%%%%%%%%%%%%%%%%%%%%%%

     stopping ...

 %%%%%%%%%%%%%%%%%%%%%%%%%%%%%%%%%%%%%%%%%%%%%%%%%%%%%%%%%%%%%%%%%%%%%%%%%%%%%%
     Error in routine write_rhog (2):
     error writing file ./pwscf.save/charge-density
 %%%%%%%%%%%%%%%%%%%%%%%%%%%%%%%%%%%%%%%%%%%%%%%%%%%%%%%%%%%%%%%%%%%%%%%%%%%%%%

     stopping ...

 %%%%%%%%%%%%%%%%%%%%%%%%%%%%%%%%%%%%%%%%%%%%%%%%%%%%%%%%%%%%%%%%%%%%%%%%%%%%%%
     Error in routine write_rhog (2):
     error writing file ./pwscf.save/charge-density
 %%%%%%%%%%%%%%%%%%%%%%%%%%%%%%%%%%%%%%%%%%%%%%%%%%%%%%%%%%%%%%%%%%%%%%%%%%%%%%

     stopping ...

 %%%%%%%%%%%%%%%%%%%%%%%%%%%%%%%%%%%%%%%%%%%%%%%%%%%%%%%%%%%%%%%%%%%%%%%%%%%%%%
     Error in routine write_rhog (2):
     error writing file ./pwscf.save/charge-density
 %%%%%%%%%%%%%%%%%%%%%%%%%%%%%%%%%%%%%%%%%%%%%%%%%%%%%%%%%%%%%%%%%%%%%%%%%%%%%%

     stopping ...

 %%%%%%%%%%%%%%%%%%%%%%%%%%%%%%%%%%%%%%%%%%%%%%%%%%%%%%%%%%%%%%%%%%%%%%%%%%%%%%
     Error in routine write_rhog (2):
     error writing file ./pwscf.save/charge-density
 %%%%%%%%%%%%%%%%%%%%%%%%%%%%%%%%%%%%%%%%%%%%%%%%%%%%%%%%%%%%%%%%%%%%%%%%%%%%%%

     stopping ...

 %%%%%%%%%%%%%%%%%%%%%%%%%%%%%%%%%%%%%%%%%%%%%%%%%%%%%%%%%%%%%%%%%%%%%%%%%%%%%%
     Error in routine write_rhog (2):
     error writing file ./pwscf.save/charge-density
 %%%%%%%%%%%%%%%%%%%%%%%%%%%%%%%%%%%%%%%%%%%%%%%%%%%%%%%%%%%%%%%%%%%%%%%%%%%%%%

     stopping ...

 %%%%%%%%%%%%%%%%%%%%%%%%%%%%%%%%%%%%%%%%%%%%%%%%%%%%%%%%%%%%%%%%%%%%%%%%%%%%%%
     Error in routine write_rhog (2):
     error writing file ./pwscf.save/charge-density
 %%%%%%%%%%%%%%%%%%%%%%%%%%%%%%%%%%%%%%%%%%%%%%%%%%%%%%%%%%%%%%%%%%%%%%%%%%%%%%

     stopping ...

 %%%%%%%%%%%%%%%%%%%%%%%%%%%%%%%%%%%%%%%%%%%%%%%%%%%%%%%%%%%%%%%%%%%%%%%%%%%%%%
     Error in routine write_rhog (2):
     error writing file ./pwscf.save/charge-density
 %%%%%%%%%%%%%%%%%%%%%%%%%%%%%%%%%%%%%%%%%%%%%%%%%%%%%%%%%%%%%%%%%%%%%%%%%%%%%%

     stopping ...

 %%%%%%%%%%%%%%%%%%%%%%%%%%%%%%%%%%%%%%%%%%%%%%%%%%%%%%%%%%%%%%%%%%%%%%%%%%%%%%
     Error in routine write_rhog (2):
     error writing file ./pwscf.save/charge-density
 %%%%%%%%%%%%%%%%%%%%%%%%%%%%%%%%%%%%%%%%%%%%%%%%%%%%%%%%%%%%%%%%%%%%%%%%%%%%%%

     stopping ...

 %%%%%%%%%%%%%%%%%%%%%%%%%%%%%%%%%%%%%%%%%%%%%%%%%%%%%%%%%%%%%%%%%%%%%%%%%%%%%%
     Error in routine write_rhog (2):
     error writing file ./pwscf.save/charge-density
 %%%%%%%%%%%%%%%%%%%%%%%%%%%%%%%%%%%%%%%%%%%%%%%%%%%%%%%%%%%%%%%%%%%%%%%%%%%%%%

     stopping ...

 %%%%%%%%%%%%%%%%%%%%%%%%%%%%%%%%%%%%%%%%%%%%%%%%%%%%%%%%%%%%%%%%%%%%%%%%%%%%%%
     Error in routine write_rhog (2):
     error writing file ./pwscf.save/charge-density
 %%%%%%%%%%%%%%%%%%%%%%%%%%%%%%%%%%%%%%%%%%%%%%%%%%%%%%%%%%%%%%%%%%%%%%%%%%%%%%

     stopping ...

 %%%%%%%%%%%%%%%%%%%%%%%%%%%%%%%%%%%%%%%%%%%%%%%%%%%%%%%%%%%%%%%%%%%%%%%%%%%%%%
     Error in routine write_rhog (2):
     error writing file ./pwscf.save/charge-density
 %%%%%%%%%%%%%%%%%%%%%%%%%%%%%%%%%%%%%%%%%%%%%%%%%%%%%%%%%%%%%%%%%%%%%%%%%%%%%%

     stopping ...

 %%%%%%%%%%%%%%%%%%%%%%%%%%%%%%%%%%%%%%%%%%%%%%%%%%%%%%%%%%%%%%%%%%%%%%%%%%%%%%
     Error in routine write_rhog (2):
     error writing file ./pwscf.save/charge-density
 %%%%%%%%%%%%%%%%%%%%%%%%%%%%%%%%%%%%%%%%%%%%%%%%%%%%%%%%%%%%%%%%%%%%%%%%%%%%%%

     stopping ...

 %%%%%%%%%%%%%%%%%%%%%%%%%%%%%%%%%%%%%%%%%%%%%%%%%%%%%%%%%%%%%%%%%%%%%%%%%%%%%%
     Error in routine write_rhog (2):
     error writing file ./pwscf.save/charge-density
 %%%%%%%%%%%%%%%%%%%%%%%%%%%%%%%%%%%%%%%%%%%%%%%%%%%%%%%%%%%%%%%%%%%%%%%%%%%%%%

     stopping ...

 %%%%%%%%%%%%%%%%%%%%%%%%%%%%%%%%%%%%%%%%%%%%%%%%%%%%%%%%%%%%%%%%%%%%%%%%%%%%%%
     Error in routine write_rhog (2):
     error writing file ./pwscf.save/charge-density
 %%%%%%%%%%%%%%%%%%%%%%%%%%%%%%%%%%%%%%%%%%%%%%%%%%%%%%%%%%%%%%%%%%%%%%%%%%%%%%

     stopping ...

 %%%%%%%%%%%%%%%%%%%%%%%%%%%%%%%%%%%%%%%%%%%%%%%%%%%%%%%%%%%%%%%%%%%%%%%%%%%%%%
     Error in routine write_rhog (2):
     error writing file ./pwscf.save/charge-density
 %%%%%%%%%%%%%%%%%%%%%%%%%%%%%%%%%%%%%%%%%%%%%%%%%%%%%%%%%%%%%%%%%%%%%%%%%%%%%%

     stopping ...
