&CONTROL
   calculation      = 'scf'
   restart_mode     = 'from_scratch'
   prefix           = 'pwscf'
   ! pseudo_dir       = './'
   outdir           = './'
   wf_collect       = .true.
   tstress          = .true.
   tprnfor          = .true.
   verbosity        = 'high'

/
&SYSTEM
   ibrav            = 0
   nat              = 63
   ntyp             = 2
   nbnd             = 152
   tot_charge       = -1
   tot_magnetization = 2.0
   ecutwfc          = 60 ! can lower to 60 or 50 for test calcuulations
   nspin            = 2
   occupations = 'from_input'
/
&ELECTRONS
   electron_maxstep = 600
   conv_thr = 1.0d-8
   mixing_mode = 'plain'
   mixing_beta = 0.7
   diagonalization = 'david'
   diago_full_acc = .TRUE.
   startingpot = 'atomic'
   startingwfc = 'atomic+random'
/
&IONS
/
&CELL
/
&FCP
/
&RISM
/
ATOMIC_SPECIES
N  14.007 N_ONCV_PBE-1.2.upf
C  12.011 C_ONCV_PBE-1.2.upf

K_POINTS gamma

CELL_PARAMETERS angstrom
7.13400000000000 0.00000000000000 0.00000000000000
0.00000000000000 7.13400000000000 0.00000000000000
0.00000000000000 0.00000000000000 7.13400000000000

OCCUPATIONS
1 1 1 1 1 1 1 1 1 1
1 1 1 1 1 1 1 1 1 1
1 1 1 1 1 1 1 1 1 1
1 1 1 1 1 1 1 1 1 1
1 1 1 1 1 1 1 1 1 1
1 1 1 1 1 1 1 1 1 1
1 1 1 1 1 1 1 1 1 1
1 1 1 1 1 1 1 1 1 1
1 1 1 1 1 1 1 1 1 1
1 1 1 1 1 1 1 1 1 1
1 1 1 1 1 1 1 1 1 1
1 1 1 1 1 1 1 1 1 1
1 1 1 1 1 1 1 1 0 0
0 0 0 0 0 0 0 0 0 0
0 0 0 0 0 0 0 0 0 0
0 0
1 1 1 1 1 1 1 1 1 1
1 1 1 1 1 1 1 1 1 1
1 1 1 1 1 1 1 1 1 1
1 1 1 1 1 1 1 1 1 1
1 1 1 1 1 1 1 1 1 1
1 1 1 1 1 1 1 1 1 1
1 1 1 1 1 1 1 1 1 1
1 1 1 1 1 1 1 1 1 1
1 1 1 1 1 1 1 1 1 1
1 1 1 1 1 1 1 1 1 1
1 1 1 1 1 1 1 1 1 1
1 1 1 1 1 1 1 1 1 1
1 1 1 1 1 0 1 0 0 0
0 0 0 0 0 0 0 0 0 0
0 0 0 0 0 0 0 0 0 0
0 0

ATOMIC_POSITIONS angstrom
N  0.0000000000 0.0000000000 0.0000000000  
C  0.0000000000 1.7835000000 1.7835000000  
C  0.8917500000 2.6752500000 2.6752500000  
C  1.7835000000 0.0000000000 1.7835000000  
C  2.6752500000 0.8917500000 2.6752500000  
C  1.7835000000 1.7835000000 0.0000000000  
C  2.6752500000 2.6752500000 0.8917500000  
C  0.0000000000 0.0000000000 3.5670000000  
C  0.8917500000 0.8917500000 4.4587500000  
C  0.0000000000 1.7835000000 5.3505000000  
C  0.8917500000 2.6752500000 6.2422500000  
C  1.7835000000 0.0000000000 5.3505000000  
C  2.6752500000 0.8917500000 6.2422500000  
C  1.7835000000 1.7835000000 3.5670000000  
C  2.6752500000 2.6752500000 4.4587500000  
C  0.0000000000 3.5670000000 0.0000000000  
C  0.8917500000 4.4587500000 0.8917500000  
C  0.0000000000 5.3505000000 1.7835000000  
C  0.8917500000 6.2422500000 2.6752500000  
C  1.7835000000 3.5670000000 1.7835000000  
C  2.6752500000 4.4587500000 2.6752500000  
C  1.7835000000 5.3505000000 0.0000000000  
C  2.6752500000 6.2422500000 0.8917500000  
C  0.0000000000 3.5670000000 3.5670000000  
C  0.8917500000 4.4587500000 4.4587500000  
C  0.0000000000 5.3505000000 5.3505000000  
C  0.8917500000 6.2422500000 6.2422500000  
C  1.7835000000 3.5670000000 5.3505000000  
C  2.6752500000 4.4587500000 6.2422500000  
C  1.7835000000 5.3505000000 3.5670000000  
C  2.6752500000 6.2422500000 4.4587500000  
C  3.5670000000 0.0000000000 0.0000000000  
C  4.4587500000 0.8917500000 0.8917500000  
C  3.5670000000 1.7835000000 1.7835000000  
C  4.4587500000 2.6752500000 2.6752500000  
C  5.3505000000 0.0000000000 1.7835000000  
C  6.2422500000 0.8917500000 2.6752500000  
C  5.3505000000 1.7835000000 0.0000000000  
C  6.2422500000 2.6752500000 0.8917500000  
C  3.5670000000 0.0000000000 3.5670000000  
C  4.4587500000 0.8917500000 4.4587500000  
C  3.5670000000 1.7835000000 5.3505000000  
C  4.4587500000 2.6752500000 6.2422500000  
C  5.3505000000 0.0000000000 5.3505000000  
C  6.2422500000 0.8917500000 6.2422500000  
C  5.3505000000 1.7835000000 3.5670000000  
C  6.2422500000 2.6752500000 4.4587500000  
C  3.5670000000 3.5670000000 0.0000000000  
C  4.4587500000 4.4587500000 0.8917500000  
C  3.5670000000 5.3505000000 1.7835000000  
C  4.4587500000 6.2422500000 2.6752500000  
C  5.3505000000 3.5670000000 1.7835000000  
C  6.2422500000 4.4587500000 2.6752500000  
C  5.3505000000 5.3505000000 0.0000000000  
C  6.2422500000 6.2422500000 0.8917500000  
C  3.5670000000 3.5670000000 3.5670000000  
C  4.4587500000 4.4587500000 4.4587500000  
C  3.5670000000 5.3505000000 5.3505000000  
C  4.4587500000 6.2422500000 6.2422500000  
C  5.3505000000 3.5670000000 5.3505000000  
C  6.2422500000 4.4587500000 6.2422500000  
C  5.3505000000 5.3505000000 3.5670000000  
C  6.2422500000 6.2422500000 4.4587500000  

