
     Program PWSCF v.7.5 starts on  4Dec2025 at 23:26:16 

     This program is part of the open-source Quantum ESPRESSO suite
     for quantum simulation of materials; please cite
         "P. Giannozzi et al., J. Phys.:Condens. Matter 21 395502 (2009);
         "P. Giannozzi et al., J. Phys.:Condens. Matter 29 465901 (2017);
         "P. Giannozzi et al., J. Chem. Phys. 152 154105 (2020);
          URL http://www.quantum-espresso.org", 
     in publications or presentations arising from this work. More details at
     http://www.quantum-espresso.org/quote

     Parallel version (MPI), running on    96 processors

     MPI processes distributed on     2 nodes
     137093 MiB available memory on the printing compute node when the environment starts
 
     Reading input from pw.in

     Current dimensions of program PWSCF are:
     Max number of different atomic species (ntypx) = 10
     Max number of k-points (npk) =  40000
     Max angular momentum in pseudopotentials (lmaxx) =  4

     gamma-point specific algorithms are used
 
     K-points division:     npool     =       2
     R & G space division:  proc/nbgrp/npool/nimage =      48
     Subspace diagonalization in iterative solution of the eigenvalue problem:
     one sub-group per band group will be used
     scalapack distributed-memory algorithm (size of sub-group:  6*  6 procs)

 
     Parallelization info
     --------------------
     sticks:   dense  smooth     PW     G-vecs:    dense   smooth      PW
     Min         384     384     96                39496    39496    4936
     Max         386     386     98                39521    39521    4949
     Sum       18505   18505   4637              1896521  1896521  237129
 
     Using Slab Decomposition
 


     bravais-lattice index     =            0
     lattice parameter (alat)  =      26.9702  a.u.
     unit-cell volume          =   19617.8366 (a.u.)^3
     number of atoms/cell      =          511
     number of atomic types    =            2
     number of electrons       =      2046.00 (up:1024.00, down:1022.00)
     number of Kohn-Sham states=         1032
     kinetic-energy cutoff     =      80.0000  Ry
     charge density cutoff     =     320.0000  Ry
     scf convergence threshold =      1.0E-10
     mixing beta               =       0.7000
     number of iterations used =            8  plain     mixing
     Exchange-correlation= PBE
                           (   1   4   3   4   0   0   0)

     celldm(1)=  26.970171  celldm(2)=   0.000000  celldm(3)=   0.000000
     celldm(4)=   0.000000  celldm(5)=   0.000000  celldm(6)=   0.000000

     crystal axes: (cart. coord. in units of alat)
               a(1) = (   1.000000   0.000000   0.000000 )  
               a(2) = (   0.000000   1.000000   0.000000 )  
               a(3) = (   0.000000   0.000000   1.000000 )  

     reciprocal axes: (cart. coord. in units 2 pi/alat)
               b(1) = (  1.000000  0.000000  0.000000 )  
               b(2) = (  0.000000  1.000000  0.000000 )  
               b(3) = (  0.000000  0.000000  1.000000 )  


     PseudoPot. # 1 for C  read from file:
     ./C_ONCV_PBE-1.2.upf
     MD5 check sum: d60b57d9bdca4133f5fde4b584ee909d
     Pseudo is Norm-conserving, Zval =  4.0
     Generated using ONCVPSP code by D. R. Hamann
     Using radial grid of  602 points,  4 beta functions with: 
                l(1) =   0
                l(2) =   0
                l(3) =   1
                l(4) =   1

     PseudoPot. # 2 for N  read from file:
     ./N_ONCV_PBE-1.2.upf
     MD5 check sum: 5312fdf34e96954e02a33bdc911c617a
     Pseudo is Norm-conserving, Zval =  5.0
     Generated using ONCVPSP code by D. R. Hamann
     Using radial grid of  602 points,  4 beta functions with: 
                l(1) =   0
                l(2) =   0
                l(3) =   1
                l(4) =   1

     atomic species   valence    mass     pseudopotential
     C                 4.00    12.01100     C ( 1.00)
     N                 5.00    14.00670     N ( 1.00)

     Starting magnetic structure 
     atomic species   magnetization
     C               0.000
     N               0.000

     No symmetry found


                                    s                        frac. trans.

      isym =  1     identity                                     

 cryst.   s( 1) = (     1          0          0      )
                  (     0          1          0      )
                  (     0          0          1      )

 cart.    s( 1) = (  1.0000000  0.0000000  0.0000000 )
                  (  0.0000000  1.0000000  0.0000000 )
                  (  0.0000000  0.0000000  1.0000000 )


   Cartesian axes

     site n.     atom                  positions (alat units)
         1        C      tau(   1) = (  -0.0000369  -0.0000273  -0.0000006  )
         2        C      tau(   2) = (  -0.0000504   0.0000230   0.2500130  )
         3        C      tau(   3) = (  -0.0001470  -0.0000517   0.5000080  )
         4        C      tau(   4) = (  -0.0000316  -0.0000815   0.7499937  )
         5        C      tau(   5) = (  -0.0000516   0.2499866   0.0000512  )
         6        C      tau(   6) = (   0.0000240   0.2500396   0.2500671  )
         7        C      tau(   7) = (  -0.0000336   0.2500401   0.5000638  )
         8        C      tau(   8) = (  -0.0001275   0.2499462   0.7500457  )
         9        C      tau(   9) = (  -0.0001471   0.4999810  -0.0000200  )
        10        C      tau(  10) = (  -0.0000341   0.5000350   0.2500709  )
        11        C      tau(  11) = (   0.0000471   0.4999828   0.5000135  )
        12        C      tau(  12) = (  -0.0000038   0.4999350   0.7499486  )
        13        C      tau(  13) = (  -0.0000309   0.7499671  -0.0000508  )
        14        C      tau(  14) = (  -0.0001266   0.7500157   0.2499771  )
        15        C      tau(  15) = (  -0.0000038   0.7499181   0.4999641  )
        16        C      tau(  16) = (   0.0000527   0.7498958   0.7499254  )
        17        C      tau(  17) = (   0.2499417  -0.0000452  -0.0000115  )
        18        C      tau(  18) = (   0.2499064   0.0001192   0.2499678  )
        19        C      tau(  19) = (   0.2499556  -0.0000550   0.5000104  )
        20        C      tau(  20) = (   0.2499362  -0.0002320   0.7500188  )
        21        C      tau(  21) = (   0.2499038   0.2499336   0.0001546  )
        22        C      tau(  22) = (   0.2501499   0.2502401   0.2502741  )
        23        C      tau(  23) = (   0.2495821   0.2494828   0.5003675  )
        24        C      tau(  24) = (   0.2499109   0.2497998   0.7501781  )
        25        C      tau(  25) = (   0.2499561   0.4999786  -0.0000196  )
        26        C      tau(  26) = (   0.2495823   0.5003298   0.2495192  )
        27        C      tau(  27) = (   0.2509270   0.4999416   0.4999806  )
        28        C      tau(  28) = (   0.2496058   0.4995714   0.7505006  )
        29        C      tau(  29) = (   0.2499384   0.7499843  -0.0001897  )
        30        C      tau(  30) = (   0.2499152   0.7501376   0.2498424  )
        31        C      tau(  31) = (   0.2496055   0.7504626   0.4996092  )
        32        C      tau(  32) = (   0.2502708   0.7496217   0.7496609  )
        33        C      tau(  33) = (   0.4999468  -0.0000578  -0.0000243  )
        34        C      tau(  34) = (   0.4999623   0.0000659   0.2499920  )
        35        C      tau(  35) = (   0.4999691  -0.0000245   0.5000144  )
        36        C      tau(  36) = (   0.4999653  -0.0001512   0.7500250  )
        37        C      tau(  37) = (   0.4999614   0.2499614   0.0000968  )
        38        C      tau(  38) = (   0.4999445   0.2498149   0.2498477  )
        39        C      tau(  39) = (   0.4999217   0.2501851   0.5002171  )
        40        C      tau(  40) = (   0.4997171   0.2489584   0.7510581  )
        41        C      tau(  41) = (   0.4999699   0.4999846   0.0000067  )
        42        C      tau(  42) = (   0.4999234   0.5001791   0.2502226  )
        43        C      tau(  43) = (   0.4999866   0.4997786   0.7498228  )
        44        C      tau(  44) = (   0.4999671   0.7499925  -0.0001147  )
        45        C      tau(  45) = (   0.4997201   0.7510244   0.2489928  )
        46        C      tau(  46) = (   0.4999880   0.7497888   0.4998133  )
        47        C      tau(  47) = (   0.5000115   0.7498897   0.7499228  )
        48        C      tau(  48) = (   0.7499780  -0.0000173   0.0000090  )
        49        C      tau(  49) = (   0.7499787  -0.0000115   0.2500117  )
        50        C      tau(  50) = (   0.7499643  -0.0000213   0.5000167  )
        51        C      tau(  51) = (   0.7499816  -0.0000483   0.7500136  )
        52        C      tau(  52) = (   0.7499783   0.2499862   0.0000150  )
        53        C      tau(  53) = (   0.7499710   0.2500047   0.2500318  )
        54        C      tau(  54) = (   0.7501755   0.2496950   0.5000457  )
        55        C      tau(  55) = (   0.7497862   0.2501070   0.7499300  )
        56        C      tau(  56) = (   0.7499644   0.4999911   0.0000063  )
        57        C      tau(  57) = (   0.7501747   0.5000128   0.2497296  )
        58        C      tau(  58) = (   0.7495791   0.5000096   0.5000447  )
        59        C      tau(  59) = (   0.7499801   0.4999737   0.7501064  )
        60        C      tau(  60) = (   0.7499821   0.7499874  -0.0000205  )
        61        C      tau(  61) = (   0.7497839   0.7498975   0.2501402  )
        62        C      tau(  62) = (   0.7499790   0.7500756   0.5000042  )
        63        C      tau(  63) = (   0.7500229   0.7500016   0.7500291  )
        64        C      tau(  64) = (  -0.0000219   0.1250147   0.1250410  )
        65        C      tau(  65) = (  -0.0000205   0.1250317   0.3750374  )
        66        C      tau(  66) = (  -0.0001307   0.1249617   0.6250488  )
        67        C      tau(  67) = (  -0.0000659   0.1249526   0.8750240  )
        68        C      tau(  68) = (  -0.0000214   0.3750108   0.1250609  )
        69        C      tau(  69) = (   0.0000223   0.3750560   0.3750860  )
        70        C      tau(  70) = (  -0.0000189   0.3749832   0.6250139  )
        71        C      tau(  71) = (  -0.0001227   0.3749531   0.8750252  )
        72        C      tau(  72) = (  -0.0001301   0.6250204   0.1249942  )
        73        C      tau(  73) = (  -0.0000193   0.6249838   0.3750139  )
        74        C      tau(  74) = (   0.0000649   0.6249022   0.6249329  )
        75        C      tau(  75) = (  -0.0000008   0.6249478   0.8749186  )
        76        C      tau(  76) = (  -0.0000648   0.8749965   0.1249811  )
        77        C      tau(  77) = (  -0.0001214   0.8749947   0.3749813  )
        78        C      tau(  78) = (  -0.0000012   0.8748873   0.6249752  )
        79        C      tau(  79) = (   0.0000054   0.8749272   0.8749550  )
        80        C      tau(  80) = (   0.2499563   0.1250721   0.1251045  )
        81        C      tau(  81) = (   0.2500128   0.1250541   0.3751089  )
        82        C      tau(  82) = (   0.2498247   0.1247223   0.6251512  )
        83        C      tau(  83) = (   0.2499127   0.1248495   0.8750982  )
        84        C      tau(  84) = (   0.2500134   0.3750765   0.1250870  )
        85        C      tau(  85) = (   0.2507326   0.3754978   0.3755347  )
        86        C      tau(  86) = (   0.2499890   0.3747626   0.6252350  )
        87        C      tau(  87) = (   0.2498100   0.3748245   0.8752545  )
        88        C      tau(  88) = (   0.2498283   0.6251132   0.1247648  )
        89        C      tau(  89) = (   0.2499912   0.6251938   0.3748043  )
        90        C      tau(  90) = (   0.2508583   0.6243634   0.6244012  )
        91        C      tau(  91) = (   0.2501668   0.6248573   0.8747684  )
        92        C      tau(  92) = (   0.2499163   0.8750621   0.1248888  )
        93        C      tau(  93) = (   0.2498132   0.8752153   0.3748626  )
        94        C      tau(  94) = (   0.2501670   0.8747282   0.6248924  )
        95        C      tau(  95) = (   0.2499904   0.8748226   0.8748595  )
        96        C      tau(  96) = (   0.4999730   0.1249408   0.1249706  )
        97        C      tau(  97) = (   0.4999732   0.1250495   0.3750936  )
        98        C      tau(  98) = (   0.4999188   0.1248804   0.6251095  )
        99        C      tau(  99) = (   0.4998907   0.1245761   0.8753940  )
       100        C      tau( 100) = (   0.4999737   0.3750627   0.1250807  )
       101        C      tau( 101) = (   0.4998895   0.3755549   0.3755928  )
       102        C      tau( 102) = (   0.4983816   0.3743276   0.6256486  )
       103        C      tau( 103) = (   0.4999415   0.3749200   0.8750751  )
       104        C      tau( 104) = (   0.4999227   0.6250735   0.1249179  )
       105        C      tau( 105) = (   0.4983835   0.6256143   0.3743624  )
       106        C      tau( 106) = (   0.5016088   0.6239620   0.6239959  )
       107        C      tau( 107) = (   0.5000087   0.6248864   0.8749229  )
       108        C      tau( 108) = (   0.4998927   0.8753593   0.1246124  )
       109        C      tau( 109) = (   0.4999433   0.8750429   0.3749530  )
       110        C      tau( 110) = (   0.5000084   0.8748899   0.6249176  )
       111        C      tau( 111) = (   0.4999851   0.8749060   0.8749388  )
       112        C      tau( 112) = (   0.7499846   0.1249975   0.1250228  )
       113        C      tau( 113) = (   0.7500141   0.1249422   0.3750274  )
       114        C      tau( 114) = (   0.7498983   0.1249773   0.6250374  )
       115        C      tau( 115) = (   0.7499430   0.1250012   0.8749922  )
       116        C      tau( 116) = (   0.7500135   0.3750010   0.1249702  )
       117        C      tau( 117) = (   0.7500455   0.3749442   0.3749763  )
       118        C      tau( 118) = (   0.7492242   0.3754719   0.6249479  )
       119        C      tau( 119) = (   0.7499009   0.3749861   0.8749806  )
       120        C      tau( 120) = (   0.7498983   0.6250086   0.1250078  )
       121        C      tau( 121) = (   0.7492254   0.6249139   0.3755063  )
       122        C      tau( 122) = (   0.7500932   0.6250811   0.6251132  )
       123        C      tau( 123) = (   0.7500091   0.6249881   0.8750382  )
       124        C      tau( 124) = (   0.7499429   0.8749645   0.1250293  )
       125        C      tau( 125) = (   0.7499003   0.8749523   0.3750138  )
       126        C      tau( 126) = (   0.7500082   0.8750101   0.6250141  )
       127        C      tau( 127) = (   0.7499988   0.8749700   0.8749962  )
       128        C      tau( 128) = (   0.1249456   0.0000287   0.1250005  )
       129        C      tau( 129) = (   0.1248924   0.0000552   0.3749963  )
       130        C      tau( 130) = (   0.1249354  -0.0001621   0.6250183  )
       131        C      tau( 131) = (   0.1249584  -0.0001070   0.8749874  )
       132        C      tau( 132) = (   0.1250033   0.2500471   0.1251323  )
       133        C      tau( 133) = (   0.1251036   0.2501488   0.3751371  )
       134        C      tau( 134) = (   0.1248641   0.2498438   0.6251221  )
       135        C      tau( 135) = (   0.1248987   0.2499153   0.8750850  )
       136        C      tau( 136) = (   0.1247608   0.5000782   0.1248235  )
       137        C      tau( 137) = (   0.1252084   0.5000752   0.3750840  )
       138        C      tau( 138) = (   0.1252393   0.4998555   0.6249084  )
       139        C      tau( 139) = (   0.1247793   0.4998703   0.8751668  )
       140        C      tau( 140) = (   0.1249117   0.7500261   0.1249135  )
       141        C      tau( 141) = (   0.1248728   0.7501017   0.3749017  )
       142        C      tau( 142) = (   0.1251714   0.7497400   0.6248494  )
       143        C      tau( 143) = (   0.1250605   0.7498665   0.8748280  )
       144        C      tau( 144) = (   0.3749263   0.0000918   0.1249402  )
       145        C      tau( 145) = (   0.3749588   0.0000458   0.3749996  )
       146        C      tau( 146) = (   0.3749648  -0.0001392   0.6250192  )
       147        C      tau( 147) = (   0.3749379  -0.0002047   0.8750279  )
       148        C      tau( 148) = (   0.3749716   0.2500847   0.1251218  )
       149        C      tau( 149) = (   0.3752226   0.2503287   0.3754784  )
       150        C      tau( 150) = (   0.3748834   0.2494933   0.6254740  )
       151        C      tau( 151) = (   0.3748741   0.2496808   0.8753572  )
       152        C      tau( 152) = (   0.3749768   0.5000983   0.1250094  )
       153        C      tau( 153) = (   0.3761499   0.5014090   0.3755085  )
       154        C      tau( 154) = (   0.3761751   0.4981723   0.6244492  )
       155        C      tau( 155) = (   0.3750378   0.4998532   0.8749571  )
       156        C      tau( 156) = (   0.3748888   0.7502451   0.1246661  )
       157        C      tau( 157) = (   0.3748526   0.7505204   0.3745369  )
       158        C      tau( 158) = (   0.3756139   0.7492278   0.6245853  )
       159        C      tau( 159) = (   0.3750284   0.7498026   0.8747849  )
       160        C      tau( 160) = (   0.6249903   0.0000010   0.1250048  )
       161        C      tau( 161) = (   0.6249722   0.0000167   0.3750146  )
       162        C      tau( 162) = (   0.6249712  -0.0000582   0.6250139  )
       163        C      tau( 163) = (   0.6249883  -0.0000807   0.8750144  )
       164        C      tau( 164) = (   0.6249793   0.2499656   0.1249917  )
       165        C      tau( 165) = (   0.6249694   0.2498673   0.3750450  )
       166        C      tau( 166) = (   0.6245909   0.2501383   0.6249365  )
       167        C      tau( 167) = (   0.6249609   0.2500420   0.8750214  )
       168        C      tau( 168) = (   0.6249346   0.5000275   0.1250211  )
       169        C      tau( 169) = (   0.6242505   0.4997221   0.3753221  )
       170        C      tau( 170) = (   0.6240118   0.5016147   0.6243838  )
       171        C      tau( 171) = (   0.6249551   0.4999540   0.8750121  )
       172        C      tau( 172) = (   0.6249426   0.7500113   0.1249126  )
       173        C      tau( 173) = (   0.6247242   0.7495614   0.3754094  )
       174        C      tau( 174) = (   0.6250562   0.7501737   0.6250553  )
       175        C      tau( 175) = (   0.6250021   0.7499821   0.8750064  )
       176        C      tau( 176) = (   0.8749658  -0.0000115   0.1250126  )
       177        C      tau( 177) = (   0.8749508  -0.0000225   0.3750126  )
       178        C      tau( 178) = (   0.8749557  -0.0000449   0.6250148  )
       179        C      tau( 179) = (   0.8749728  -0.0000279   0.8749991  )
       180        C      tau( 180) = (   0.8749838   0.2500056   0.1250338  )
       181        C      tau( 181) = (   0.8750327   0.2499672   0.3750360  )
       182        C      tau( 182) = (   0.8747759   0.2501494   0.6250436  )
       183        C      tau( 183) = (   0.8749052   0.2499860   0.8749960  )
       184        C      tau( 184) = (   0.8750212   0.4999933   0.1249541  )
       185        C      tau( 185) = (   0.8748456   0.5000114   0.3751003  )
       186        C      tau( 186) = (   0.8748966   0.4999845   0.6249791  )
       187        C      tau( 187) = (   0.8749599   0.4999817   0.8749894  )
       188        C      tau( 188) = (   0.8748986   0.7499779   0.1250329  )
       189        C      tau( 189) = (   0.8748391   0.7499106   0.3750269  )
       190        C      tau( 190) = (   0.8750304   0.7499734   0.6249980  )
       191        C      tau( 191) = (   0.8750090   0.7499633   0.8749776  )
       192        C      tau( 192) = (   0.1249442   0.1249707   0.0000587  )
       193        C      tau( 193) = (   0.1250039   0.1251013   0.2500762  )
       194        C      tau( 194) = (   0.1247591   0.1247875   0.5001109  )
       195        C      tau( 195) = (   0.1249088   0.1248772   0.7500580  )
       196        C      tau( 196) = (   0.1248906   0.3749661   0.0000885  )
       197        C      tau( 197) = (   0.1251035   0.3751053   0.2501814  )
       198        C      tau( 198) = (   0.1252086   0.3750498   0.5001095  )
       199        C      tau( 199) = (   0.1248699   0.3748661   0.7501378  )
       200        C      tau( 200) = (   0.1249368   0.6249876  -0.0001244  )
       201        C      tau( 201) = (   0.1248669   0.6250873   0.2498809  )
       202        C      tau( 202) = (   0.1252390   0.6248725   0.4998911  )
       203        C      tau( 203) = (   0.1251714   0.6248146   0.7497771  )
       204        C      tau( 204) = (   0.1249596   0.8749576  -0.0000743  )
       205        C      tau( 205) = (   0.1249019   0.8750519   0.2499484  )
       206        C      tau( 206) = (   0.1247813   0.8751303   0.4999034  )
       207        C      tau( 207) = (   0.1250602   0.8747915   0.7498985  )
       208        C      tau( 208) = (   0.3749247   0.1249040   0.0001275  )
       209        C      tau( 209) = (   0.3749719   0.1250900   0.2501160  )
       210        C      tau( 210) = (   0.3749744   0.1249736   0.5001339  )
       211        C      tau( 211) = (   0.3748854   0.1246229   0.7502846  )
       212        C      tau( 212) = (   0.3749582   0.3749679   0.0000784  )
       213        C      tau( 213) = (   0.3752232   0.3754407   0.2503662  )
       214        C      tau( 214) = (   0.3761485   0.3754717   0.5014459  )
       215        C      tau( 215) = (   0.3748503   0.3744991   0.7505570  )
       216        C      tau( 216) = (   0.3749669   0.6249858  -0.0001007  )
       217        C      tau( 217) = (   0.3748864   0.6254353   0.2495323  )
       218        C      tau( 218) = (   0.3761761   0.6244139   0.4982084  )
       219        C      tau( 219) = (   0.3756141   0.6245490   0.7492645  )
       220        C      tau( 220) = (   0.3749394   0.8749917  -0.0001642  )
       221        C      tau( 221) = (   0.3748771   0.8753183   0.2497206  )
       222        C      tau( 222) = (   0.3750382   0.8749222   0.4998877  )
       223        C      tau( 223) = (   0.3750280   0.8747455   0.7498380  )
       224        C      tau( 224) = (   0.6249900   0.1249770   0.0000289  )
       225        C      tau( 225) = (   0.6249797   0.1249638   0.2499930  )
       226        C      tau( 226) = (   0.6249335   0.1249904   0.5000577  )
       227        C      tau( 227) = (   0.6249406   0.1248792   0.7500435  )
       228        C      tau( 228) = (   0.6249719   0.3749872   0.0000448  )
       229        C      tau( 229) = (   0.6249698   0.3750128   0.2498999  )
       230        C      tau( 230) = (   0.6242480   0.3752870   0.4997578  )
       231        C      tau( 231) = (   0.6247226   0.3753767   0.7495934  )
       232        C      tau( 232) = (   0.6249723   0.6249860  -0.0000284  )
       233        C      tau( 233) = (   0.6245922   0.6248995   0.2501756  )
       234        C      tau( 234) = (   0.6240131   0.6243513   0.5016473  )
       235        C      tau( 235) = (   0.6250568   0.6250233   0.7502071  )
       236        C      tau( 236) = (   0.6249887   0.8749851  -0.0000504  )
       237        C      tau( 237) = (   0.6249617   0.8749920   0.2500723  )
       238        C      tau( 238) = (   0.6249549   0.8749827   0.4999829  )
       239        C      tau( 239) = (   0.6250018   0.8749772   0.7500099  )
       240        C      tau( 240) = (   0.8749655   0.1249873   0.0000143  )
       241        C      tau( 241) = (   0.8749843   0.1250079   0.2500305  )
       242        C      tau( 242) = (   0.8750225   0.1249244   0.5000198  )
       243        C      tau( 243) = (   0.8748993   0.1250031   0.7500056  )
       244        C      tau( 244) = (   0.8749502   0.3749878   0.0000049  )
       245        C      tau( 245) = (   0.8750324   0.3750082   0.2499960  )
       246        C      tau( 246) = (   0.8748461   0.3750671   0.5000434  )
       247        C      tau( 247) = (   0.8748410   0.3749965   0.7499409  )
       248        C      tau( 248) = (   0.8749561   0.6249895  -0.0000164  )
       249        C      tau( 249) = (   0.8747735   0.6250124   0.2501829  )
       250        C      tau( 250) = (   0.8748961   0.6249485   0.5000154  )
       251        C      tau( 251) = (   0.8750309   0.6249707   0.7500016  )
       252        C      tau( 252) = (   0.8749730   0.8749734  -0.0000013  )
       253        C      tau( 253) = (   0.8749048   0.8749677   0.2500133  )
       254        C      tau( 254) = (   0.8749592   0.8749613   0.5000075  )
       255        C      tau( 255) = (   0.8750086   0.8749507   0.7499888  )
       256        C      tau( 256) = (   0.1874443   0.0625887   0.1875382  )
       257        C      tau( 257) = (   0.1874127   0.0624747   0.4375453  )
       258        C      tau( 258) = (   0.1873939   0.0622823   0.6875552  )
       259        C      tau( 259) = (   0.1874323   0.0624179   0.9375351  )
       260        C      tau( 260) = (   0.1875615   0.3126000   0.1876680  )
       261        C      tau( 261) = (   0.1877447   0.3125982   0.4376996  )
       262        C      tau( 262) = (   0.1873904   0.3123527   0.6876390  )
       263        C      tau( 263) = (   0.1873676   0.3124155   0.9376697  )
       264        C      tau( 264) = (   0.1871319   0.5625408   0.1871241  )
       265        C      tau( 265) = (   0.1878450   0.5624817   0.4374720  )
       266        C      tau( 266) = (   0.1878138   0.5622442   0.6873358  )
       267        C      tau( 267) = (   0.1874834   0.5624240   0.9374159  )
       268        C      tau( 268) = (   0.1874096   0.8125649   0.1874035  )
       269        C      tau( 269) = (   0.1871311   0.8128714   0.4374527  )
       270        C      tau( 270) = (   0.1876565   0.8122189   0.6873306  )
       271        C      tau( 271) = (   0.1874731   0.8124090   0.9373521  )
       272        C      tau( 272) = (   0.4374482   0.0625568   0.1875192  )
       273        C      tau( 273) = (   0.4374431   0.0625028   0.4375515  )
       274        C      tau( 274) = (   0.4374344   0.0623184   0.6875956  )
       275        C      tau( 275) = (   0.4374672   0.0622596   0.9376762  )
       276        C      tau( 276) = (   0.4374440   0.3126418   0.1876335  )
       277        C      tau( 277) = (   0.4376742   0.3129278   0.4382058  )
       278        C      tau( 278) = (   0.4377322   0.3108085   0.6892920  )
       279        C      tau( 279) = (   0.4374328   0.3123903   0.9376325  )
       280        C      tau( 280) = (   0.4374254   0.5626586   0.1874128  )
       281        C      tau( 281) = (   0.4382854   0.5614421   0.6865332  )
       282        C      tau( 282) = (   0.4374632   0.5624334   0.9374626  )
       283        C      tau( 283) = (   0.4374903   0.8131871   0.1868092  )
       284        C      tau( 284) = (   0.4374347   0.8125780   0.4373109  )
       285        C      tau( 285) = (   0.4375704   0.8122059   0.6872704  )
       286        C      tau( 286) = (   0.4374757   0.8124069   0.9373498  )
       287        C      tau( 287) = (   0.6874859   0.0624852   0.1875056  )
       288        C      tau( 288) = (   0.6874635   0.0624904   0.4375438  )
       289        C      tau( 289) = (   0.6874710   0.0624210   0.6875574  )
       290        C      tau( 290) = (   0.6874696   0.0624752   0.9375060  )
       291        C      tau( 291) = (   0.6874938   0.3124983   0.1874512  )
       292        C      tau( 292) = (   0.6881050   0.3118030   0.4376726  )
       293        C      tau( 293) = (   0.6870918   0.3126632   0.6873946  )
       294        C      tau( 294) = (   0.6874633   0.3124712   0.9375374  )
       295        C      tau( 295) = (   0.6873770   0.5625894   0.1875024  )
       296        C      tau( 296) = (   0.6864197   0.5619697   0.4382914  )
       297        C      tau( 297) = (   0.6877152   0.5626642   0.6878811  )
       298        C      tau( 298) = (   0.6874729   0.5624713   0.9375066  )
       299        C      tau( 299) = (   0.6873995   0.8124626   0.1875376  )
       300        C      tau( 300) = (   0.6873720   0.8124290   0.4374945  )
       301        C      tau( 301) = (   0.6875493   0.8125750   0.6875533  )
       302        C      tau( 302) = (   0.6874987   0.8124927   0.9374876  )
       303        C      tau( 303) = (   0.9374677   0.0625084   0.1875220  )
       304        C      tau( 304) = (   0.9374669   0.0624720   0.4375371  )
       305        C      tau( 305) = (   0.9374191   0.0624632   0.6875130  )
       306        C      tau( 306) = (   0.9374591   0.0624714   0.9375123  )
       307        C      tau( 307) = (   0.9375127   0.3125079   0.1875388  )
       308        C      tau( 308) = (   0.9374597   0.3125356   0.4375559  )
       309        C      tau( 309) = (   0.9373956   0.3125119   0.6875051  )
       310        C      tau( 310) = (   0.9374169   0.3124809   0.9375168  )
       311        C      tau( 311) = (   0.9373848   0.5624971   0.1875851  )
       312        C      tau( 312) = (   0.9374554   0.5624827   0.4375245  )
       313        C      tau( 313) = (   0.9374988   0.5624535   0.6874609  )
       314        C      tau( 314) = (   0.9374431   0.5624747   0.9374555  )
       315        C      tau( 315) = (   0.9374038   0.8124906   0.1874982  )
       316        C      tau( 316) = (   0.9374152   0.8124282   0.4375090  )
       317        C      tau( 317) = (   0.9375273   0.8124368   0.6874835  )
       318        C      tau( 318) = (   0.9374889   0.8124635   0.9374747  )
       319        C      tau( 319) = (   0.0624524   0.0624962   0.0625242  )
       320        C      tau( 320) = (   0.0624610   0.0625658   0.3125318  )
       321        C      tau( 321) = (   0.0623144   0.0623456   0.5625149  )
       322        C      tau( 322) = (   0.0624400   0.0624132   0.8125176  )
       323        C      tau( 323) = (   0.0624597   0.3125040   0.0625965  )
       324        C      tau( 324) = (   0.0625444   0.3125568   0.3125871  )
       325        C      tau( 325) = (   0.0625328   0.3124927   0.5625449  )
       326        C      tau( 326) = (   0.0623684   0.3124315   0.8125612  )
       327        C      tau( 327) = (   0.0623158   0.5624847   0.0623810  )
       328        C      tau( 328) = (   0.0625328   0.5625135   0.3125253  )
       329        C      tau( 329) = (   0.0626466   0.5624227   0.5624561  )
       330        C      tau( 330) = (   0.0625160   0.5624161   0.8124319  )
       331        C      tau( 331) = (   0.0624420   0.8124888   0.0624451  )
       332        C      tau( 332) = (   0.0623712   0.8125287   0.3124635  )
       333        C      tau( 333) = (   0.0625165   0.8123984   0.5624472  )
       334        C      tau( 334) = (   0.0625378   0.8123770   0.8124086  )
       335        C      tau( 335) = (   0.3124330   0.0625211   0.0625557  )
       336        C      tau( 336) = (   0.3124372   0.0625632   0.3125353  )
       337        C      tau( 337) = (   0.3124293   0.0623911   0.5625616  )
       338        C      tau( 338) = (   0.3124089   0.0622295   0.8126027  )
       339        C      tau( 339) = (   0.3124366   0.3125036   0.0625956  )
       340        C      tau( 340) = (   0.3127664   0.3128528   0.3128905  )
       341        C      tau( 341) = (   0.3118828   0.3115450   0.5626027  )
       342        C      tau( 342) = (   0.3123582   0.3122284   0.8129205  )
       343        C      tau( 343) = (   0.3124318   0.5625271   0.0624291  )
       344        C      tau( 344) = (   0.3118838   0.5625642   0.3115823  )
       345        C      tau( 345) = (   0.3139391   0.5616976   0.5617340  )
       346        C      tau( 346) = (   0.3126796   0.5621872   0.8122458  )
       347        C      tau( 347) = (   0.3124127   0.8125647   0.0622731  )
       348        C      tau( 348) = (   0.3123617   0.8128805   0.3122692  )
       349        C      tau( 349) = (   0.3126801   0.8122074   0.5622237  )
       350        C      tau( 350) = (   0.3125479   0.8122450   0.8122833  )
       351        C      tau( 351) = (   0.5624687   0.0624505   0.0624794  )
       352        C      tau( 352) = (   0.5624539   0.0625334   0.3125318  )
       353        C      tau( 353) = (   0.5624536   0.0624470   0.5625669  )
       354        C      tau( 354) = (   0.5624590   0.0623285   0.8126080  )
       355        C      tau( 355) = (   0.5624537   0.3125033   0.0625623  )
       356        C      tau( 356) = (   0.5623995   0.3119875   0.3120217  )
       357        C      tau( 357) = (   0.5618463   0.3126822   0.5627216  )
       358        C      tau( 358) = (   0.5623165   0.3124090   0.8125541  )
       359        C      tau( 359) = (   0.5624555   0.5625365   0.0624785  )
       360        C      tau( 360) = (   0.5618480   0.5626840   0.3127194  )
       361        C      tau( 361) = (   0.5624620   0.5623570   0.8125239  )
       362        C      tau( 362) = (   0.5624611   0.8125753   0.0623634  )
       363        C      tau( 363) = (   0.5623186   0.8125223   0.3124415  )
       364        C      tau( 364) = (   0.5624625   0.8124920   0.5623887  )
       365        C      tau( 365) = (   0.5625165   0.8124382   0.8124680  )
       366        C      tau( 366) = (   0.8124743   0.0624898   0.0625151  )
       367        C      tau( 367) = (   0.8124817   0.0624746   0.3125164  )
       368        C      tau( 368) = (   0.8124583   0.0624713   0.5625336  )
       369        C      tau( 369) = (   0.8124487   0.0624840   0.8125062  )
       370        C      tau( 370) = (   0.8124811   0.3124916   0.0625011  )
       371        C      tau( 371) = (   0.8125664   0.3124766   0.3125053  )
       372        C      tau( 372) = (   0.8121568   0.3127101   0.5624848  )
       373        C      tau( 373) = (   0.8123666   0.3124975   0.8124662  )
       374        C      tau( 374) = (   0.8124582   0.5625077   0.0624999  )
       375        C      tau( 375) = (   0.8121558   0.5624512   0.3127452  )
       376        C      tau( 376) = (   0.8123872   0.5624779   0.5625098  )
       377        C      tau( 377) = (   0.8125092   0.5624974   0.8125400  )
       378        C      tau( 378) = (   0.8124489   0.8124798   0.0625117  )
       379        C      tau( 379) = (   0.8123652   0.8124364   0.3125269  )
       380        C      tau( 380) = (   0.8125086   0.8125117   0.5625241  )
       381        C      tau( 381) = (   0.8125209   0.8124826   0.8125086  )
       382        C      tau( 382) = (   0.0624976   0.1875460   0.1875743  )
       383        C      tau( 383) = (   0.0624771   0.1875238   0.4375691  )
       384        C      tau( 384) = (   0.0623692   0.1874174   0.6875584  )
       385        C      tau( 385) = (   0.0624288   0.1874576   0.9375550  )
       386        C      tau( 386) = (   0.0624769   0.4375393   0.1875555  )
       387        C      tau( 387) = (   0.0626184   0.4375209   0.4375530  )
       388        C      tau( 388) = (   0.0625494   0.4374434   0.6874870  )
       389        C      tau( 389) = (   0.0623144   0.4374816   0.9376013  )
       390        C      tau( 390) = (   0.0623717   0.6875272   0.1874518  )
       391        C      tau( 391) = (   0.0625497   0.6874544   0.4374757  )
       392        C      tau( 392) = (   0.0625948   0.6873753   0.6874085  )
       393        C      tau( 393) = (   0.0624922   0.6874425   0.9373842  )
       394        C      tau( 394) = (   0.0624312   0.9375253   0.1874868  )
       395        C      tau( 395) = (   0.0623164   0.9375679   0.4375115  )
       396        C      tau( 396) = (   0.0624916   0.9373495   0.6874717  )
       397        C      tau( 397) = (   0.0624654   0.9374425   0.9374715  )
       398        C      tau( 398) = (   0.3124914   0.1876298   0.1876617  )
       399        C      tau( 399) = (   0.3124504   0.1875143   0.4377101  )
       400        C      tau( 400) = (   0.3123797   0.1870939   0.6877430  )
       401        C      tau( 401) = (   0.3123927   0.1873434   0.9377162  )
       402        C      tau( 402) = (   0.3124521   0.4376733   0.1875500  )
       403        C      tau( 403) = (   0.3138685   0.4381372   0.4381741  )
       404        C      tau( 404) = (   0.3118308   0.4374212   0.6885944  )
       405        C      tau( 405) = (   0.3124350   0.4374214   0.9375493  )
       406        C      tau( 406) = (   0.3123837   0.6877023   0.1871375  )
       407        C      tau( 407) = (   0.3118316   0.6885578   0.4374591  )
       408        C      tau( 408) = (   0.3129430   0.6869766   0.6870146  )
       409        C      tau( 409) = (   0.3124944   0.6874122   0.9373347  )
       410        C      tau( 410) = (   0.3123965   0.9376782   0.1873826  )
       411        C      tau( 411) = (   0.3124362   0.9375147   0.4374548  )
       412        C      tau( 412) = (   0.3124936   0.9372938   0.6874461  )
       413        C      tau( 413) = (   0.3124453   0.9373800   0.9374172  )
       414        C      tau( 414) = (   0.5624542   0.1873741   0.1874034  )
       415        C      tau( 415) = (   0.5624046   0.1875080   0.4376617  )
       416        C      tau( 416) = (   0.5623468   0.1872817   0.6877639  )
       417        C      tau( 417) = (   0.5624476   0.1874174   0.9375973  )
       418        C      tau( 418) = (   0.5624060   0.4376287   0.1875404  )
       419        C      tau( 419) = (   0.5616418   0.4377870   0.6868737  )
       420        C      tau( 420) = (   0.5624624   0.4374360   0.9375442  )
       421        C      tau( 421) = (   0.5623509   0.6877270   0.1873195  )
       422        C      tau( 422) = (   0.5616442   0.6868415   0.4378205  )
       423        C      tau( 423) = (   0.5627301   0.6876357   0.6876700  )
       424        C      tau( 424) = (   0.5624744   0.6874573   0.9374442  )
       425        C      tau( 425) = (   0.5624491   0.9375671   0.1874483  )
       426        C      tau( 426) = (   0.5624629   0.9375147   0.4374652  )
       427        C      tau( 427) = (   0.5624737   0.9374128   0.6874862  )
       428        C      tau( 428) = (   0.5624821   0.9374372   0.9374680  )
       429        C      tau( 429) = (   0.8124833   0.1875033   0.1875287  )
       430        C      tau( 430) = (   0.8126396   0.1873230   0.4375637  )
       431        C      tau( 431) = (   0.8123429   0.1875549   0.6875069  )
       432        C      tau( 432) = (   0.8124481   0.1874841   0.9375047  )
       433        C      tau( 433) = (   0.8126382   0.4375352   0.1873539  )
       434        C      tau( 434) = (   0.8123363   0.4375154   0.4375489  )
       435        C      tau( 435) = (   0.8122618   0.4375563   0.6874494  )
       436        C      tau( 436) = (   0.8124413   0.4374868   0.9374882  )
       437        C      tau( 437) = (   0.8123413   0.6874771   0.1875869  )
       438        C      tau( 438) = (   0.8122604   0.6874176   0.4375887  )
       439        C      tau( 439) = (   0.8125882   0.6875303   0.6875588  )
       440        C      tau( 440) = (   0.8124986   0.6874912   0.9375001  )
       441        C      tau( 441) = (   0.8124484   0.9374780   0.1875102  )
       442        C      tau( 442) = (   0.8124412   0.9374608   0.4375121  )
       443        C      tau( 443) = (   0.8124979   0.9374727   0.6875164  )
       444        C      tau( 444) = (   0.8124818   0.9374783   0.9375040  )
       445        C      tau( 445) = (   0.1874427   0.1875069   0.0626214  )
       446        C      tau( 446) = (   0.1875612   0.1876353   0.3126315  )
       447        C      tau( 447) = (   0.1871305   0.1870854   0.5625780  )
       448        C      tau( 448) = (   0.1874053   0.1873646   0.8126011  )
       449        C      tau( 449) = (   0.1874132   0.4375140   0.0625085  )
       450        C      tau( 450) = (   0.1877445   0.4376634   0.3126339  )
       451        C      tau( 451) = (   0.1878452   0.4374331   0.5625206  )
       452        C      tau( 452) = (   0.1871294   0.4374153   0.8129097  )
       453        C      tau( 453) = (   0.1873973   0.6875206   0.0623238  )
       454        C      tau( 454) = (   0.1873942   0.6875993   0.3123935  )
       455        C      tau( 455) = (   0.1878136   0.6872972   0.5622820  )
       456        C      tau( 456) = (   0.1876562   0.6872946   0.8122583  )
       457        C      tau( 457) = (   0.1874347   0.9375025   0.0624521  )
       458        C      tau( 458) = (   0.1873713   0.9376333   0.3124503  )
       459        C      tau( 459) = (   0.1874840   0.9373787   0.5624562  )
       460        C      tau( 460) = (   0.1874719   0.9373141   0.8124424  )
       461        C      tau( 461) = (   0.4374475   0.1874880   0.0625881  )
       462        C      tau( 462) = (   0.4374433   0.1876009   0.3126746  )
       463        C      tau( 463) = (   0.4374218   0.1873743   0.5626973  )
       464        C      tau( 464) = (   0.4374872   0.1867727   0.8132220  )
       465        C      tau( 465) = (   0.4374441   0.4375202   0.0625347  )
       466        C      tau( 466) = (   0.4376751   0.4381672   0.3129663  )
       467        C      tau( 467) = (   0.4374327   0.4372746   0.8126127  )
       468        C      tau( 468) = (   0.4374380   0.6875599   0.0623584  )
       469        C      tau( 469) = (   0.4377349   0.6892570   0.3108444  )
       470        C      tau( 470) = (   0.4382861   0.6864986   0.5614772  )
       471        C      tau( 471) = (   0.4375703   0.6872363   0.8122423  )
       472        C      tau( 472) = (   0.4374694   0.9376398   0.0622982  )
       473        C      tau( 473) = (   0.4374348   0.9375990   0.3124241  )
       474        C      tau( 474) = (   0.4374629   0.9374289   0.5624647  )
       475        C      tau( 475) = (   0.4374746   0.9373123   0.8124404  )
       476        C      tau( 476) = (   0.6874856   0.1874797   0.0625116  )
       477        C      tau( 477) = (   0.6874941   0.1874229   0.3125262  )
       478        C      tau( 478) = (   0.6873759   0.1874698   0.5626215  )
       479        C      tau( 479) = (   0.6873993   0.1875066   0.8124928  )
       480        C      tau( 480) = (   0.6874637   0.4375170   0.0625183  )
       481        C      tau( 481) = (   0.6881060   0.4376390   0.3118358  )
       482        C      tau( 482) = (   0.6864180   0.4382573   0.5620038  )
       483        C      tau( 483) = (   0.6873722   0.4374647   0.8124589  )
       484        C      tau( 484) = (   0.6874721   0.6875291   0.0624509  )
       485        C      tau( 485) = (   0.6870921   0.6873593   0.3126989  )
       486        C      tau( 486) = (   0.6877153   0.6878482   0.5626974  )
       487        C      tau( 487) = (   0.6875498   0.6875254   0.8126045  )
       488        C      tau( 488) = (   0.6874698   0.9374787   0.0625027  )
       489        C      tau( 489) = (   0.6874638   0.9375099   0.3124983  )
       490        C      tau( 490) = (   0.6874725   0.9374785   0.5624978  )
       491        C      tau( 491) = (   0.6874984   0.9374598   0.8125195  )
       492        C      tau( 492) = (   0.9374671   0.1874967   0.0625347  )
       493        C      tau( 493) = (   0.9375132   0.1875114   0.3125342  )
       494        C      tau( 494) = (   0.9373862   0.1875538   0.5625253  )
       495        C      tau( 495) = (   0.9374031   0.1874696   0.8125185  )
       496        C      tau( 496) = (   0.9374659   0.4375114   0.0625012  )
       497        C      tau( 497) = (   0.9374594   0.4375268   0.3125658  )
       498        C      tau( 498) = (   0.9374556   0.4374938   0.5625127  )
       499        C      tau( 499) = (   0.9374156   0.4374812   0.8124576  )
       500        C      tau( 500) = (   0.9374196   0.6874865   0.0624932  )
       501        C      tau( 501) = (   0.9373944   0.6874754   0.3125426  )
       502        C      tau( 502) = (   0.9374987   0.6874315   0.5624826  )
       503        C      tau( 503) = (   0.9375276   0.6874565   0.8124655  )
       504        C      tau( 504) = (   0.9374597   0.9374863   0.0624977  )
       505        C      tau( 505) = (   0.9374179   0.9374884   0.3125071  )
       506        C      tau( 506) = (   0.9374427   0.9374259   0.5625006  )
       507        C      tau( 507) = (   0.9374885   0.9374471   0.8124895  )
       508        C      tau( 508) = (   0.5688550   0.4313095   0.4313437  )
       509        C      tau( 509) = (   0.4327806   0.4301505   0.5700764  )
       510        C      tau( 510) = (   0.4327818   0.5700424   0.4301850  )
       511        N      tau( 511) = (   0.5658991   0.5656769   0.5657093  )

   Crystallographic axes

     site n.     atom                  positions (cryst. coord.)
         1        C      tau(   1) = ( -0.0000369 -0.0000273 -0.0000006  )
         2        C      tau(   2) = ( -0.0000504  0.0000230  0.2500130  )
         3        C      tau(   3) = ( -0.0001470 -0.0000517  0.5000080  )
         4        C      tau(   4) = ( -0.0000316 -0.0000815  0.7499937  )
         5        C      tau(   5) = ( -0.0000516  0.2499866  0.0000512  )
         6        C      tau(   6) = (  0.0000240  0.2500396  0.2500671  )
         7        C      tau(   7) = ( -0.0000336  0.2500401  0.5000638  )
         8        C      tau(   8) = ( -0.0001275  0.2499462  0.7500457  )
         9        C      tau(   9) = ( -0.0001471  0.4999810 -0.0000200  )
        10        C      tau(  10) = ( -0.0000341  0.5000350  0.2500709  )
        11        C      tau(  11) = (  0.0000471  0.4999828  0.5000135  )
        12        C      tau(  12) = ( -0.0000038  0.4999350  0.7499486  )
        13        C      tau(  13) = ( -0.0000309  0.7499671 -0.0000508  )
        14        C      tau(  14) = ( -0.0001266  0.7500157  0.2499771  )
        15        C      tau(  15) = ( -0.0000038  0.7499181  0.4999641  )
        16        C      tau(  16) = (  0.0000527  0.7498958  0.7499254  )
        17        C      tau(  17) = (  0.2499417 -0.0000452 -0.0000115  )
        18        C      tau(  18) = (  0.2499064  0.0001192  0.2499678  )
        19        C      tau(  19) = (  0.2499556 -0.0000550  0.5000104  )
        20        C      tau(  20) = (  0.2499362 -0.0002320  0.7500188  )
        21        C      tau(  21) = (  0.2499038  0.2499336  0.0001546  )
        22        C      tau(  22) = (  0.2501499  0.2502401  0.2502741  )
        23        C      tau(  23) = (  0.2495821  0.2494828  0.5003675  )
        24        C      tau(  24) = (  0.2499109  0.2497998  0.7501781  )
        25        C      tau(  25) = (  0.2499561  0.4999786 -0.0000196  )
        26        C      tau(  26) = (  0.2495823  0.5003298  0.2495192  )
        27        C      tau(  27) = (  0.2509270  0.4999416  0.4999806  )
        28        C      tau(  28) = (  0.2496058  0.4995714  0.7505006  )
        29        C      tau(  29) = (  0.2499384  0.7499843 -0.0001897  )
        30        C      tau(  30) = (  0.2499152  0.7501376  0.2498424  )
        31        C      tau(  31) = (  0.2496055  0.7504626  0.4996092  )
        32        C      tau(  32) = (  0.2502708  0.7496217  0.7496609  )
        33        C      tau(  33) = (  0.4999468 -0.0000578 -0.0000243  )
        34        C      tau(  34) = (  0.4999623  0.0000659  0.2499920  )
        35        C      tau(  35) = (  0.4999691 -0.0000245  0.5000144  )
        36        C      tau(  36) = (  0.4999653 -0.0001512  0.7500250  )
        37        C      tau(  37) = (  0.4999614  0.2499614  0.0000968  )
        38        C      tau(  38) = (  0.4999445  0.2498149  0.2498477  )
        39        C      tau(  39) = (  0.4999217  0.2501851  0.5002171  )
        40        C      tau(  40) = (  0.4997171  0.2489584  0.7510581  )
        41        C      tau(  41) = (  0.4999699  0.4999846  0.0000067  )
        42        C      tau(  42) = (  0.4999234  0.5001791  0.2502226  )
        43        C      tau(  43) = (  0.4999866  0.4997786  0.7498228  )
        44        C      tau(  44) = (  0.4999671  0.7499925 -0.0001147  )
        45        C      tau(  45) = (  0.4997201  0.7510244  0.2489928  )
        46        C      tau(  46) = (  0.4999880  0.7497888  0.4998133  )
        47        C      tau(  47) = (  0.5000115  0.7498897  0.7499228  )
        48        C      tau(  48) = (  0.7499780 -0.0000173  0.0000090  )
        49        C      tau(  49) = (  0.7499787 -0.0000115  0.2500117  )
        50        C      tau(  50) = (  0.7499643 -0.0000213  0.5000167  )
        51        C      tau(  51) = (  0.7499816 -0.0000483  0.7500136  )
        52        C      tau(  52) = (  0.7499783  0.2499862  0.0000150  )
        53        C      tau(  53) = (  0.7499710  0.2500047  0.2500318  )
        54        C      tau(  54) = (  0.7501755  0.2496950  0.5000457  )
        55        C      tau(  55) = (  0.7497862  0.2501070  0.7499300  )
        56        C      tau(  56) = (  0.7499644  0.4999911  0.0000063  )
        57        C      tau(  57) = (  0.7501747  0.5000128  0.2497296  )
        58        C      tau(  58) = (  0.7495791  0.5000096  0.5000447  )
        59        C      tau(  59) = (  0.7499801  0.4999737  0.7501064  )
        60        C      tau(  60) = (  0.7499821  0.7499874 -0.0000205  )
        61        C      tau(  61) = (  0.7497839  0.7498975  0.2501402  )
        62        C      tau(  62) = (  0.7499790  0.7500756  0.5000042  )
        63        C      tau(  63) = (  0.7500229  0.7500016  0.7500291  )
        64        C      tau(  64) = ( -0.0000219  0.1250147  0.1250410  )
        65        C      tau(  65) = ( -0.0000205  0.1250317  0.3750374  )
        66        C      tau(  66) = ( -0.0001307  0.1249617  0.6250488  )
        67        C      tau(  67) = ( -0.0000659  0.1249526  0.8750240  )
        68        C      tau(  68) = ( -0.0000214  0.3750108  0.1250609  )
        69        C      tau(  69) = (  0.0000223  0.3750560  0.3750860  )
        70        C      tau(  70) = ( -0.0000189  0.3749832  0.6250139  )
        71        C      tau(  71) = ( -0.0001227  0.3749531  0.8750252  )
        72        C      tau(  72) = ( -0.0001301  0.6250204  0.1249942  )
        73        C      tau(  73) = ( -0.0000193  0.6249838  0.3750139  )
        74        C      tau(  74) = (  0.0000649  0.6249022  0.6249329  )
        75        C      tau(  75) = ( -0.0000008  0.6249478  0.8749186  )
        76        C      tau(  76) = ( -0.0000648  0.8749965  0.1249811  )
        77        C      tau(  77) = ( -0.0001214  0.8749947  0.3749813  )
        78        C      tau(  78) = ( -0.0000012  0.8748873  0.6249752  )
        79        C      tau(  79) = (  0.0000054  0.8749272  0.8749550  )
        80        C      tau(  80) = (  0.2499563  0.1250721  0.1251045  )
        81        C      tau(  81) = (  0.2500128  0.1250541  0.3751089  )
        82        C      tau(  82) = (  0.2498247  0.1247223  0.6251512  )
        83        C      tau(  83) = (  0.2499127  0.1248495  0.8750982  )
        84        C      tau(  84) = (  0.2500134  0.3750765  0.1250870  )
        85        C      tau(  85) = (  0.2507326  0.3754978  0.3755347  )
        86        C      tau(  86) = (  0.2499890  0.3747626  0.6252350  )
        87        C      tau(  87) = (  0.2498100  0.3748245  0.8752545  )
        88        C      tau(  88) = (  0.2498283  0.6251132  0.1247648  )
        89        C      tau(  89) = (  0.2499912  0.6251938  0.3748043  )
        90        C      tau(  90) = (  0.2508583  0.6243634  0.6244012  )
        91        C      tau(  91) = (  0.2501668  0.6248573  0.8747684  )
        92        C      tau(  92) = (  0.2499163  0.8750621  0.1248888  )
        93        C      tau(  93) = (  0.2498132  0.8752153  0.3748626  )
        94        C      tau(  94) = (  0.2501670  0.8747282  0.6248924  )
        95        C      tau(  95) = (  0.2499904  0.8748226  0.8748595  )
        96        C      tau(  96) = (  0.4999730  0.1249408  0.1249706  )
        97        C      tau(  97) = (  0.4999732  0.1250495  0.3750936  )
        98        C      tau(  98) = (  0.4999188  0.1248804  0.6251095  )
        99        C      tau(  99) = (  0.4998907  0.1245761  0.8753940  )
       100        C      tau( 100) = (  0.4999737  0.3750627  0.1250807  )
       101        C      tau( 101) = (  0.4998895  0.3755549  0.3755928  )
       102        C      tau( 102) = (  0.4983816  0.3743276  0.6256486  )
       103        C      tau( 103) = (  0.4999415  0.3749200  0.8750751  )
       104        C      tau( 104) = (  0.4999227  0.6250735  0.1249179  )
       105        C      tau( 105) = (  0.4983835  0.6256143  0.3743624  )
       106        C      tau( 106) = (  0.5016088  0.6239620  0.6239959  )
       107        C      tau( 107) = (  0.5000087  0.6248864  0.8749229  )
       108        C      tau( 108) = (  0.4998927  0.8753593  0.1246124  )
       109        C      tau( 109) = (  0.4999433  0.8750429  0.3749530  )
       110        C      tau( 110) = (  0.5000084  0.8748899  0.6249176  )
       111        C      tau( 111) = (  0.4999851  0.8749060  0.8749388  )
       112        C      tau( 112) = (  0.7499846  0.1249975  0.1250228  )
       113        C      tau( 113) = (  0.7500141  0.1249422  0.3750274  )
       114        C      tau( 114) = (  0.7498983  0.1249773  0.6250374  )
       115        C      tau( 115) = (  0.7499430  0.1250012  0.8749922  )
       116        C      tau( 116) = (  0.7500135  0.3750010  0.1249702  )
       117        C      tau( 117) = (  0.7500455  0.3749442  0.3749763  )
       118        C      tau( 118) = (  0.7492242  0.3754719  0.6249479  )
       119        C      tau( 119) = (  0.7499009  0.3749861  0.8749806  )
       120        C      tau( 120) = (  0.7498983  0.6250086  0.1250078  )
       121        C      tau( 121) = (  0.7492254  0.6249139  0.3755063  )
       122        C      tau( 122) = (  0.7500932  0.6250811  0.6251132  )
       123        C      tau( 123) = (  0.7500091  0.6249881  0.8750382  )
       124        C      tau( 124) = (  0.7499429  0.8749645  0.1250293  )
       125        C      tau( 125) = (  0.7499003  0.8749523  0.3750138  )
       126        C      tau( 126) = (  0.7500082  0.8750101  0.6250141  )
       127        C      tau( 127) = (  0.7499988  0.8749700  0.8749962  )
       128        C      tau( 128) = (  0.1249456  0.0000287  0.1250005  )
       129        C      tau( 129) = (  0.1248924  0.0000552  0.3749963  )
       130        C      tau( 130) = (  0.1249354 -0.0001621  0.6250183  )
       131        C      tau( 131) = (  0.1249584 -0.0001070  0.8749874  )
       132        C      tau( 132) = (  0.1250033  0.2500471  0.1251323  )
       133        C      tau( 133) = (  0.1251036  0.2501488  0.3751371  )
       134        C      tau( 134) = (  0.1248641  0.2498438  0.6251221  )
       135        C      tau( 135) = (  0.1248987  0.2499153  0.8750850  )
       136        C      tau( 136) = (  0.1247608  0.5000782  0.1248235  )
       137        C      tau( 137) = (  0.1252084  0.5000752  0.3750840  )
       138        C      tau( 138) = (  0.1252393  0.4998555  0.6249084  )
       139        C      tau( 139) = (  0.1247793  0.4998703  0.8751668  )
       140        C      tau( 140) = (  0.1249117  0.7500261  0.1249135  )
       141        C      tau( 141) = (  0.1248728  0.7501017  0.3749017  )
       142        C      tau( 142) = (  0.1251714  0.7497400  0.6248494  )
       143        C      tau( 143) = (  0.1250605  0.7498665  0.8748280  )
       144        C      tau( 144) = (  0.3749263  0.0000918  0.1249402  )
       145        C      tau( 145) = (  0.3749588  0.0000458  0.3749996  )
       146        C      tau( 146) = (  0.3749648 -0.0001392  0.6250192  )
       147        C      tau( 147) = (  0.3749379 -0.0002047  0.8750279  )
       148        C      tau( 148) = (  0.3749716  0.2500847  0.1251218  )
       149        C      tau( 149) = (  0.3752226  0.2503287  0.3754784  )
       150        C      tau( 150) = (  0.3748834  0.2494933  0.6254740  )
       151        C      tau( 151) = (  0.3748741  0.2496808  0.8753572  )
       152        C      tau( 152) = (  0.3749768  0.5000983  0.1250094  )
       153        C      tau( 153) = (  0.3761499  0.5014090  0.3755085  )
       154        C      tau( 154) = (  0.3761751  0.4981723  0.6244492  )
       155        C      tau( 155) = (  0.3750378  0.4998532  0.8749571  )
       156        C      tau( 156) = (  0.3748888  0.7502451  0.1246661  )
       157        C      tau( 157) = (  0.3748526  0.7505204  0.3745369  )
       158        C      tau( 158) = (  0.3756139  0.7492278  0.6245853  )
       159        C      tau( 159) = (  0.3750284  0.7498026  0.8747849  )
       160        C      tau( 160) = (  0.6249903  0.0000010  0.1250048  )
       161        C      tau( 161) = (  0.6249722  0.0000167  0.3750146  )
       162        C      tau( 162) = (  0.6249712 -0.0000582  0.6250139  )
       163        C      tau( 163) = (  0.6249883 -0.0000807  0.8750144  )
       164        C      tau( 164) = (  0.6249793  0.2499656  0.1249917  )
       165        C      tau( 165) = (  0.6249694  0.2498673  0.3750450  )
       166        C      tau( 166) = (  0.6245909  0.2501383  0.6249365  )
       167        C      tau( 167) = (  0.6249609  0.2500420  0.8750214  )
       168        C      tau( 168) = (  0.6249346  0.5000275  0.1250211  )
       169        C      tau( 169) = (  0.6242505  0.4997221  0.3753221  )
       170        C      tau( 170) = (  0.6240118  0.5016147  0.6243838  )
       171        C      tau( 171) = (  0.6249551  0.4999540  0.8750121  )
       172        C      tau( 172) = (  0.6249426  0.7500113  0.1249126  )
       173        C      tau( 173) = (  0.6247242  0.7495614  0.3754094  )
       174        C      tau( 174) = (  0.6250562  0.7501737  0.6250553  )
       175        C      tau( 175) = (  0.6250021  0.7499821  0.8750064  )
       176        C      tau( 176) = (  0.8749658 -0.0000115  0.1250126  )
       177        C      tau( 177) = (  0.8749508 -0.0000225  0.3750126  )
       178        C      tau( 178) = (  0.8749557 -0.0000449  0.6250148  )
       179        C      tau( 179) = (  0.8749728 -0.0000279  0.8749991  )
       180        C      tau( 180) = (  0.8749838  0.2500056  0.1250338  )
       181        C      tau( 181) = (  0.8750327  0.2499672  0.3750360  )
       182        C      tau( 182) = (  0.8747759  0.2501494  0.6250436  )
       183        C      tau( 183) = (  0.8749052  0.2499860  0.8749960  )
       184        C      tau( 184) = (  0.8750212  0.4999933  0.1249541  )
       185        C      tau( 185) = (  0.8748456  0.5000114  0.3751003  )
       186        C      tau( 186) = (  0.8748966  0.4999845  0.6249791  )
       187        C      tau( 187) = (  0.8749599  0.4999817  0.8749894  )
       188        C      tau( 188) = (  0.8748986  0.7499779  0.1250329  )
       189        C      tau( 189) = (  0.8748391  0.7499106  0.3750269  )
       190        C      tau( 190) = (  0.8750304  0.7499734  0.6249980  )
       191        C      tau( 191) = (  0.8750090  0.7499633  0.8749776  )
       192        C      tau( 192) = (  0.1249442  0.1249707  0.0000587  )
       193        C      tau( 193) = (  0.1250039  0.1251013  0.2500762  )
       194        C      tau( 194) = (  0.1247591  0.1247875  0.5001109  )
       195        C      tau( 195) = (  0.1249088  0.1248772  0.7500580  )
       196        C      tau( 196) = (  0.1248906  0.3749661  0.0000885  )
       197        C      tau( 197) = (  0.1251035  0.3751053  0.2501814  )
       198        C      tau( 198) = (  0.1252086  0.3750498  0.5001095  )
       199        C      tau( 199) = (  0.1248699  0.3748661  0.7501378  )
       200        C      tau( 200) = (  0.1249368  0.6249876 -0.0001244  )
       201        C      tau( 201) = (  0.1248669  0.6250873  0.2498809  )
       202        C      tau( 202) = (  0.1252390  0.6248725  0.4998911  )
       203        C      tau( 203) = (  0.1251714  0.6248146  0.7497771  )
       204        C      tau( 204) = (  0.1249596  0.8749576 -0.0000743  )
       205        C      tau( 205) = (  0.1249019  0.8750519  0.2499484  )
       206        C      tau( 206) = (  0.1247813  0.8751303  0.4999034  )
       207        C      tau( 207) = (  0.1250602  0.8747915  0.7498985  )
       208        C      tau( 208) = (  0.3749247  0.1249040  0.0001275  )
       209        C      tau( 209) = (  0.3749719  0.1250900  0.2501160  )
       210        C      tau( 210) = (  0.3749744  0.1249736  0.5001339  )
       211        C      tau( 211) = (  0.3748854  0.1246229  0.7502846  )
       212        C      tau( 212) = (  0.3749582  0.3749679  0.0000784  )
       213        C      tau( 213) = (  0.3752232  0.3754407  0.2503662  )
       214        C      tau( 214) = (  0.3761485  0.3754717  0.5014459  )
       215        C      tau( 215) = (  0.3748503  0.3744991  0.7505570  )
       216        C      tau( 216) = (  0.3749669  0.6249858 -0.0001007  )
       217        C      tau( 217) = (  0.3748864  0.6254353  0.2495323  )
       218        C      tau( 218) = (  0.3761761  0.6244139  0.4982084  )
       219        C      tau( 219) = (  0.3756141  0.6245490  0.7492645  )
       220        C      tau( 220) = (  0.3749394  0.8749917 -0.0001642  )
       221        C      tau( 221) = (  0.3748771  0.8753183  0.2497206  )
       222        C      tau( 222) = (  0.3750382  0.8749222  0.4998877  )
       223        C      tau( 223) = (  0.3750280  0.8747455  0.7498380  )
       224        C      tau( 224) = (  0.6249900  0.1249770  0.0000289  )
       225        C      tau( 225) = (  0.6249797  0.1249638  0.2499930  )
       226        C      tau( 226) = (  0.6249335  0.1249904  0.5000577  )
       227        C      tau( 227) = (  0.6249406  0.1248792  0.7500435  )
       228        C      tau( 228) = (  0.6249719  0.3749872  0.0000448  )
       229        C      tau( 229) = (  0.6249698  0.3750128  0.2498999  )
       230        C      tau( 230) = (  0.6242480  0.3752870  0.4997578  )
       231        C      tau( 231) = (  0.6247226  0.3753767  0.7495934  )
       232        C      tau( 232) = (  0.6249723  0.6249860 -0.0000284  )
       233        C      tau( 233) = (  0.6245922  0.6248995  0.2501756  )
       234        C      tau( 234) = (  0.6240131  0.6243513  0.5016473  )
       235        C      tau( 235) = (  0.6250568  0.6250233  0.7502071  )
       236        C      tau( 236) = (  0.6249887  0.8749851 -0.0000504  )
       237        C      tau( 237) = (  0.6249617  0.8749920  0.2500723  )
       238        C      tau( 238) = (  0.6249549  0.8749827  0.4999829  )
       239        C      tau( 239) = (  0.6250018  0.8749772  0.7500099  )
       240        C      tau( 240) = (  0.8749655  0.1249873  0.0000143  )
       241        C      tau( 241) = (  0.8749843  0.1250079  0.2500305  )
       242        C      tau( 242) = (  0.8750225  0.1249244  0.5000198  )
       243        C      tau( 243) = (  0.8748993  0.1250031  0.7500056  )
       244        C      tau( 244) = (  0.8749502  0.3749878  0.0000049  )
       245        C      tau( 245) = (  0.8750324  0.3750082  0.2499960  )
       246        C      tau( 246) = (  0.8748461  0.3750671  0.5000434  )
       247        C      tau( 247) = (  0.8748410  0.3749965  0.7499409  )
       248        C      tau( 248) = (  0.8749561  0.6249895 -0.0000164  )
       249        C      tau( 249) = (  0.8747735  0.6250124  0.2501829  )
       250        C      tau( 250) = (  0.8748961  0.6249485  0.5000154  )
       251        C      tau( 251) = (  0.8750309  0.6249707  0.7500016  )
       252        C      tau( 252) = (  0.8749730  0.8749734 -0.0000013  )
       253        C      tau( 253) = (  0.8749048  0.8749677  0.2500133  )
       254        C      tau( 254) = (  0.8749592  0.8749613  0.5000075  )
       255        C      tau( 255) = (  0.8750086  0.8749507  0.7499888  )
       256        C      tau( 256) = (  0.1874443  0.0625887  0.1875382  )
       257        C      tau( 257) = (  0.1874127  0.0624747  0.4375453  )
       258        C      tau( 258) = (  0.1873939  0.0622823  0.6875552  )
       259        C      tau( 259) = (  0.1874323  0.0624179  0.9375351  )
       260        C      tau( 260) = (  0.1875615  0.3126000  0.1876680  )
       261        C      tau( 261) = (  0.1877447  0.3125982  0.4376996  )
       262        C      tau( 262) = (  0.1873904  0.3123527  0.6876390  )
       263        C      tau( 263) = (  0.1873676  0.3124155  0.9376697  )
       264        C      tau( 264) = (  0.1871319  0.5625408  0.1871241  )
       265        C      tau( 265) = (  0.1878450  0.5624817  0.4374720  )
       266        C      tau( 266) = (  0.1878138  0.5622442  0.6873358  )
       267        C      tau( 267) = (  0.1874834  0.5624240  0.9374159  )
       268        C      tau( 268) = (  0.1874096  0.8125649  0.1874035  )
       269        C      tau( 269) = (  0.1871311  0.8128714  0.4374527  )
       270        C      tau( 270) = (  0.1876565  0.8122189  0.6873306  )
       271        C      tau( 271) = (  0.1874731  0.8124090  0.9373521  )
       272        C      tau( 272) = (  0.4374482  0.0625568  0.1875192  )
       273        C      tau( 273) = (  0.4374431  0.0625028  0.4375515  )
       274        C      tau( 274) = (  0.4374344  0.0623184  0.6875956  )
       275        C      tau( 275) = (  0.4374672  0.0622596  0.9376762  )
       276        C      tau( 276) = (  0.4374440  0.3126418  0.1876335  )
       277        C      tau( 277) = (  0.4376742  0.3129278  0.4382058  )
       278        C      tau( 278) = (  0.4377322  0.3108085  0.6892920  )
       279        C      tau( 279) = (  0.4374328  0.3123903  0.9376325  )
       280        C      tau( 280) = (  0.4374254  0.5626586  0.1874128  )
       281        C      tau( 281) = (  0.4382854  0.5614421  0.6865332  )
       282        C      tau( 282) = (  0.4374632  0.5624334  0.9374626  )
       283        C      tau( 283) = (  0.4374903  0.8131871  0.1868092  )
       284        C      tau( 284) = (  0.4374347  0.8125780  0.4373109  )
       285        C      tau( 285) = (  0.4375704  0.8122059  0.6872704  )
       286        C      tau( 286) = (  0.4374757  0.8124069  0.9373498  )
       287        C      tau( 287) = (  0.6874859  0.0624852  0.1875056  )
       288        C      tau( 288) = (  0.6874635  0.0624904  0.4375438  )
       289        C      tau( 289) = (  0.6874710  0.0624210  0.6875574  )
       290        C      tau( 290) = (  0.6874696  0.0624752  0.9375060  )
       291        C      tau( 291) = (  0.6874938  0.3124983  0.1874512  )
       292        C      tau( 292) = (  0.6881050  0.3118030  0.4376726  )
       293        C      tau( 293) = (  0.6870918  0.3126632  0.6873946  )
       294        C      tau( 294) = (  0.6874633  0.3124712  0.9375374  )
       295        C      tau( 295) = (  0.6873770  0.5625894  0.1875024  )
       296        C      tau( 296) = (  0.6864197  0.5619697  0.4382914  )
       297        C      tau( 297) = (  0.6877152  0.5626642  0.6878811  )
       298        C      tau( 298) = (  0.6874729  0.5624713  0.9375066  )
       299        C      tau( 299) = (  0.6873995  0.8124626  0.1875376  )
       300        C      tau( 300) = (  0.6873720  0.8124290  0.4374945  )
       301        C      tau( 301) = (  0.6875493  0.8125750  0.6875533  )
       302        C      tau( 302) = (  0.6874987  0.8124927  0.9374876  )
       303        C      tau( 303) = (  0.9374677  0.0625084  0.1875220  )
       304        C      tau( 304) = (  0.9374669  0.0624720  0.4375371  )
       305        C      tau( 305) = (  0.9374191  0.0624632  0.6875130  )
       306        C      tau( 306) = (  0.9374591  0.0624714  0.9375123  )
       307        C      tau( 307) = (  0.9375127  0.3125079  0.1875388  )
       308        C      tau( 308) = (  0.9374597  0.3125356  0.4375559  )
       309        C      tau( 309) = (  0.9373956  0.3125119  0.6875051  )
       310        C      tau( 310) = (  0.9374169  0.3124809  0.9375168  )
       311        C      tau( 311) = (  0.9373848  0.5624971  0.1875851  )
       312        C      tau( 312) = (  0.9374554  0.5624827  0.4375245  )
       313        C      tau( 313) = (  0.9374988  0.5624535  0.6874609  )
       314        C      tau( 314) = (  0.9374431  0.5624747  0.9374555  )
       315        C      tau( 315) = (  0.9374038  0.8124906  0.1874982  )
       316        C      tau( 316) = (  0.9374152  0.8124282  0.4375090  )
       317        C      tau( 317) = (  0.9375273  0.8124368  0.6874835  )
       318        C      tau( 318) = (  0.9374889  0.8124635  0.9374747  )
       319        C      tau( 319) = (  0.0624524  0.0624962  0.0625242  )
       320        C      tau( 320) = (  0.0624610  0.0625658  0.3125318  )
       321        C      tau( 321) = (  0.0623144  0.0623456  0.5625149  )
       322        C      tau( 322) = (  0.0624400  0.0624132  0.8125176  )
       323        C      tau( 323) = (  0.0624597  0.3125040  0.0625965  )
       324        C      tau( 324) = (  0.0625444  0.3125568  0.3125871  )
       325        C      tau( 325) = (  0.0625328  0.3124927  0.5625449  )
       326        C      tau( 326) = (  0.0623684  0.3124315  0.8125612  )
       327        C      tau( 327) = (  0.0623158  0.5624847  0.0623810  )
       328        C      tau( 328) = (  0.0625328  0.5625135  0.3125253  )
       329        C      tau( 329) = (  0.0626466  0.5624227  0.5624561  )
       330        C      tau( 330) = (  0.0625160  0.5624161  0.8124319  )
       331        C      tau( 331) = (  0.0624420  0.8124888  0.0624451  )
       332        C      tau( 332) = (  0.0623712  0.8125287  0.3124635  )
       333        C      tau( 333) = (  0.0625165  0.8123984  0.5624472  )
       334        C      tau( 334) = (  0.0625378  0.8123770  0.8124086  )
       335        C      tau( 335) = (  0.3124330  0.0625211  0.0625557  )
       336        C      tau( 336) = (  0.3124372  0.0625632  0.3125353  )
       337        C      tau( 337) = (  0.3124293  0.0623911  0.5625616  )
       338        C      tau( 338) = (  0.3124089  0.0622295  0.8126027  )
       339        C      tau( 339) = (  0.3124366  0.3125036  0.0625956  )
       340        C      tau( 340) = (  0.3127664  0.3128528  0.3128905  )
       341        C      tau( 341) = (  0.3118828  0.3115450  0.5626027  )
       342        C      tau( 342) = (  0.3123582  0.3122284  0.8129205  )
       343        C      tau( 343) = (  0.3124318  0.5625271  0.0624291  )
       344        C      tau( 344) = (  0.3118838  0.5625642  0.3115823  )
       345        C      tau( 345) = (  0.3139391  0.5616976  0.5617340  )
       346        C      tau( 346) = (  0.3126796  0.5621872  0.8122458  )
       347        C      tau( 347) = (  0.3124127  0.8125647  0.0622731  )
       348        C      tau( 348) = (  0.3123617  0.8128805  0.3122692  )
       349        C      tau( 349) = (  0.3126801  0.8122074  0.5622237  )
       350        C      tau( 350) = (  0.3125479  0.8122450  0.8122833  )
       351        C      tau( 351) = (  0.5624687  0.0624505  0.0624794  )
       352        C      tau( 352) = (  0.5624539  0.0625334  0.3125318  )
       353        C      tau( 353) = (  0.5624536  0.0624470  0.5625669  )
       354        C      tau( 354) = (  0.5624590  0.0623285  0.8126080  )
       355        C      tau( 355) = (  0.5624537  0.3125033  0.0625623  )
       356        C      tau( 356) = (  0.5623995  0.3119875  0.3120217  )
       357        C      tau( 357) = (  0.5618463  0.3126822  0.5627216  )
       358        C      tau( 358) = (  0.5623165  0.3124090  0.8125541  )
       359        C      tau( 359) = (  0.5624555  0.5625365  0.0624785  )
       360        C      tau( 360) = (  0.5618480  0.5626840  0.3127194  )
       361        C      tau( 361) = (  0.5624620  0.5623570  0.8125239  )
       362        C      tau( 362) = (  0.5624611  0.8125753  0.0623634  )
       363        C      tau( 363) = (  0.5623186  0.8125223  0.3124415  )
       364        C      tau( 364) = (  0.5624625  0.8124920  0.5623887  )
       365        C      tau( 365) = (  0.5625165  0.8124382  0.8124680  )
       366        C      tau( 366) = (  0.8124743  0.0624898  0.0625151  )
       367        C      tau( 367) = (  0.8124817  0.0624746  0.3125164  )
       368        C      tau( 368) = (  0.8124583  0.0624713  0.5625336  )
       369        C      tau( 369) = (  0.8124487  0.0624840  0.8125062  )
       370        C      tau( 370) = (  0.8124811  0.3124916  0.0625011  )
       371        C      tau( 371) = (  0.8125664  0.3124766  0.3125053  )
       372        C      tau( 372) = (  0.8121568  0.3127101  0.5624848  )
       373        C      tau( 373) = (  0.8123666  0.3124975  0.8124662  )
       374        C      tau( 374) = (  0.8124582  0.5625077  0.0624999  )
       375        C      tau( 375) = (  0.8121558  0.5624512  0.3127452  )
       376        C      tau( 376) = (  0.8123872  0.5624779  0.5625098  )
       377        C      tau( 377) = (  0.8125092  0.5624974  0.8125400  )
       378        C      tau( 378) = (  0.8124489  0.8124798  0.0625117  )
       379        C      tau( 379) = (  0.8123652  0.8124364  0.3125269  )
       380        C      tau( 380) = (  0.8125086  0.8125117  0.5625241  )
       381        C      tau( 381) = (  0.8125209  0.8124826  0.8125086  )
       382        C      tau( 382) = (  0.0624976  0.1875460  0.1875743  )
       383        C      tau( 383) = (  0.0624771  0.1875238  0.4375691  )
       384        C      tau( 384) = (  0.0623692  0.1874174  0.6875584  )
       385        C      tau( 385) = (  0.0624288  0.1874576  0.9375550  )
       386        C      tau( 386) = (  0.0624769  0.4375393  0.1875555  )
       387        C      tau( 387) = (  0.0626184  0.4375209  0.4375530  )
       388        C      tau( 388) = (  0.0625494  0.4374434  0.6874870  )
       389        C      tau( 389) = (  0.0623144  0.4374816  0.9376013  )
       390        C      tau( 390) = (  0.0623717  0.6875272  0.1874518  )
       391        C      tau( 391) = (  0.0625497  0.6874544  0.4374757  )
       392        C      tau( 392) = (  0.0625948  0.6873753  0.6874085  )
       393        C      tau( 393) = (  0.0624922  0.6874425  0.9373842  )
       394        C      tau( 394) = (  0.0624312  0.9375253  0.1874868  )
       395        C      tau( 395) = (  0.0623164  0.9375679  0.4375115  )
       396        C      tau( 396) = (  0.0624916  0.9373495  0.6874717  )
       397        C      tau( 397) = (  0.0624654  0.9374425  0.9374715  )
       398        C      tau( 398) = (  0.3124914  0.1876298  0.1876617  )
       399        C      tau( 399) = (  0.3124504  0.1875143  0.4377101  )
       400        C      tau( 400) = (  0.3123797  0.1870939  0.6877430  )
       401        C      tau( 401) = (  0.3123927  0.1873434  0.9377162  )
       402        C      tau( 402) = (  0.3124521  0.4376733  0.1875500  )
       403        C      tau( 403) = (  0.3138685  0.4381372  0.4381741  )
       404        C      tau( 404) = (  0.3118308  0.4374212  0.6885944  )
       405        C      tau( 405) = (  0.3124350  0.4374214  0.9375493  )
       406        C      tau( 406) = (  0.3123837  0.6877023  0.1871375  )
       407        C      tau( 407) = (  0.3118316  0.6885578  0.4374591  )
       408        C      tau( 408) = (  0.3129430  0.6869766  0.6870146  )
       409        C      tau( 409) = (  0.3124944  0.6874122  0.9373347  )
       410        C      tau( 410) = (  0.3123965  0.9376782  0.1873826  )
       411        C      tau( 411) = (  0.3124362  0.9375147  0.4374548  )
       412        C      tau( 412) = (  0.3124936  0.9372938  0.6874461  )
       413        C      tau( 413) = (  0.3124453  0.9373800  0.9374172  )
       414        C      tau( 414) = (  0.5624542  0.1873741  0.1874034  )
       415        C      tau( 415) = (  0.5624046  0.1875080  0.4376617  )
       416        C      tau( 416) = (  0.5623468  0.1872817  0.6877639  )
       417        C      tau( 417) = (  0.5624476  0.1874174  0.9375973  )
       418        C      tau( 418) = (  0.5624060  0.4376287  0.1875404  )
       419        C      tau( 419) = (  0.5616418  0.4377870  0.6868737  )
       420        C      tau( 420) = (  0.5624624  0.4374360  0.9375442  )
       421        C      tau( 421) = (  0.5623509  0.6877270  0.1873195  )
       422        C      tau( 422) = (  0.5616442  0.6868415  0.4378205  )
       423        C      tau( 423) = (  0.5627301  0.6876357  0.6876700  )
       424        C      tau( 424) = (  0.5624744  0.6874573  0.9374442  )
       425        C      tau( 425) = (  0.5624491  0.9375671  0.1874483  )
       426        C      tau( 426) = (  0.5624629  0.9375147  0.4374652  )
       427        C      tau( 427) = (  0.5624737  0.9374128  0.6874862  )
       428        C      tau( 428) = (  0.5624821  0.9374372  0.9374680  )
       429        C      tau( 429) = (  0.8124833  0.1875033  0.1875287  )
       430        C      tau( 430) = (  0.8126396  0.1873230  0.4375637  )
       431        C      tau( 431) = (  0.8123429  0.1875549  0.6875069  )
       432        C      tau( 432) = (  0.8124481  0.1874841  0.9375047  )
       433        C      tau( 433) = (  0.8126382  0.4375352  0.1873539  )
       434        C      tau( 434) = (  0.8123363  0.4375154  0.4375489  )
       435        C      tau( 435) = (  0.8122618  0.4375563  0.6874494  )
       436        C      tau( 436) = (  0.8124413  0.4374868  0.9374882  )
       437        C      tau( 437) = (  0.8123413  0.6874771  0.1875869  )
       438        C      tau( 438) = (  0.8122604  0.6874176  0.4375887  )
       439        C      tau( 439) = (  0.8125882  0.6875303  0.6875588  )
       440        C      tau( 440) = (  0.8124986  0.6874912  0.9375001  )
       441        C      tau( 441) = (  0.8124484  0.9374780  0.1875102  )
       442        C      tau( 442) = (  0.8124412  0.9374608  0.4375121  )
       443        C      tau( 443) = (  0.8124979  0.9374727  0.6875164  )
       444        C      tau( 444) = (  0.8124818  0.9374783  0.9375040  )
       445        C      tau( 445) = (  0.1874427  0.1875069  0.0626214  )
       446        C      tau( 446) = (  0.1875612  0.1876353  0.3126315  )
       447        C      tau( 447) = (  0.1871305  0.1870854  0.5625780  )
       448        C      tau( 448) = (  0.1874053  0.1873646  0.8126011  )
       449        C      tau( 449) = (  0.1874132  0.4375140  0.0625085  )
       450        C      tau( 450) = (  0.1877445  0.4376634  0.3126339  )
       451        C      tau( 451) = (  0.1878452  0.4374331  0.5625206  )
       452        C      tau( 452) = (  0.1871294  0.4374153  0.8129097  )
       453        C      tau( 453) = (  0.1873973  0.6875206  0.0623238  )
       454        C      tau( 454) = (  0.1873942  0.6875993  0.3123935  )
       455        C      tau( 455) = (  0.1878136  0.6872972  0.5622820  )
       456        C      tau( 456) = (  0.1876562  0.6872946  0.8122583  )
       457        C      tau( 457) = (  0.1874347  0.9375025  0.0624521  )
       458        C      tau( 458) = (  0.1873713  0.9376333  0.3124503  )
       459        C      tau( 459) = (  0.1874840  0.9373787  0.5624562  )
       460        C      tau( 460) = (  0.1874719  0.9373141  0.8124424  )
       461        C      tau( 461) = (  0.4374475  0.1874880  0.0625881  )
       462        C      tau( 462) = (  0.4374433  0.1876009  0.3126746  )
       463        C      tau( 463) = (  0.4374218  0.1873743  0.5626973  )
       464        C      tau( 464) = (  0.4374872  0.1867727  0.8132220  )
       465        C      tau( 465) = (  0.4374441  0.4375202  0.0625347  )
       466        C      tau( 466) = (  0.4376751  0.4381672  0.3129663  )
       467        C      tau( 467) = (  0.4374327  0.4372746  0.8126127  )
       468        C      tau( 468) = (  0.4374380  0.6875599  0.0623584  )
       469        C      tau( 469) = (  0.4377349  0.6892570  0.3108444  )
       470        C      tau( 470) = (  0.4382861  0.6864986  0.5614772  )
       471        C      tau( 471) = (  0.4375703  0.6872363  0.8122423  )
       472        C      tau( 472) = (  0.4374694  0.9376398  0.0622982  )
       473        C      tau( 473) = (  0.4374348  0.9375990  0.3124241  )
       474        C      tau( 474) = (  0.4374629  0.9374289  0.5624647  )
       475        C      tau( 475) = (  0.4374746  0.9373123  0.8124404  )
       476        C      tau( 476) = (  0.6874856  0.1874797  0.0625116  )
       477        C      tau( 477) = (  0.6874941  0.1874229  0.3125262  )
       478        C      tau( 478) = (  0.6873759  0.1874698  0.5626215  )
       479        C      tau( 479) = (  0.6873993  0.1875066  0.8124928  )
       480        C      tau( 480) = (  0.6874637  0.4375170  0.0625183  )
       481        C      tau( 481) = (  0.6881060  0.4376390  0.3118358  )
       482        C      tau( 482) = (  0.6864180  0.4382573  0.5620038  )
       483        C      tau( 483) = (  0.6873722  0.4374647  0.8124589  )
       484        C      tau( 484) = (  0.6874721  0.6875291  0.0624509  )
       485        C      tau( 485) = (  0.6870921  0.6873593  0.3126989  )
       486        C      tau( 486) = (  0.6877153  0.6878482  0.5626974  )
       487        C      tau( 487) = (  0.6875498  0.6875254  0.8126045  )
       488        C      tau( 488) = (  0.6874698  0.9374787  0.0625027  )
       489        C      tau( 489) = (  0.6874638  0.9375099  0.3124983  )
       490        C      tau( 490) = (  0.6874725  0.9374785  0.5624978  )
       491        C      tau( 491) = (  0.6874984  0.9374598  0.8125195  )
       492        C      tau( 492) = (  0.9374671  0.1874967  0.0625347  )
       493        C      tau( 493) = (  0.9375132  0.1875114  0.3125342  )
       494        C      tau( 494) = (  0.9373862  0.1875538  0.5625253  )
       495        C      tau( 495) = (  0.9374031  0.1874696  0.8125185  )
       496        C      tau( 496) = (  0.9374659  0.4375114  0.0625012  )
       497        C      tau( 497) = (  0.9374594  0.4375268  0.3125658  )
       498        C      tau( 498) = (  0.9374556  0.4374938  0.5625127  )
       499        C      tau( 499) = (  0.9374156  0.4374812  0.8124576  )
       500        C      tau( 500) = (  0.9374196  0.6874865  0.0624932  )
       501        C      tau( 501) = (  0.9373944  0.6874754  0.3125426  )
       502        C      tau( 502) = (  0.9374987  0.6874315  0.5624826  )
       503        C      tau( 503) = (  0.9375276  0.6874565  0.8124655  )
       504        C      tau( 504) = (  0.9374597  0.9374863  0.0624977  )
       505        C      tau( 505) = (  0.9374179  0.9374884  0.3125071  )
       506        C      tau( 506) = (  0.9374427  0.9374259  0.5625006  )
       507        C      tau( 507) = (  0.9374885  0.9374471  0.8124895  )
       508        C      tau( 508) = (  0.5688550  0.4313095  0.4313437  )
       509        C      tau( 509) = (  0.4327806  0.4301505  0.5700764  )
       510        C      tau( 510) = (  0.4327818  0.5700424  0.4301850  )
       511        N      tau( 511) = (  0.5658991  0.5656769  0.5657093  )

     number of k points=     1
                       cart. coord. in units 2pi/alat
        k(    1) = (   0.0000000   0.0000000   0.0000000), wk =   1.0000000

                       cryst. coord.
        k(    1) = (   0.0000000   0.0000000   0.0000000), wk =   1.0000000

     Dense  grid:   948261 G-vectors     FFT dimensions: ( 160, 160, 160)

     Dynamical RAM for                 wfc:      38.88 MB

     Dynamical RAM for     wfc (w. buffer):      38.88 MB

     Dynamical RAM for           str. fact:       0.60 MB

     Dynamical RAM for           local pot:       0.00 MB

     Dynamical RAM for          nlocal pot:     154.01 MB

     Dynamical RAM for                qrad:       0.82 MB

     Dynamical RAM for          rho,v,vnew:       6.50 MB

     Dynamical RAM for               rhoin:       2.17 MB

     Dynamical RAM for            rho*nmix:       9.65 MB

     Dynamical RAM for           G-vectors:       1.28 MB

     Dynamical RAM for          h,s,v(r/c):       2.71 MB

     Dynamical RAM for          <psi|beta>:      32.19 MB

     Dynamical RAM for                 psi:      77.76 MB

     Dynamical RAM for                hpsi:      77.76 MB

     Dynamical RAM for      wfcinit/wfcrot:     102.14 MB

     Estimated static dynamical RAM per process >     209.85 MB

     Estimated max dynamical RAM per process >     409.91 MB

     Estimated total dynamical RAM >      37.98 GB
     Generating pointlists ...
     new r_m :   0.0423 (alat units)  1.1404 (a.u.) for type    1
     new r_m :   0.0431 (alat units)  1.1628 (a.u.) for type    2

     Initial potential from superposition of free atoms

     starting charge    2041.4445, renormalised to    2046.0000
     Starting wfcs are random

     total cpu time spent up to now is       18.4 secs

     Self-consistent Calculation

     iteration #  1     ecut=    80.00 Ry     beta= 0.70
     Davidson diagonalization with overlap

---- Real-time Memory Report at c_bands before calling an iterative solver
           513 MiB given to the printing process from OS
             0 MiB allocation reported by mallinfo(arena+hblkhd)
        124296 MiB available memory on the node where the printing process lives
------------------
     ethr =  1.00E-02,  avg # of iterations = 13.0

     total cpu time spent up to now is      144.5 secs

     total energy              =   -5823.98844528 Ry
     estimated scf accuracy    <      29.04577053 Ry

     total magnetization       =     2.00 Bohr mag/cell
     absolute magnetization    =     2.00 Bohr mag/cell

     iteration #  2     ecut=    80.00 Ry     beta= 0.70
     Davidson diagonalization with overlap

---- Real-time Memory Report at c_bands before calling an iterative solver
           631 MiB given to the printing process from OS
             0 MiB allocation reported by mallinfo(arena+hblkhd)
        122781 MiB available memory on the node where the printing process lives
------------------
     ethr =  1.42E-03,  avg # of iterations = 14.0

     total cpu time spent up to now is      194.7 secs

     total energy              =   -5828.13460157 Ry
     estimated scf accuracy    <       1.24314403 Ry

     total magnetization       =     2.00 Bohr mag/cell
     absolute magnetization    =     2.08 Bohr mag/cell

     iteration #  3     ecut=    80.00 Ry     beta= 0.70
     Davidson diagonalization with overlap

---- Real-time Memory Report at c_bands before calling an iterative solver
           652 MiB given to the printing process from OS
             0 MiB allocation reported by mallinfo(arena+hblkhd)
        122630 MiB available memory on the node where the printing process lives
------------------
     c_bands:  1 eigenvalues not converged
     ethr =  6.08E-05,  avg # of iterations = 20.0

     total cpu time spent up to now is      252.7 secs

     total energy              =   -5827.93940623 Ry
     estimated scf accuracy    <       5.35810529 Ry

     total magnetization       =     2.00 Bohr mag/cell
     absolute magnetization    =     2.24 Bohr mag/cell

     iteration #  4     ecut=    80.00 Ry     beta= 0.70
     Davidson diagonalization with overlap

---- Real-time Memory Report at c_bands before calling an iterative solver
           659 MiB given to the printing process from OS
             0 MiB allocation reported by mallinfo(arena+hblkhd)
        122627 MiB available memory on the node where the printing process lives
------------------
     c_bands:  1 eigenvalues not converged
     ethr =  6.08E-05,  avg # of iterations = 20.0

     total cpu time spent up to now is      285.1 secs

     total energy              =   -5829.05351218 Ry
     estimated scf accuracy    <       0.17533163 Ry

     total magnetization       =     2.00 Bohr mag/cell
     absolute magnetization    =     2.16 Bohr mag/cell

     iteration #  5     ecut=    80.00 Ry     beta= 0.70
     Davidson diagonalization with overlap

---- Real-time Memory Report at c_bands before calling an iterative solver
           659 MiB given to the printing process from OS
             0 MiB allocation reported by mallinfo(arena+hblkhd)
        122626 MiB available memory on the node where the printing process lives
------------------
     c_bands:  1 eigenvalues not converged
     ethr =  8.57E-06,  avg # of iterations = 20.0

     total cpu time spent up to now is      331.2 secs

     total energy              =   -5829.07282823 Ry
     estimated scf accuracy    <       0.05567382 Ry

     total magnetization       =     2.00 Bohr mag/cell
     absolute magnetization    =     2.19 Bohr mag/cell

     iteration #  6     ecut=    80.00 Ry     beta= 0.70
     Davidson diagonalization with overlap

---- Real-time Memory Report at c_bands before calling an iterative solver
           659 MiB given to the printing process from OS
             0 MiB allocation reported by mallinfo(arena+hblkhd)
        122625 MiB available memory on the node where the printing process lives
------------------
     c_bands:  1 eigenvalues not converged
     ethr =  2.72E-06,  avg # of iterations = 20.0

     total cpu time spent up to now is      376.0 secs

     total energy              =   -5829.08313708 Ry
     estimated scf accuracy    <       0.00435839 Ry

     total magnetization       =     2.00 Bohr mag/cell
     absolute magnetization    =     2.22 Bohr mag/cell

     iteration #  7     ecut=    80.00 Ry     beta= 0.70
     Davidson diagonalization with overlap

---- Real-time Memory Report at c_bands before calling an iterative solver
           659 MiB given to the printing process from OS
             0 MiB allocation reported by mallinfo(arena+hblkhd)
        122626 MiB available memory on the node where the printing process lives
------------------
     c_bands:  1 eigenvalues not converged
     ethr =  2.13E-07,  avg # of iterations = 19.5

     total cpu time spent up to now is      411.4 secs

     total energy              =   -5829.08475560 Ry
     estimated scf accuracy    <       0.00053025 Ry

     total magnetization       =     2.00 Bohr mag/cell
     absolute magnetization    =     2.24 Bohr mag/cell

     iteration #  8     ecut=    80.00 Ry     beta= 0.70
     Davidson diagonalization with overlap

---- Real-time Memory Report at c_bands before calling an iterative solver
           659 MiB given to the printing process from OS
             0 MiB allocation reported by mallinfo(arena+hblkhd)
        122434 MiB available memory on the node where the printing process lives
------------------
     c_bands:  2 eigenvalues not converged
     ethr =  2.59E-08,  avg # of iterations = 20.0

     total cpu time spent up to now is      440.8 secs

     total energy              =   -5829.08505832 Ry
     estimated scf accuracy    <       0.00035425 Ry

     total magnetization       =     2.00 Bohr mag/cell
     absolute magnetization    =     2.26 Bohr mag/cell

     iteration #  9     ecut=    80.00 Ry     beta= 0.70
     Davidson diagonalization with overlap

---- Real-time Memory Report at c_bands before calling an iterative solver
           663 MiB given to the printing process from OS
             0 MiB allocation reported by mallinfo(arena+hblkhd)
        122241 MiB available memory on the node where the printing process lives
------------------
     c_bands:  1 eigenvalues not converged
     ethr =  1.73E-08,  avg # of iterations = 20.0

     total cpu time spent up to now is      469.8 secs

     total energy              =   -5829.08517055 Ry
     estimated scf accuracy    <       0.00009335 Ry

     total magnetization       =     2.00 Bohr mag/cell
     absolute magnetization    =     2.27 Bohr mag/cell

     iteration # 10     ecut=    80.00 Ry     beta= 0.70
     Davidson diagonalization with overlap

---- Real-time Memory Report at c_bands before calling an iterative solver
           667 MiB given to the printing process from OS
             0 MiB allocation reported by mallinfo(arena+hblkhd)
        122240 MiB available memory on the node where the printing process lives
------------------
     c_bands:  1 eigenvalues not converged
     ethr =  4.56E-09,  avg # of iterations = 20.0

     total cpu time spent up to now is      500.1 secs

     total energy              =   -5829.08519935 Ry
     estimated scf accuracy    <       0.00002907 Ry

     total magnetization       =     2.00 Bohr mag/cell
     absolute magnetization    =     2.28 Bohr mag/cell

     iteration # 11     ecut=    80.00 Ry     beta= 0.70
     Davidson diagonalization with overlap

---- Real-time Memory Report at c_bands before calling an iterative solver
           667 MiB given to the printing process from OS
             0 MiB allocation reported by mallinfo(arena+hblkhd)
        122241 MiB available memory on the node where the printing process lives
------------------
     c_bands:  2 eigenvalues not converged
     ethr =  1.42E-09,  avg # of iterations = 20.0

     total cpu time spent up to now is      535.5 secs

     total energy              =   -5829.08520750 Ry
     estimated scf accuracy    <       0.00000849 Ry

     total magnetization       =     2.00 Bohr mag/cell
     absolute magnetization    =     2.29 Bohr mag/cell

     iteration # 12     ecut=    80.00 Ry     beta= 0.70
     Davidson diagonalization with overlap

---- Real-time Memory Report at c_bands before calling an iterative solver
           667 MiB given to the printing process from OS
             0 MiB allocation reported by mallinfo(arena+hblkhd)
        122241 MiB available memory on the node where the printing process lives
------------------
     c_bands:  1 eigenvalues not converged
     ethr =  4.15E-10,  avg # of iterations = 20.0

     total cpu time spent up to now is      562.9 secs

     total energy              =   -5829.08521040 Ry
     estimated scf accuracy    <       0.00000116 Ry

     total magnetization       =     2.00 Bohr mag/cell
     absolute magnetization    =     2.29 Bohr mag/cell

     iteration # 13     ecut=    80.00 Ry     beta= 0.70
     Davidson diagonalization with overlap

---- Real-time Memory Report at c_bands before calling an iterative solver
           667 MiB given to the printing process from OS
             0 MiB allocation reported by mallinfo(arena+hblkhd)
        122181 MiB available memory on the node where the printing process lives
------------------
     c_bands:  1 eigenvalues not converged
     ethr =  5.69E-11,  avg # of iterations = 20.0

     total cpu time spent up to now is      592.2 secs

     total energy              =   -5829.08521099 Ry
     estimated scf accuracy    <       0.00000027 Ry

     total magnetization       =     2.00 Bohr mag/cell
     absolute magnetization    =     2.30 Bohr mag/cell

     iteration # 14     ecut=    80.00 Ry     beta= 0.70
     Davidson diagonalization with overlap

---- Real-time Memory Report at c_bands before calling an iterative solver
           667 MiB given to the printing process from OS
             0 MiB allocation reported by mallinfo(arena+hblkhd)
        122117 MiB available memory on the node where the printing process lives
------------------
     ethr =  1.30E-11,  avg # of iterations = 15.5

     total cpu time spent up to now is      617.7 secs

     total energy              =   -5829.08521111 Ry
     estimated scf accuracy    <       0.00000013 Ry

     total magnetization       =     2.00 Bohr mag/cell
     absolute magnetization    =     2.30 Bohr mag/cell

     iteration # 15     ecut=    80.00 Ry     beta= 0.70
     Davidson diagonalization with overlap

---- Real-time Memory Report at c_bands before calling an iterative solver
           668 MiB given to the printing process from OS
             0 MiB allocation reported by mallinfo(arena+hblkhd)
        122116 MiB available memory on the node where the printing process lives
------------------
     ethr =  6.30E-12,  avg # of iterations = 20.0

     total cpu time spent up to now is      647.4 secs

     total energy              =   -5829.08521115 Ry
     estimated scf accuracy    <       0.00000006 Ry

     total magnetization       =     2.00 Bohr mag/cell
     absolute magnetization    =     2.30 Bohr mag/cell

     iteration # 16     ecut=    80.00 Ry     beta= 0.70
     Davidson diagonalization with overlap

---- Real-time Memory Report at c_bands before calling an iterative solver
           668 MiB given to the printing process from OS
             0 MiB allocation reported by mallinfo(arena+hblkhd)
        122117 MiB available memory on the node where the printing process lives
------------------
     c_bands:  1 eigenvalues not converged
     ethr =  3.04E-12,  avg # of iterations = 20.0

     total cpu time spent up to now is      674.6 secs

     total energy              =   -5829.08521118 Ry
     estimated scf accuracy    <          6.1E-09 Ry

     total magnetization       =     2.00 Bohr mag/cell
     absolute magnetization    =     2.30 Bohr mag/cell

     iteration # 17     ecut=    80.00 Ry     beta= 0.70
     Davidson diagonalization with overlap

---- Real-time Memory Report at c_bands before calling an iterative solver
           668 MiB given to the printing process from OS
             0 MiB allocation reported by mallinfo(arena+hblkhd)
        122117 MiB available memory on the node where the printing process lives
------------------
     ethr =  2.99E-13,  avg # of iterations = 17.0

     total cpu time spent up to now is      707.4 secs

     total energy              =   -5829.08521118 Ry
     estimated scf accuracy    <          2.9E-09 Ry

     total magnetization       =     2.00 Bohr mag/cell
     absolute magnetization    =     2.30 Bohr mag/cell

     iteration # 18     ecut=    80.00 Ry     beta= 0.70
     Davidson diagonalization with overlap

---- Real-time Memory Report at c_bands before calling an iterative solver
           668 MiB given to the printing process from OS
             0 MiB allocation reported by mallinfo(arena+hblkhd)
        121861 MiB available memory on the node where the printing process lives
------------------
     ethr =  1.41E-13,  avg # of iterations = 13.0

     total cpu time spent up to now is      731.6 secs

     total energy              =   -5829.08521118 Ry
     estimated scf accuracy    <          6.7E-10 Ry

     total magnetization       =     2.00 Bohr mag/cell
     absolute magnetization    =     2.30 Bohr mag/cell

     iteration # 19     ecut=    80.00 Ry     beta= 0.70
     Davidson diagonalization with overlap

---- Real-time Memory Report at c_bands before calling an iterative solver
           675 MiB given to the printing process from OS
             0 MiB allocation reported by mallinfo(arena+hblkhd)
        121860 MiB available memory on the node where the printing process lives
------------------
     ethr =  1.00E-13,  avg # of iterations = 17.0

     total cpu time spent up to now is      767.4 secs

     total energy              =   -5829.08521118 Ry
     estimated scf accuracy    <          8.5E-10 Ry

     total magnetization       =     2.00 Bohr mag/cell
     absolute magnetization    =     2.30 Bohr mag/cell

     iteration # 20     ecut=    80.00 Ry     beta= 0.70
     Davidson diagonalization with overlap

---- Real-time Memory Report at c_bands before calling an iterative solver
           675 MiB given to the printing process from OS
             0 MiB allocation reported by mallinfo(arena+hblkhd)
        121860 MiB available memory on the node where the printing process lives
------------------
     ethr =  1.00E-13,  avg # of iterations = 12.0

     total cpu time spent up to now is      784.9 secs

     total energy              =   -5829.08521118 Ry
     estimated scf accuracy    <          1.2E-10 Ry

     total magnetization       =     2.00 Bohr mag/cell
     absolute magnetization    =     2.30 Bohr mag/cell

     iteration # 21     ecut=    80.00 Ry     beta= 0.70
     Davidson diagonalization with overlap

---- Real-time Memory Report at c_bands before calling an iterative solver
           675 MiB given to the printing process from OS
             0 MiB allocation reported by mallinfo(arena+hblkhd)
        121860 MiB available memory on the node where the printing process lives
------------------
     ethr =  1.00E-13,  avg # of iterations =  6.0
 
     Magnetic moment per site  (integrated on atomic sphere of radius R)
     atom   1 (R=0.042)  charge=  1.7775  magn= -0.0000
     atom   2 (R=0.042)  charge=  1.7775  magn= -0.0000
     atom   3 (R=0.042)  charge=  1.7793  magn=  0.0002
     atom   4 (R=0.042)  charge=  1.7774  magn=  0.0000
     atom   5 (R=0.042)  charge=  1.7775  magn= -0.0000
     atom   6 (R=0.042)  charge=  1.7777  magn= -0.0000
     atom   7 (R=0.042)  charge=  1.7775  magn= -0.0000
     atom   8 (R=0.042)  charge=  1.7778  magn= -0.0000
     atom   9 (R=0.042)  charge=  1.7793  magn=  0.0002
     atom  10 (R=0.042)  charge=  1.7775  magn= -0.0000
     atom  11 (R=0.042)  charge=  1.7772  magn= -0.0000
     atom  12 (R=0.042)  charge=  1.7776  magn=  0.0000
     atom  13 (R=0.042)  charge=  1.7774  magn=  0.0000
     atom  14 (R=0.042)  charge=  1.7778  magn= -0.0000
     atom  15 (R=0.042)  charge=  1.7776  magn=  0.0000
     atom  16 (R=0.042)  charge=  1.7777  magn= -0.0000
     atom  17 (R=0.042)  charge=  1.7774  magn= -0.0000
     atom  18 (R=0.042)  charge=  1.7781  magn= -0.0000
     atom  19 (R=0.042)  charge=  1.7778  magn= -0.0000
     atom  20 (R=0.042)  charge=  1.7780  magn= -0.0000
     atom  21 (R=0.042)  charge=  1.7782  magn= -0.0000
     atom  22 (R=0.042)  charge=  1.7766  magn= -0.0001
     atom  23 (R=0.042)  charge=  1.7819  magn=  0.0019
     atom  24 (R=0.042)  charge=  1.7774  magn= -0.0001
     atom  25 (R=0.042)  charge=  1.7778  magn= -0.0000
     atom  26 (R=0.042)  charge=  1.7818  magn=  0.0019
     atom  27 (R=0.042)  charge=  1.7795  magn= -0.0009
     atom  28 (R=0.042)  charge=  1.7828  magn=  0.0030
     atom  29 (R=0.042)  charge=  1.7780  magn= -0.0000
     atom  30 (R=0.042)  charge=  1.7773  magn= -0.0001
     atom  31 (R=0.042)  charge=  1.7827  magn=  0.0030
     atom  32 (R=0.042)  charge=  1.7765  magn=  0.0000
     atom  33 (R=0.042)  charge=  1.7799  magn=  0.0002
     atom  34 (R=0.042)  charge=  1.7779  magn=  0.0000
     atom  35 (R=0.042)  charge=  1.7776  magn= -0.0001
     atom  36 (R=0.042)  charge=  1.7781  magn=  0.0000
     atom  37 (R=0.042)  charge=  1.7780  magn= -0.0000
     atom  38 (R=0.042)  charge=  1.7803  magn=  0.0020
     atom  39 (R=0.042)  charge=  1.7788  magn= -0.0010
     atom  40 (R=0.042)  charge=  1.7867  magn=  0.0029
     atom  41 (R=0.042)  charge=  1.7776  magn= -0.0001
     atom  42 (R=0.042)  charge=  1.7788  magn= -0.0010
     atom  43 (R=0.042)  charge=  1.7807  magn= -0.0006
     atom  44 (R=0.042)  charge=  1.7781  magn=  0.0000
     atom  45 (R=0.042)  charge=  1.7866  magn=  0.0029
     atom  46 (R=0.042)  charge=  1.7807  magn= -0.0006
     atom  47 (R=0.042)  charge=  1.7787  magn=  0.0001
     atom  48 (R=0.042)  charge=  1.7776  magn=  0.0000
     atom  49 (R=0.042)  charge=  1.7778  magn= -0.0000
     atom  50 (R=0.042)  charge=  1.7778  magn=  0.0000
     atom  51 (R=0.042)  charge=  1.7780  magn= -0.0000
     atom  52 (R=0.042)  charge=  1.7779  magn= -0.0000
     atom  53 (R=0.042)  charge=  1.7771  magn= -0.0001
     atom  54 (R=0.042)  charge=  1.7813  magn=  0.0031
     atom  55 (R=0.042)  charge=  1.7768  magn=  0.0000
     atom  56 (R=0.042)  charge=  1.7778  magn=  0.0000
     atom  57 (R=0.042)  charge=  1.7812  magn=  0.0031
     atom  58 (R=0.042)  charge=  1.7794  magn= -0.0006
     atom  59 (R=0.042)  charge=  1.7791  magn=  0.0001
     atom  60 (R=0.042)  charge=  1.7780  magn= -0.0000
     atom  61 (R=0.042)  charge=  1.7769  magn=  0.0000
     atom  62 (R=0.042)  charge=  1.7790  magn=  0.0001
     atom  63 (R=0.042)  charge=  1.7776  magn= -0.0000
     atom  64 (R=0.042)  charge=  1.7775  magn= -0.0000
     atom  65 (R=0.042)  charge=  1.7777  magn= -0.0000
     atom  66 (R=0.042)  charge=  1.7777  magn= -0.0000
     atom  67 (R=0.042)  charge=  1.7776  magn= -0.0000
     atom  68 (R=0.042)  charge=  1.7778  magn= -0.0000
     atom  69 (R=0.042)  charge=  1.7773  magn=  0.0000
     atom  70 (R=0.042)  charge=  1.7774  magn=  0.0000
     atom  71 (R=0.042)  charge=  1.7779  magn= -0.0000
     atom  72 (R=0.042)  charge=  1.7776  magn= -0.0000
     atom  73 (R=0.042)  charge=  1.7774  magn=  0.0000
     atom  74 (R=0.042)  charge=  1.7775  magn= -0.0000
     atom  75 (R=0.042)  charge=  1.7778  magn= -0.0000
     atom  76 (R=0.042)  charge=  1.7775  magn= -0.0000
     atom  77 (R=0.042)  charge=  1.7778  magn= -0.0000
     atom  78 (R=0.042)  charge=  1.7779  magn= -0.0000
     atom  79 (R=0.042)  charge=  1.7774  magn=  0.0000
     atom  80 (R=0.042)  charge=  1.7776  magn= -0.0000
     atom  81 (R=0.042)  charge=  1.7775  magn=  0.0000
     atom  82 (R=0.042)  charge=  1.7782  magn= -0.0001
     atom  83 (R=0.042)  charge=  1.7778  magn= -0.0000
     atom  84 (R=0.042)  charge=  1.7775  magn=  0.0000
     atom  85 (R=0.042)  charge=  1.7730  magn= -0.0004
     atom  86 (R=0.042)  charge=  1.7764  magn= -0.0011
     atom  87 (R=0.042)  charge=  1.7785  magn= -0.0001
     atom  88 (R=0.042)  charge=  1.7782  magn= -0.0001
     atom  89 (R=0.042)  charge=  1.7763  magn= -0.0011
     atom  90 (R=0.042)  charge=  1.7731  magn= -0.0007
     atom  91 (R=0.042)  charge=  1.7769  magn= -0.0000
     atom  92 (R=0.042)  charge=  1.7777  magn= -0.0000
     atom  93 (R=0.042)  charge=  1.7784  magn= -0.0001
     atom  94 (R=0.042)  charge=  1.7769  magn= -0.0000
     atom  95 (R=0.042)  charge=  1.7776  magn=  0.0000
     atom  96 (R=0.042)  charge=  1.7786  magn=  0.0004
     atom  97 (R=0.042)  charge=  1.7775  magn= -0.0001
     atom  98 (R=0.042)  charge=  1.7780  magn= -0.0001
     atom  99 (R=0.042)  charge=  1.7811  magn=  0.0005
     atom 100 (R=0.042)  charge=  1.7775  magn= -0.0001
     atom 101 (R=0.042)  charge=  1.7792  magn= -0.0085
     atom 102 (R=0.042)  charge=  1.7956  magn= -0.0052
     atom 103 (R=0.042)  charge=  1.7782  magn= -0.0001
     atom 104 (R=0.042)  charge=  1.7780  magn= -0.0001
     atom 105 (R=0.042)  charge=  1.7955  magn= -0.0052
     atom 106 (R=0.042)  charge=  1.7479  magn=  0.0010
     atom 107 (R=0.042)  charge=  1.7779  magn= -0.0000
     atom 108 (R=0.042)  charge=  1.7811  magn=  0.0005
     atom 109 (R=0.042)  charge=  1.7782  magn= -0.0001
     atom 110 (R=0.042)  charge=  1.7779  magn= -0.0000
     atom 111 (R=0.042)  charge=  1.7783  magn=  0.0000
     atom 112 (R=0.042)  charge=  1.7777  magn= -0.0000
     atom 113 (R=0.042)  charge=  1.7777  magn= -0.0001
     atom 114 (R=0.042)  charge=  1.7778  magn= -0.0000
     atom 115 (R=0.042)  charge=  1.7775  magn=  0.0000
     atom 116 (R=0.042)  charge=  1.7777  magn= -0.0001
     atom 117 (R=0.042)  charge=  1.7762  magn= -0.0010
     atom 118 (R=0.042)  charge=  1.7731  magn= -0.0002
     atom 119 (R=0.042)  charge=  1.7776  magn=  0.0000
     atom 120 (R=0.042)  charge=  1.7778  magn= -0.0000
     atom 121 (R=0.042)  charge=  1.7732  magn= -0.0002
     atom 122 (R=0.042)  charge=  1.7777  magn= -0.0000
     atom 123 (R=0.042)  charge=  1.7780  magn= -0.0000
     atom 124 (R=0.042)  charge=  1.7775  magn=  0.0000
     atom 125 (R=0.042)  charge=  1.7776  magn=  0.0000
     atom 126 (R=0.042)  charge=  1.7780  magn= -0.0000
     atom 127 (R=0.042)  charge=  1.7779  magn=  0.0000
     atom 128 (R=0.042)  charge=  1.7775  magn= -0.0000
     atom 129 (R=0.042)  charge=  1.7781  magn= -0.0000
     atom 130 (R=0.042)  charge=  1.7778  magn= -0.0000
     atom 131 (R=0.042)  charge=  1.7775  magn= -0.0000
     atom 132 (R=0.042)  charge=  1.7775  magn= -0.0000
     atom 133 (R=0.042)  charge=  1.7769  magn=  0.0000
     atom 134 (R=0.042)  charge=  1.7779  magn= -0.0001
     atom 135 (R=0.042)  charge=  1.7777  magn= -0.0000
     atom 136 (R=0.042)  charge=  1.7794  magn=  0.0004
     atom 137 (R=0.042)  charge=  1.7774  magn= -0.0001
     atom 138 (R=0.042)  charge=  1.7775  magn= -0.0001
     atom 139 (R=0.042)  charge=  1.7797  magn=  0.0005
     atom 140 (R=0.042)  charge=  1.7776  magn= -0.0000
     atom 141 (R=0.042)  charge=  1.7779  magn= -0.0001
     atom 142 (R=0.042)  charge=  1.7771  magn= -0.0000
     atom 143 (R=0.042)  charge=  1.7773  magn=  0.0000
     atom 144 (R=0.042)  charge=  1.7782  magn= -0.0000
     atom 145 (R=0.042)  charge=  1.7777  magn=  0.0000
     atom 146 (R=0.042)  charge=  1.7779  magn=  0.0000
     atom 147 (R=0.042)  charge=  1.7782  magn= -0.0000
     atom 148 (R=0.042)  charge=  1.7775  magn=  0.0000
     atom 149 (R=0.042)  charge=  1.7754  magn= -0.0005
     atom 150 (R=0.042)  charge=  1.7770  magn= -0.0011
     atom 151 (R=0.042)  charge=  1.7786  magn= -0.0001
     atom 152 (R=0.042)  charge=  1.7777  magn= -0.0001
     atom 153 (R=0.042)  charge=  1.7813  magn= -0.0081
     atom 154 (R=0.042)  charge=  1.7842  magn= -0.0053
     atom 155 (R=0.042)  charge=  1.7781  magn= -0.0000
     atom 156 (R=0.042)  charge=  1.7784  magn= -0.0001
     atom 157 (R=0.042)  charge=  1.7778  magn= -0.0011
     atom 158 (R=0.042)  charge=  1.7731  magn= -0.0002
     atom 159 (R=0.042)  charge=  1.7775  magn=  0.0000
     atom 160 (R=0.042)  charge=  1.7780  magn= -0.0000
     atom 161 (R=0.042)  charge=  1.7777  magn=  0.0000
     atom 162 (R=0.042)  charge=  1.7778  magn= -0.0000
     atom 163 (R=0.042)  charge=  1.7784  magn= -0.0000
     atom 164 (R=0.042)  charge=  1.7777  magn= -0.0001
     atom 165 (R=0.042)  charge=  1.7763  magn= -0.0010
     atom 166 (R=0.042)  charge=  1.7760  magn= -0.0007
     atom 167 (R=0.042)  charge=  1.7773  magn= -0.0000
     atom 168 (R=0.042)  charge=  1.7776  magn= -0.0001
     atom 169 (R=0.042)  charge=  1.7803  magn= -0.0054
     atom 170 (R=0.042)  charge=  1.7476  magn=  0.0010
     atom 171 (R=0.042)  charge=  1.7779  magn= -0.0000
     atom 172 (R=0.042)  charge=  1.7782  magn= -0.0000
     atom 173 (R=0.042)  charge=  1.7737  magn= -0.0002
     atom 174 (R=0.042)  charge=  1.7784  magn= -0.0000
     atom 175 (R=0.042)  charge=  1.7781  magn= -0.0000
     atom 176 (R=0.042)  charge=  1.7775  magn= -0.0000
     atom 177 (R=0.042)  charge=  1.7778  magn= -0.0000
     atom 178 (R=0.042)  charge=  1.7779  magn=  0.0000
     atom 179 (R=0.042)  charge=  1.7775  magn= -0.0000
     atom 180 (R=0.042)  charge=  1.7776  magn= -0.0000
     atom 181 (R=0.042)  charge=  1.7776  magn= -0.0001
     atom 182 (R=0.042)  charge=  1.7768  magn= -0.0000
     atom 183 (R=0.042)  charge=  1.7776  magn=  0.0000
     atom 184 (R=0.042)  charge=  1.7788  magn=  0.0005
     atom 185 (R=0.042)  charge=  1.7775  magn= -0.0000
     atom 186 (R=0.042)  charge=  1.7774  magn= -0.0000
     atom 187 (R=0.042)  charge=  1.7782  magn=  0.0000
     atom 188 (R=0.042)  charge=  1.7775  magn=  0.0000
     atom 189 (R=0.042)  charge=  1.7773  magn=  0.0000
     atom 190 (R=0.042)  charge=  1.7778  magn= -0.0000
     atom 191 (R=0.042)  charge=  1.7777  magn=  0.0000
     atom 192 (R=0.042)  charge=  1.7775  magn= -0.0000
     atom 193 (R=0.042)  charge=  1.7775  magn= -0.0000
     atom 194 (R=0.042)  charge=  1.7794  magn=  0.0004
     atom 195 (R=0.042)  charge=  1.7777  magn= -0.0000
     atom 196 (R=0.042)  charge=  1.7781  magn= -0.0000
     atom 197 (R=0.042)  charge=  1.7769  magn=  0.0000
     atom 198 (R=0.042)  charge=  1.7774  magn= -0.0001
     atom 199 (R=0.042)  charge=  1.7779  magn= -0.0001
     atom 200 (R=0.042)  charge=  1.7778  magn= -0.0000
     atom 201 (R=0.042)  charge=  1.7778  magn= -0.0001
     atom 202 (R=0.042)  charge=  1.7775  magn= -0.0001
     atom 203 (R=0.042)  charge=  1.7771  magn= -0.0000
     atom 204 (R=0.042)  charge=  1.7774  magn= -0.0000
     atom 205 (R=0.042)  charge=  1.7777  magn= -0.0000
     atom 206 (R=0.042)  charge=  1.7797  magn=  0.0005
     atom 207 (R=0.042)  charge=  1.7773  magn=  0.0000
     atom 208 (R=0.042)  charge=  1.7783  magn= -0.0000
     atom 209 (R=0.042)  charge=  1.7775  magn=  0.0000
     atom 210 (R=0.042)  charge=  1.7778  magn= -0.0001
     atom 211 (R=0.042)  charge=  1.7784  magn= -0.0001
     atom 212 (R=0.042)  charge=  1.7778  magn=  0.0000
     atom 213 (R=0.042)  charge=  1.7753  magn= -0.0005
     atom 214 (R=0.042)  charge=  1.7814  magn= -0.0081
     atom 215 (R=0.042)  charge=  1.7778  magn= -0.0011
     atom 216 (R=0.042)  charge=  1.7778  magn=  0.0000
     atom 217 (R=0.042)  charge=  1.7769  magn= -0.0011
     atom 218 (R=0.042)  charge=  1.7842  magn= -0.0053
     atom 219 (R=0.042)  charge=  1.7731  magn= -0.0002
     atom 220 (R=0.042)  charge=  1.7781  magn= -0.0000
     atom 221 (R=0.042)  charge=  1.7786  magn= -0.0001
     atom 222 (R=0.042)  charge=  1.7781  magn= -0.0000
     atom 223 (R=0.042)  charge=  1.7775  magn=  0.0000
     atom 224 (R=0.042)  charge=  1.7780  magn= -0.0000
     atom 225 (R=0.042)  charge=  1.7777  magn= -0.0001
     atom 226 (R=0.042)  charge=  1.7776  magn= -0.0001
     atom 227 (R=0.042)  charge=  1.7782  magn= -0.0000
     atom 228 (R=0.042)  charge=  1.7777  magn=  0.0000
     atom 229 (R=0.042)  charge=  1.7762  magn= -0.0010
     atom 230 (R=0.042)  charge=  1.7803  magn= -0.0054
     atom 231 (R=0.042)  charge=  1.7736  magn= -0.0002
     atom 232 (R=0.042)  charge=  1.7778  magn= -0.0000
     atom 233 (R=0.042)  charge=  1.7761  magn= -0.0007
     atom 234 (R=0.042)  charge=  1.7477  magn=  0.0010
     atom 235 (R=0.042)  charge=  1.7784  magn= -0.0000
     atom 236 (R=0.042)  charge=  1.7784  magn= -0.0000
     atom 237 (R=0.042)  charge=  1.7773  magn= -0.0000
     atom 238 (R=0.042)  charge=  1.7778  magn= -0.0000
     atom 239 (R=0.042)  charge=  1.7781  magn= -0.0000
     atom 240 (R=0.042)  charge=  1.7775  magn= -0.0000
     atom 241 (R=0.042)  charge=  1.7776  magn= -0.0000
     atom 242 (R=0.042)  charge=  1.7788  magn=  0.0005
     atom 243 (R=0.042)  charge=  1.7775  magn=  0.0000
     atom 244 (R=0.042)  charge=  1.7778  magn= -0.0000
     atom 245 (R=0.042)  charge=  1.7776  magn= -0.0001
     atom 246 (R=0.042)  charge=  1.7775  magn= -0.0000
     atom 247 (R=0.042)  charge=  1.7773  magn=  0.0000
     atom 248 (R=0.042)  charge=  1.7779  magn=  0.0000
     atom 249 (R=0.042)  charge=  1.7768  magn= -0.0000
     atom 250 (R=0.042)  charge=  1.7774  magn= -0.0000
     atom 251 (R=0.042)  charge=  1.7778  magn= -0.0000
     atom 252 (R=0.042)  charge=  1.7775  magn= -0.0000
     atom 253 (R=0.042)  charge=  1.7776  magn=  0.0000
     atom 254 (R=0.042)  charge=  1.7782  magn=  0.0000
     atom 255 (R=0.042)  charge=  1.7777  magn=  0.0000
     atom 256 (R=0.042)  charge=  1.7781  magn=  0.0000
     atom 257 (R=0.042)  charge=  1.7773  magn= -0.0000
     atom 258 (R=0.042)  charge=  1.7785  magn=  0.0001
     atom 259 (R=0.042)  charge=  1.7781  magn=  0.0001
     atom 260 (R=0.042)  charge=  1.7773  magn=  0.0000
     atom 261 (R=0.042)  charge=  1.7756  magn=  0.0001
     atom 262 (R=0.042)  charge=  1.7776  magn=  0.0011
     atom 263 (R=0.042)  charge=  1.7786  magn=  0.0001
     atom 264 (R=0.042)  charge=  1.7799  magn=  0.0012
     atom 265 (R=0.042)  charge=  1.7765  magn=  0.0014
     atom 266 (R=0.042)  charge=  1.7756  magn=  0.0000
     atom 267 (R=0.042)  charge=  1.7769  magn=  0.0000
     atom 268 (R=0.042)  charge=  1.7780  magn=  0.0003
     atom 269 (R=0.042)  charge=  1.7801  magn=  0.0014
     atom 270 (R=0.042)  charge=  1.7774  magn=  0.0000
     atom 271 (R=0.042)  charge=  1.7782  magn=  0.0000
     atom 272 (R=0.042)  charge=  1.7775  magn= -0.0000
     atom 273 (R=0.042)  charge=  1.7776  magn=  0.0003
     atom 274 (R=0.042)  charge=  1.7780  magn=  0.0001
     atom 275 (R=0.042)  charge=  1.7798  magn=  0.0002
     atom 276 (R=0.042)  charge=  1.7767  magn=  0.0001
     atom 277 (R=0.042)  charge=  1.7772  magn=  0.0069
     atom 278 (R=0.042)  charge=  1.7842  magn=  0.0186
     atom 279 (R=0.042)  charge=  1.7778  magn=  0.0001
     atom 280 (R=0.042)  charge=  1.7778  magn=  0.0014
     atom 281 (R=0.042)  charge=  1.7757  magn=  0.0042
     atom 282 (R=0.042)  charge=  1.7777  magn=  0.0002
     atom 283 (R=0.042)  charge=  1.7823  magn=  0.0015
     atom 284 (R=0.042)  charge=  1.7783  magn=  0.0007
     atom 285 (R=0.042)  charge=  1.7774  magn=  0.0001
     atom 286 (R=0.042)  charge=  1.7777  magn=  0.0000
     atom 287 (R=0.042)  charge=  1.7779  magn=  0.0001
     atom 288 (R=0.042)  charge=  1.7776  magn=  0.0001
     atom 289 (R=0.042)  charge=  1.7780  magn=  0.0000
     atom 290 (R=0.042)  charge=  1.7776  magn=  0.0000
     atom 291 (R=0.042)  charge=  1.7775  magn=  0.0010
     atom 292 (R=0.042)  charge=  1.7759  magn=  0.0178
     atom 293 (R=0.042)  charge=  1.7780  magn=  0.0003
     atom 294 (R=0.042)  charge=  1.7778  magn=  0.0000
     atom 295 (R=0.042)  charge=  1.7768  magn=  0.0001
     atom 296 (R=0.042)  charge=  1.7754  magn=  0.0041
     atom 297 (R=0.042)  charge=  1.7814  magn=  0.0000
     atom 298 (R=0.042)  charge=  1.7777  magn=  0.0001
     atom 299 (R=0.042)  charge=  1.7773  magn=  0.0000
     atom 300 (R=0.042)  charge=  1.7775  magn=  0.0001
     atom 301 (R=0.042)  charge=  1.7787  magn=  0.0000
     atom 302 (R=0.042)  charge=  1.7780  magn=  0.0000
     atom 303 (R=0.042)  charge=  1.7778  magn=  0.0001
     atom 304 (R=0.042)  charge=  1.7782  magn=  0.0002
     atom 305 (R=0.042)  charge=  1.7777  magn=  0.0000
     atom 306 (R=0.042)  charge=  1.7779  magn=  0.0000
     atom 307 (R=0.042)  charge=  1.7779  magn=  0.0001
     atom 308 (R=0.042)  charge=  1.7771  magn=  0.0001
     atom 309 (R=0.042)  charge=  1.7776  magn=  0.0000
     atom 310 (R=0.042)  charge=  1.7778  magn=  0.0000
     atom 311 (R=0.042)  charge=  1.7768  magn=  0.0000
     atom 312 (R=0.042)  charge=  1.7773  magn=  0.0002
     atom 313 (R=0.042)  charge=  1.7773  magn=  0.0001
     atom 314 (R=0.042)  charge=  1.7779  magn=  0.0000
     atom 315 (R=0.042)  charge=  1.7779  magn=  0.0000
     atom 316 (R=0.042)  charge=  1.7773  magn=  0.0000
     atom 317 (R=0.042)  charge=  1.7780  magn=  0.0000
     atom 318 (R=0.042)  charge=  1.7778  magn=  0.0000
     atom 319 (R=0.042)  charge=  1.7779  magn=  0.0000
     atom 320 (R=0.042)  charge=  1.7779  magn=  0.0000
     atom 321 (R=0.042)  charge=  1.7783  magn=  0.0001
     atom 322 (R=0.042)  charge=  1.7780  magn=  0.0000
     atom 323 (R=0.042)  charge=  1.7779  magn=  0.0000
     atom 324 (R=0.042)  charge=  1.7774  magn= -0.0000
     atom 325 (R=0.042)  charge=  1.7770  magn=  0.0001
     atom 326 (R=0.042)  charge=  1.7782  magn=  0.0001
     atom 327 (R=0.042)  charge=  1.7783  magn=  0.0001
     atom 328 (R=0.042)  charge=  1.7770  magn=  0.0001
     atom 329 (R=0.042)  charge=  1.7771  magn=  0.0003
     atom 330 (R=0.042)  charge=  1.7770  magn= -0.0000
     atom 331 (R=0.042)  charge=  1.7779  magn=  0.0000
     atom 332 (R=0.042)  charge=  1.7781  magn=  0.0001
     atom 333 (R=0.042)  charge=  1.7770  magn= -0.0000
     atom 334 (R=0.042)  charge=  1.7779  magn=  0.0000
     atom 335 (R=0.042)  charge=  1.7783  magn=  0.0000
     atom 336 (R=0.042)  charge=  1.7777  magn= -0.0000
     atom 337 (R=0.042)  charge=  1.7777  magn=  0.0001
     atom 338 (R=0.042)  charge=  1.7789  magn=  0.0001
     atom 339 (R=0.042)  charge=  1.7778  magn= -0.0000
     atom 340 (R=0.042)  charge=  1.7769  magn=  0.0003
     atom 341 (R=0.042)  charge=  1.7756  magn=  0.0165
     atom 342 (R=0.042)  charge=  1.7790  magn=  0.0010
     atom 343 (R=0.042)  charge=  1.7776  magn=  0.0001
     atom 344 (R=0.042)  charge=  1.7756  magn=  0.0165
     atom 345 (R=0.042)  charge=  1.7721  magn=  0.0059
     atom 346 (R=0.042)  charge=  1.7755  magn=  0.0001
     atom 347 (R=0.042)  charge=  1.7788  magn=  0.0001
     atom 348 (R=0.042)  charge=  1.7790  magn=  0.0010
     atom 349 (R=0.042)  charge=  1.7755  magn=  0.0001
     atom 350 (R=0.042)  charge=  1.7777  magn=  0.0000
     atom 351 (R=0.042)  charge=  1.7778  magn=  0.0002
     atom 352 (R=0.042)  charge=  1.7775  magn=  0.0001
     atom 353 (R=0.042)  charge=  1.7777  magn=  0.0003
     atom 354 (R=0.042)  charge=  1.7778  magn= -0.0000
     atom 355 (R=0.042)  charge=  1.7775  magn=  0.0001
     atom 356 (R=0.042)  charge=  1.7746  magn=  0.0167
     atom 357 (R=0.042)  charge=  1.7753  magn=  0.0063
     atom 358 (R=0.042)  charge=  1.7756  magn=  0.0001
     atom 359 (R=0.042)  charge=  1.7777  magn=  0.0003
     atom 360 (R=0.042)  charge=  1.7753  magn=  0.0063
     atom 361 (R=0.042)  charge=  1.7778  magn=  0.0006
     atom 362 (R=0.042)  charge=  1.7777  magn= -0.0000
     atom 363 (R=0.042)  charge=  1.7756  magn=  0.0001
     atom 364 (R=0.042)  charge=  1.7778  magn=  0.0006
     atom 365 (R=0.042)  charge=  1.7778  magn= -0.0000
     atom 366 (R=0.042)  charge=  1.7777  magn=  0.0000
     atom 367 (R=0.042)  charge=  1.7779  magn=  0.0001
     atom 368 (R=0.042)  charge=  1.7774  magn=  0.0000
     atom 369 (R=0.042)  charge=  1.7777  magn=  0.0000
     atom 370 (R=0.042)  charge=  1.7779  magn=  0.0001
     atom 371 (R=0.042)  charge=  1.7776  magn=  0.0009
     atom 372 (R=0.042)  charge=  1.7754  magn=  0.0001
     atom 373 (R=0.042)  charge=  1.7776  magn=  0.0000
     atom 374 (R=0.042)  charge=  1.7774  magn=  0.0000
     atom 375 (R=0.042)  charge=  1.7755  magn=  0.0001
     atom 376 (R=0.042)  charge=  1.7775  magn=  0.0005
     atom 377 (R=0.042)  charge=  1.7781  magn= -0.0000
     atom 378 (R=0.042)  charge=  1.7777  magn=  0.0000
     atom 379 (R=0.042)  charge=  1.7776  magn=  0.0000
     atom 380 (R=0.042)  charge=  1.7781  magn= -0.0000
     atom 381 (R=0.042)  charge=  1.7780  magn= -0.0000
     atom 382 (R=0.042)  charge=  1.7779  magn=  0.0000
     atom 383 (R=0.042)  charge=  1.7769  magn= -0.0000
     atom 384 (R=0.042)  charge=  1.7781  magn=  0.0001
     atom 385 (R=0.042)  charge=  1.7780  magn=  0.0001
     atom 386 (R=0.042)  charge=  1.7769  magn= -0.0000
     atom 387 (R=0.042)  charge=  1.7770  magn=  0.0003
     atom 388 (R=0.042)  charge=  1.7770  magn=  0.0001
     atom 389 (R=0.042)  charge=  1.7787  magn=  0.0002
     atom 390 (R=0.042)  charge=  1.7781  magn=  0.0001
     atom 391 (R=0.042)  charge=  1.7770  magn=  0.0001
     atom 392 (R=0.042)  charge=  1.7776  magn=  0.0000
     atom 393 (R=0.042)  charge=  1.7778  magn=  0.0000
     atom 394 (R=0.042)  charge=  1.7779  magn=  0.0001
     atom 395 (R=0.042)  charge=  1.7787  magn=  0.0002
     atom 396 (R=0.042)  charge=  1.7778  magn=  0.0000
     atom 397 (R=0.042)  charge=  1.7780  magn=  0.0000
     atom 398 (R=0.042)  charge=  1.7773  magn=  0.0000
     atom 399 (R=0.042)  charge=  1.7769  magn=  0.0001
     atom 400 (R=0.042)  charge=  1.7787  magn=  0.0010
     atom 401 (R=0.042)  charge=  1.7790  magn=  0.0001
     atom 402 (R=0.042)  charge=  1.7769  magn=  0.0001
     atom 403 (R=0.042)  charge=  1.7727  magn=  0.0066
     atom 404 (R=0.042)  charge=  1.7767  magn=  0.0180
     atom 405 (R=0.042)  charge=  1.7775  magn=  0.0001
     atom 406 (R=0.042)  charge=  1.7787  magn=  0.0010
     atom 407 (R=0.042)  charge=  1.7767  magn=  0.0180
     atom 408 (R=0.042)  charge=  1.7780  magn=  0.0003
     atom 409 (R=0.042)  charge=  1.7779  magn=  0.0000
     atom 410 (R=0.042)  charge=  1.7789  magn=  0.0001
     atom 411 (R=0.042)  charge=  1.7774  magn=  0.0001
     atom 412 (R=0.042)  charge=  1.7779  magn=  0.0000
     atom 413 (R=0.042)  charge=  1.7784  magn=  0.0000
     atom 414 (R=0.042)  charge=  1.7786  magn=  0.0013
     atom 415 (R=0.042)  charge=  1.7773  magn=  0.0014
     atom 416 (R=0.042)  charge=  1.7772  magn=  0.0001
     atom 417 (R=0.042)  charge=  1.7772  magn=  0.0000
     atom 418 (R=0.042)  charge=  1.7773  magn=  0.0014
     atom 419 (R=0.042)  charge=  1.7742  magn=  0.0045
     atom 420 (R=0.042)  charge=  1.7778  magn=  0.0002
     atom 421 (R=0.042)  charge=  1.7772  magn=  0.0001
     atom 422 (R=0.042)  charge=  1.7742  magn=  0.0045
     atom 423 (R=0.042)  charge=  1.7805  magn=  0.0000
     atom 424 (R=0.042)  charge=  1.7777  magn=  0.0001
     atom 425 (R=0.042)  charge=  1.7771  magn=  0.0000
     atom 426 (R=0.042)  charge=  1.7777  magn=  0.0002
     atom 427 (R=0.042)  charge=  1.7777  magn=  0.0001
     atom 428 (R=0.042)  charge=  1.7779  magn=  0.0000
     atom 429 (R=0.042)  charge=  1.7777  magn=  0.0003
     atom 430 (R=0.042)  charge=  1.7790  magn=  0.0014
     atom 431 (R=0.042)  charge=  1.7774  magn=  0.0000
     atom 432 (R=0.042)  charge=  1.7778  magn=  0.0000
     atom 433 (R=0.042)  charge=  1.7789  magn=  0.0014
     atom 434 (R=0.042)  charge=  1.7775  magn=  0.0007
     atom 435 (R=0.042)  charge=  1.7774  magn=  0.0001
     atom 436 (R=0.042)  charge=  1.7775  magn=  0.0000
     atom 437 (R=0.042)  charge=  1.7774  magn=  0.0000
     atom 438 (R=0.042)  charge=  1.7774  magn=  0.0001
     atom 439 (R=0.042)  charge=  1.7785  magn=  0.0000
     atom 440 (R=0.042)  charge=  1.7780  magn=  0.0000
     atom 441 (R=0.042)  charge=  1.7778  magn=  0.0000
     atom 442 (R=0.042)  charge=  1.7775  magn=  0.0000
     atom 443 (R=0.042)  charge=  1.7780  magn=  0.0000
     atom 444 (R=0.042)  charge=  1.7777  magn=  0.0000
     atom 445 (R=0.042)  charge=  1.7782  magn=  0.0000
     atom 446 (R=0.042)  charge=  1.7773  magn=  0.0000
     atom 447 (R=0.042)  charge=  1.7799  magn=  0.0012
     atom 448 (R=0.042)  charge=  1.7781  magn=  0.0003
     atom 449 (R=0.042)  charge=  1.7773  magn= -0.0000
     atom 450 (R=0.042)  charge=  1.7756  magn=  0.0001
     atom 451 (R=0.042)  charge=  1.7765  magn=  0.0014
     atom 452 (R=0.042)  charge=  1.7801  magn=  0.0014
     atom 453 (R=0.042)  charge=  1.7785  magn=  0.0001
     atom 454 (R=0.042)  charge=  1.7776  magn=  0.0011
     atom 455 (R=0.042)  charge=  1.7756  magn=  0.0000
     atom 456 (R=0.042)  charge=  1.7774  magn=  0.0000
     atom 457 (R=0.042)  charge=  1.7781  magn=  0.0001
     atom 458 (R=0.042)  charge=  1.7786  magn=  0.0001
     atom 459 (R=0.042)  charge=  1.7769  magn=  0.0000
     atom 460 (R=0.042)  charge=  1.7782  magn=  0.0000
     atom 461 (R=0.042)  charge=  1.7775  magn= -0.0000
     atom 462 (R=0.042)  charge=  1.7767  magn=  0.0001
     atom 463 (R=0.042)  charge=  1.7779  magn=  0.0014
     atom 464 (R=0.042)  charge=  1.7823  magn=  0.0015
     atom 465 (R=0.042)  charge=  1.7775  magn=  0.0003
     atom 466 (R=0.042)  charge=  1.7771  magn=  0.0069
     atom 467 (R=0.042)  charge=  1.7783  magn=  0.0007
     atom 468 (R=0.042)  charge=  1.7779  magn=  0.0001
     atom 469 (R=0.042)  charge=  1.7842  magn=  0.0186
     atom 470 (R=0.042)  charge=  1.7757  magn=  0.0042
     atom 471 (R=0.042)  charge=  1.7774  magn=  0.0001
     atom 472 (R=0.042)  charge=  1.7798  magn=  0.0002
     atom 473 (R=0.042)  charge=  1.7777  magn=  0.0001
     atom 474 (R=0.042)  charge=  1.7777  magn=  0.0002
     atom 475 (R=0.042)  charge=  1.7777  magn=  0.0000
     atom 476 (R=0.042)  charge=  1.7779  magn=  0.0001
     atom 477 (R=0.042)  charge=  1.7776  magn=  0.0010
     atom 478 (R=0.042)  charge=  1.7768  magn=  0.0001
     atom 479 (R=0.042)  charge=  1.7773  magn=  0.0000
     atom 480 (R=0.042)  charge=  1.7776  magn=  0.0001
     atom 481 (R=0.042)  charge=  1.7759  magn=  0.0178
     atom 482 (R=0.042)  charge=  1.7754  magn=  0.0041
     atom 483 (R=0.042)  charge=  1.7775  magn=  0.0001
     atom 484 (R=0.042)  charge=  1.7779  magn=  0.0000
     atom 485 (R=0.042)  charge=  1.7780  magn=  0.0003
     atom 486 (R=0.042)  charge=  1.7814  magn=  0.0000
     atom 487 (R=0.042)  charge=  1.7787  magn=  0.0000
     atom 488 (R=0.042)  charge=  1.7776  magn=  0.0000
     atom 489 (R=0.042)  charge=  1.7778  magn=  0.0000
     atom 490 (R=0.042)  charge=  1.7777  magn=  0.0001
     atom 491 (R=0.042)  charge=  1.7781  magn=  0.0000
     atom 492 (R=0.042)  charge=  1.7778  magn=  0.0001
     atom 493 (R=0.042)  charge=  1.7779  magn=  0.0001
     atom 494 (R=0.042)  charge=  1.7768  magn=  0.0000
     atom 495 (R=0.042)  charge=  1.7779  magn=  0.0000
     atom 496 (R=0.042)  charge=  1.7781  magn=  0.0002
     atom 497 (R=0.042)  charge=  1.7771  magn=  0.0001
     atom 498 (R=0.042)  charge=  1.7773  magn=  0.0002
     atom 499 (R=0.042)  charge=  1.7773  magn=  0.0000
     atom 500 (R=0.042)  charge=  1.7777  magn=  0.0000
     atom 501 (R=0.042)  charge=  1.7776  magn=  0.0000
     atom 502 (R=0.042)  charge=  1.7774  magn=  0.0001
     atom 503 (R=0.042)  charge=  1.7780  magn=  0.0000
     atom 504 (R=0.042)  charge=  1.7779  magn=  0.0000
     atom 505 (R=0.042)  charge=  1.7778  magn=  0.0000
     atom 506 (R=0.042)  charge=  1.7779  magn=  0.0000
     atom 507 (R=0.042)  charge=  1.7778  magn=  0.0000
     atom 508 (R=0.042)  charge=  1.7870  magn=  0.2475
     atom 509 (R=0.042)  charge=  1.8059  magn=  0.2404
     atom 510 (R=0.042)  charge=  1.8059  magn=  0.2405
     atom 511 (R=0.043)  charge=  2.9399  magn= -0.0011

     total cpu time spent up to now is      799.2 secs

     End of self-consistent calculation

 ------ SPIN UP ------------


          k = 0.0000 0.0000 0.0000 (118565 PWs)   bands (ev):

    -8.1981  -7.6499  -7.6391  -7.6391  -7.6195  -7.6144  -7.5554  -7.1372
    -7.0693  -7.0662  -7.0661  -7.0628  -7.0616  -7.0451  -7.0430  -7.0338
    -7.0092  -6.9996  -6.9111  -6.5712  -6.4767  -6.4712  -6.4680  -6.4596
    -6.4542  -6.4478  -6.3730  -5.9804  -5.9144  -5.9127  -5.9058  -5.9034
    -5.8817  -5.6103  -5.3876  -5.3838  -5.3815  -5.3811  -5.3751  -5.3740
    -5.3711  -5.3685  -5.3649  -5.3603  -5.3590  -5.3567  -5.3557  -5.3501
    -5.3467  -5.3342  -5.3320  -5.3213  -5.3182  -5.3163  -5.2873  -5.2768
    -5.1907  -4.9937  -4.8230  -4.8221  -4.8213  -4.8193  -4.8178  -4.8176
    -4.8154  -4.8146  -4.8131  -4.8108  -4.8106  -4.8069  -4.8054  -4.8021
    -4.7986  -4.7967  -4.7737  -4.7579  -4.7562  -4.7255  -4.7210  -4.7054
    -4.4680  -3.8849  -3.7335  -3.7329  -3.7321  -3.7290  -3.7245  -3.7222
    -3.7213  -3.7139  -3.7106  -3.7089  -3.6675  -3.4788  -3.2668  -3.2662
    -3.2637  -3.2626  -3.2622  -3.2600  -3.2599  -3.2583  -3.2542  -3.2517
    -3.2486  -3.2477  -3.2461  -3.2431  -3.2407  -3.2360  -3.2207  -3.1981
    -3.1941  -3.1841  -3.1731  -3.1672  -3.1587  -3.1483  -3.1465  -3.1409
    -3.1375  -3.1336  -3.0121  -2.7834  -2.6602  -2.6597  -2.6589  -2.6584
    -2.6580  -2.6580  -2.6467  -2.6439  -2.6419  -2.6400  -2.6379  -2.6369
    -2.6351  -2.6330  -2.6325  -2.6319  -2.6310  -2.6110  -2.5958  -2.5934
    -2.5683  -2.5615  -2.4983  -2.4424  -2.4003  -2.3997  -2.3798  -2.2957
    -2.1894  -2.1870  -2.1825  -2.1785  -2.1778  -2.1755  -2.1754  -2.1723
    -2.1680  -2.1680  -2.1660  -2.1631  -2.1613  -2.1605  -2.1585  -2.1541
    -2.1535  -2.1385  -2.1384  -2.1242  -2.0897  -2.0777  -1.8422  -1.5761
    -1.4491  -1.4458  -1.4442  -1.4391  -1.4366  -1.4361  -1.4308  -1.4302
    -1.4286  -1.4283  -1.4270  -1.4268  -1.4128  -1.4094  -1.4084  -1.4028
    -1.3973  -1.3895  -1.3859  -1.3803  -1.3684  -1.3680  -1.3538  -1.3036
    -1.2539  -1.2529  -1.2497  -1.2489  -1.2477  -1.2428  -1.2420  -1.2401
    -1.2389  -1.2268  -1.2222  -1.2222  -1.2029  -1.1992  -1.1934  -1.1890
    -1.1819  -1.1684  -1.1520  -1.1416  -1.0876  -1.0751  -0.4624  -0.0891
    -0.0882  -0.0875  -0.0651   0.2156   0.2911   0.2918   0.2991   0.3015
     0.3033   0.3040   0.3069   0.3080   0.3206   0.3212   0.3802   0.4905
     0.4987   0.5001   0.5023   0.5028   0.5292   0.7542   0.8162   0.8170
     0.8200   0.8213   0.8218   0.8219   0.8258   0.8294   0.8381   0.8455
     0.8460   0.8476   0.8476   0.8485   0.8536   0.8558   0.8579   0.8660
     0.8735   0.8755   0.8813   0.8835   0.8837   0.8858   0.8909   0.8921
     0.8929   0.8954   0.8956   0.8965   0.8967   0.8976   0.9066   0.9124
     0.9150   0.9188   0.9229   0.9249   0.9268   0.9280   0.9308   0.9321
     0.9332   1.0078   1.0438   1.0503   1.1368   1.2456   1.2936   1.2937
     1.3082   1.3122   1.3123   1.3200   1.3236   1.3257   1.3378   1.3404
     1.4246   1.5127   1.5316   1.5348   1.5441   1.5452   1.5461   1.5517
     1.5661   1.5677   1.5892   1.5914   1.6731   1.6907   1.6983   1.6995
     1.6997   1.7026   1.7027   1.7077   1.7092   1.7118   1.7119   1.7144
     1.7191   1.7222   1.7238   1.7255   1.7261   1.7350   1.7420   1.7503
     1.7521   1.8645   1.9015   1.9100   2.2147   2.4310   2.4563   2.4583
     2.4729   2.4807   2.4808   2.4851   2.4851   2.4860   2.4869   2.4886
     2.4898   2.4904   2.4914   2.4924   2.4928   2.4956   2.4974   2.5036
     2.5039   2.5594   2.5698   2.5757   2.6700   2.8294   2.8308   2.8324
     2.8409   2.8411   2.8445   2.8487   2.8496   2.8503   2.8595   2.8596
     2.8686   2.8688   2.8790   2.8836   2.8838   2.8855   2.8868   2.8889
     2.9049   2.9073   3.0207   3.0287   3.6880   3.9270   3.9273   3.9438
     3.9445   3.9451   3.9453   3.9453   3.9513   3.9522   3.9658   3.9667
     3.9670   4.0874   4.1122   4.1148   4.1353   4.1358   4.1363   4.1364
     4.1375   4.1381   4.1387   4.1406   4.1414   4.1421   4.1422   4.1427
     4.1433   4.1476   4.1650   4.1658   4.1842   4.1965   4.2011   4.2049
     4.2139   4.2306   4.2308   4.2318   4.2323   4.2378   4.2379   4.2387
     4.2430   4.2446   4.2560   4.2583   4.2603   4.2631   4.2642   4.2653
     4.2700   4.2728   4.2754   4.2754   4.2839   4.2865   4.3304   4.3311
     4.3683   4.3684   4.3685   4.3755   4.3766   4.3772   4.3773   4.3786
     4.3789   4.3866   4.3877   4.3885   4.3898   4.4045   4.4057   4.4105
     4.4159   4.4160   4.4287   4.4310   4.4323   4.4831   4.5020   4.5038
     4.5094   4.5485   4.5503   4.5684   4.5769   4.5774   4.5827   4.5829
     4.5831   4.6158   4.6413   4.6425   4.6540   4.6910   4.7065   4.7102
     4.7838   4.7936   4.9254   4.9255   4.9411   4.9483   4.9487   4.9501
     4.9515   4.9628   4.9634   5.0431   5.0669   5.0781   5.5791   5.6336
     5.6345   5.6525   5.6597   5.6620   5.6625   5.6627   5.6652   5.6994
     5.7004   5.7054   5.8943   5.9043   5.9059   5.9165   5.9182   5.9189
     5.9201   5.9207   5.9210   5.9288   5.9346   5.9355   5.9443   5.9448
     5.9451   5.9504   5.9508   5.9552   5.9705   5.9717   5.9735   6.0029
     6.0043   6.0076   6.0742   6.2058   6.2083   6.2589   6.2598   6.2615
     6.2621   6.2645   6.2654   6.2658   6.2669   6.2692   6.2711   6.2726
     6.2746   6.2775   6.2846   6.2859   6.2905   6.2986   6.3000   6.3174
     6.3274   6.3294   6.3372   6.4808   6.4833   6.4852   6.5082   6.5130
     6.5138   6.5144   6.5169   6.5176   6.5179   6.5194   6.5196   6.5203
     6.5216   6.5233   6.5266   6.5280   6.5296   6.5339   6.5368   6.5758
     6.5766   6.5787   6.5867   6.6536   6.6547   6.6551   6.6648   6.6684
     6.6697   6.6702   6.6803   6.7128   6.7151   6.7247   6.7293   6.7306
     6.7313   6.7360   6.7377   6.7388   6.7403   6.7412   6.7420   6.7446
     6.7456   6.7688   6.7695   6.7723   6.7747   6.7759   6.7782   6.8126
     6.8501   6.8541   6.8961   6.8965   6.9024   6.9281   6.9306   6.9323
     6.9338   6.9383   6.9400   6.9411   6.9422   6.9430   6.9451   6.9487
     6.9505   6.9512   6.9547   6.9555   6.9598   6.9633   6.9676   6.9699
     6.9700   6.9733   6.9799   6.9963   6.9978   7.0840   7.1066   7.1140
     7.2635   7.2667   7.2980   7.3000   7.3010   7.3012   7.3022   7.3054
     7.3061   7.3065   7.3070   7.3072   7.3109   7.3114   7.3131   7.3192
     7.3234   7.3236   7.3271   7.3534   7.3541   7.3777   7.3777   7.3819
     7.4930   7.4941   7.5187   7.5220   7.5233   7.5293   7.5391   7.5408
     7.5565   7.5836   7.5847   7.5865   7.6605   7.6914   7.6930   7.7331
     7.7384   7.7394   7.7401   7.7403   7.7413   7.7416   7.7472   7.7482
     7.7483   7.7494   7.7529   7.7546   7.7578   7.7601   7.7609   7.7621
     7.7626   7.7641   7.7643   7.7646   7.7667   7.7681   7.7695   7.7702
     7.7728   7.7734   7.7752   7.7760   7.7760   7.7772   7.7803   7.7804
     7.7816   7.7824   7.7840   7.7842   7.7968   7.8022   7.8114   7.8191
     7.8214   7.8494   7.8526   7.8679   7.8821   7.8836   7.8893   7.9146
     7.9177   7.9222   7.9344   7.9422   7.9456   8.0987   8.0989   8.1041
     8.3128   8.3141   8.3543   8.3553   8.3559   8.3596   8.3622   8.3632
     8.3661   8.3680   8.3680   8.3702   8.3716   8.3722   8.3737   8.3787
     8.3788   8.3844   8.4003   8.4059   8.4083   8.4143   8.4181   8.4195
     8.4397   8.5173   8.5187   8.5490   8.5492   8.5498   8.5516   8.5520
     8.5538   8.5539   8.5584   8.5604   8.5610   8.5626   8.5673   8.5771
     8.5797   8.5807   8.5918   8.6008   8.6041   8.6087   8.6249   8.6261
     8.6266   8.6507   8.6559   8.6562   8.6592   8.6592   8.6624   8.6767
     8.6773   8.6786   8.6816   8.6860   8.6868   8.6932   8.6937   8.6998
     8.7124   8.7191   8.7214   8.7240   8.7263   8.7348   8.7378   8.7419
     8.7447   8.7674   8.7690   9.0096   9.0264   9.0292   9.1099   9.1115
     9.1283   9.1316   9.1332   9.1348   9.1378   9.1405   9.1413   9.1736
     9.1928   9.1956   9.1985   9.2499   9.2512   9.2587   9.2599   9.2645
     9.2716   9.2737   9.2864   9.4259   9.4486   9.4538   9.6673   9.6689
     9.7053   9.7078   9.7093   9.7107   9.7137   9.7158   9.7160   9.7166
     9.7270   9.7273   9.7328   9.7356   9.7369   9.7417   9.7431   9.7455
     9.7537   9.7603   9.7621   9.8106   9.8383   9.8391   9.8518   9.9740
     9.9765   9.9911   9.9934   9.9935   9.9975  10.0001  10.0003  10.0061
    10.0161  10.0181  10.0198  10.0246  10.0256  10.0266  10.0350  10.0363
    10.0380  10.0383  10.0388  10.0411  10.0419  10.0420  10.0421  10.0442
    10.0447  10.0452  10.0482  10.0497  10.0607  10.0628  10.0639  10.1420
    10.1440  10.1534  10.1967  10.1979  10.2002  10.2007  10.2011  10.2011
    10.2018  10.2031  10.2036  10.2040  10.2052  10.2062  10.2797  10.2834
    10.2850  10.3080  10.3089  10.3105  10.3112  10.3146  10.3165  10.3185
    10.3201  10.3213  10.3228  10.3245  10.3270  10.3272  10.3298  10.3306
    10.3306  10.3323  10.3328  10.3342  10.3364  10.3379  10.3382  10.3403
    10.3412  10.3465  10.3466  10.3476  10.3588  10.3590  10.3612  10.3691
    10.3722  10.3857  10.3881  10.3915  10.4015  10.4191  10.4235  10.4262
    10.4303  10.4461  10.4504  10.4578  10.4734  10.4793  10.4910  10.4928
    10.5667  10.6320  10.6426  11.2484  11.3076  11.3112  11.4641  11.4646
    11.4838  11.4851  11.4867  11.4884  11.4899  11.4901  11.4916  11.4923
    11.4933  11.4952  11.4997  11.5003  11.5026  11.5029  11.5146  11.5161
    11.5196  11.5321  11.5352  11.5360  11.5461  11.5476  11.5526  11.6301
    11.8721  11.8729  11.8838  11.9157  11.9185  12.2310  12.3294  12.3310
    12.3769  12.4566  12.4678  12.4681  12.4722  12.4852  12.4896  12.4900
    12.5240  12.5341  13.1645  13.1797  13.1799  14.2074  15.0421  15.1704
    17.4039  17.4042  17.4064  17.4208  17.4214  17.4312  17.7112  17.7147

     occupation numbers 
     1.0000   1.0000   1.0000   1.0000   1.0000   1.0000   1.0000   1.0000
     1.0000   1.0000   1.0000   1.0000   1.0000   1.0000   1.0000   1.0000
     1.0000   1.0000   1.0000   1.0000   1.0000   1.0000   1.0000   1.0000
     1.0000   1.0000   1.0000   1.0000   1.0000   1.0000   1.0000   1.0000
     1.0000   1.0000   1.0000   1.0000   1.0000   1.0000   1.0000   1.0000
     1.0000   1.0000   1.0000   1.0000   1.0000   1.0000   1.0000   1.0000
     1.0000   1.0000   1.0000   1.0000   1.0000   1.0000   1.0000   1.0000
     1.0000   1.0000   1.0000   1.0000   1.0000   1.0000   1.0000   1.0000
     1.0000   1.0000   1.0000   1.0000   1.0000   1.0000   1.0000   1.0000
     1.0000   1.0000   1.0000   1.0000   1.0000   1.0000   1.0000   1.0000
     1.0000   1.0000   1.0000   1.0000   1.0000   1.0000   1.0000   1.0000
     1.0000   1.0000   1.0000   1.0000   1.0000   1.0000   1.0000   1.0000
     1.0000   1.0000   1.0000   1.0000   1.0000   1.0000   1.0000   1.0000
     1.0000   1.0000   1.0000   1.0000   1.0000   1.0000   1.0000   1.0000
     1.0000   1.0000   1.0000   1.0000   1.0000   1.0000   1.0000   1.0000
     1.0000   1.0000   1.0000   1.0000   1.0000   1.0000   1.0000   1.0000
     1.0000   1.0000   1.0000   1.0000   1.0000   1.0000   1.0000   1.0000
     1.0000   1.0000   1.0000   1.0000   1.0000   1.0000   1.0000   1.0000
     1.0000   1.0000   1.0000   1.0000   1.0000   1.0000   1.0000   1.0000
     1.0000   1.0000   1.0000   1.0000   1.0000   1.0000   1.0000   1.0000
     1.0000   1.0000   1.0000   1.0000   1.0000   1.0000   1.0000   1.0000
     1.0000   1.0000   1.0000   1.0000   1.0000   1.0000   1.0000   1.0000
     1.0000   1.0000   1.0000   1.0000   1.0000   1.0000   1.0000   1.0000
     1.0000   1.0000   1.0000   1.0000   1.0000   1.0000   1.0000   1.0000
     1.0000   1.0000   1.0000   1.0000   1.0000   1.0000   1.0000   1.0000
     1.0000   1.0000   1.0000   1.0000   1.0000   1.0000   1.0000   1.0000
     1.0000   1.0000   1.0000   1.0000   1.0000   1.0000   1.0000   1.0000
     1.0000   1.0000   1.0000   1.0000   1.0000   1.0000   1.0000   1.0000
     1.0000   1.0000   1.0000   1.0000   1.0000   1.0000   1.0000   1.0000
     1.0000   1.0000   1.0000   1.0000   1.0000   1.0000   1.0000   1.0000
     1.0000   1.0000   1.0000   1.0000   1.0000   1.0000   1.0000   1.0000
     1.0000   1.0000   1.0000   1.0000   1.0000   1.0000   1.0000   1.0000
     1.0000   1.0000   1.0000   1.0000   1.0000   1.0000   1.0000   1.0000
     1.0000   1.0000   1.0000   1.0000   1.0000   1.0000   1.0000   1.0000
     1.0000   1.0000   1.0000   1.0000   1.0000   1.0000   1.0000   1.0000
     1.0000   1.0000   1.0000   1.0000   1.0000   1.0000   1.0000   1.0000
     1.0000   1.0000   1.0000   1.0000   1.0000   1.0000   1.0000   1.0000
     1.0000   1.0000   1.0000   1.0000   1.0000   1.0000   1.0000   1.0000
     1.0000   1.0000   1.0000   1.0000   1.0000   1.0000   1.0000   1.0000
     1.0000   1.0000   1.0000   1.0000   1.0000   1.0000   1.0000   1.0000
     1.0000   1.0000   1.0000   1.0000   1.0000   1.0000   1.0000   1.0000
     1.0000   1.0000   1.0000   1.0000   1.0000   1.0000   1.0000   1.0000
     1.0000   1.0000   1.0000   1.0000   1.0000   1.0000   1.0000   1.0000
     1.0000   1.0000   1.0000   1.0000   1.0000   1.0000   1.0000   1.0000
     1.0000   1.0000   1.0000   1.0000   1.0000   1.0000   1.0000   1.0000
     1.0000   1.0000   1.0000   1.0000   1.0000   1.0000   1.0000   1.0000
     1.0000   1.0000   1.0000   1.0000   1.0000   1.0000   1.0000   1.0000
     1.0000   1.0000   1.0000   1.0000   1.0000   1.0000   1.0000   1.0000
     1.0000   1.0000   1.0000   1.0000   1.0000   1.0000   1.0000   1.0000
     1.0000   1.0000   1.0000   1.0000   1.0000   1.0000   1.0000   1.0000
     1.0000   1.0000   1.0000   1.0000   1.0000   1.0000   1.0000   1.0000
     1.0000   1.0000   1.0000   1.0000   1.0000   1.0000   1.0000   1.0000
     1.0000   1.0000   1.0000   1.0000   1.0000   1.0000   1.0000   1.0000
     1.0000   1.0000   1.0000   1.0000   1.0000   1.0000   1.0000   1.0000
     1.0000   1.0000   1.0000   1.0000   1.0000   1.0000   1.0000   1.0000
     1.0000   1.0000   1.0000   1.0000   1.0000   1.0000   1.0000   1.0000
     1.0000   1.0000   1.0000   1.0000   1.0000   1.0000   1.0000   1.0000
     1.0000   1.0000   1.0000   1.0000   1.0000   1.0000   1.0000   1.0000
     1.0000   1.0000   1.0000   1.0000   1.0000   1.0000   1.0000   1.0000
     1.0000   1.0000   1.0000   1.0000   1.0000   1.0000   1.0000   1.0000
     1.0000   1.0000   1.0000   1.0000   1.0000   1.0000   1.0000   1.0000
     1.0000   1.0000   1.0000   1.0000   1.0000   1.0000   1.0000   1.0000
     1.0000   1.0000   1.0000   1.0000   1.0000   1.0000   1.0000   1.0000
     1.0000   1.0000   1.0000   1.0000   1.0000   1.0000   1.0000   1.0000
     1.0000   1.0000   1.0000   1.0000   1.0000   1.0000   1.0000   1.0000
     1.0000   1.0000   1.0000   1.0000   1.0000   1.0000   1.0000   1.0000
     1.0000   1.0000   1.0000   1.0000   1.0000   1.0000   1.0000   1.0000
     1.0000   1.0000   1.0000   1.0000   1.0000   1.0000   1.0000   1.0000
     1.0000   1.0000   1.0000   1.0000   1.0000   1.0000   1.0000   1.0000
     1.0000   1.0000   1.0000   1.0000   1.0000   1.0000   1.0000   1.0000
     1.0000   1.0000   1.0000   1.0000   1.0000   1.0000   1.0000   1.0000
     1.0000   1.0000   1.0000   1.0000   1.0000   1.0000   1.0000   1.0000
     1.0000   1.0000   1.0000   1.0000   1.0000   1.0000   1.0000   1.0000
     1.0000   1.0000   1.0000   1.0000   1.0000   1.0000   1.0000   1.0000
     1.0000   1.0000   1.0000   1.0000   1.0000   1.0000   1.0000   1.0000
     1.0000   1.0000   1.0000   1.0000   1.0000   1.0000   1.0000   1.0000
     1.0000   1.0000   1.0000   1.0000   1.0000   1.0000   1.0000   1.0000
     1.0000   1.0000   1.0000   1.0000   1.0000   1.0000   1.0000   1.0000
     1.0000   1.0000   1.0000   1.0000   1.0000   1.0000   1.0000   1.0000
     1.0000   1.0000   1.0000   1.0000   1.0000   1.0000   1.0000   1.0000
     1.0000   1.0000   1.0000   1.0000   1.0000   1.0000   1.0000   1.0000
     1.0000   1.0000   1.0000   1.0000   1.0000   1.0000   1.0000   1.0000
     1.0000   1.0000   1.0000   1.0000   1.0000   1.0000   1.0000   1.0000
     1.0000   1.0000   1.0000   1.0000   1.0000   1.0000   1.0000   1.0000
     1.0000   1.0000   1.0000   1.0000   1.0000   1.0000   1.0000   1.0000
     1.0000   1.0000   1.0000   1.0000   1.0000   1.0000   1.0000   1.0000
     1.0000   1.0000   1.0000   1.0000   1.0000   1.0000   1.0000   1.0000
     1.0000   1.0000   1.0000   1.0000   1.0000   1.0000   1.0000   1.0000
     1.0000   1.0000   1.0000   1.0000   1.0000   1.0000   1.0000   1.0000
     1.0000   1.0000   1.0000   1.0000   1.0000   1.0000   1.0000   1.0000
     1.0000   1.0000   1.0000   1.0000   1.0000   1.0000   1.0000   1.0000
     1.0000   1.0000   1.0000   1.0000   1.0000   1.0000   1.0000   1.0000
     1.0000   1.0000   1.0000   1.0000   1.0000   1.0000   1.0000   1.0000
     1.0000   1.0000   1.0000   1.0000   1.0000   1.0000   1.0000   1.0000
     1.0000   1.0000   1.0000   1.0000   1.0000   1.0000   1.0000   1.0000
     1.0000   1.0000   1.0000   1.0000   1.0000   1.0000   1.0000   1.0000
     1.0000   1.0000   1.0000   1.0000   1.0000   1.0000   1.0000   1.0000
     1.0000   1.0000   1.0000   1.0000   1.0000   1.0000   1.0000   1.0000
     1.0000   1.0000   1.0000   1.0000   1.0000   1.0000   1.0000   1.0000
     1.0000   1.0000   1.0000   1.0000   1.0000   1.0000   1.0000   1.0000
     1.0000   1.0000   1.0000   1.0000   1.0000   1.0000   1.0000   1.0000
     1.0000   1.0000   1.0000   1.0000   1.0000   1.0000   1.0000   1.0000
     1.0000   1.0000   1.0000   1.0000   1.0000   1.0000   1.0000   1.0000
     1.0000   1.0000   1.0000   1.0000   1.0000   1.0000   1.0000   1.0000
     1.0000   1.0000   1.0000   1.0000   1.0000   1.0000   1.0000   1.0000
     1.0000   1.0000   1.0000   1.0000   1.0000   1.0000   1.0000   1.0000
     1.0000   1.0000   1.0000   1.0000   1.0000   1.0000   1.0000   1.0000
     1.0000   1.0000   1.0000   1.0000   1.0000   1.0000   1.0000   1.0000
     1.0000   1.0000   1.0000   1.0000   1.0000   1.0000   1.0000   1.0000
     1.0000   1.0000   1.0000   1.0000   1.0000   1.0000   1.0000   1.0000
     1.0000   1.0000   1.0000   1.0000   1.0000   1.0000   1.0000   1.0000
     1.0000   1.0000   1.0000   1.0000   1.0000   1.0000   1.0000   1.0000
     1.0000   1.0000   1.0000   1.0000   1.0000   1.0000   1.0000   1.0000
     1.0000   1.0000   1.0000   1.0000   1.0000   1.0000   1.0000   1.0000
     1.0000   1.0000   1.0000   1.0000   1.0000   1.0000   1.0000   1.0000
     1.0000   1.0000   1.0000   1.0000   1.0000   1.0000   1.0000   1.0000
     1.0000   1.0000   1.0000   1.0000   1.0000   1.0000   1.0000   1.0000
     1.0000   1.0000   1.0000   1.0000   1.0000   1.0000   1.0000   1.0000
     1.0000   1.0000   1.0000   1.0000   1.0000   1.0000   1.0000   1.0000
     1.0000   1.0000   1.0000   1.0000   1.0000   1.0000   1.0000   1.0000
     1.0000   1.0000   1.0000   1.0000   1.0000   1.0000   1.0000   1.0000
     1.0000   1.0000   1.0000   1.0000   1.0000   1.0000   1.0000   1.0000
     1.0000   1.0000   1.0000   1.0000   1.0000   1.0000   1.0000   1.0000
     1.0000   1.0000   1.0000   1.0000   1.0000   1.0000   1.0000   1.0000
     1.0000   1.0000   1.0000   1.0000   1.0000   1.0000   1.0000   1.0000
     1.0000   1.0000   1.0000   1.0000   1.0000   1.0000   1.0000   1.0000
     1.0000   1.0000   1.0000   1.0000   1.0000   1.0000   1.0000   1.0000
     1.0000   1.0000   1.0000   1.0000   1.0000   1.0000   1.0000   1.0000
     0.0000   0.0000   0.0000   0.0000   0.0000   0.0000   0.0000   0.0000

 ------ SPIN DOWN ----------


          k = 0.0000 0.0000 0.0000 (118565 PWs)   bands (ev):

    -8.1965  -7.6489  -7.6385  -7.6385  -7.6175  -7.6126  -7.5503  -7.1353
    -7.0688  -7.0656  -7.0653  -7.0622  -7.0610  -7.0437  -7.0415  -7.0325
    -7.0035  -6.9942  -6.9008  -6.5698  -6.4756  -6.4686  -6.4654  -6.4572
    -6.4487  -6.4427  -6.3620  -5.9780  -5.9126  -5.9108  -5.9026  -5.9005
    -5.8782  -5.6047  -5.3869  -5.3834  -5.3810  -5.3806  -5.3742  -5.3731
    -5.3705  -5.3680  -5.3646  -5.3599  -5.3585  -5.3561  -5.3538  -5.3485
    -5.3434  -5.3303  -5.3277  -5.3172  -5.3151  -5.3148  -5.2755  -5.2655
    -5.1821  -4.9912  -4.8223  -4.8216  -4.8201  -4.8177  -4.8164  -4.8163
    -4.8146  -4.8140  -4.8126  -4.8099  -4.8089  -4.8040  -4.8037  -4.8010
    -4.7952  -4.7927  -4.7695  -4.7490  -4.7455  -4.7210  -4.7035  -4.6867
    -4.4413  -3.8785  -3.7315  -3.7304  -3.7289  -3.7260  -3.7220  -3.7181
    -3.7169  -3.7128  -3.7077  -3.7057  -3.6618  -3.4731  -3.2664  -3.2659
    -3.2622  -3.2614  -3.2611  -3.2586  -3.2584  -3.2568  -3.2524  -3.2501
    -3.2459  -3.2452  -3.2443  -3.2408  -3.2379  -3.2330  -3.2147  -3.1933
    -3.1895  -3.1798  -3.1615  -3.1588  -3.1555  -3.1462  -3.1438  -3.1395
    -3.1300  -3.1243  -2.9999  -2.7755  -2.6595  -2.6591  -2.6582  -2.6577
    -2.6575  -2.6573  -2.6447  -2.6422  -2.6401  -2.6393  -2.6367  -2.6358
    -2.6332  -2.6309  -2.6300  -2.6287  -2.6277  -2.6094  -2.5906  -2.5882
    -2.5570  -2.5508  -2.4943  -2.4408  -2.3954  -2.3946  -2.3727  -2.2917
    -2.1868  -2.1854  -2.1796  -2.1746  -2.1740  -2.1730  -2.1716  -2.1698
    -2.1661  -2.1653  -2.1644  -2.1604  -2.1585  -2.1583  -2.1558  -2.1495
    -2.1492  -2.1329  -2.1324  -2.1220  -2.0672  -2.0547  -1.8268  -1.5708
    -1.4482  -1.4451  -1.4437  -1.4388  -1.4356  -1.4352  -1.4302  -1.4295
    -1.4279  -1.4275  -1.4262  -1.4257  -1.4106  -1.4071  -1.4049  -1.3977
    -1.3950  -1.3882  -1.3845  -1.3771  -1.3623  -1.3621  -1.3489  -1.3003
    -1.2536  -1.2510  -1.2485  -1.2470  -1.2466  -1.2415  -1.2399  -1.2386
    -1.2379  -1.2240  -1.2194  -1.2179  -1.1976  -1.1941  -1.1877  -1.1829
    -1.1792  -1.1601  -1.1447  -1.1349  -1.0348  -1.0186  -0.3903  -0.0870
    -0.0859  -0.0854  -0.0605   0.2220   0.2930   0.2940   0.3018   0.3039
     0.3052   0.3076   0.3097   0.3099   0.3295   0.3308   0.3935   0.4926
     0.5001   0.5013   0.5047   0.5056   0.5339   0.7663   0.8172   0.8178
     0.8208   0.8220   0.8221   0.8227   0.8270   0.8307   0.8403   0.8473
     0.8478   0.8494   0.8495   0.8504   0.8556   0.8580   0.8590   0.8678
     0.8772   0.8794   0.8818   0.8841   0.8845   0.8866   0.8916   0.8929
     0.8937   0.8968   0.8974   0.8976   0.8977   0.8984   0.9125   0.9188
     0.9213   0.9225   0.9285   0.9300   0.9340   0.9342   0.9358   0.9363
     0.9384   1.0108   1.0560   1.0615   1.1442   1.2510   1.2952   1.2953
     1.3126   1.3152   1.3157   1.3225   1.3254   1.3278   1.3508   1.3542
     1.4319   1.5169   1.5339   1.5370   1.5467   1.5486   1.5499   1.5541
     1.5695   1.5709   1.6047   1.6077   1.6791   1.6934   1.6992   1.7005
     1.7013   1.7040   1.7047   1.7085   1.7101   1.7128   1.7130   1.7179
     1.7211   1.7241   1.7258   1.7279   1.7289   1.7445   1.7513   1.7572
     1.7603   1.8729   1.9238   1.9330   2.2348   2.4350   2.4584   2.4603
     2.4800   2.4840   2.4857   2.4862   2.4883   2.4885   2.4889   2.4906
     2.4912   2.4941   2.4942   2.4953   2.4960   2.4985   2.5005   2.5082
     2.5083   2.5639   2.5814   2.5871   2.6797   2.8308   2.8322   2.8388
     2.8421   2.8422   2.8460   2.8492   2.8512   2.8518   2.8614   2.8617
     2.8713   2.8759   2.8832   2.8861   2.8872   2.8900   2.8916   2.8921
     2.9087   2.9111   3.0661   3.0770   3.7352   3.9286   3.9288   3.9456
     3.9461   3.9467   3.9470   3.9470   3.9532   3.9540   3.9674   3.9693
     3.9701   4.0968   4.1152   4.1174   4.1364   4.1368   4.1374   4.1378
     4.1394   4.1396   4.1399   4.1417   4.1425   4.1429   4.1433   4.1436
     4.1446   4.1530   4.1686   4.1697   4.1910   4.1993   4.2031   4.2068
     4.2166   4.2325   4.2328   4.2334   4.2386   4.2387   4.2393   4.2447
     4.2449   4.2469   4.2603   4.2619   4.2635   4.2661   4.2686   4.2694
     4.2723   4.2753   4.2788   4.2790   4.2871   4.2900   4.3451   4.3461
     4.3694   4.3694   4.3717   4.3768   4.3773   4.3780   4.3782   4.3798
     4.3802   4.3890   4.3898   4.3903   4.3920   4.4090   4.4107   4.4125
     4.4174   4.4175   4.4306   4.4368   4.4384   4.4889   4.5103   4.5113
     4.5149   4.5520   4.5538   4.5723   4.5817   4.5821   4.5855   4.5856
     4.5875   4.6234   4.6469   4.6478   4.6576   4.6995   4.7098   4.7134
     4.8198   4.8295   4.9274   4.9275   4.9442   4.9515   4.9518   4.9527
     4.9529   4.9674   4.9678   5.0479   5.0933   5.1065   5.6006   5.6366
     5.6376   5.6548   5.6617   5.6632   5.6665   5.6666   5.6677   5.7041
     5.7051   5.7086   5.9066   5.9080   5.9084   5.9187   5.9192   5.9195
     5.9211   5.9214   5.9223   5.9303   5.9360   5.9369   5.9456   5.9460
     5.9464   5.9530   5.9534   5.9577   5.9751   5.9757   5.9774   6.0058
     6.0104   6.0126   6.1104   6.2077   6.2102   6.2612   6.2617   6.2637
     6.2648   6.2662   6.2677   6.2680   6.2687   6.2707   6.2744   6.2746
     6.2768   6.2796   6.2885   6.2898   6.2966   6.3033   6.3048   6.3317
     6.3344   6.3362   6.3449   6.4834   6.4858   6.4886   6.5116   6.5153
     6.5157   6.5170   6.5190   6.5191   6.5198   6.5212   6.5215   6.5237
     6.5243   6.5256   6.5295   6.5313   6.5329   6.5388   6.5413   6.5792
     6.5840   6.5850   6.5969   6.6577   6.6593   6.6596   6.6661   6.6695
     6.6707   6.6716   6.6830   6.7168   6.7190   6.7251   6.7297   6.7310
     6.7318   6.7393   6.7395   6.7408   6.7412   6.7431   6.7435   6.7468
     6.7479   6.7723   6.7724   6.7766   6.7808   6.7820   6.7861   6.8245
     6.8591   6.8631   6.8994   6.8997   6.9084   6.9298   6.9317   6.9332
     6.9345   6.9410   6.9425   6.9437   6.9442   6.9458   6.9472   6.9535
     6.9538   6.9548   6.9588   6.9594   6.9643   6.9649   6.9693   6.9717
     6.9745   6.9779   6.9843   7.0125   7.0147   7.0919   7.1263   7.1344
     7.2656   7.2687   7.3007   7.3014   7.3020   7.3030   7.3038   7.3072
     7.3075   7.3080   7.3081   7.3086   7.3136   7.3142   7.3150   7.3218
     7.3261   7.3263   7.3291   7.3579   7.3588   7.3843   7.3844   7.3848
     7.4962   7.4974   7.5215   7.5251   7.5255   7.5317   7.5443   7.5459
     7.5629   7.5876   7.5922   7.5943   7.6814   7.6942   7.6958   7.7341
     7.7401   7.7406   7.7408   7.7412   7.7429   7.7431   7.7489   7.7505
     7.7510   7.7523   7.7549   7.7588   7.7598   7.7621   7.7637   7.7650
     7.7651   7.7663   7.7664   7.7665   7.7685   7.7701   7.7715   7.7722
     7.7746   7.7753   7.7777   7.7779   7.7785   7.7799   7.7816   7.7826
     7.7833   7.7845   7.7859   7.7861   7.8009   7.8058   7.8198   7.8293
     7.8299   7.8524   7.8555   7.8743   7.8879   7.8899   7.8954   7.9220
     7.9239   7.9261   7.9395   7.9516   7.9537   8.1078   8.1177   8.1213
     8.3153   8.3164   8.3566   8.3576   8.3584   8.3620   8.3637   8.3644
     8.3680   8.3694   8.3699   8.3710   8.3739   8.3744   8.3751   8.3816
     8.3817   8.3866   8.4038   8.4090   8.4134   8.4210   8.4243   8.4254
     8.4771   8.5202   8.5217   8.5509   8.5515   8.5532   8.5535   8.5542
     8.5555   8.5557   8.5604   8.5625   8.5631   8.5653   8.5692   8.5822
     8.5826   8.5839   8.5956   8.6059   8.6092   8.6105   8.6297   8.6306
     8.6312   8.6529   8.6602   8.6604   8.6617   8.6627   8.6642   8.6807
     8.6814   8.6830   8.6873   8.6895   8.6938   8.6959   8.6962   8.7058
     8.7208   8.7273   8.7287   8.7303   8.7315   8.7425   8.7448   8.7488
     8.7579   8.7805   8.7805   9.0157   9.0453   9.0475   9.1154   9.1166
     9.1319   9.1348   9.1358   9.1391   9.1415   9.1438   9.1440   9.1871
     9.2059   9.2062   9.2099   9.2538   9.2555   9.2597   9.2608   9.2669
     9.2794   9.2807   9.2951   9.4373   9.4729   9.4784   9.6714   9.6731
     9.7075   9.7089   9.7105   9.7117   9.7148   9.7167   9.7193   9.7198
     9.7313   9.7318   9.7369   9.7390   9.7418   9.7438   9.7454   9.7478
     9.7626   9.7689   9.7710   9.8340   9.8491   9.8508   9.8812   9.9781
     9.9810   9.9930   9.9960   9.9963   9.9994  10.0029  10.0029  10.0119
    10.0172  10.0190  10.0211  10.0272  10.0285  10.0295  10.0377  10.0392
    10.0398  10.0398  10.0422  10.0429  10.0440  10.0444  10.0454  10.0461
    10.0467  10.0468  10.0497  10.0510  10.0686  10.0709  10.0733  10.1493
    10.1509  10.1598  10.1977  10.1986  10.2009  10.2012  10.2016  10.2017
    10.2024  10.2038  10.2043  10.2049  10.2062  10.2074  10.2871  10.2885
    10.2954  10.3084  10.3094  10.3110  10.3117  10.3158  10.3176  10.3195
    10.3207  10.3223  10.3240  10.3254  10.3279  10.3280  10.3306  10.3315
    10.3317  10.3339  10.3342  10.3358  10.3376  10.3396  10.3397  10.3423
    10.3430  10.3481  10.3487  10.3498  10.3619  10.3638  10.3647  10.3745
    10.3783  10.3934  10.3972  10.4005  10.4048  10.4236  10.4287  10.4299
    10.4431  10.4500  10.4546  10.4619  10.4862  10.4910  10.5058  10.5083
    10.5892  10.6626  10.6738  11.2534  11.3417  11.3450  11.4677  11.4681
    11.4847  11.4862  11.4876  11.4905  11.4915  11.4921  11.4927  11.4941
    11.4952  11.4983  11.5025  11.5037  11.5061  11.5083  11.5181  11.5212
    11.5237  11.5364  11.5393  11.5404  11.5612  11.5645  11.5668  11.7489
    11.8798  11.8806  11.8910  11.9174  11.9203  12.2676  12.3573  12.3588
    12.4571  12.4694  12.4697  12.4735  12.4884  12.4932  12.4946  12.5296
    12.5409  12.5894  13.1959  13.1967  13.2094  14.9569  16.4053  16.5672
    17.4053  17.4067  17.4078  17.4235  17.4249  17.4363  17.7132  17.7167

     occupation numbers 
     1.0000   1.0000   1.0000   1.0000   1.0000   1.0000   1.0000   1.0000
     1.0000   1.0000   1.0000   1.0000   1.0000   1.0000   1.0000   1.0000
     1.0000   1.0000   1.0000   1.0000   1.0000   1.0000   1.0000   1.0000
     1.0000   1.0000   1.0000   1.0000   1.0000   1.0000   1.0000   1.0000
     1.0000   1.0000   1.0000   1.0000   1.0000   1.0000   1.0000   1.0000
     1.0000   1.0000   1.0000   1.0000   1.0000   1.0000   1.0000   1.0000
     1.0000   1.0000   1.0000   1.0000   1.0000   1.0000   1.0000   1.0000
     1.0000   1.0000   1.0000   1.0000   1.0000   1.0000   1.0000   1.0000
     1.0000   1.0000   1.0000   1.0000   1.0000   1.0000   1.0000   1.0000
     1.0000   1.0000   1.0000   1.0000   1.0000   1.0000   1.0000   1.0000
     1.0000   1.0000   1.0000   1.0000   1.0000   1.0000   1.0000   1.0000
     1.0000   1.0000   1.0000   1.0000   1.0000   1.0000   1.0000   1.0000
     1.0000   1.0000   1.0000   1.0000   1.0000   1.0000   1.0000   1.0000
     1.0000   1.0000   1.0000   1.0000   1.0000   1.0000   1.0000   1.0000
     1.0000   1.0000   1.0000   1.0000   1.0000   1.0000   1.0000   1.0000
     1.0000   1.0000   1.0000   1.0000   1.0000   1.0000   1.0000   1.0000
     1.0000   1.0000   1.0000   1.0000   1.0000   1.0000   1.0000   1.0000
     1.0000   1.0000   1.0000   1.0000   1.0000   1.0000   1.0000   1.0000
     1.0000   1.0000   1.0000   1.0000   1.0000   1.0000   1.0000   1.0000
     1.0000   1.0000   1.0000   1.0000   1.0000   1.0000   1.0000   1.0000
     1.0000   1.0000   1.0000   1.0000   1.0000   1.0000   1.0000   1.0000
     1.0000   1.0000   1.0000   1.0000   1.0000   1.0000   1.0000   1.0000
     1.0000   1.0000   1.0000   1.0000   1.0000   1.0000   1.0000   1.0000
     1.0000   1.0000   1.0000   1.0000   1.0000   1.0000   1.0000   1.0000
     1.0000   1.0000   1.0000   1.0000   1.0000   1.0000   1.0000   1.0000
     1.0000   1.0000   1.0000   1.0000   1.0000   1.0000   1.0000   1.0000
     1.0000   1.0000   1.0000   1.0000   1.0000   1.0000   1.0000   1.0000
     1.0000   1.0000   1.0000   1.0000   1.0000   1.0000   1.0000   1.0000
     1.0000   1.0000   1.0000   1.0000   1.0000   1.0000   1.0000   1.0000
     1.0000   1.0000   1.0000   1.0000   1.0000   1.0000   1.0000   1.0000
     1.0000   1.0000   1.0000   1.0000   1.0000   1.0000   1.0000   1.0000
     1.0000   1.0000   1.0000   1.0000   1.0000   1.0000   1.0000   1.0000
     1.0000   1.0000   1.0000   1.0000   1.0000   1.0000   1.0000   1.0000
     1.0000   1.0000   1.0000   1.0000   1.0000   1.0000   1.0000   1.0000
     1.0000   1.0000   1.0000   1.0000   1.0000   1.0000   1.0000   1.0000
     1.0000   1.0000   1.0000   1.0000   1.0000   1.0000   1.0000   1.0000
     1.0000   1.0000   1.0000   1.0000   1.0000   1.0000   1.0000   1.0000
     1.0000   1.0000   1.0000   1.0000   1.0000   1.0000   1.0000   1.0000
     1.0000   1.0000   1.0000   1.0000   1.0000   1.0000   1.0000   1.0000
     1.0000   1.0000   1.0000   1.0000   1.0000   1.0000   1.0000   1.0000
     1.0000   1.0000   1.0000   1.0000   1.0000   1.0000   1.0000   1.0000
     1.0000   1.0000   1.0000   1.0000   1.0000   1.0000   1.0000   1.0000
     1.0000   1.0000   1.0000   1.0000   1.0000   1.0000   1.0000   1.0000
     1.0000   1.0000   1.0000   1.0000   1.0000   1.0000   1.0000   1.0000
     1.0000   1.0000   1.0000   1.0000   1.0000   1.0000   1.0000   1.0000
     1.0000   1.0000   1.0000   1.0000   1.0000   1.0000   1.0000   1.0000
     1.0000   1.0000   1.0000   1.0000   1.0000   1.0000   1.0000   1.0000
     1.0000   1.0000   1.0000   1.0000   1.0000   1.0000   1.0000   1.0000
     1.0000   1.0000   1.0000   1.0000   1.0000   1.0000   1.0000   1.0000
     1.0000   1.0000   1.0000   1.0000   1.0000   1.0000   1.0000   1.0000
     1.0000   1.0000   1.0000   1.0000   1.0000   1.0000   1.0000   1.0000
     1.0000   1.0000   1.0000   1.0000   1.0000   1.0000   1.0000   1.0000
     1.0000   1.0000   1.0000   1.0000   1.0000   1.0000   1.0000   1.0000
     1.0000   1.0000   1.0000   1.0000   1.0000   1.0000   1.0000   1.0000
     1.0000   1.0000   1.0000   1.0000   1.0000   1.0000   1.0000   1.0000
     1.0000   1.0000   1.0000   1.0000   1.0000   1.0000   1.0000   1.0000
     1.0000   1.0000   1.0000   1.0000   1.0000   1.0000   1.0000   1.0000
     1.0000   1.0000   1.0000   1.0000   1.0000   1.0000   1.0000   1.0000
     1.0000   1.0000   1.0000   1.0000   1.0000   1.0000   1.0000   1.0000
     1.0000   1.0000   1.0000   1.0000   1.0000   1.0000   1.0000   1.0000
     1.0000   1.0000   1.0000   1.0000   1.0000   1.0000   1.0000   1.0000
     1.0000   1.0000   1.0000   1.0000   1.0000   1.0000   1.0000   1.0000
     1.0000   1.0000   1.0000   1.0000   1.0000   1.0000   1.0000   1.0000
     1.0000   1.0000   1.0000   1.0000   1.0000   1.0000   1.0000   1.0000
     1.0000   1.0000   1.0000   1.0000   1.0000   1.0000   1.0000   1.0000
     1.0000   1.0000   1.0000   1.0000   1.0000   1.0000   1.0000   1.0000
     1.0000   1.0000   1.0000   1.0000   1.0000   1.0000   1.0000   1.0000
     1.0000   1.0000   1.0000   1.0000   1.0000   1.0000   1.0000   1.0000
     1.0000   1.0000   1.0000   1.0000   1.0000   1.0000   1.0000   1.0000
     1.0000   1.0000   1.0000   1.0000   1.0000   1.0000   1.0000   1.0000
     1.0000   1.0000   1.0000   1.0000   1.0000   1.0000   1.0000   1.0000
     1.0000   1.0000   1.0000   1.0000   1.0000   1.0000   1.0000   1.0000
     1.0000   1.0000   1.0000   1.0000   1.0000   1.0000   1.0000   1.0000
     1.0000   1.0000   1.0000   1.0000   1.0000   1.0000   1.0000   1.0000
     1.0000   1.0000   1.0000   1.0000   1.0000   1.0000   1.0000   1.0000
     1.0000   1.0000   1.0000   1.0000   1.0000   1.0000   1.0000   1.0000
     1.0000   1.0000   1.0000   1.0000   1.0000   1.0000   1.0000   1.0000
     1.0000   1.0000   1.0000   1.0000   1.0000   1.0000   1.0000   1.0000
     1.0000   1.0000   1.0000   1.0000   1.0000   1.0000   1.0000   1.0000
     1.0000   1.0000   1.0000   1.0000   1.0000   1.0000   1.0000   1.0000
     1.0000   1.0000   1.0000   1.0000   1.0000   1.0000   1.0000   1.0000
     1.0000   1.0000   1.0000   1.0000   1.0000   1.0000   1.0000   1.0000
     1.0000   1.0000   1.0000   1.0000   1.0000   1.0000   1.0000   1.0000
     1.0000   1.0000   1.0000   1.0000   1.0000   1.0000   1.0000   1.0000
     1.0000   1.0000   1.0000   1.0000   1.0000   1.0000   1.0000   1.0000
     1.0000   1.0000   1.0000   1.0000   1.0000   1.0000   1.0000   1.0000
     1.0000   1.0000   1.0000   1.0000   1.0000   1.0000   1.0000   1.0000
     1.0000   1.0000   1.0000   1.0000   1.0000   1.0000   1.0000   1.0000
     1.0000   1.0000   1.0000   1.0000   1.0000   1.0000   1.0000   1.0000
     1.0000   1.0000   1.0000   1.0000   1.0000   1.0000   1.0000   1.0000
     1.0000   1.0000   1.0000   1.0000   1.0000   1.0000   1.0000   1.0000
     1.0000   1.0000   1.0000   1.0000   1.0000   1.0000   1.0000   1.0000
     1.0000   1.0000   1.0000   1.0000   1.0000   1.0000   1.0000   1.0000
     1.0000   1.0000   1.0000   1.0000   1.0000   1.0000   1.0000   1.0000
     1.0000   1.0000   1.0000   1.0000   1.0000   1.0000   1.0000   1.0000
     1.0000   1.0000   1.0000   1.0000   1.0000   1.0000   1.0000   1.0000
     1.0000   1.0000   1.0000   1.0000   1.0000   1.0000   1.0000   1.0000
     1.0000   1.0000   1.0000   1.0000   1.0000   1.0000   1.0000   1.0000
     1.0000   1.0000   1.0000   1.0000   1.0000   1.0000   1.0000   1.0000
     1.0000   1.0000   1.0000   1.0000   1.0000   1.0000   1.0000   1.0000
     1.0000   1.0000   1.0000   1.0000   1.0000   1.0000   1.0000   1.0000
     1.0000   1.0000   1.0000   1.0000   1.0000   1.0000   1.0000   1.0000
     1.0000   1.0000   1.0000   1.0000   1.0000   1.0000   1.0000   1.0000
     1.0000   1.0000   1.0000   1.0000   1.0000   1.0000   1.0000   1.0000
     1.0000   1.0000   1.0000   1.0000   1.0000   1.0000   1.0000   1.0000
     1.0000   1.0000   1.0000   1.0000   1.0000   1.0000   1.0000   1.0000
     1.0000   1.0000   1.0000   1.0000   1.0000   1.0000   1.0000   1.0000
     1.0000   1.0000   1.0000   1.0000   1.0000   1.0000   1.0000   1.0000
     1.0000   1.0000   1.0000   1.0000   1.0000   1.0000   1.0000   1.0000
     1.0000   1.0000   1.0000   1.0000   1.0000   1.0000   1.0000   1.0000
     1.0000   1.0000   1.0000   1.0000   1.0000   1.0000   1.0000   1.0000
     1.0000   1.0000   1.0000   1.0000   1.0000   1.0000   1.0000   1.0000
     1.0000   1.0000   1.0000   1.0000   1.0000   1.0000   1.0000   1.0000
     1.0000   1.0000   1.0000   1.0000   1.0000   1.0000   1.0000   1.0000
     1.0000   1.0000   1.0000   1.0000   1.0000   1.0000   1.0000   1.0000
     1.0000   1.0000   1.0000   1.0000   1.0000   1.0000   1.0000   1.0000
     1.0000   1.0000   1.0000   1.0000   1.0000   1.0000   1.0000   1.0000
     1.0000   1.0000   1.0000   1.0000   1.0000   1.0000   1.0000   1.0000
     1.0000   1.0000   1.0000   1.0000   1.0000   1.0000   1.0000   1.0000
     1.0000   1.0000   1.0000   1.0000   1.0000   1.0000   1.0000   1.0000
     1.0000   1.0000   1.0000   1.0000   1.0000   1.0000   1.0000   1.0000
     1.0000   1.0000   1.0000   1.0000   1.0000   1.0000   1.0000   1.0000
     1.0000   1.0000   1.0000   1.0000   1.0000   1.0000   1.0000   1.0000
     1.0000   1.0000   1.0000   1.0000   1.0000   1.0000   1.0000   1.0000
     1.0000   1.0000   1.0000   1.0000   1.0000   1.0000   1.0000   1.0000
     1.0000   1.0000   1.0000   1.0000   1.0000   1.0000   1.0000   1.0000
     1.0000   1.0000   1.0000   1.0000   1.0000   1.0000   1.0000   1.0000
     1.0000   1.0000   1.0000   1.0000   1.0000   1.0000   0.0000   0.0000
     0.0000   0.0000   0.0000   0.0000   0.0000   0.0000   0.0000   0.0000

     highest occupied, lowest unoccupied level (ev):    15.1704   16.4053

!    total energy              =   -5829.08521118 Ry
     estimated scf accuracy    <          3.9E-11 Ry

     The total energy is the sum of the following terms:
     one-electron contribution =    2011.13710228 Ry
     hartree contribution      =     505.54976207 Ry
     xc contribution           =   -1820.33299220 Ry
     ewald contribution        =   -6525.43908333 Ry

     total magnetization       =     2.00 Bohr mag/cell
     absolute magnetization    =     2.30 Bohr mag/cell

     convergence has been achieved in  21 iterations

 %%%%%%%%%%%%%%%%%%%%%%%%%%%%%%%%%%%%%%%%%%%%%%%%%%%%%%%%%%%%%%%%%%%%%%%%%%%%%%
     Error in routine write_rhog (2):
     error writing file ./pwscf.save/charge-density
 %%%%%%%%%%%%%%%%%%%%%%%%%%%%%%%%%%%%%%%%%%%%%%%%%%%%%%%%%%%%%%%%%%%%%%%%%%%%%%

     stopping ...

 %%%%%%%%%%%%%%%%%%%%%%%%%%%%%%%%%%%%%%%%%%%%%%%%%%%%%%%%%%%%%%%%%%%%%%%%%%%%%%
     Error in routine write_rhog (2):
     error writing file ./pwscf.save/charge-density
 %%%%%%%%%%%%%%%%%%%%%%%%%%%%%%%%%%%%%%%%%%%%%%%%%%%%%%%%%%%%%%%%%%%%%%%%%%%%%%

     stopping ...

 %%%%%%%%%%%%%%%%%%%%%%%%%%%%%%%%%%%%%%%%%%%%%%%%%%%%%%%%%%%%%%%%%%%%%%%%%%%%%%
     Error in routine write_rhog (2):
     error writing file ./pwscf.save/charge-density
 %%%%%%%%%%%%%%%%%%%%%%%%%%%%%%%%%%%%%%%%%%%%%%%%%%%%%%%%%%%%%%%%%%%%%%%%%%%%%%

     stopping ...

 %%%%%%%%%%%%%%%%%%%%%%%%%%%%%%%%%%%%%%%%%%%%%%%%%%%%%%%%%%%%%%%%%%%%%%%%%%%%%%
     Error in routine write_rhog (2):
     error writing file ./pwscf.save/charge-density
 %%%%%%%%%%%%%%%%%%%%%%%%%%%%%%%%%%%%%%%%%%%%%%%%%%%%%%%%%%%%%%%%%%%%%%%%%%%%%%

     stopping ...

 %%%%%%%%%%%%%%%%%%%%%%%%%%%%%%%%%%%%%%%%%%%%%%%%%%%%%%%%%%%%%%%%%%%%%%%%%%%%%%
     Error in routine write_rhog (2):
     error writing file ./pwscf.save/charge-density
 %%%%%%%%%%%%%%%%%%%%%%%%%%%%%%%%%%%%%%%%%%%%%%%%%%%%%%%%%%%%%%%%%%%%%%%%%%%%%%

     stopping ...

 %%%%%%%%%%%%%%%%%%%%%%%%%%%%%%%%%%%%%%%%%%%%%%%%%%%%%%%%%%%%%%%%%%%%%%%%%%%%%%
     Error in routine write_rhog (2):
     error writing file ./pwscf.save/charge-density
 %%%%%%%%%%%%%%%%%%%%%%%%%%%%%%%%%%%%%%%%%%%%%%%%%%%%%%%%%%%%%%%%%%%%%%%%%%%%%%

     stopping ...

 %%%%%%%%%%%%%%%%%%%%%%%%%%%%%%%%%%%%%%%%%%%%%%%%%%%%%%%%%%%%%%%%%%%%%%%%%%%%%%
     Error in routine write_rhog (2):
     error writing file ./pwscf.save/charge-density
 %%%%%%%%%%%%%%%%%%%%%%%%%%%%%%%%%%%%%%%%%%%%%%%%%%%%%%%%%%%%%%%%%%%%%%%%%%%%%%

     stopping ...

 %%%%%%%%%%%%%%%%%%%%%%%%%%%%%%%%%%%%%%%%%%%%%%%%%%%%%%%%%%%%%%%%%%%%%%%%%%%%%%
     Error in routine write_rhog (2):
     error writing file ./pwscf.save/charge-density
 %%%%%%%%%%%%%%%%%%%%%%%%%%%%%%%%%%%%%%%%%%%%%%%%%%%%%%%%%%%%%%%%%%%%%%%%%%%%%%

     stopping ...

 %%%%%%%%%%%%%%%%%%%%%%%%%%%%%%%%%%%%%%%%%%%%%%%%%%%%%%%%%%%%%%%%%%%%%%%%%%%%%%
     Error in routine write_rhog (2):
     error writing file ./pwscf.save/charge-density
 %%%%%%%%%%%%%%%%%%%%%%%%%%%%%%%%%%%%%%%%%%%%%%%%%%%%%%%%%%%%%%%%%%%%%%%%%%%%%%

     stopping ...

 %%%%%%%%%%%%%%%%%%%%%%%%%%%%%%%%%%%%%%%%%%%%%%%%%%%%%%%%%%%%%%%%%%%%%%%%%%%%%%
     Error in routine write_rhog (2):
     error writing file ./pwscf.save/charge-density
 %%%%%%%%%%%%%%%%%%%%%%%%%%%%%%%%%%%%%%%%%%%%%%%%%%%%%%%%%%%%%%%%%%%%%%%%%%%%%%

     stopping ...

 %%%%%%%%%%%%%%%%%%%%%%%%%%%%%%%%%%%%%%%%%%%%%%%%%%%%%%%%%%%%%%%%%%%%%%%%%%%%%%
     Error in routine write_rhog (2):
     error writing file ./pwscf.save/charge-density
 %%%%%%%%%%%%%%%%%%%%%%%%%%%%%%%%%%%%%%%%%%%%%%%%%%%%%%%%%%%%%%%%%%%%%%%%%%%%%%

     stopping ...

 %%%%%%%%%%%%%%%%%%%%%%%%%%%%%%%%%%%%%%%%%%%%%%%%%%%%%%%%%%%%%%%%%%%%%%%%%%%%%%
     Error in routine write_rhog (2):
     error writing file ./pwscf.save/charge-density
 %%%%%%%%%%%%%%%%%%%%%%%%%%%%%%%%%%%%%%%%%%%%%%%%%%%%%%%%%%%%%%%%%%%%%%%%%%%%%%

     stopping ...

 %%%%%%%%%%%%%%%%%%%%%%%%%%%%%%%%%%%%%%%%%%%%%%%%%%%%%%%%%%%%%%%%%%%%%%%%%%%%%%
     Error in routine write_rhog (2):
     error writing file ./pwscf.save/charge-density
 %%%%%%%%%%%%%%%%%%%%%%%%%%%%%%%%%%%%%%%%%%%%%%%%%%%%%%%%%%%%%%%%%%%%%%%%%%%%%%

     stopping ...

 %%%%%%%%%%%%%%%%%%%%%%%%%%%%%%%%%%%%%%%%%%%%%%%%%%%%%%%%%%%%%%%%%%%%%%%%%%%%%%
     Error in routine write_rhog (2):
     error writing file ./pwscf.save/charge-density
 %%%%%%%%%%%%%%%%%%%%%%%%%%%%%%%%%%%%%%%%%%%%%%%%%%%%%%%%%%%%%%%%%%%%%%%%%%%%%%

     stopping ...

 %%%%%%%%%%%%%%%%%%%%%%%%%%%%%%%%%%%%%%%%%%%%%%%%%%%%%%%%%%%%%%%%%%%%%%%%%%%%%%
     Error in routine write_rhog (2):
     error writing file ./pwscf.save/charge-density
 %%%%%%%%%%%%%%%%%%%%%%%%%%%%%%%%%%%%%%%%%%%%%%%%%%%%%%%%%%%%%%%%%%%%%%%%%%%%%%

     stopping ...

 %%%%%%%%%%%%%%%%%%%%%%%%%%%%%%%%%%%%%%%%%%%%%%%%%%%%%%%%%%%%%%%%%%%%%%%%%%%%%%
     Error in routine write_rhog (2):
     error writing file ./pwscf.save/charge-density
 %%%%%%%%%%%%%%%%%%%%%%%%%%%%%%%%%%%%%%%%%%%%%%%%%%%%%%%%%%%%%%%%%%%%%%%%%%%%%%

     stopping ...

 %%%%%%%%%%%%%%%%%%%%%%%%%%%%%%%%%%%%%%%%%%%%%%%%%%%%%%%%%%%%%%%%%%%%%%%%%%%%%%
     Error in routine write_rhog (2):
     error writing file ./pwscf.save/charge-density
 %%%%%%%%%%%%%%%%%%%%%%%%%%%%%%%%%%%%%%%%%%%%%%%%%%%%%%%%%%%%%%%%%%%%%%%%%%%%%%

     stopping ...

 %%%%%%%%%%%%%%%%%%%%%%%%%%%%%%%%%%%%%%%%%%%%%%%%%%%%%%%%%%%%%%%%%%%%%%%%%%%%%%
     Error in routine write_rhog (2):
     error writing file ./pwscf.save/charge-density
 %%%%%%%%%%%%%%%%%%%%%%%%%%%%%%%%%%%%%%%%%%%%%%%%%%%%%%%%%%%%%%%%%%%%%%%%%%%%%%

     stopping ...

 %%%%%%%%%%%%%%%%%%%%%%%%%%%%%%%%%%%%%%%%%%%%%%%%%%%%%%%%%%%%%%%%%%%%%%%%%%%%%%
     Error in routine write_rhog (2):
     error writing file ./pwscf.save/charge-density
 %%%%%%%%%%%%%%%%%%%%%%%%%%%%%%%%%%%%%%%%%%%%%%%%%%%%%%%%%%%%%%%%%%%%%%%%%%%%%%

     stopping ...

 %%%%%%%%%%%%%%%%%%%%%%%%%%%%%%%%%%%%%%%%%%%%%%%%%%%%%%%%%%%%%%%%%%%%%%%%%%%%%%
     Error in routine write_rhog (2):
     error writing file ./pwscf.save/charge-density
 %%%%%%%%%%%%%%%%%%%%%%%%%%%%%%%%%%%%%%%%%%%%%%%%%%%%%%%%%%%%%%%%%%%%%%%%%%%%%%

     stopping ...

 %%%%%%%%%%%%%%%%%%%%%%%%%%%%%%%%%%%%%%%%%%%%%%%%%%%%%%%%%%%%%%%%%%%%%%%%%%%%%%
     Error in routine write_rhog (2):
     error writing file ./pwscf.save/charge-density
 %%%%%%%%%%%%%%%%%%%%%%%%%%%%%%%%%%%%%%%%%%%%%%%%%%%%%%%%%%%%%%%%%%%%%%%%%%%%%%

     stopping ...

 %%%%%%%%%%%%%%%%%%%%%%%%%%%%%%%%%%%%%%%%%%%%%%%%%%%%%%%%%%%%%%%%%%%%%%%%%%%%%%
     Error in routine write_rhog (2):
     error writing file ./pwscf.save/charge-density
 %%%%%%%%%%%%%%%%%%%%%%%%%%%%%%%%%%%%%%%%%%%%%%%%%%%%%%%%%%%%%%%%%%%%%%%%%%%%%%

     stopping ...

 %%%%%%%%%%%%%%%%%%%%%%%%%%%%%%%%%%%%%%%%%%%%%%%%%%%%%%%%%%%%%%%%%%%%%%%%%%%%%%
     Error in routine write_rhog (2):
     error writing file ./pwscf.save/charge-density
 %%%%%%%%%%%%%%%%%%%%%%%%%%%%%%%%%%%%%%%%%%%%%%%%%%%%%%%%%%%%%%%%%%%%%%%%%%%%%%

     stopping ...

 %%%%%%%%%%%%%%%%%%%%%%%%%%%%%%%%%%%%%%%%%%%%%%%%%%%%%%%%%%%%%%%%%%%%%%%%%%%%%%
     Error in routine write_rhog (2):
     error writing file ./pwscf.save/charge-density
 %%%%%%%%%%%%%%%%%%%%%%%%%%%%%%%%%%%%%%%%%%%%%%%%%%%%%%%%%%%%%%%%%%%%%%%%%%%%%%

     stopping ...

 %%%%%%%%%%%%%%%%%%%%%%%%%%%%%%%%%%%%%%%%%%%%%%%%%%%%%%%%%%%%%%%%%%%%%%%%%%%%%%
     Error in routine write_rhog (2):
     error writing file ./pwscf.save/charge-density
 %%%%%%%%%%%%%%%%%%%%%%%%%%%%%%%%%%%%%%%%%%%%%%%%%%%%%%%%%%%%%%%%%%%%%%%%%%%%%%

     stopping ...

 %%%%%%%%%%%%%%%%%%%%%%%%%%%%%%%%%%%%%%%%%%%%%%%%%%%%%%%%%%%%%%%%%%%%%%%%%%%%%%
     Error in routine write_rhog (2):
     error writing file ./pwscf.save/charge-density
 %%%%%%%%%%%%%%%%%%%%%%%%%%%%%%%%%%%%%%%%%%%%%%%%%%%%%%%%%%%%%%%%%%%%%%%%%%%%%%

     stopping ...

 %%%%%%%%%%%%%%%%%%%%%%%%%%%%%%%%%%%%%%%%%%%%%%%%%%%%%%%%%%%%%%%%%%%%%%%%%%%%%%
     Error in routine write_rhog (2):
     error writing file ./pwscf.save/charge-density
 %%%%%%%%%%%%%%%%%%%%%%%%%%%%%%%%%%%%%%%%%%%%%%%%%%%%%%%%%%%%%%%%%%%%%%%%%%%%%%

     stopping ...

 %%%%%%%%%%%%%%%%%%%%%%%%%%%%%%%%%%%%%%%%%%%%%%%%%%%%%%%%%%%%%%%%%%%%%%%%%%%%%%
     Error in routine write_rhog (2):
     error writing file ./pwscf.save/charge-density
 %%%%%%%%%%%%%%%%%%%%%%%%%%%%%%%%%%%%%%%%%%%%%%%%%%%%%%%%%%%%%%%%%%%%%%%%%%%%%%

     stopping ...

 %%%%%%%%%%%%%%%%%%%%%%%%%%%%%%%%%%%%%%%%%%%%%%%%%%%%%%%%%%%%%%%%%%%%%%%%%%%%%%
     Error in routine write_rhog (2):
     error writing file ./pwscf.save/charge-density
 %%%%%%%%%%%%%%%%%%%%%%%%%%%%%%%%%%%%%%%%%%%%%%%%%%%%%%%%%%%%%%%%%%%%%%%%%%%%%%

     stopping ...

 %%%%%%%%%%%%%%%%%%%%%%%%%%%%%%%%%%%%%%%%%%%%%%%%%%%%%%%%%%%%%%%%%%%%%%%%%%%%%%
     Error in routine write_rhog (2):
     error writing file ./pwscf.save/charge-density
 %%%%%%%%%%%%%%%%%%%%%%%%%%%%%%%%%%%%%%%%%%%%%%%%%%%%%%%%%%%%%%%%%%%%%%%%%%%%%%

     stopping ...

 %%%%%%%%%%%%%%%%%%%%%%%%%%%%%%%%%%%%%%%%%%%%%%%%%%%%%%%%%%%%%%%%%%%%%%%%%%%%%%
     Error in routine write_rhog (2):
     error writing file ./pwscf.save/charge-density
 %%%%%%%%%%%%%%%%%%%%%%%%%%%%%%%%%%%%%%%%%%%%%%%%%%%%%%%%%%%%%%%%%%%%%%%%%%%%%%

     stopping ...

 %%%%%%%%%%%%%%%%%%%%%%%%%%%%%%%%%%%%%%%%%%%%%%%%%%%%%%%%%%%%%%%%%%%%%%%%%%%%%%
     Error in routine write_rhog (2):
     error writing file ./pwscf.save/charge-density
 %%%%%%%%%%%%%%%%%%%%%%%%%%%%%%%%%%%%%%%%%%%%%%%%%%%%%%%%%%%%%%%%%%%%%%%%%%%%%%

     stopping ...

 %%%%%%%%%%%%%%%%%%%%%%%%%%%%%%%%%%%%%%%%%%%%%%%%%%%%%%%%%%%%%%%%%%%%%%%%%%%%%%
     Error in routine write_rhog (2):
     error writing file ./pwscf.save/charge-density
 %%%%%%%%%%%%%%%%%%%%%%%%%%%%%%%%%%%%%%%%%%%%%%%%%%%%%%%%%%%%%%%%%%%%%%%%%%%%%%

     stopping ...

 %%%%%%%%%%%%%%%%%%%%%%%%%%%%%%%%%%%%%%%%%%%%%%%%%%%%%%%%%%%%%%%%%%%%%%%%%%%%%%
     Error in routine write_rhog (2):
     error writing file ./pwscf.save/charge-density
 %%%%%%%%%%%%%%%%%%%%%%%%%%%%%%%%%%%%%%%%%%%%%%%%%%%%%%%%%%%%%%%%%%%%%%%%%%%%%%

     stopping ...

 %%%%%%%%%%%%%%%%%%%%%%%%%%%%%%%%%%%%%%%%%%%%%%%%%%%%%%%%%%%%%%%%%%%%%%%%%%%%%%
     Error in routine write_rhog (2):
     error writing file ./pwscf.save/charge-density
 %%%%%%%%%%%%%%%%%%%%%%%%%%%%%%%%%%%%%%%%%%%%%%%%%%%%%%%%%%%%%%%%%%%%%%%%%%%%%%

     stopping ...

 %%%%%%%%%%%%%%%%%%%%%%%%%%%%%%%%%%%%%%%%%%%%%%%%%%%%%%%%%%%%%%%%%%%%%%%%%%%%%%
     Error in routine write_rhog (2):
     error writing file ./pwscf.save/charge-density
 %%%%%%%%%%%%%%%%%%%%%%%%%%%%%%%%%%%%%%%%%%%%%%%%%%%%%%%%%%%%%%%%%%%%%%%%%%%%%%

     stopping ...

 %%%%%%%%%%%%%%%%%%%%%%%%%%%%%%%%%%%%%%%%%%%%%%%%%%%%%%%%%%%%%%%%%%%%%%%%%%%%%%
     Error in routine write_rhog (2):
     error writing file ./pwscf.save/charge-density
 %%%%%%%%%%%%%%%%%%%%%%%%%%%%%%%%%%%%%%%%%%%%%%%%%%%%%%%%%%%%%%%%%%%%%%%%%%%%%%

     stopping ...

 %%%%%%%%%%%%%%%%%%%%%%%%%%%%%%%%%%%%%%%%%%%%%%%%%%%%%%%%%%%%%%%%%%%%%%%%%%%%%%
     Error in routine write_rhog (2):
     error writing file ./pwscf.save/charge-density
 %%%%%%%%%%%%%%%%%%%%%%%%%%%%%%%%%%%%%%%%%%%%%%%%%%%%%%%%%%%%%%%%%%%%%%%%%%%%%%

     stopping ...

 %%%%%%%%%%%%%%%%%%%%%%%%%%%%%%%%%%%%%%%%%%%%%%%%%%%%%%%%%%%%%%%%%%%%%%%%%%%%%%
     Error in routine write_rhog (2):
     error writing file ./pwscf.save/charge-density
 %%%%%%%%%%%%%%%%%%%%%%%%%%%%%%%%%%%%%%%%%%%%%%%%%%%%%%%%%%%%%%%%%%%%%%%%%%%%%%

     stopping ...

 %%%%%%%%%%%%%%%%%%%%%%%%%%%%%%%%%%%%%%%%%%%%%%%%%%%%%%%%%%%%%%%%%%%%%%%%%%%%%%
     Error in routine write_rhog (2):
     error writing file ./pwscf.save/charge-density
 %%%%%%%%%%%%%%%%%%%%%%%%%%%%%%%%%%%%%%%%%%%%%%%%%%%%%%%%%%%%%%%%%%%%%%%%%%%%%%

     stopping ...

 %%%%%%%%%%%%%%%%%%%%%%%%%%%%%%%%%%%%%%%%%%%%%%%%%%%%%%%%%%%%%%%%%%%%%%%%%%%%%%
     Error in routine write_rhog (2):
     error writing file ./pwscf.save/charge-density
 %%%%%%%%%%%%%%%%%%%%%%%%%%%%%%%%%%%%%%%%%%%%%%%%%%%%%%%%%%%%%%%%%%%%%%%%%%%%%%

     stopping ...

 %%%%%%%%%%%%%%%%%%%%%%%%%%%%%%%%%%%%%%%%%%%%%%%%%%%%%%%%%%%%%%%%%%%%%%%%%%%%%%
     Error in routine write_rhog (2):
     error writing file ./pwscf.save/charge-density
 %%%%%%%%%%%%%%%%%%%%%%%%%%%%%%%%%%%%%%%%%%%%%%%%%%%%%%%%%%%%%%%%%%%%%%%%%%%%%%

     stopping ...

 %%%%%%%%%%%%%%%%%%%%%%%%%%%%%%%%%%%%%%%%%%%%%%%%%%%%%%%%%%%%%%%%%%%%%%%%%%%%%%
     Error in routine write_rhog (2):
     error writing file ./pwscf.save/charge-density
 %%%%%%%%%%%%%%%%%%%%%%%%%%%%%%%%%%%%%%%%%%%%%%%%%%%%%%%%%%%%%%%%%%%%%%%%%%%%%%

     stopping ...

 %%%%%%%%%%%%%%%%%%%%%%%%%%%%%%%%%%%%%%%%%%%%%%%%%%%%%%%%%%%%%%%%%%%%%%%%%%%%%%
     Error in routine write_rhog (2):
     error writing file ./pwscf.save/charge-density
 %%%%%%%%%%%%%%%%%%%%%%%%%%%%%%%%%%%%%%%%%%%%%%%%%%%%%%%%%%%%%%%%%%%%%%%%%%%%%%

     stopping ...

 %%%%%%%%%%%%%%%%%%%%%%%%%%%%%%%%%%%%%%%%%%%%%%%%%%%%%%%%%%%%%%%%%%%%%%%%%%%%%%
     Error in routine write_rhog (2):
     error writing file ./pwscf.save/charge-density
 %%%%%%%%%%%%%%%%%%%%%%%%%%%%%%%%%%%%%%%%%%%%%%%%%%%%%%%%%%%%%%%%%%%%%%%%%%%%%%

     stopping ...

 %%%%%%%%%%%%%%%%%%%%%%%%%%%%%%%%%%%%%%%%%%%%%%%%%%%%%%%%%%%%%%%%%%%%%%%%%%%%%%
     Error in routine write_rhog (2):
     error writing file ./pwscf.save/charge-density
 %%%%%%%%%%%%%%%%%%%%%%%%%%%%%%%%%%%%%%%%%%%%%%%%%%%%%%%%%%%%%%%%%%%%%%%%%%%%%%

     stopping ...

 %%%%%%%%%%%%%%%%%%%%%%%%%%%%%%%%%%%%%%%%%%%%%%%%%%%%%%%%%%%%%%%%%%%%%%%%%%%%%%
     Error in routine write_rhog (2):
     error writing file ./pwscf.save/charge-density
 %%%%%%%%%%%%%%%%%%%%%%%%%%%%%%%%%%%%%%%%%%%%%%%%%%%%%%%%%%%%%%%%%%%%%%%%%%%%%%

     stopping ...

 %%%%%%%%%%%%%%%%%%%%%%%%%%%%%%%%%%%%%%%%%%%%%%%%%%%%%%%%%%%%%%%%%%%%%%%%%%%%%%
     Error in routine write_rhog (2):
     error writing file ./pwscf.save/charge-density
 %%%%%%%%%%%%%%%%%%%%%%%%%%%%%%%%%%%%%%%%%%%%%%%%%%%%%%%%%%%%%%%%%%%%%%%%%%%%%%

     stopping ...
