
     Program PWSCF v.7.5 starts on  4Dec2025 at 23:26:52 

     This program is part of the open-source Quantum ESPRESSO suite
     for quantum simulation of materials; please cite
         "P. Giannozzi et al., J. Phys.:Condens. Matter 21 395502 (2009);
         "P. Giannozzi et al., J. Phys.:Condens. Matter 29 465901 (2017);
         "P. Giannozzi et al., J. Chem. Phys. 152 154105 (2020);
          URL http://www.quantum-espresso.org", 
     in publications or presentations arising from this work. More details at
     http://www.quantum-espresso.org/quote

     Parallel version (MPI), running on    96 processors

     MPI processes distributed on     2 nodes
     175805 MiB available memory on the printing compute node when the environment starts
 
     Reading input from pw.in

     Current dimensions of program PWSCF are:
     Max number of different atomic species (ntypx) = 10
     Max number of k-points (npk) =  40000
     Max angular momentum in pseudopotentials (lmaxx) =  4

     gamma-point specific algorithms are used
     Message from routine setup:
     using ibrav=0 with symmetry is DISCOURAGED, use correct ibrav instead
 
     K-points division:     npool     =       2
     R & G space division:  proc/nbgrp/npool/nimage =      48
     Subspace diagonalization in iterative solution of the eigenvalue problem:
     one sub-group per band group will be used
     scalapack distributed-memory algorithm (size of sub-group:  6*  6 procs)

 
     Parallelization info
     --------------------
     sticks:   dense  smooth     PW     G-vecs:    dense   smooth      PW
     Min         384     384     96                39496    39496    4936
     Max         386     386     98                39521    39521    4949
     Sum       18505   18505   4637              1896521  1896521  237129
 
     Using Slab Decomposition
 


     bravais-lattice index     =            0
     lattice parameter (alat)  =      26.9702  a.u.
     unit-cell volume          =   19617.8366 (a.u.)^3
     number of atoms/cell      =          511
     number of atomic types    =            2
     number of electrons       =      2046.00 (up:1024.00, down:1022.00)
     number of Kohn-Sham states=         1032
     kinetic-energy cutoff     =      80.0000  Ry
     charge density cutoff     =     320.0000  Ry
     scf convergence threshold =      1.0E-10
     mixing beta               =       0.7000
     number of iterations used =            8  plain     mixing
     Exchange-correlation= PBE
                           (   1   4   3   4   0   0   0)

     celldm(1)=  26.970171  celldm(2)=   0.000000  celldm(3)=   0.000000
     celldm(4)=   0.000000  celldm(5)=   0.000000  celldm(6)=   0.000000

     crystal axes: (cart. coord. in units of alat)
               a(1) = (   1.000000   0.000000   0.000000 )  
               a(2) = (   0.000000   1.000000   0.000000 )  
               a(3) = (   0.000000   0.000000   1.000000 )  

     reciprocal axes: (cart. coord. in units 2 pi/alat)
               b(1) = (  1.000000  0.000000  0.000000 )  
               b(2) = (  0.000000  1.000000  0.000000 )  
               b(3) = (  0.000000  0.000000  1.000000 )  


     PseudoPot. # 1 for C  read from file:
     ./C_ONCV_PBE-1.2.upf
     MD5 check sum: d60b57d9bdca4133f5fde4b584ee909d
     Pseudo is Norm-conserving, Zval =  4.0
     Generated using ONCVPSP code by D. R. Hamann
     Using radial grid of  602 points,  4 beta functions with: 
                l(1) =   0
                l(2) =   0
                l(3) =   1
                l(4) =   1

     PseudoPot. # 2 for N  read from file:
     ./N_ONCV_PBE-1.2.upf
     MD5 check sum: 5312fdf34e96954e02a33bdc911c617a
     Pseudo is Norm-conserving, Zval =  5.0
     Generated using ONCVPSP code by D. R. Hamann
     Using radial grid of  602 points,  4 beta functions with: 
                l(1) =   0
                l(2) =   0
                l(3) =   1
                l(4) =   1

     atomic species   valence    mass     pseudopotential
     C                 4.00    12.01100     C ( 1.00)
     N                 5.00    14.00670     N ( 1.00)

     Starting magnetic structure 
     atomic species   magnetization
     C               0.000
     N               0.000

      2 Sym. Ops. (no inversion) found


                                    s                        frac. trans.

      isym =  1     identity                                     

 cryst.   s( 1) = (     1          0          0      )
                  (     0          1          0      )
                  (     0          0          1      )

 cart.    s( 1) = (  1.0000000  0.0000000  0.0000000 )
                  (  0.0000000  1.0000000  0.0000000 )
                  (  0.0000000  0.0000000  1.0000000 )


      isym =  2     inv. 180 deg rotation - cart. axis [0,1,-1]  

 cryst.   s( 2) = (     1          0          0      )
                  (     0          0          1      )
                  (     0          1          0      )

 cart.    s( 2) = (  1.0000000  0.0000000  0.0000000 )
                  (  0.0000000  0.0000000  1.0000000 )
                  (  0.0000000  1.0000000  0.0000000 )


   Cartesian axes

     site n.     atom                  positions (alat units)
         1        C      tau(   1) = (   0.0000014   0.0000031   0.0000080  )
         2        C      tau(   2) = (  -0.0000531  -0.0000397   0.2500154  )
         3        C      tau(   3) = (  -0.0000285  -0.0000112   0.5000073  )
         4        C      tau(   4) = (   0.0000559   0.0000468   0.7499967  )
         5        C      tau(   5) = (  -0.0000533   0.2500106  -0.0000346  )
         6        C      tau(   6) = (  -0.0000832   0.2499743   0.2499793  )
         7        C      tau(   7) = (  -0.0001191   0.2500423   0.4999839  )
         8        C      tau(   8) = (  -0.0000874   0.2500470   0.7499596  )
         9        C      tau(   9) = (  -0.0000285   0.5000024  -0.0000054  )
        10        C      tau(  10) = (  -0.0001192   0.4999787   0.2500479  )
        11        C      tau(  11) = (  -0.0000238   0.4999997   0.5000052  )
        12        C      tau(  12) = (   0.0000659   0.5000229   0.7499754  )
        13        C      tau(  13) = (   0.0000560   0.7499919   0.0000524  )
        14        C      tau(  14) = (  -0.0000873   0.7499542   0.2500526  )
        15        C      tau(  15) = (   0.0000658   0.7499699   0.5000282  )
        16        C      tau(  16) = (   0.0002135   0.7500379   0.7500432  )
        17        C      tau(  17) = (   0.2500024  -0.0000521  -0.0000460  )
        18        C      tau(  18) = (   0.2499501  -0.0000659   0.2499613  )
        19        C      tau(  19) = (   0.2500270  -0.0001230   0.4999742  )
        20        C      tau(  20) = (   0.2500452  -0.0001064   0.7499548  )
        21        C      tau(  21) = (   0.2499496   0.2499550  -0.0000594  )
        22        C      tau(  22) = (   0.2499859   0.2500023   0.2500085  )
        23        C      tau(  23) = (   0.2495096   0.2494916   0.5000198  )
        24        C      tau(  24) = (   0.2499891   0.2499689   0.7499276  )
        25        C      tau(  25) = (   0.2500271   0.4999684  -0.0001166  )
        26        C      tau(  26) = (   0.2495097   0.5000130   0.2494982  )
        27        C      tau(  27) = (   0.2504263   0.4998012   0.4998083  )
        28        C      tau(  28) = (   0.2499219   0.4998096   0.7500527  )
        29        C      tau(  29) = (   0.2500456   0.7499485  -0.0000987  )
        30        C      tau(  30) = (   0.2499899   0.7499202   0.2499766  )
        31        C      tau(  31) = (   0.2499218   0.7500458   0.4998165  )
        32        C      tau(  32) = (   0.2503734   0.7497329   0.7497400  )
        33        C      tau(  33) = (   0.4999962  -0.0000123  -0.0000062  )
        34        C      tau(  34) = (   0.4999655  -0.0001010   0.2500336  )
        35        C      tau(  35) = (   0.4999972  -0.0000368   0.5000054  )
        36        C      tau(  36) = (   0.5000285   0.0000391   0.7499893  )
        37        C      tau(  37) = (   0.4999653   0.2500280  -0.0000954  )
        38        C      tau(  38) = (   0.4999429   0.2495520   0.2495579  )
        39        C      tau(  39) = (   0.4997976   0.2502915   0.4998513  )
        40        C      tau(  40) = (   0.4998361   0.2498042   0.7501540  )
        41        C      tau(  41) = (   0.4999973   0.5000000  -0.0000311  )
        42        C      tau(  42) = (   0.4997979   0.4998444   0.2502983  )
        43        C      tau(  43) = (   0.5001331   0.5000952   0.7495825  )
        44        C      tau(  44) = (   0.5000288   0.7499834   0.0000457  )
        45        C      tau(  45) = (   0.4998367   0.7501479   0.2498104  )
        46        C      tau(  46) = (   0.5001334   0.7495763   0.5001016  )
        47        C      tau(  47) = (   0.5003352   0.7504023   0.7504083  )
        48        C      tau(  48) = (   0.7499939   0.0000585   0.0000632  )
        49        C      tau(  49) = (   0.7499475  -0.0000663   0.2500589  )
        50        C      tau(  50) = (   0.7499783   0.0000627   0.5000378  )
        51        C      tau(  51) = (   0.7500535   0.0001952   0.7500593  )
        52        C      tau(  52) = (   0.7499474   0.2500543  -0.0000615  )
        53        C      tau(  53) = (   0.7498899   0.2500061   0.2500111  )
        54        C      tau(  54) = (   0.7499935   0.2499381   0.4998959  )
        55        C      tau(  55) = (   0.7497627   0.2503436   0.7497889  )
        56        C      tau(  56) = (   0.7499783   0.5000332   0.0000677  )
        57        C      tau(  57) = (   0.7499934   0.4998899   0.2499444  )
        58        C      tau(  58) = (   0.7495382   0.5001373   0.5001437  )
        59        C      tau(  59) = (   0.7504187   0.5003283   0.7504417  )
        60        C      tau(  60) = (   0.7500536   0.7500545   0.0002002  )
        61        C      tau(  61) = (   0.7497623   0.7497830   0.2503497  )
        62        C      tau(  62) = (   0.7504186   0.7504361   0.5003339  )
        63        C      tau(  63) = (   0.7502820   0.7502781   0.7502831  )
        64        C      tau(  64) = (  -0.0000463   0.1249866   0.1249914  )
        65        C      tau(  65) = (  -0.0000757   0.1249733   0.3749859  )
        66        C      tau(  66) = (  -0.0000892   0.1250602   0.6249919  )
        67        C      tau(  67) = (  -0.0000264   0.1250368   0.8749719  )
        68        C      tau(  68) = (  -0.0000759   0.3749810   0.1249786  )
        69        C      tau(  69) = (  -0.0001185   0.3750086   0.3750140  )
        70        C      tau(  70) = (  -0.0000510   0.3750397   0.6249638  )
        71        C      tau(  71) = (  -0.0000454   0.3750186   0.8749608  )
        72        C      tau(  72) = (  -0.0000891   0.6249867   0.1250661  )
        73        C      tau(  73) = (  -0.0000511   0.6249583   0.3750453  )
        74        C      tau(  74) = (   0.0001201   0.6250007   0.6250063  )
        75        C      tau(  75) = (   0.0001423   0.6250239   0.8750360  )
        76        C      tau(  76) = (  -0.0000262   0.8749669   0.1250420  )
        77        C      tau(  77) = (  -0.0000452   0.8749552   0.3750238  )
        78        C      tau(  78) = (   0.0001423   0.8750303   0.6250289  )
        79        C      tau(  79) = (   0.0001097   0.8750207   0.8750258  )
        80        C      tau(  80) = (   0.2499604   0.1249642   0.1249701  )
        81        C      tau(  81) = (   0.2499520   0.1248945   0.3749641  )
        82        C      tau(  82) = (   0.2499127   0.1248588   0.6249741  )
        83        C      tau(  83) = (   0.2499872   0.1249560   0.8749487  )
        84        C      tau(  84) = (   0.2499521   0.3749582   0.1249005  )
        85        C      tau(  85) = (   0.2501453   0.3750799   0.3750866  )
        86        C      tau(  86) = (   0.2499639   0.3748581   0.6248826  )
        87        C      tau(  87) = (   0.2499643   0.3749529   0.8749621  )
        88        C      tau(  88) = (   0.2499134   0.6249672   0.1248665  )
        89        C      tau(  89) = (   0.2499643   0.6248751   0.3748656  )
        90        C      tau(  90) = (   0.2505851   0.6245391   0.6245460  )
        91        C      tau(  91) = (   0.2503057   0.6249231   0.8747167  )
        92        C      tau(  92) = (   0.2499878   0.8749422   0.1249631  )
        93        C      tau(  93) = (   0.2499648   0.8749550   0.3749598  )
        94        C      tau(  94) = (   0.2503057   0.8747094   0.6249295  )
        95        C      tau(  95) = (   0.2500973   0.8748957   0.8749024  )
        96        C      tau(  96) = (   0.4999754   0.1248264   0.1248318  )
        97        C      tau(  97) = (   0.4999277   0.1249757   0.3749736  )
        98        C      tau(  98) = (   0.4999287   0.1250753   0.6249162  )
        99        C      tau(  99) = (   0.4999528   0.1249372   0.8750519  )
       100        C      tau( 100) = (   0.4999278   0.3749680   0.1249814  )
       101        C      tau( 101) = (   0.5001597   0.3751400   0.3751469  )
       102        C      tau( 102) = (   0.4990675   0.3757242   0.6239017  )
       103        C      tau( 103) = (   0.4999896   0.3751305   0.8747963  )
       104        C      tau( 104) = (   0.4999294   0.6249096   0.1250821  )
       105        C      tau( 105) = (   0.4990678   0.6238955   0.3757306  )
       106        C      tau( 106) = (   0.5028496   0.6247697   0.6247759  )
       107        C      tau( 107) = (   0.5001307   0.6250211   0.8749788  )
       108        C      tau( 108) = (   0.4999532   0.8750456   0.1249437  )
       109        C      tau( 109) = (   0.4999899   0.8747905   0.3751365  )
       110        C      tau( 110) = (   0.5001307   0.8749728   0.6250267  )
       111        C      tau( 111) = (   0.5001012   0.8751344   0.8751403  )
       112        C      tau( 112) = (   0.7499501   0.1250016   0.1250062  )
       113        C      tau( 113) = (   0.7499523   0.1249751   0.3749941  )
       114        C      tau( 114) = (   0.7498694   0.1251787   0.6249496  )
       115        C      tau( 115) = (   0.7499471   0.1251723   0.8749389  )
       116        C      tau( 116) = (   0.7499522   0.3749893   0.1249802  )
       117        C      tau( 117) = (   0.7498202   0.3750117   0.3750176  )
       118        C      tau( 118) = (   0.7491688   0.3757960   0.6248214  )
       119        C      tau( 119) = (   0.7499048   0.3751310   0.8749114  )
       120        C      tau( 120) = (   0.7498694   0.6249444   0.1251843  )
       121        C      tau( 121) = (   0.7491690   0.6248153   0.3758022  )
       122        C      tau( 122) = (   0.7505664   0.6254400   0.6254459  )
       123        C      tau( 123) = (   0.7502214   0.6251752   0.8752927  )
       124        C      tau( 124) = (   0.7499471   0.8749339   0.1251774  )
       125        C      tau( 125) = (   0.7499047   0.8749063   0.3751361  )
       126        C      tau( 126) = (   0.7502212   0.8752876   0.6251799  )
       127        C      tau( 127) = (   0.7501076   0.8751542   0.8751590  )
       128        C      tau( 128) = (   0.1249740  -0.0000371   0.1249840  )
       129        C      tau( 129) = (   0.1249479  -0.0000620   0.3749784  )
       130        C      tau( 130) = (   0.1250554  -0.0000949   0.6249863  )
       131        C      tau( 131) = (   0.1250379  -0.0000339   0.8749653  )
       132        C      tau( 132) = (   0.1249517   0.2499769   0.1249752  )
       133        C      tau( 133) = (   0.1249035   0.2499767   0.3749693  )
       134        C      tau( 134) = (   0.1248846   0.2499162   0.6249688  )
       135        C      tau( 135) = (   0.1249649   0.2499877   0.8749463  )
       136        C      tau( 136) = (   0.1247937   0.4999945   0.1248051  )
       137        C      tau( 137) = (   0.1250046   0.4999463   0.3749719  )
       138        C      tau( 138) = (   0.1251405   0.4999172   0.6248796  )
       139        C      tau( 139) = (   0.1249741   0.4999491   0.8750106  )
       140        C      tau( 140) = (   0.1249860   0.7499576   0.1249863  )
       141        C      tau( 141) = (   0.1249625   0.7499682   0.3749713  )
       142        C      tau( 142) = (   0.1252140   0.7498406   0.6249155  )
       143        C      tau( 143) = (   0.1251831   0.7499332   0.8749090  )
       144        C      tau( 144) = (   0.3749657  -0.0000553   0.1249566  )
       145        C      tau( 145) = (   0.3749909  -0.0001142   0.3749983  )
       146        C      tau( 146) = (   0.3750363  -0.0000729   0.6249647  )
       147        C      tau( 147) = (   0.3750159  -0.0000603   0.8749613  )
       148        C      tau( 148) = (   0.3749392   0.2499651   0.1249068  )
       149        C      tau( 149) = (   0.3750298   0.2500719   0.3750763  )
       150        C      tau( 150) = (   0.3748801   0.2498738   0.6249260  )
       151        C      tau( 151) = (   0.3749619   0.2499408   0.8749808  )
       152        C      tau( 152) = (   0.3749524   0.4999505   0.1249684  )
       153        C      tau( 153) = (   0.3752482   0.5004360   0.3751316  )
       154        C      tau( 154) = (   0.3760602   0.4990294   0.6236836  )
       155        C      tau( 155) = (   0.3751520   0.4999736   0.8747748  )
       156        C      tau( 156) = (   0.3749689   0.7499943   0.1249249  )
       157        C      tau( 157) = (   0.3749951   0.7499066   0.3749377  )
       158        C      tau( 158) = (   0.3758218   0.7491694   0.6247555  )
       159        C      tau( 159) = (   0.3751387   0.7498870   0.8748758  )
       160        C      tau( 160) = (   0.6249812  -0.0000652   0.1250680  )
       161        C      tau( 161) = (   0.6249562  -0.0000445   0.3750454  )
       162        C      tau( 162) = (   0.6250133   0.0000978   0.6250210  )
       163        C      tau( 163) = (   0.6250313   0.0001278   0.8750534  )
       164        C      tau( 164) = (   0.6249428   0.2499384   0.1249078  )
       165        C      tau( 165) = (   0.6248343   0.2499418   0.3749094  )
       166        C      tau( 166) = (   0.6245805   0.2504542   0.6246433  )
       167        C      tau( 167) = (   0.6249419   0.2502830   0.8747627  )
       168        C      tau( 168) = (   0.6248844   0.4999484   0.1251008  )
       169        C      tau( 169) = (   0.6236475   0.4993112   0.3759051  )
       170        C      tau( 170) = (   0.6247788   0.5028506   0.6248464  )
       171        C      tau( 171) = (   0.6250336   0.5001207   0.8749950  )
       172        C      tau( 172) = (   0.6249324   0.7498899   0.1251670  )
       173        C      tau( 173) = (   0.6247808   0.7492301   0.3757846  )
       174        C      tau( 174) = (   0.6254356   0.7505810   0.6254354  )
       175        C      tau( 175) = (   0.6251777   0.7502165   0.8752869  )
       176        C      tau( 176) = (   0.8749614  -0.0000166   0.1250477  )
       177        C      tau( 177) = (   0.8749473  -0.0000272   0.3750295  )
       178        C      tau( 178) = (   0.8750427   0.0001343   0.6250361  )
       179        C      tau( 179) = (   0.8750290   0.0001037   0.8750338  )
       180        C      tau( 180) = (   0.8749279   0.2500041   0.1249895  )
       181        C      tau( 181) = (   0.8749218   0.2499928   0.3749914  )
       182        C      tau( 182) = (   0.8747180   0.2503025   0.6249570  )
       183        C      tau( 183) = (   0.8749107   0.2500965   0.8749272  )
       184        C      tau( 184) = (   0.8749841   0.4999715   0.1250059  )
       185        C      tau( 185) = (   0.8747546   0.5000023   0.3751633  )
       186        C      tau( 186) = (   0.8749740   0.5001263   0.6250379  )
       187        C      tau( 187) = (   0.8751442   0.5001006   0.8751495  )
       188        C      tau( 188) = (   0.8749219   0.7499534   0.1251781  )
       189        C      tau( 189) = (   0.8748857   0.7499066   0.3751385  )
       190        C      tau( 190) = (   0.8752912   0.7502149   0.6251770  )
       191        C      tau( 191) = (   0.8751613   0.7501012   0.8751556  )
       192        C      tau( 192) = (   0.1249737   0.1249786  -0.0000316  )
       193        C      tau( 193) = (   0.1249518   0.1249695   0.2499822  )
       194        C      tau( 194) = (   0.1247934   0.1247985   0.5000004  )
       195        C      tau( 195) = (   0.1249854   0.1249797   0.7499634  )
       196        C      tau( 196) = (   0.1249476   0.3749729  -0.0000559  )
       197        C      tau( 197) = (   0.1249035   0.3749635   0.2499827  )
       198        C      tau( 198) = (   0.1250046   0.3749656   0.4999525  )
       199        C      tau( 199) = (   0.1249620   0.3749648   0.7499748  )
       200        C      tau( 200) = (   0.1250557   0.6249807  -0.0000881  )
       201        C      tau( 201) = (   0.1248851   0.6249624   0.2499230  )
       202        C      tau( 202) = (   0.1251404   0.6248731   0.4999237  )
       203        C      tau( 203) = (   0.1252140   0.6249091   0.7498474  )
       204        C      tau( 204) = (   0.1250381   0.8749599  -0.0000280  )
       205        C      tau( 205) = (   0.1249655   0.8749403   0.2499937  )
       206        C      tau( 206) = (   0.1249745   0.8750039   0.4999551  )
       207        C      tau( 207) = (   0.1251831   0.8749024   0.7499390  )
       208        C      tau( 208) = (   0.3749654   0.1249501  -0.0000488  )
       209        C      tau( 209) = (   0.3749392   0.1249011   0.2499708  )
       210        C      tau( 210) = (   0.3749519   0.1249619   0.4999569  )
       211        C      tau( 211) = (   0.3749683   0.1249171   0.7500015  )
       212        C      tau( 212) = (   0.3749908   0.3749925  -0.0001083  )
       213        C      tau( 213) = (   0.3750299   0.3750695   0.2500787  )
       214        C      tau( 214) = (   0.3752480   0.3751249   0.5004427  )
       215        C      tau( 215) = (   0.3749947   0.3749308   0.7499132  )
       216        C      tau( 216) = (   0.3750367   0.6249586  -0.0000659  )
       217        C      tau( 217) = (   0.3748806   0.6249190   0.2498808  )
       218        C      tau( 218) = (   0.3760603   0.6236772   0.4990360  )
       219        C      tau( 219) = (   0.3758218   0.6247489   0.7491761  )
       220        C      tau( 220) = (   0.3750162   0.8749547  -0.0000529  )
       221        C      tau( 221) = (   0.3749625   0.8749737   0.2499480  )
       222        C      tau( 222) = (   0.3751520   0.8747685   0.4999798  )
       223        C      tau( 223) = (   0.3751387   0.8748687   0.7498934  )
       224        C      tau( 224) = (   0.6249812   0.1250630  -0.0000602  )
       225        C      tau( 225) = (   0.6249429   0.1249027   0.2499433  )
       226        C      tau( 226) = (   0.6248842   0.1250953   0.4999539  )
       227        C      tau( 227) = (   0.6249321   0.1251609   0.7498958  )
       228        C      tau( 228) = (   0.6249561   0.3750404  -0.0000394  )
       229        C      tau( 229) = (   0.6248343   0.3749036   0.2499477  )
       230        C      tau( 230) = (   0.6236470   0.3758987   0.4993177  )
       231        C      tau( 231) = (   0.6247805   0.3757787   0.7492359  )
       232        C      tau( 232) = (   0.6250135   0.6250160   0.0001032  )
       233        C      tau( 233) = (   0.6245807   0.6246366   0.2504610  )
       234        C      tau( 234) = (   0.6247790   0.6248405   0.5028566  )
       235        C      tau( 235) = (   0.6254356   0.6254295   0.7505871  )
       236        C      tau( 236) = (   0.6250314   0.8750481   0.0001333  )
       237        C      tau( 237) = (   0.6249421   0.8747573   0.2502885  )
       238        C      tau( 238) = (   0.6250335   0.8749896   0.5001260  )
       239        C      tau( 239) = (   0.6251777   0.8752816   0.7502215  )
       240        C      tau( 240) = (   0.8749613   0.1250431  -0.0000119  )
       241        C      tau( 241) = (   0.8749280   0.1249848   0.2500086  )
       242        C      tau( 242) = (   0.8749843   0.1250005   0.4999763  )
       243        C      tau( 243) = (   0.8749220   0.1251727   0.7499585  )
       244        C      tau( 244) = (   0.8749471   0.3750249  -0.0000222  )
       245        C      tau( 245) = (   0.8749217   0.3749863   0.2499981  )
       246        C      tau( 246) = (   0.8747547   0.3751573   0.5000081  )
       247        C      tau( 247) = (   0.8748860   0.3751329   0.7499121  )
       248        C      tau( 248) = (   0.8750428   0.6250315   0.0001395  )
       249        C      tau( 249) = (   0.8747176   0.6249513   0.2503086  )
       250        C      tau( 250) = (   0.8749739   0.6250324   0.5001319  )
       251        C      tau( 251) = (   0.8752913   0.6251720   0.7502200  )
       252        C      tau( 252) = (   0.8750291   0.8750292   0.0001085  )
       253        C      tau( 253) = (   0.8749106   0.8749220   0.2501015  )
       254        C      tau( 254) = (   0.8751441   0.8751444   0.5001053  )
       255        C      tau( 255) = (   0.8751613   0.8751507   0.7501058  )
       256        C      tau( 256) = (   0.1874586   0.0624614   0.1874757  )
       257        C      tau( 257) = (   0.1874338   0.0623804   0.4374707  )
       258        C      tau( 258) = (   0.1875047   0.0624037   0.6874708  )
       259        C      tau( 259) = (   0.1875031   0.0624664   0.9374612  )
       260        C      tau( 260) = (   0.1874446   0.3124625   0.1874639  )
       261        C      tau( 261) = (   0.1874194   0.3123919   0.4374287  )
       262        C      tau( 262) = (   0.1874354   0.3124667   0.6874278  )
       263        C      tau( 263) = (   0.1874589   0.3124733   0.9374543  )
       264        C      tau( 264) = (   0.1871703   0.5624023   0.1871689  )
       265        C      tau( 265) = (   0.1876185   0.5623533   0.4374417  )
       266        C      tau( 266) = (   0.1877458   0.5623764   0.6873251  )
       267        C      tau( 267) = (   0.1876169   0.5624543   0.9373466  )
       268        C      tau( 268) = (   0.1874904   0.8124354   0.1874893  )
       269        C      tau( 269) = (   0.1873923   0.8125713   0.4375105  )
       270        C      tau( 270) = (   0.1877611   0.8122988   0.6873878  )
       271        C      tau( 271) = (   0.1875872   0.8124405   0.9374254  )
       272        C      tau( 272) = (   0.4374531   0.0623953   0.1874531  )
       273        C      tau( 273) = (   0.4374548   0.0624391   0.4374745  )
       274        C      tau( 274) = (   0.4375044   0.0624961   0.6874613  )
       275        C      tau( 275) = (   0.4375080   0.0624340   0.9375050  )
       276        C      tau( 276) = (   0.4373822   0.3123999   0.1873992  )
       277        C      tau( 277) = (   0.4374150   0.3126983   0.4375116  )
       278        C      tau( 278) = (   0.4376648   0.3120024   0.6879068  )
       279        C      tau( 279) = (   0.4374909   0.3125258   0.9373741  )
       280        C      tau( 280) = (   0.4374332   0.5623855   0.1875399  )
       281        C      tau( 281) = (   0.4386965   0.5618511   0.6862453  )
       282        C      tau( 282) = (   0.4375556   0.5624965   0.9374201  )
       283        C      tau( 283) = (   0.4375173   0.8126287   0.1873337  )
       284        C      tau( 284) = (   0.4375713   0.8122517   0.4375488  )
       285        C      tau( 285) = (   0.4377706   0.8123369   0.6874658  )
       286        C      tau( 286) = (   0.4375716   0.8124706   0.9374814  )
       287        C      tau( 287) = (   0.6874582   0.0624406   0.1875250  )
       288        C      tau( 288) = (   0.6874373   0.0625274   0.4375243  )
       289        C      tau( 289) = (   0.6874889   0.0626425   0.6875046  )
       290        C      tau( 290) = (   0.6874898   0.0626139   0.9374987  )
       291        C      tau( 291) = (   0.6874014   0.3124932   0.1874464  )
       292        C      tau( 292) = (   0.6876909   0.3121832   0.4376539  )
       293        C      tau( 293) = (   0.6871144   0.3129707   0.6871695  )
       294        C      tau( 294) = (   0.6874478   0.3126018   0.9374132  )
       295        C      tau( 295) = (   0.6873325   0.5624392   0.1876892  )
       296        C      tau( 296) = (   0.6862246   0.5619470   0.4386976  )
       297        C      tau( 297) = (   0.6884360   0.5629302   0.6884662  )
       298        C      tau( 298) = (   0.6875550   0.5625795   0.9375991  )
       299        C      tau( 299) = (   0.6874003   0.8123431   0.1877395  )
       300        C      tau( 300) = (   0.6874843   0.8123775   0.4377568  )
       301        C      tau( 301) = (   0.6878054   0.8129234   0.6878062  )
       302        C      tau( 302) = (   0.6876054   0.8126351   0.9377212  )
       303        C      tau( 303) = (   0.9374489   0.0624828   0.1875194  )
       304        C      tau( 304) = (   0.9374670   0.0624726   0.4375207  )
       305        C      tau( 305) = (   0.9374829   0.0626117   0.6874977  )
       306        C      tau( 306) = (   0.9374980   0.0625508   0.9375077  )
       307        C      tau( 307) = (   0.9374258   0.3124901   0.1874900  )
       308        C      tau( 308) = (   0.9373427   0.3125522   0.4375133  )
       309        C      tau( 309) = (   0.9373874   0.3126092   0.6874554  )
       310        C      tau( 310) = (   0.9374361   0.3125436   0.9374543  )
       311        C      tau( 311) = (   0.9373410   0.5624676   0.1876354  )
       312        C      tau( 312) = (   0.9374187   0.5625054   0.4375667  )
       313        C      tau( 313) = (   0.9375977   0.5625762   0.6875529  )
       314        C      tau( 314) = (   0.9375878   0.5625307   0.9375901  )
       315        C      tau( 315) = (   0.9374348   0.8124554   0.1875918  )
       316        C      tau( 316) = (   0.9374933   0.8124745   0.4375776  )
       317        C      tau( 317) = (   0.9377285   0.8126249   0.6876026  )
       318        C      tau( 318) = (   0.9375986   0.8125459   0.9375960  )
       319        C      tau( 319) = (   0.0624777   0.0624857   0.0624908  )
       320        C      tau( 320) = (   0.0624471   0.0624662   0.3124950  )
       321        C      tau( 321) = (   0.0624074   0.0624130   0.5624720  )
       322        C      tau( 322) = (   0.0625180   0.0625131   0.8124791  )
       323        C      tau( 323) = (   0.0624469   0.3124899   0.0624718  )
       324        C      tau( 324) = (   0.0623796   0.3124599   0.3124655  )
       325        C      tau( 325) = (   0.0624389   0.3125006   0.5624562  )
       326        C      tau( 326) = (   0.0624439   0.3125148   0.8124560  )
       327        C      tau( 327) = (   0.0624076   0.5624665   0.0624195  )
       328        C      tau( 328) = (   0.0624389   0.5624505   0.3125065  )
       329        C      tau( 329) = (   0.0625841   0.5624649   0.5624710  )
       330        C      tau( 330) = (   0.0626087   0.5624946   0.8124594  )
       331        C      tau( 331) = (   0.0625184   0.8124739   0.0625189  )
       332        C      tau( 332) = (   0.0624444   0.8124501   0.3125206  )
       333        C      tau( 333) = (   0.0626088   0.8124533   0.5625003  )
       334        C      tau( 334) = (   0.0626809   0.8124813   0.8124871  )
       335        C      tau( 335) = (   0.3124770   0.0624580   0.0624643  )
       336        C      tau( 336) = (   0.3124382   0.0623830   0.3124560  )
       337        C      tau( 337) = (   0.3124891   0.0624132   0.5624592  )
       338        C      tau( 338) = (   0.3125107   0.0624187   0.8124635  )
       339        C      tau( 339) = (   0.3124381   0.3124503   0.0623889  )
       340        C      tau( 340) = (   0.3124948   0.3125105   0.3125174  )
       341        C      tau( 341) = (   0.3117664   0.3117050   0.5621323  )
       342        C      tau( 342) = (   0.3124988   0.3124752   0.8124749  )
       343        C      tau( 343) = (   0.3124895   0.5624530   0.0624201  )
       344        C      tau( 344) = (   0.3117666   0.5621252   0.3117117  )
       345        C      tau( 345) = (   0.3132867   0.5619722   0.5619788  )
       346        C      tau( 346) = (   0.3128933   0.5623537   0.8120643  )
       347        C      tau( 347) = (   0.3125113   0.8124566   0.0624266  )
       348        C      tau( 348) = (   0.3124994   0.8124676   0.3124826  )
       349        C      tau( 349) = (   0.3128934   0.8120574   0.5623604  )
       350        C      tau( 350) = (   0.3126621   0.8123501   0.8123570  )
       351        C      tau( 351) = (   0.5624636   0.0624321   0.0624374  )
       352        C      tau( 352) = (   0.5624397   0.0624391   0.3125077  )
       353        C      tau( 353) = (   0.5624706   0.0625478   0.5624912  )
       354        C      tau( 354) = (   0.5625024   0.0625747   0.8124914  )
       355        C      tau( 355) = (   0.5624396   0.3125025   0.0624443  )
       356        C      tau( 356) = (   0.5620953   0.3117854   0.3117916  )
       357        C      tau( 357) = (   0.5619992   0.3130582   0.5621583  )
       358        C      tau( 358) = (   0.5623772   0.3128441   0.8121204  )
       359        C      tau( 359) = (   0.5624709   0.5624856   0.0625535  )
       360        C      tau( 360) = (   0.5619995   0.5621515   0.3130649  )
       361        C      tau( 361) = (   0.5626458   0.5626267   0.8125242  )
       362        C      tau( 362) = (   0.5625028   0.8124855   0.0625810  )
       363        C      tau( 363) = (   0.5623776   0.8121146   0.3128500  )
       364        C      tau( 364) = (   0.5626459   0.8125184   0.5626325  )
       365        C      tau( 365) = (   0.5626728   0.8128271   0.8128325  )
       366        C      tau( 366) = (   0.8124712   0.0625271   0.0625317  )
       367        C      tau( 367) = (   0.8124415   0.0624633   0.3125302  )
       368        C      tau( 368) = (   0.8124642   0.0626006   0.5625160  )
       369        C      tau( 369) = (   0.8124943   0.0626712   0.8125048  )
       370        C      tau( 370) = (   0.8124414   0.3125257   0.0624681  )
       371        C      tau( 371) = (   0.8124105   0.3125203   0.3125255  )
       372        C      tau( 372) = (   0.8120481   0.3128988   0.5624078  )
       373        C      tau( 373) = (   0.8123722   0.3126529   0.8123903  )
       374        C      tau( 374) = (   0.8124642   0.5625113   0.0626058  )
       375        C      tau( 375) = (   0.8120480   0.5624017   0.3129052  )
       376        C      tau( 376) = (   0.8124993   0.5626487   0.5626545  )
       377        C      tau( 377) = (   0.8128400   0.5626693   0.8128456  )
       378        C      tau( 378) = (   0.8124944   0.8125000   0.0626762  )
       379        C      tau( 379) = (   0.8123719   0.8123849   0.3126583  )
       380        C      tau( 380) = (   0.8128399   0.8128405   0.5626742  )
       381        C      tau( 381) = (   0.8127012   0.8126942   0.8126990  )
       382        C      tau( 382) = (   0.0624449   0.1874771   0.1874823  )
       383        C      tau( 383) = (   0.0623808   0.1874540   0.4374750  )
       384        C      tau( 384) = (   0.0624195   0.1875090   0.6874714  )
       385        C      tau( 385) = (   0.0624684   0.1875077   0.9374648  )
       386        C      tau( 386) = (   0.0623807   0.4374696   0.1874597  )
       387        C      tau( 387) = (   0.0624601   0.4374689   0.4374747  )
       388        C      tau( 388) = (   0.0625381   0.4375060   0.6874415  )
       389        C      tau( 389) = (   0.0624439   0.4375106   0.9374914  )
       390        C      tau( 390) = (   0.0624199   0.6874657   0.1875152  )
       391        C      tau( 391) = (   0.0625381   0.6874356   0.4375119  )
       392        C      tau( 392) = (   0.0626741   0.6874715   0.6874776  )
       393        C      tau( 393) = (   0.0626170   0.6874849   0.9374765  )
       394        C      tau( 394) = (   0.0624688   0.9374594   0.1875130  )
       395        C      tau( 395) = (   0.0624443   0.9374853   0.4375160  )
       396        C      tau( 396) = (   0.0626169   0.9374702   0.6874902  )
       397        C      tau( 397) = (   0.0625497   0.9374950   0.9375003  )
       398        C      tau( 398) = (   0.3124428   0.1874570   0.1874628  )
       399        C      tau( 399) = (   0.3123651   0.1873775   0.4374306  )
       400        C      tau( 400) = (   0.3124716   0.1873815   0.6874467  )
       401        C      tau( 401) = (   0.3124692   0.1874545   0.9374628  )
       402        C      tau( 402) = (   0.3123654   0.4374239   0.1873840  )
       403        C      tau( 403) = (   0.3128693   0.4374991   0.4375058  )
       404        C      tau( 404) = (   0.3121882   0.4376082   0.6877799  )
       405        C      tau( 405) = (   0.3125339   0.4374888   0.9373590  )
       406        C      tau( 406) = (   0.3124723   0.6874393   0.1873893  )
       407        C      tau( 407) = (   0.3121884   0.6877733   0.4376151  )
       408        C      tau( 408) = (   0.3130216   0.6870934   0.6871004  )
       409        C      tau( 409) = (   0.3126060   0.6874386   0.9373763  )
       410        C      tau( 410) = (   0.3124699   0.9374559   0.1874616  )
       411        C      tau( 411) = (   0.3125341   0.9373527   0.4374949  )
       412        C      tau( 412) = (   0.3126059   0.9373689   0.6874447  )
       413        C      tau( 413) = (   0.3125371   0.9374294   0.9374361  )
       414        C      tau( 414) = (   0.5623866   0.1872143   0.1872196  )
       415        C      tau( 415) = (   0.5623393   0.1875572   0.4374762  )
       416        C      tau( 416) = (   0.5623951   0.1876491   0.6874029  )
       417        C      tau( 417) = (   0.5624586   0.1876049   0.9373796  )
       418        C      tau( 418) = (   0.5623395   0.4374702   0.1875631  )
       419        C      tau( 419) = (   0.5618874   0.4386059   0.6863072  )
       420        C      tau( 420) = (   0.5625018   0.4375506   0.9374349  )
       421        C      tau( 421) = (   0.5623958   0.6873962   0.1876559  )
       422        C      tau( 422) = (   0.5618878   0.6863014   0.4386120  )
       423        C      tau( 423) = (   0.5629422   0.6884216   0.6884278  )
       424        C      tau( 424) = (   0.5625800   0.6875522   0.9375878  )
       425        C      tau( 425) = (   0.5624588   0.9373741   0.1876105  )
       426        C      tau( 426) = (   0.5625019   0.9374296   0.4375559  )
       427        C      tau( 427) = (   0.5625799   0.9375821   0.6875575  )
       428        C      tau( 428) = (   0.5625321   0.9375868   0.9375924  )
       429        C      tau( 429) = (   0.8124205   0.1875075   0.1875121  )
       430        C      tau( 430) = (   0.8125292   0.1874272   0.4375307  )
       431        C      tau( 431) = (   0.8123213   0.1877426   0.6874198  )
       432        C      tau( 432) = (   0.8124476   0.1875892   0.9374532  )
       433        C      tau( 433) = (   0.8125289   0.4375255   0.1874328  )
       434        C      tau( 434) = (   0.8122078   0.4375860   0.4375920  )
       435        C      tau( 435) = (   0.8123471   0.4377681   0.6874984  )
       436        C      tau( 436) = (   0.8124768   0.4375736   0.9375066  )
       437        C      tau( 437) = (   0.8123210   0.6874144   0.1877484  )
       438        C      tau( 438) = (   0.8123468   0.6874926   0.4377740  )
       439        C      tau( 439) = (   0.8129259   0.6878020   0.6878072  )
       440        C      tau( 440) = (   0.8126362   0.6876040   0.9377235  )
       441        C      tau( 441) = (   0.8124477   0.9374483   0.1875940  )
       442        C      tau( 442) = (   0.8124768   0.9375016   0.4375782  )
       443        C      tau( 443) = (   0.8126360   0.9377185   0.6876086  )
       444        C      tau( 444) = (   0.8125492   0.9375966   0.9376013  )
       445        C      tau( 445) = (   0.1874584   0.1874700   0.0624674  )
       446        C      tau( 446) = (   0.1874445   0.1874580   0.3124683  )
       447        C      tau( 447) = (   0.1871700   0.1871618   0.5624090  )
       448        C      tau( 448) = (   0.1874897   0.1874823   0.8124419  )
       449        C      tau( 449) = (   0.1874339   0.4374650   0.0623865  )
       450        C      tau( 450) = (   0.1874193   0.4374221   0.3123984  )
       451        C      tau( 451) = (   0.1876185   0.4374346   0.5623604  )
       452        C      tau( 452) = (   0.1873920   0.4375037   0.8125783  )
       453        C      tau( 453) = (   0.1875053   0.6874645   0.0624112  )
       454        C      tau( 454) = (   0.1874360   0.6874206   0.3124741  )
       455        C      tau( 455) = (   0.1877457   0.6873180   0.5623833  )
       456        C      tau( 456) = (   0.1877610   0.6873812   0.8123059  )
       457        C      tau( 457) = (   0.1875035   0.9374552   0.0624726  )
       458        C      tau( 458) = (   0.1874596   0.9374477   0.3124796  )
       459        C      tau( 459) = (   0.1876170   0.9373399   0.5624601  )
       460        C      tau( 460) = (   0.1875870   0.9374185   0.8124466  )
       461        C      tau( 461) = (   0.4374529   0.1874475   0.0624010  )
       462        C      tau( 462) = (   0.4373821   0.1873932   0.3124058  )
       463        C      tau( 463) = (   0.4374326   0.1875329   0.5623925  )
       464        C      tau( 464) = (   0.4375168   0.1873271   0.8126351  )
       465        C      tau( 465) = (   0.4374550   0.4374688   0.0624449  )
       466        C      tau( 466) = (   0.4374151   0.4375046   0.3127053  )
       467        C      tau( 467) = (   0.4375709   0.4375422   0.8122580  )
       468        C      tau( 468) = (   0.4375050   0.6874548   0.0625034  )
       469        C      tau( 469) = (   0.4376653   0.6879004   0.3120089  )
       470        C      tau( 470) = (   0.4386967   0.6862390   0.5618575  )
       471        C      tau( 471) = (   0.4377706   0.6874596   0.8123436  )
       472        C      tau( 472) = (   0.4375084   0.9374984   0.0624410  )
       473        C      tau( 473) = (   0.4374913   0.9373680   0.3125319  )
       474        C      tau( 474) = (   0.4375555   0.9374140   0.5625022  )
       475        C      tau( 475) = (   0.4375714   0.9374746   0.8124767  )
       476        C      tau( 476) = (   0.6874581   0.1875203   0.0624454  )
       477        C      tau( 477) = (   0.6874014   0.1874413   0.3124982  )
       478        C      tau( 478) = (   0.6873323   0.1876833   0.5624450  )
       479        C      tau( 479) = (   0.6874002   0.1877338   0.8123486  )
       480        C      tau( 480) = (   0.6874373   0.4375194   0.0625324  )
       481        C      tau( 481) = (   0.6876911   0.4376478   0.3121891  )
       482        C      tau( 482) = (   0.6862243   0.4386914   0.5619532  )
       483        C      tau( 483) = (   0.6874843   0.4377514   0.8123829  )
       484        C      tau( 484) = (   0.6874892   0.6874995   0.0626479  )
       485        C      tau( 485) = (   0.6871144   0.6871630   0.3129772  )
       486        C      tau( 486) = (   0.6884361   0.6884602   0.5629363  )
       487        C      tau( 487) = (   0.6878055   0.6878011   0.8129288  )
       488        C      tau( 488) = (   0.6874899   0.9374937   0.0626189  )
       489        C      tau( 489) = (   0.6874479   0.9374082   0.3126068  )
       490        C      tau( 490) = (   0.6875550   0.9375940   0.5625843  )
       491        C      tau( 491) = (   0.6876054   0.9377162   0.8126400  )
       492        C      tau( 492) = (   0.9374488   0.1875148   0.0624876  )
       493        C      tau( 493) = (   0.9374259   0.1874850   0.3124949  )
       494        C      tau( 494) = (   0.9373412   0.1876297   0.5624727  )
       495        C      tau( 495) = (   0.9374347   0.1875866   0.8124604  )
       496        C      tau( 496) = (   0.9374668   0.4375160   0.0624779  )
       497        C      tau( 497) = (   0.9373426   0.4375080   0.3125577  )
       498        C      tau( 498) = (   0.9374188   0.4375611   0.5625109  )
       499        C      tau( 499) = (   0.9374934   0.4375726   0.8124798  )
       500        C      tau( 500) = (   0.9374830   0.6874929   0.0626172  )
       501        C      tau( 501) = (   0.9373871   0.6874501   0.3126148  )
       502        C      tau( 502) = (   0.9375976   0.6875475   0.5625815  )
       503        C      tau( 503) = (   0.9377285   0.6875977   0.8126301  )
       504        C      tau( 504) = (   0.9374981   0.9375030   0.0625556  )
       505        C      tau( 505) = (   0.9374363   0.9374491   0.3125483  )
       506        C      tau( 506) = (   0.9375878   0.9375847   0.5625355  )
       507        C      tau( 507) = (   0.9375985   0.9375910   0.8125506  )
       508        C      tau( 508) = (   0.5656959   0.4327018   0.4327080  )
       509        C      tau( 509) = (   0.4329692   0.4324910   0.5659180  )
       510        C      tau( 510) = (   0.4329695   0.5659118   0.4324973  )
       511        N      tau( 511) = (   0.5681278   0.5680874   0.5680933  )

   Crystallographic axes

     site n.     atom                  positions (cryst. coord.)
         1        C      tau(   1) = (  0.0000014  0.0000031  0.0000080  )
         2        C      tau(   2) = ( -0.0000531 -0.0000397  0.2500154  )
         3        C      tau(   3) = ( -0.0000285 -0.0000112  0.5000073  )
         4        C      tau(   4) = (  0.0000559  0.0000468  0.7499967  )
         5        C      tau(   5) = ( -0.0000533  0.2500106 -0.0000346  )
         6        C      tau(   6) = ( -0.0000832  0.2499743  0.2499793  )
         7        C      tau(   7) = ( -0.0001191  0.2500423  0.4999839  )
         8        C      tau(   8) = ( -0.0000874  0.2500470  0.7499596  )
         9        C      tau(   9) = ( -0.0000285  0.5000024 -0.0000054  )
        10        C      tau(  10) = ( -0.0001192  0.4999787  0.2500479  )
        11        C      tau(  11) = ( -0.0000238  0.4999997  0.5000052  )
        12        C      tau(  12) = (  0.0000659  0.5000229  0.7499754  )
        13        C      tau(  13) = (  0.0000560  0.7499919  0.0000524  )
        14        C      tau(  14) = ( -0.0000873  0.7499542  0.2500526  )
        15        C      tau(  15) = (  0.0000658  0.7499699  0.5000282  )
        16        C      tau(  16) = (  0.0002135  0.7500379  0.7500432  )
        17        C      tau(  17) = (  0.2500024 -0.0000521 -0.0000460  )
        18        C      tau(  18) = (  0.2499501 -0.0000659  0.2499613  )
        19        C      tau(  19) = (  0.2500270 -0.0001230  0.4999742  )
        20        C      tau(  20) = (  0.2500452 -0.0001064  0.7499548  )
        21        C      tau(  21) = (  0.2499496  0.2499550 -0.0000594  )
        22        C      tau(  22) = (  0.2499859  0.2500023  0.2500085  )
        23        C      tau(  23) = (  0.2495096  0.2494916  0.5000198  )
        24        C      tau(  24) = (  0.2499891  0.2499689  0.7499276  )
        25        C      tau(  25) = (  0.2500271  0.4999684 -0.0001166  )
        26        C      tau(  26) = (  0.2495097  0.5000130  0.2494982  )
        27        C      tau(  27) = (  0.2504263  0.4998012  0.4998083  )
        28        C      tau(  28) = (  0.2499219  0.4998096  0.7500527  )
        29        C      tau(  29) = (  0.2500456  0.7499485 -0.0000987  )
        30        C      tau(  30) = (  0.2499899  0.7499202  0.2499766  )
        31        C      tau(  31) = (  0.2499218  0.7500458  0.4998165  )
        32        C      tau(  32) = (  0.2503734  0.7497329  0.7497400  )
        33        C      tau(  33) = (  0.4999962 -0.0000123 -0.0000062  )
        34        C      tau(  34) = (  0.4999655 -0.0001010  0.2500336  )
        35        C      tau(  35) = (  0.4999972 -0.0000368  0.5000054  )
        36        C      tau(  36) = (  0.5000285  0.0000391  0.7499893  )
        37        C      tau(  37) = (  0.4999653  0.2500280 -0.0000954  )
        38        C      tau(  38) = (  0.4999429  0.2495520  0.2495579  )
        39        C      tau(  39) = (  0.4997976  0.2502915  0.4998513  )
        40        C      tau(  40) = (  0.4998361  0.2498042  0.7501540  )
        41        C      tau(  41) = (  0.4999973  0.5000000 -0.0000311  )
        42        C      tau(  42) = (  0.4997979  0.4998444  0.2502983  )
        43        C      tau(  43) = (  0.5001331  0.5000952  0.7495825  )
        44        C      tau(  44) = (  0.5000288  0.7499834  0.0000457  )
        45        C      tau(  45) = (  0.4998367  0.7501479  0.2498104  )
        46        C      tau(  46) = (  0.5001334  0.7495763  0.5001016  )
        47        C      tau(  47) = (  0.5003352  0.7504023  0.7504083  )
        48        C      tau(  48) = (  0.7499939  0.0000585  0.0000632  )
        49        C      tau(  49) = (  0.7499475 -0.0000663  0.2500589  )
        50        C      tau(  50) = (  0.7499783  0.0000627  0.5000378  )
        51        C      tau(  51) = (  0.7500535  0.0001952  0.7500593  )
        52        C      tau(  52) = (  0.7499474  0.2500543 -0.0000615  )
        53        C      tau(  53) = (  0.7498899  0.2500061  0.2500111  )
        54        C      tau(  54) = (  0.7499935  0.2499381  0.4998959  )
        55        C      tau(  55) = (  0.7497627  0.2503436  0.7497889  )
        56        C      tau(  56) = (  0.7499783  0.5000332  0.0000677  )
        57        C      tau(  57) = (  0.7499934  0.4998899  0.2499444  )
        58        C      tau(  58) = (  0.7495382  0.5001373  0.5001437  )
        59        C      tau(  59) = (  0.7504187  0.5003283  0.7504417  )
        60        C      tau(  60) = (  0.7500536  0.7500545  0.0002002  )
        61        C      tau(  61) = (  0.7497623  0.7497830  0.2503497  )
        62        C      tau(  62) = (  0.7504186  0.7504361  0.5003339  )
        63        C      tau(  63) = (  0.7502820  0.7502781  0.7502831  )
        64        C      tau(  64) = ( -0.0000463  0.1249866  0.1249914  )
        65        C      tau(  65) = ( -0.0000757  0.1249733  0.3749859  )
        66        C      tau(  66) = ( -0.0000892  0.1250602  0.6249919  )
        67        C      tau(  67) = ( -0.0000264  0.1250368  0.8749719  )
        68        C      tau(  68) = ( -0.0000759  0.3749810  0.1249786  )
        69        C      tau(  69) = ( -0.0001185  0.3750086  0.3750140  )
        70        C      tau(  70) = ( -0.0000510  0.3750397  0.6249638  )
        71        C      tau(  71) = ( -0.0000454  0.3750186  0.8749608  )
        72        C      tau(  72) = ( -0.0000891  0.6249867  0.1250661  )
        73        C      tau(  73) = ( -0.0000511  0.6249583  0.3750453  )
        74        C      tau(  74) = (  0.0001201  0.6250007  0.6250063  )
        75        C      tau(  75) = (  0.0001423  0.6250239  0.8750360  )
        76        C      tau(  76) = ( -0.0000262  0.8749669  0.1250420  )
        77        C      tau(  77) = ( -0.0000452  0.8749552  0.3750238  )
        78        C      tau(  78) = (  0.0001423  0.8750303  0.6250289  )
        79        C      tau(  79) = (  0.0001097  0.8750207  0.8750258  )
        80        C      tau(  80) = (  0.2499604  0.1249642  0.1249701  )
        81        C      tau(  81) = (  0.2499520  0.1248945  0.3749641  )
        82        C      tau(  82) = (  0.2499127  0.1248588  0.6249741  )
        83        C      tau(  83) = (  0.2499872  0.1249560  0.8749487  )
        84        C      tau(  84) = (  0.2499521  0.3749582  0.1249005  )
        85        C      tau(  85) = (  0.2501453  0.3750799  0.3750866  )
        86        C      tau(  86) = (  0.2499639  0.3748581  0.6248826  )
        87        C      tau(  87) = (  0.2499643  0.3749529  0.8749621  )
        88        C      tau(  88) = (  0.2499134  0.6249672  0.1248665  )
        89        C      tau(  89) = (  0.2499643  0.6248751  0.3748656  )
        90        C      tau(  90) = (  0.2505851  0.6245391  0.6245460  )
        91        C      tau(  91) = (  0.2503057  0.6249231  0.8747167  )
        92        C      tau(  92) = (  0.2499878  0.8749422  0.1249631  )
        93        C      tau(  93) = (  0.2499648  0.8749550  0.3749598  )
        94        C      tau(  94) = (  0.2503057  0.8747094  0.6249295  )
        95        C      tau(  95) = (  0.2500973  0.8748957  0.8749024  )
        96        C      tau(  96) = (  0.4999754  0.1248264  0.1248318  )
        97        C      tau(  97) = (  0.4999277  0.1249757  0.3749736  )
        98        C      tau(  98) = (  0.4999287  0.1250753  0.6249162  )
        99        C      tau(  99) = (  0.4999528  0.1249372  0.8750519  )
       100        C      tau( 100) = (  0.4999278  0.3749680  0.1249814  )
       101        C      tau( 101) = (  0.5001597  0.3751400  0.3751469  )
       102        C      tau( 102) = (  0.4990675  0.3757242  0.6239017  )
       103        C      tau( 103) = (  0.4999896  0.3751305  0.8747963  )
       104        C      tau( 104) = (  0.4999294  0.6249096  0.1250821  )
       105        C      tau( 105) = (  0.4990678  0.6238955  0.3757306  )
       106        C      tau( 106) = (  0.5028496  0.6247697  0.6247759  )
       107        C      tau( 107) = (  0.5001307  0.6250211  0.8749788  )
       108        C      tau( 108) = (  0.4999532  0.8750456  0.1249437  )
       109        C      tau( 109) = (  0.4999899  0.8747905  0.3751365  )
       110        C      tau( 110) = (  0.5001307  0.8749728  0.6250267  )
       111        C      tau( 111) = (  0.5001012  0.8751344  0.8751403  )
       112        C      tau( 112) = (  0.7499501  0.1250016  0.1250062  )
       113        C      tau( 113) = (  0.7499523  0.1249751  0.3749941  )
       114        C      tau( 114) = (  0.7498694  0.1251787  0.6249496  )
       115        C      tau( 115) = (  0.7499471  0.1251723  0.8749389  )
       116        C      tau( 116) = (  0.7499522  0.3749893  0.1249802  )
       117        C      tau( 117) = (  0.7498202  0.3750117  0.3750176  )
       118        C      tau( 118) = (  0.7491688  0.3757960  0.6248214  )
       119        C      tau( 119) = (  0.7499048  0.3751310  0.8749114  )
       120        C      tau( 120) = (  0.7498694  0.6249444  0.1251843  )
       121        C      tau( 121) = (  0.7491690  0.6248153  0.3758022  )
       122        C      tau( 122) = (  0.7505664  0.6254400  0.6254459  )
       123        C      tau( 123) = (  0.7502214  0.6251752  0.8752927  )
       124        C      tau( 124) = (  0.7499471  0.8749339  0.1251774  )
       125        C      tau( 125) = (  0.7499047  0.8749063  0.3751361  )
       126        C      tau( 126) = (  0.7502212  0.8752876  0.6251799  )
       127        C      tau( 127) = (  0.7501076  0.8751542  0.8751590  )
       128        C      tau( 128) = (  0.1249740 -0.0000371  0.1249840  )
       129        C      tau( 129) = (  0.1249479 -0.0000620  0.3749784  )
       130        C      tau( 130) = (  0.1250554 -0.0000949  0.6249863  )
       131        C      tau( 131) = (  0.1250379 -0.0000339  0.8749653  )
       132        C      tau( 132) = (  0.1249517  0.2499769  0.1249752  )
       133        C      tau( 133) = (  0.1249035  0.2499767  0.3749693  )
       134        C      tau( 134) = (  0.1248846  0.2499162  0.6249688  )
       135        C      tau( 135) = (  0.1249649  0.2499877  0.8749463  )
       136        C      tau( 136) = (  0.1247937  0.4999945  0.1248051  )
       137        C      tau( 137) = (  0.1250046  0.4999463  0.3749719  )
       138        C      tau( 138) = (  0.1251405  0.4999172  0.6248796  )
       139        C      tau( 139) = (  0.1249741  0.4999491  0.8750106  )
       140        C      tau( 140) = (  0.1249860  0.7499576  0.1249863  )
       141        C      tau( 141) = (  0.1249625  0.7499682  0.3749713  )
       142        C      tau( 142) = (  0.1252140  0.7498406  0.6249155  )
       143        C      tau( 143) = (  0.1251831  0.7499332  0.8749090  )
       144        C      tau( 144) = (  0.3749657 -0.0000553  0.1249566  )
       145        C      tau( 145) = (  0.3749909 -0.0001142  0.3749983  )
       146        C      tau( 146) = (  0.3750363 -0.0000729  0.6249647  )
       147        C      tau( 147) = (  0.3750159 -0.0000603  0.8749613  )
       148        C      tau( 148) = (  0.3749392  0.2499651  0.1249068  )
       149        C      tau( 149) = (  0.3750298  0.2500719  0.3750763  )
       150        C      tau( 150) = (  0.3748801  0.2498738  0.6249260  )
       151        C      tau( 151) = (  0.3749619  0.2499408  0.8749808  )
       152        C      tau( 152) = (  0.3749524  0.4999505  0.1249684  )
       153        C      tau( 153) = (  0.3752482  0.5004360  0.3751316  )
       154        C      tau( 154) = (  0.3760602  0.4990294  0.6236836  )
       155        C      tau( 155) = (  0.3751520  0.4999736  0.8747748  )
       156        C      tau( 156) = (  0.3749689  0.7499943  0.1249249  )
       157        C      tau( 157) = (  0.3749951  0.7499066  0.3749377  )
       158        C      tau( 158) = (  0.3758218  0.7491694  0.6247555  )
       159        C      tau( 159) = (  0.3751387  0.7498870  0.8748758  )
       160        C      tau( 160) = (  0.6249812 -0.0000652  0.1250680  )
       161        C      tau( 161) = (  0.6249562 -0.0000445  0.3750454  )
       162        C      tau( 162) = (  0.6250133  0.0000978  0.6250210  )
       163        C      tau( 163) = (  0.6250313  0.0001278  0.8750534  )
       164        C      tau( 164) = (  0.6249428  0.2499384  0.1249078  )
       165        C      tau( 165) = (  0.6248343  0.2499418  0.3749094  )
       166        C      tau( 166) = (  0.6245805  0.2504542  0.6246433  )
       167        C      tau( 167) = (  0.6249419  0.2502830  0.8747627  )
       168        C      tau( 168) = (  0.6248844  0.4999484  0.1251008  )
       169        C      tau( 169) = (  0.6236475  0.4993112  0.3759051  )
       170        C      tau( 170) = (  0.6247788  0.5028506  0.6248464  )
       171        C      tau( 171) = (  0.6250336  0.5001207  0.8749950  )
       172        C      tau( 172) = (  0.6249324  0.7498899  0.1251670  )
       173        C      tau( 173) = (  0.6247808  0.7492301  0.3757846  )
       174        C      tau( 174) = (  0.6254356  0.7505810  0.6254354  )
       175        C      tau( 175) = (  0.6251777  0.7502165  0.8752869  )
       176        C      tau( 176) = (  0.8749614 -0.0000166  0.1250477  )
       177        C      tau( 177) = (  0.8749473 -0.0000272  0.3750295  )
       178        C      tau( 178) = (  0.8750427  0.0001343  0.6250361  )
       179        C      tau( 179) = (  0.8750290  0.0001037  0.8750338  )
       180        C      tau( 180) = (  0.8749279  0.2500041  0.1249895  )
       181        C      tau( 181) = (  0.8749218  0.2499928  0.3749914  )
       182        C      tau( 182) = (  0.8747180  0.2503025  0.6249570  )
       183        C      tau( 183) = (  0.8749107  0.2500965  0.8749272  )
       184        C      tau( 184) = (  0.8749841  0.4999715  0.1250059  )
       185        C      tau( 185) = (  0.8747546  0.5000023  0.3751633  )
       186        C      tau( 186) = (  0.8749740  0.5001263  0.6250379  )
       187        C      tau( 187) = (  0.8751442  0.5001006  0.8751495  )
       188        C      tau( 188) = (  0.8749219  0.7499534  0.1251781  )
       189        C      tau( 189) = (  0.8748857  0.7499066  0.3751385  )
       190        C      tau( 190) = (  0.8752912  0.7502149  0.6251770  )
       191        C      tau( 191) = (  0.8751613  0.7501012  0.8751556  )
       192        C      tau( 192) = (  0.1249737  0.1249786 -0.0000316  )
       193        C      tau( 193) = (  0.1249518  0.1249695  0.2499822  )
       194        C      tau( 194) = (  0.1247934  0.1247985  0.5000004  )
       195        C      tau( 195) = (  0.1249854  0.1249797  0.7499634  )
       196        C      tau( 196) = (  0.1249476  0.3749729 -0.0000559  )
       197        C      tau( 197) = (  0.1249035  0.3749635  0.2499827  )
       198        C      tau( 198) = (  0.1250046  0.3749656  0.4999525  )
       199        C      tau( 199) = (  0.1249620  0.3749648  0.7499748  )
       200        C      tau( 200) = (  0.1250557  0.6249807 -0.0000881  )
       201        C      tau( 201) = (  0.1248851  0.6249624  0.2499230  )
       202        C      tau( 202) = (  0.1251404  0.6248731  0.4999237  )
       203        C      tau( 203) = (  0.1252140  0.6249091  0.7498474  )
       204        C      tau( 204) = (  0.1250381  0.8749599 -0.0000280  )
       205        C      tau( 205) = (  0.1249655  0.8749403  0.2499937  )
       206        C      tau( 206) = (  0.1249745  0.8750039  0.4999551  )
       207        C      tau( 207) = (  0.1251831  0.8749024  0.7499390  )
       208        C      tau( 208) = (  0.3749654  0.1249501 -0.0000488  )
       209        C      tau( 209) = (  0.3749392  0.1249011  0.2499708  )
       210        C      tau( 210) = (  0.3749519  0.1249619  0.4999569  )
       211        C      tau( 211) = (  0.3749683  0.1249171  0.7500015  )
       212        C      tau( 212) = (  0.3749908  0.3749925 -0.0001083  )
       213        C      tau( 213) = (  0.3750299  0.3750695  0.2500787  )
       214        C      tau( 214) = (  0.3752480  0.3751249  0.5004427  )
       215        C      tau( 215) = (  0.3749947  0.3749308  0.7499132  )
       216        C      tau( 216) = (  0.3750367  0.6249586 -0.0000659  )
       217        C      tau( 217) = (  0.3748806  0.6249190  0.2498808  )
       218        C      tau( 218) = (  0.3760603  0.6236772  0.4990360  )
       219        C      tau( 219) = (  0.3758218  0.6247489  0.7491761  )
       220        C      tau( 220) = (  0.3750162  0.8749547 -0.0000529  )
       221        C      tau( 221) = (  0.3749625  0.8749737  0.2499480  )
       222        C      tau( 222) = (  0.3751520  0.8747685  0.4999798  )
       223        C      tau( 223) = (  0.3751387  0.8748687  0.7498934  )
       224        C      tau( 224) = (  0.6249812  0.1250630 -0.0000602  )
       225        C      tau( 225) = (  0.6249429  0.1249027  0.2499433  )
       226        C      tau( 226) = (  0.6248842  0.1250953  0.4999539  )
       227        C      tau( 227) = (  0.6249321  0.1251609  0.7498958  )
       228        C      tau( 228) = (  0.6249561  0.3750404 -0.0000394  )
       229        C      tau( 229) = (  0.6248343  0.3749036  0.2499477  )
       230        C      tau( 230) = (  0.6236470  0.3758987  0.4993177  )
       231        C      tau( 231) = (  0.6247805  0.3757787  0.7492359  )
       232        C      tau( 232) = (  0.6250135  0.6250160  0.0001032  )
       233        C      tau( 233) = (  0.6245807  0.6246366  0.2504610  )
       234        C      tau( 234) = (  0.6247790  0.6248405  0.5028566  )
       235        C      tau( 235) = (  0.6254356  0.6254295  0.7505871  )
       236        C      tau( 236) = (  0.6250314  0.8750481  0.0001333  )
       237        C      tau( 237) = (  0.6249421  0.8747573  0.2502885  )
       238        C      tau( 238) = (  0.6250335  0.8749896  0.5001260  )
       239        C      tau( 239) = (  0.6251777  0.8752816  0.7502215  )
       240        C      tau( 240) = (  0.8749613  0.1250431 -0.0000119  )
       241        C      tau( 241) = (  0.8749280  0.1249848  0.2500086  )
       242        C      tau( 242) = (  0.8749843  0.1250005  0.4999763  )
       243        C      tau( 243) = (  0.8749220  0.1251727  0.7499585  )
       244        C      tau( 244) = (  0.8749471  0.3750249 -0.0000222  )
       245        C      tau( 245) = (  0.8749217  0.3749863  0.2499981  )
       246        C      tau( 246) = (  0.8747547  0.3751573  0.5000081  )
       247        C      tau( 247) = (  0.8748860  0.3751329  0.7499121  )
       248        C      tau( 248) = (  0.8750428  0.6250315  0.0001395  )
       249        C      tau( 249) = (  0.8747176  0.6249513  0.2503086  )
       250        C      tau( 250) = (  0.8749739  0.6250324  0.5001319  )
       251        C      tau( 251) = (  0.8752913  0.6251720  0.7502200  )
       252        C      tau( 252) = (  0.8750291  0.8750292  0.0001085  )
       253        C      tau( 253) = (  0.8749106  0.8749220  0.2501015  )
       254        C      tau( 254) = (  0.8751441  0.8751444  0.5001053  )
       255        C      tau( 255) = (  0.8751613  0.8751507  0.7501058  )
       256        C      tau( 256) = (  0.1874586  0.0624614  0.1874757  )
       257        C      tau( 257) = (  0.1874338  0.0623804  0.4374707  )
       258        C      tau( 258) = (  0.1875047  0.0624037  0.6874708  )
       259        C      tau( 259) = (  0.1875031  0.0624664  0.9374612  )
       260        C      tau( 260) = (  0.1874446  0.3124625  0.1874639  )
       261        C      tau( 261) = (  0.1874194  0.3123919  0.4374287  )
       262        C      tau( 262) = (  0.1874354  0.3124667  0.6874278  )
       263        C      tau( 263) = (  0.1874589  0.3124733  0.9374543  )
       264        C      tau( 264) = (  0.1871703  0.5624023  0.1871689  )
       265        C      tau( 265) = (  0.1876185  0.5623533  0.4374417  )
       266        C      tau( 266) = (  0.1877458  0.5623764  0.6873251  )
       267        C      tau( 267) = (  0.1876169  0.5624543  0.9373466  )
       268        C      tau( 268) = (  0.1874904  0.8124354  0.1874893  )
       269        C      tau( 269) = (  0.1873923  0.8125713  0.4375105  )
       270        C      tau( 270) = (  0.1877611  0.8122988  0.6873878  )
       271        C      tau( 271) = (  0.1875872  0.8124405  0.9374254  )
       272        C      tau( 272) = (  0.4374531  0.0623953  0.1874531  )
       273        C      tau( 273) = (  0.4374548  0.0624391  0.4374745  )
       274        C      tau( 274) = (  0.4375044  0.0624961  0.6874613  )
       275        C      tau( 275) = (  0.4375080  0.0624340  0.9375050  )
       276        C      tau( 276) = (  0.4373822  0.3123999  0.1873992  )
       277        C      tau( 277) = (  0.4374150  0.3126983  0.4375116  )
       278        C      tau( 278) = (  0.4376648  0.3120024  0.6879068  )
       279        C      tau( 279) = (  0.4374909  0.3125258  0.9373741  )
       280        C      tau( 280) = (  0.4374332  0.5623855  0.1875399  )
       281        C      tau( 281) = (  0.4386965  0.5618511  0.6862453  )
       282        C      tau( 282) = (  0.4375556  0.5624965  0.9374201  )
       283        C      tau( 283) = (  0.4375173  0.8126287  0.1873337  )
       284        C      tau( 284) = (  0.4375713  0.8122517  0.4375488  )
       285        C      tau( 285) = (  0.4377706  0.8123369  0.6874658  )
       286        C      tau( 286) = (  0.4375716  0.8124706  0.9374814  )
       287        C      tau( 287) = (  0.6874582  0.0624406  0.1875250  )
       288        C      tau( 288) = (  0.6874373  0.0625274  0.4375243  )
       289        C      tau( 289) = (  0.6874889  0.0626425  0.6875046  )
       290        C      tau( 290) = (  0.6874898  0.0626139  0.9374987  )
       291        C      tau( 291) = (  0.6874014  0.3124932  0.1874464  )
       292        C      tau( 292) = (  0.6876909  0.3121832  0.4376539  )
       293        C      tau( 293) = (  0.6871144  0.3129707  0.6871695  )
       294        C      tau( 294) = (  0.6874478  0.3126018  0.9374132  )
       295        C      tau( 295) = (  0.6873325  0.5624392  0.1876892  )
       296        C      tau( 296) = (  0.6862246  0.5619470  0.4386976  )
       297        C      tau( 297) = (  0.6884360  0.5629302  0.6884662  )
       298        C      tau( 298) = (  0.6875550  0.5625795  0.9375991  )
       299        C      tau( 299) = (  0.6874003  0.8123431  0.1877395  )
       300        C      tau( 300) = (  0.6874843  0.8123775  0.4377568  )
       301        C      tau( 301) = (  0.6878054  0.8129234  0.6878062  )
       302        C      tau( 302) = (  0.6876054  0.8126351  0.9377212  )
       303        C      tau( 303) = (  0.9374489  0.0624828  0.1875194  )
       304        C      tau( 304) = (  0.9374670  0.0624726  0.4375207  )
       305        C      tau( 305) = (  0.9374829  0.0626117  0.6874977  )
       306        C      tau( 306) = (  0.9374980  0.0625508  0.9375077  )
       307        C      tau( 307) = (  0.9374258  0.3124901  0.1874900  )
       308        C      tau( 308) = (  0.9373427  0.3125522  0.4375133  )
       309        C      tau( 309) = (  0.9373874  0.3126092  0.6874554  )
       310        C      tau( 310) = (  0.9374361  0.3125436  0.9374543  )
       311        C      tau( 311) = (  0.9373410  0.5624676  0.1876354  )
       312        C      tau( 312) = (  0.9374187  0.5625054  0.4375667  )
       313        C      tau( 313) = (  0.9375977  0.5625762  0.6875529  )
       314        C      tau( 314) = (  0.9375878  0.5625307  0.9375901  )
       315        C      tau( 315) = (  0.9374348  0.8124554  0.1875918  )
       316        C      tau( 316) = (  0.9374933  0.8124745  0.4375776  )
       317        C      tau( 317) = (  0.9377285  0.8126249  0.6876026  )
       318        C      tau( 318) = (  0.9375986  0.8125459  0.9375960  )
       319        C      tau( 319) = (  0.0624777  0.0624857  0.0624908  )
       320        C      tau( 320) = (  0.0624471  0.0624662  0.3124950  )
       321        C      tau( 321) = (  0.0624074  0.0624130  0.5624720  )
       322        C      tau( 322) = (  0.0625180  0.0625131  0.8124791  )
       323        C      tau( 323) = (  0.0624469  0.3124899  0.0624718  )
       324        C      tau( 324) = (  0.0623796  0.3124599  0.3124655  )
       325        C      tau( 325) = (  0.0624389  0.3125006  0.5624562  )
       326        C      tau( 326) = (  0.0624439  0.3125148  0.8124560  )
       327        C      tau( 327) = (  0.0624076  0.5624665  0.0624195  )
       328        C      tau( 328) = (  0.0624389  0.5624505  0.3125065  )
       329        C      tau( 329) = (  0.0625841  0.5624649  0.5624710  )
       330        C      tau( 330) = (  0.0626087  0.5624946  0.8124594  )
       331        C      tau( 331) = (  0.0625184  0.8124739  0.0625189  )
       332        C      tau( 332) = (  0.0624444  0.8124501  0.3125206  )
       333        C      tau( 333) = (  0.0626088  0.8124533  0.5625003  )
       334        C      tau( 334) = (  0.0626809  0.8124813  0.8124871  )
       335        C      tau( 335) = (  0.3124770  0.0624580  0.0624643  )
       336        C      tau( 336) = (  0.3124382  0.0623830  0.3124560  )
       337        C      tau( 337) = (  0.3124891  0.0624132  0.5624592  )
       338        C      tau( 338) = (  0.3125107  0.0624187  0.8124635  )
       339        C      tau( 339) = (  0.3124381  0.3124503  0.0623889  )
       340        C      tau( 340) = (  0.3124948  0.3125105  0.3125174  )
       341        C      tau( 341) = (  0.3117664  0.3117050  0.5621323  )
       342        C      tau( 342) = (  0.3124988  0.3124752  0.8124749  )
       343        C      tau( 343) = (  0.3124895  0.5624530  0.0624201  )
       344        C      tau( 344) = (  0.3117666  0.5621252  0.3117117  )
       345        C      tau( 345) = (  0.3132867  0.5619722  0.5619788  )
       346        C      tau( 346) = (  0.3128933  0.5623537  0.8120643  )
       347        C      tau( 347) = (  0.3125113  0.8124566  0.0624266  )
       348        C      tau( 348) = (  0.3124994  0.8124676  0.3124826  )
       349        C      tau( 349) = (  0.3128934  0.8120574  0.5623604  )
       350        C      tau( 350) = (  0.3126621  0.8123501  0.8123570  )
       351        C      tau( 351) = (  0.5624636  0.0624321  0.0624374  )
       352        C      tau( 352) = (  0.5624397  0.0624391  0.3125077  )
       353        C      tau( 353) = (  0.5624706  0.0625478  0.5624912  )
       354        C      tau( 354) = (  0.5625024  0.0625747  0.8124914  )
       355        C      tau( 355) = (  0.5624396  0.3125025  0.0624443  )
       356        C      tau( 356) = (  0.5620953  0.3117854  0.3117916  )
       357        C      tau( 357) = (  0.5619992  0.3130582  0.5621583  )
       358        C      tau( 358) = (  0.5623772  0.3128441  0.8121204  )
       359        C      tau( 359) = (  0.5624709  0.5624856  0.0625535  )
       360        C      tau( 360) = (  0.5619995  0.5621515  0.3130649  )
       361        C      tau( 361) = (  0.5626458  0.5626267  0.8125242  )
       362        C      tau( 362) = (  0.5625028  0.8124855  0.0625810  )
       363        C      tau( 363) = (  0.5623776  0.8121146  0.3128500  )
       364        C      tau( 364) = (  0.5626459  0.8125184  0.5626325  )
       365        C      tau( 365) = (  0.5626728  0.8128271  0.8128325  )
       366        C      tau( 366) = (  0.8124712  0.0625271  0.0625317  )
       367        C      tau( 367) = (  0.8124415  0.0624633  0.3125302  )
       368        C      tau( 368) = (  0.8124642  0.0626006  0.5625160  )
       369        C      tau( 369) = (  0.8124943  0.0626712  0.8125048  )
       370        C      tau( 370) = (  0.8124414  0.3125257  0.0624681  )
       371        C      tau( 371) = (  0.8124105  0.3125203  0.3125255  )
       372        C      tau( 372) = (  0.8120481  0.3128988  0.5624078  )
       373        C      tau( 373) = (  0.8123722  0.3126529  0.8123903  )
       374        C      tau( 374) = (  0.8124642  0.5625113  0.0626058  )
       375        C      tau( 375) = (  0.8120480  0.5624017  0.3129052  )
       376        C      tau( 376) = (  0.8124993  0.5626487  0.5626545  )
       377        C      tau( 377) = (  0.8128400  0.5626693  0.8128456  )
       378        C      tau( 378) = (  0.8124944  0.8125000  0.0626762  )
       379        C      tau( 379) = (  0.8123719  0.8123849  0.3126583  )
       380        C      tau( 380) = (  0.8128399  0.8128405  0.5626742  )
       381        C      tau( 381) = (  0.8127012  0.8126942  0.8126990  )
       382        C      tau( 382) = (  0.0624449  0.1874771  0.1874823  )
       383        C      tau( 383) = (  0.0623808  0.1874540  0.4374750  )
       384        C      tau( 384) = (  0.0624195  0.1875090  0.6874714  )
       385        C      tau( 385) = (  0.0624684  0.1875077  0.9374648  )
       386        C      tau( 386) = (  0.0623807  0.4374696  0.1874597  )
       387        C      tau( 387) = (  0.0624601  0.4374689  0.4374747  )
       388        C      tau( 388) = (  0.0625381  0.4375060  0.6874415  )
       389        C      tau( 389) = (  0.0624439  0.4375106  0.9374914  )
       390        C      tau( 390) = (  0.0624199  0.6874657  0.1875152  )
       391        C      tau( 391) = (  0.0625381  0.6874356  0.4375119  )
       392        C      tau( 392) = (  0.0626741  0.6874715  0.6874776  )
       393        C      tau( 393) = (  0.0626170  0.6874849  0.9374765  )
       394        C      tau( 394) = (  0.0624688  0.9374594  0.1875130  )
       395        C      tau( 395) = (  0.0624443  0.9374853  0.4375160  )
       396        C      tau( 396) = (  0.0626169  0.9374702  0.6874902  )
       397        C      tau( 397) = (  0.0625497  0.9374950  0.9375003  )
       398        C      tau( 398) = (  0.3124428  0.1874570  0.1874628  )
       399        C      tau( 399) = (  0.3123651  0.1873775  0.4374306  )
       400        C      tau( 400) = (  0.3124716  0.1873815  0.6874467  )
       401        C      tau( 401) = (  0.3124692  0.1874545  0.9374628  )
       402        C      tau( 402) = (  0.3123654  0.4374239  0.1873840  )
       403        C      tau( 403) = (  0.3128693  0.4374991  0.4375058  )
       404        C      tau( 404) = (  0.3121882  0.4376082  0.6877799  )
       405        C      tau( 405) = (  0.3125339  0.4374888  0.9373590  )
       406        C      tau( 406) = (  0.3124723  0.6874393  0.1873893  )
       407        C      tau( 407) = (  0.3121884  0.6877733  0.4376151  )
       408        C      tau( 408) = (  0.3130216  0.6870934  0.6871004  )
       409        C      tau( 409) = (  0.3126060  0.6874386  0.9373763  )
       410        C      tau( 410) = (  0.3124699  0.9374559  0.1874616  )
       411        C      tau( 411) = (  0.3125341  0.9373527  0.4374949  )
       412        C      tau( 412) = (  0.3126059  0.9373689  0.6874447  )
       413        C      tau( 413) = (  0.3125371  0.9374294  0.9374361  )
       414        C      tau( 414) = (  0.5623866  0.1872143  0.1872196  )
       415        C      tau( 415) = (  0.5623393  0.1875572  0.4374762  )
       416        C      tau( 416) = (  0.5623951  0.1876491  0.6874029  )
       417        C      tau( 417) = (  0.5624586  0.1876049  0.9373796  )
       418        C      tau( 418) = (  0.5623395  0.4374702  0.1875631  )
       419        C      tau( 419) = (  0.5618874  0.4386059  0.6863072  )
       420        C      tau( 420) = (  0.5625018  0.4375506  0.9374349  )
       421        C      tau( 421) = (  0.5623958  0.6873962  0.1876559  )
       422        C      tau( 422) = (  0.5618878  0.6863014  0.4386120  )
       423        C      tau( 423) = (  0.5629422  0.6884216  0.6884278  )
       424        C      tau( 424) = (  0.5625800  0.6875522  0.9375878  )
       425        C      tau( 425) = (  0.5624588  0.9373741  0.1876105  )
       426        C      tau( 426) = (  0.5625019  0.9374296  0.4375559  )
       427        C      tau( 427) = (  0.5625799  0.9375821  0.6875575  )
       428        C      tau( 428) = (  0.5625321  0.9375868  0.9375924  )
       429        C      tau( 429) = (  0.8124205  0.1875075  0.1875121  )
       430        C      tau( 430) = (  0.8125292  0.1874272  0.4375307  )
       431        C      tau( 431) = (  0.8123213  0.1877426  0.6874198  )
       432        C      tau( 432) = (  0.8124476  0.1875892  0.9374532  )
       433        C      tau( 433) = (  0.8125289  0.4375255  0.1874328  )
       434        C      tau( 434) = (  0.8122078  0.4375860  0.4375920  )
       435        C      tau( 435) = (  0.8123471  0.4377681  0.6874984  )
       436        C      tau( 436) = (  0.8124768  0.4375736  0.9375066  )
       437        C      tau( 437) = (  0.8123210  0.6874144  0.1877484  )
       438        C      tau( 438) = (  0.8123468  0.6874926  0.4377740  )
       439        C      tau( 439) = (  0.8129259  0.6878020  0.6878072  )
       440        C      tau( 440) = (  0.8126362  0.6876040  0.9377235  )
       441        C      tau( 441) = (  0.8124477  0.9374483  0.1875940  )
       442        C      tau( 442) = (  0.8124768  0.9375016  0.4375782  )
       443        C      tau( 443) = (  0.8126360  0.9377185  0.6876086  )
       444        C      tau( 444) = (  0.8125492  0.9375966  0.9376013  )
       445        C      tau( 445) = (  0.1874584  0.1874700  0.0624674  )
       446        C      tau( 446) = (  0.1874445  0.1874580  0.3124683  )
       447        C      tau( 447) = (  0.1871700  0.1871618  0.5624090  )
       448        C      tau( 448) = (  0.1874897  0.1874823  0.8124419  )
       449        C      tau( 449) = (  0.1874339  0.4374650  0.0623865  )
       450        C      tau( 450) = (  0.1874193  0.4374221  0.3123984  )
       451        C      tau( 451) = (  0.1876185  0.4374346  0.5623604  )
       452        C      tau( 452) = (  0.1873920  0.4375037  0.8125783  )
       453        C      tau( 453) = (  0.1875053  0.6874645  0.0624112  )
       454        C      tau( 454) = (  0.1874360  0.6874206  0.3124741  )
       455        C      tau( 455) = (  0.1877457  0.6873180  0.5623833  )
       456        C      tau( 456) = (  0.1877610  0.6873812  0.8123059  )
       457        C      tau( 457) = (  0.1875035  0.9374552  0.0624726  )
       458        C      tau( 458) = (  0.1874596  0.9374477  0.3124796  )
       459        C      tau( 459) = (  0.1876170  0.9373399  0.5624601  )
       460        C      tau( 460) = (  0.1875870  0.9374185  0.8124466  )
       461        C      tau( 461) = (  0.4374529  0.1874475  0.0624010  )
       462        C      tau( 462) = (  0.4373821  0.1873932  0.3124058  )
       463        C      tau( 463) = (  0.4374326  0.1875329  0.5623925  )
       464        C      tau( 464) = (  0.4375168  0.1873271  0.8126351  )
       465        C      tau( 465) = (  0.4374550  0.4374688  0.0624449  )
       466        C      tau( 466) = (  0.4374151  0.4375046  0.3127053  )
       467        C      tau( 467) = (  0.4375709  0.4375422  0.8122580  )
       468        C      tau( 468) = (  0.4375050  0.6874548  0.0625034  )
       469        C      tau( 469) = (  0.4376653  0.6879004  0.3120089  )
       470        C      tau( 470) = (  0.4386967  0.6862390  0.5618575  )
       471        C      tau( 471) = (  0.4377706  0.6874596  0.8123436  )
       472        C      tau( 472) = (  0.4375084  0.9374984  0.0624410  )
       473        C      tau( 473) = (  0.4374913  0.9373680  0.3125319  )
       474        C      tau( 474) = (  0.4375555  0.9374140  0.5625022  )
       475        C      tau( 475) = (  0.4375714  0.9374746  0.8124767  )
       476        C      tau( 476) = (  0.6874581  0.1875203  0.0624454  )
       477        C      tau( 477) = (  0.6874014  0.1874413  0.3124982  )
       478        C      tau( 478) = (  0.6873323  0.1876833  0.5624450  )
       479        C      tau( 479) = (  0.6874002  0.1877338  0.8123486  )
       480        C      tau( 480) = (  0.6874373  0.4375194  0.0625324  )
       481        C      tau( 481) = (  0.6876911  0.4376478  0.3121891  )
       482        C      tau( 482) = (  0.6862243  0.4386914  0.5619532  )
       483        C      tau( 483) = (  0.6874843  0.4377514  0.8123829  )
       484        C      tau( 484) = (  0.6874892  0.6874995  0.0626479  )
       485        C      tau( 485) = (  0.6871144  0.6871630  0.3129772  )
       486        C      tau( 486) = (  0.6884361  0.6884602  0.5629363  )
       487        C      tau( 487) = (  0.6878055  0.6878011  0.8129288  )
       488        C      tau( 488) = (  0.6874899  0.9374937  0.0626189  )
       489        C      tau( 489) = (  0.6874479  0.9374082  0.3126068  )
       490        C      tau( 490) = (  0.6875550  0.9375940  0.5625843  )
       491        C      tau( 491) = (  0.6876054  0.9377162  0.8126400  )
       492        C      tau( 492) = (  0.9374488  0.1875148  0.0624876  )
       493        C      tau( 493) = (  0.9374259  0.1874850  0.3124949  )
       494        C      tau( 494) = (  0.9373412  0.1876297  0.5624727  )
       495        C      tau( 495) = (  0.9374347  0.1875866  0.8124604  )
       496        C      tau( 496) = (  0.9374668  0.4375160  0.0624779  )
       497        C      tau( 497) = (  0.9373426  0.4375080  0.3125577  )
       498        C      tau( 498) = (  0.9374188  0.4375611  0.5625109  )
       499        C      tau( 499) = (  0.9374934  0.4375726  0.8124798  )
       500        C      tau( 500) = (  0.9374830  0.6874929  0.0626172  )
       501        C      tau( 501) = (  0.9373871  0.6874501  0.3126148  )
       502        C      tau( 502) = (  0.9375976  0.6875475  0.5625815  )
       503        C      tau( 503) = (  0.9377285  0.6875977  0.8126301  )
       504        C      tau( 504) = (  0.9374981  0.9375030  0.0625556  )
       505        C      tau( 505) = (  0.9374363  0.9374491  0.3125483  )
       506        C      tau( 506) = (  0.9375878  0.9375847  0.5625355  )
       507        C      tau( 507) = (  0.9375985  0.9375910  0.8125506  )
       508        C      tau( 508) = (  0.5656959  0.4327018  0.4327080  )
       509        C      tau( 509) = (  0.4329692  0.4324910  0.5659180  )
       510        C      tau( 510) = (  0.4329695  0.5659118  0.4324973  )
       511        N      tau( 511) = (  0.5681278  0.5680874  0.5680933  )

     number of k points=     1
                       cart. coord. in units 2pi/alat
        k(    1) = (   0.0000000   0.0000000   0.0000000), wk =   1.0000000

                       cryst. coord.
        k(    1) = (   0.0000000   0.0000000   0.0000000), wk =   1.0000000

     Dense  grid:   948261 G-vectors     FFT dimensions: ( 160, 160, 160)

     Occupations read from input 

      Spin-up

        1.0000   1.0000   1.0000   1.0000   1.0000   1.0000   1.0000   1.0000
        1.0000   1.0000   1.0000   1.0000   1.0000   1.0000   1.0000   1.0000
        1.0000   1.0000   1.0000   1.0000   1.0000   1.0000   1.0000   1.0000
        1.0000   1.0000   1.0000   1.0000   1.0000   1.0000   1.0000   1.0000
        1.0000   1.0000   1.0000   1.0000   1.0000   1.0000   1.0000   1.0000
        1.0000   1.0000   1.0000   1.0000   1.0000   1.0000   1.0000   1.0000
        1.0000   1.0000   1.0000   1.0000   1.0000   1.0000   1.0000   1.0000
        1.0000   1.0000   1.0000   1.0000   1.0000   1.0000   1.0000   1.0000
        1.0000   1.0000   1.0000   1.0000   1.0000   1.0000   1.0000   1.0000
        1.0000   1.0000   1.0000   1.0000   1.0000   1.0000   1.0000   1.0000
        1.0000   1.0000   1.0000   1.0000   1.0000   1.0000   1.0000   1.0000
        1.0000   1.0000   1.0000   1.0000   1.0000   1.0000   1.0000   1.0000
        1.0000   1.0000   1.0000   1.0000   1.0000   1.0000   1.0000   1.0000
        1.0000   1.0000   1.0000   1.0000   1.0000   1.0000   1.0000   1.0000
        1.0000   1.0000   1.0000   1.0000   1.0000   1.0000   1.0000   1.0000
        1.0000   1.0000   1.0000   1.0000   1.0000   1.0000   1.0000   1.0000
        1.0000   1.0000   1.0000   1.0000   1.0000   1.0000   1.0000   1.0000
        1.0000   1.0000   1.0000   1.0000   1.0000   1.0000   1.0000   1.0000
        1.0000   1.0000   1.0000   1.0000   1.0000   1.0000   1.0000   1.0000
        1.0000   1.0000   1.0000   1.0000   1.0000   1.0000   1.0000   1.0000
        1.0000   1.0000   1.0000   1.0000   1.0000   1.0000   1.0000   1.0000
        1.0000   1.0000   1.0000   1.0000   1.0000   1.0000   1.0000   1.0000
        1.0000   1.0000   1.0000   1.0000   1.0000   1.0000   1.0000   1.0000
        1.0000   1.0000   1.0000   1.0000   1.0000   1.0000   1.0000   1.0000
        1.0000   1.0000   1.0000   1.0000   1.0000   1.0000   1.0000   1.0000
        1.0000   1.0000   1.0000   1.0000   1.0000   1.0000   1.0000   1.0000
        1.0000   1.0000   1.0000   1.0000   1.0000   1.0000   1.0000   1.0000
        1.0000   1.0000   1.0000   1.0000   1.0000   1.0000   1.0000   1.0000
        1.0000   1.0000   1.0000   1.0000   1.0000   1.0000   1.0000   1.0000
        1.0000   1.0000   1.0000   1.0000   1.0000   1.0000   1.0000   1.0000
        1.0000   1.0000   1.0000   1.0000   1.0000   1.0000   1.0000   1.0000
        1.0000   1.0000   1.0000   1.0000   1.0000   1.0000   1.0000   1.0000
        1.0000   1.0000   1.0000   1.0000   1.0000   1.0000   1.0000   1.0000
        1.0000   1.0000   1.0000   1.0000   1.0000   1.0000   1.0000   1.0000
        1.0000   1.0000   1.0000   1.0000   1.0000   1.0000   1.0000   1.0000
        1.0000   1.0000   1.0000   1.0000   1.0000   1.0000   1.0000   1.0000
        1.0000   1.0000   1.0000   1.0000   1.0000   1.0000   1.0000   1.0000
        1.0000   1.0000   1.0000   1.0000   1.0000   1.0000   1.0000   1.0000
        1.0000   1.0000   1.0000   1.0000   1.0000   1.0000   1.0000   1.0000
        1.0000   1.0000   1.0000   1.0000   1.0000   1.0000   1.0000   1.0000
        1.0000   1.0000   1.0000   1.0000   1.0000   1.0000   1.0000   1.0000
        1.0000   1.0000   1.0000   1.0000   1.0000   1.0000   1.0000   1.0000
        1.0000   1.0000   1.0000   1.0000   1.0000   1.0000   1.0000   1.0000
        1.0000   1.0000   1.0000   1.0000   1.0000   1.0000   1.0000   1.0000
        1.0000   1.0000   1.0000   1.0000   1.0000   1.0000   1.0000   1.0000
        1.0000   1.0000   1.0000   1.0000   1.0000   1.0000   1.0000   1.0000
        1.0000   1.0000   1.0000   1.0000   1.0000   1.0000   1.0000   1.0000
        1.0000   1.0000   1.0000   1.0000   1.0000   1.0000   1.0000   1.0000
        1.0000   1.0000   1.0000   1.0000   1.0000   1.0000   1.0000   1.0000
        1.0000   1.0000   1.0000   1.0000   1.0000   1.0000   1.0000   1.0000
        1.0000   1.0000   1.0000   1.0000   1.0000   1.0000   1.0000   1.0000
        1.0000   1.0000   1.0000   1.0000   1.0000   1.0000   1.0000   1.0000
        1.0000   1.0000   1.0000   1.0000   1.0000   1.0000   1.0000   1.0000
        1.0000   1.0000   1.0000   1.0000   1.0000   1.0000   1.0000   1.0000
        1.0000   1.0000   1.0000   1.0000   1.0000   1.0000   1.0000   1.0000
        1.0000   1.0000   1.0000   1.0000   1.0000   1.0000   1.0000   1.0000
        1.0000   1.0000   1.0000   1.0000   1.0000   1.0000   1.0000   1.0000
        1.0000   1.0000   1.0000   1.0000   1.0000   1.0000   1.0000   1.0000
        1.0000   1.0000   1.0000   1.0000   1.0000   1.0000   1.0000   1.0000
        1.0000   1.0000   1.0000   1.0000   1.0000   1.0000   1.0000   1.0000
        1.0000   1.0000   1.0000   1.0000   1.0000   1.0000   1.0000   1.0000
        1.0000   1.0000   1.0000   1.0000   1.0000   1.0000   1.0000   1.0000
        1.0000   1.0000   1.0000   1.0000   1.0000   1.0000   1.0000   1.0000
        1.0000   1.0000   1.0000   1.0000   1.0000   1.0000   1.0000   1.0000
        1.0000   1.0000   1.0000   1.0000   1.0000   1.0000   1.0000   1.0000
        1.0000   1.0000   1.0000   1.0000   1.0000   1.0000   1.0000   1.0000
        1.0000   1.0000   1.0000   1.0000   1.0000   1.0000   1.0000   1.0000
        1.0000   1.0000   1.0000   1.0000   1.0000   1.0000   1.0000   1.0000
        1.0000   1.0000   1.0000   1.0000   1.0000   1.0000   1.0000   1.0000
        1.0000   1.0000   1.0000   1.0000   1.0000   1.0000   1.0000   1.0000
        1.0000   1.0000   1.0000   1.0000   1.0000   1.0000   1.0000   1.0000
        1.0000   1.0000   1.0000   1.0000   1.0000   1.0000   1.0000   1.0000
        1.0000   1.0000   1.0000   1.0000   1.0000   1.0000   1.0000   1.0000
        1.0000   1.0000   1.0000   1.0000   1.0000   1.0000   1.0000   1.0000
        1.0000   1.0000   1.0000   1.0000   1.0000   1.0000   1.0000   1.0000
        1.0000   1.0000   1.0000   1.0000   1.0000   1.0000   1.0000   1.0000
        1.0000   1.0000   1.0000   1.0000   1.0000   1.0000   1.0000   1.0000
        1.0000   1.0000   1.0000   1.0000   1.0000   1.0000   1.0000   1.0000
        1.0000   1.0000   1.0000   1.0000   1.0000   1.0000   1.0000   1.0000
        1.0000   1.0000   1.0000   1.0000   1.0000   1.0000   1.0000   1.0000
        1.0000   1.0000   1.0000   1.0000   1.0000   1.0000   1.0000   1.0000
        1.0000   1.0000   1.0000   1.0000   1.0000   1.0000   1.0000   1.0000
        1.0000   1.0000   1.0000   1.0000   1.0000   1.0000   1.0000   1.0000
        1.0000   1.0000   1.0000   1.0000   1.0000   1.0000   1.0000   1.0000
        1.0000   1.0000   1.0000   1.0000   1.0000   1.0000   1.0000   1.0000
        1.0000   1.0000   1.0000   1.0000   1.0000   1.0000   1.0000   1.0000
        1.0000   1.0000   1.0000   1.0000   1.0000   1.0000   1.0000   1.0000
        1.0000   1.0000   1.0000   1.0000   1.0000   1.0000   1.0000   1.0000
        1.0000   1.0000   1.0000   1.0000   1.0000   1.0000   1.0000   1.0000
        1.0000   1.0000   1.0000   1.0000   1.0000   1.0000   1.0000   1.0000
        1.0000   1.0000   1.0000   1.0000   1.0000   1.0000   1.0000   1.0000
        1.0000   1.0000   1.0000   1.0000   1.0000   1.0000   1.0000   1.0000
        1.0000   1.0000   1.0000   1.0000   1.0000   1.0000   1.0000   1.0000
        1.0000   1.0000   1.0000   1.0000   1.0000   1.0000   1.0000   1.0000
        1.0000   1.0000   1.0000   1.0000   1.0000   1.0000   1.0000   1.0000
        1.0000   1.0000   1.0000   1.0000   1.0000   1.0000   1.0000   1.0000
        1.0000   1.0000   1.0000   1.0000   1.0000   1.0000   1.0000   1.0000
        1.0000   1.0000   1.0000   1.0000   1.0000   1.0000   1.0000   1.0000
        1.0000   1.0000   1.0000   1.0000   1.0000   1.0000   1.0000   1.0000
        1.0000   1.0000   1.0000   1.0000   1.0000   1.0000   1.0000   1.0000
        1.0000   1.0000   1.0000   1.0000   1.0000   1.0000   1.0000   1.0000
        1.0000   1.0000   1.0000   1.0000   1.0000   1.0000   1.0000   1.0000
        1.0000   1.0000   1.0000   1.0000   1.0000   1.0000   1.0000   1.0000
        1.0000   1.0000   1.0000   1.0000   1.0000   1.0000   1.0000   1.0000
        1.0000   1.0000   1.0000   1.0000   1.0000   1.0000   1.0000   1.0000
        1.0000   1.0000   1.0000   1.0000   1.0000   1.0000   1.0000   1.0000
        1.0000   1.0000   1.0000   1.0000   1.0000   1.0000   1.0000   1.0000
        1.0000   1.0000   1.0000   1.0000   1.0000   1.0000   1.0000   1.0000
        1.0000   1.0000   1.0000   1.0000   1.0000   1.0000   1.0000   1.0000
        1.0000   1.0000   1.0000   1.0000   1.0000   1.0000   1.0000   1.0000
        1.0000   1.0000   1.0000   1.0000   1.0000   1.0000   1.0000   1.0000
        1.0000   1.0000   1.0000   1.0000   1.0000   1.0000   1.0000   1.0000
        1.0000   1.0000   1.0000   1.0000   1.0000   1.0000   1.0000   1.0000
        1.0000   1.0000   1.0000   1.0000   1.0000   1.0000   1.0000   1.0000
        1.0000   1.0000   1.0000   1.0000   1.0000   1.0000   1.0000   1.0000
        1.0000   1.0000   1.0000   1.0000   1.0000   1.0000   1.0000   1.0000
        1.0000   1.0000   1.0000   1.0000   1.0000   1.0000   1.0000   1.0000
        1.0000   1.0000   1.0000   1.0000   1.0000   1.0000   1.0000   1.0000
        1.0000   1.0000   1.0000   1.0000   1.0000   1.0000   1.0000   1.0000
        1.0000   1.0000   1.0000   1.0000   1.0000   1.0000   1.0000   1.0000
        1.0000   1.0000   1.0000   1.0000   1.0000   1.0000   1.0000   1.0000
        1.0000   1.0000   1.0000   1.0000   1.0000   1.0000   1.0000   1.0000
        1.0000   1.0000   1.0000   1.0000   1.0000   1.0000   1.0000   1.0000
        1.0000   1.0000   1.0000   1.0000   1.0000   1.0000   1.0000   1.0000
        1.0000   1.0000   1.0000   1.0000   1.0000   1.0000   1.0000   1.0000
        1.0000   1.0000   1.0000   1.0000   1.0000   1.0000   1.0000   1.0000
        1.0000   1.0000   1.0000   1.0000   1.0000   1.0000   1.0000   1.0000
        1.0000   1.0000   1.0000   1.0000   1.0000   1.0000   1.0000   1.0000
        0.0000   0.0000   0.0000   0.0000   0.0000   0.0000   0.0000   0.0000

      Spin-down

        1.0000   1.0000   1.0000   1.0000   1.0000   1.0000   1.0000   1.0000
        1.0000   1.0000   1.0000   1.0000   1.0000   1.0000   1.0000   1.0000
        1.0000   1.0000   1.0000   1.0000   1.0000   1.0000   1.0000   1.0000
        1.0000   1.0000   1.0000   1.0000   1.0000   1.0000   1.0000   1.0000
        1.0000   1.0000   1.0000   1.0000   1.0000   1.0000   1.0000   1.0000
        1.0000   1.0000   1.0000   1.0000   1.0000   1.0000   1.0000   1.0000
        1.0000   1.0000   1.0000   1.0000   1.0000   1.0000   1.0000   1.0000
        1.0000   1.0000   1.0000   1.0000   1.0000   1.0000   1.0000   1.0000
        1.0000   1.0000   1.0000   1.0000   1.0000   1.0000   1.0000   1.0000
        1.0000   1.0000   1.0000   1.0000   1.0000   1.0000   1.0000   1.0000
        1.0000   1.0000   1.0000   1.0000   1.0000   1.0000   1.0000   1.0000
        1.0000   1.0000   1.0000   1.0000   1.0000   1.0000   1.0000   1.0000
        1.0000   1.0000   1.0000   1.0000   1.0000   1.0000   1.0000   1.0000
        1.0000   1.0000   1.0000   1.0000   1.0000   1.0000   1.0000   1.0000
        1.0000   1.0000   1.0000   1.0000   1.0000   1.0000   1.0000   1.0000
        1.0000   1.0000   1.0000   1.0000   1.0000   1.0000   1.0000   1.0000
        1.0000   1.0000   1.0000   1.0000   1.0000   1.0000   1.0000   1.0000
        1.0000   1.0000   1.0000   1.0000   1.0000   1.0000   1.0000   1.0000
        1.0000   1.0000   1.0000   1.0000   1.0000   1.0000   1.0000   1.0000
        1.0000   1.0000   1.0000   1.0000   1.0000   1.0000   1.0000   1.0000
        1.0000   1.0000   1.0000   1.0000   1.0000   1.0000   1.0000   1.0000
        1.0000   1.0000   1.0000   1.0000   1.0000   1.0000   1.0000   1.0000
        1.0000   1.0000   1.0000   1.0000   1.0000   1.0000   1.0000   1.0000
        1.0000   1.0000   1.0000   1.0000   1.0000   1.0000   1.0000   1.0000
        1.0000   1.0000   1.0000   1.0000   1.0000   1.0000   1.0000   1.0000
        1.0000   1.0000   1.0000   1.0000   1.0000   1.0000   1.0000   1.0000
        1.0000   1.0000   1.0000   1.0000   1.0000   1.0000   1.0000   1.0000
        1.0000   1.0000   1.0000   1.0000   1.0000   1.0000   1.0000   1.0000
        1.0000   1.0000   1.0000   1.0000   1.0000   1.0000   1.0000   1.0000
        1.0000   1.0000   1.0000   1.0000   1.0000   1.0000   1.0000   1.0000
        1.0000   1.0000   1.0000   1.0000   1.0000   1.0000   1.0000   1.0000
        1.0000   1.0000   1.0000   1.0000   1.0000   1.0000   1.0000   1.0000
        1.0000   1.0000   1.0000   1.0000   1.0000   1.0000   1.0000   1.0000
        1.0000   1.0000   1.0000   1.0000   1.0000   1.0000   1.0000   1.0000
        1.0000   1.0000   1.0000   1.0000   1.0000   1.0000   1.0000   1.0000
        1.0000   1.0000   1.0000   1.0000   1.0000   1.0000   1.0000   1.0000
        1.0000   1.0000   1.0000   1.0000   1.0000   1.0000   1.0000   1.0000
        1.0000   1.0000   1.0000   1.0000   1.0000   1.0000   1.0000   1.0000
        1.0000   1.0000   1.0000   1.0000   1.0000   1.0000   1.0000   1.0000
        1.0000   1.0000   1.0000   1.0000   1.0000   1.0000   1.0000   1.0000
        1.0000   1.0000   1.0000   1.0000   1.0000   1.0000   1.0000   1.0000
        1.0000   1.0000   1.0000   1.0000   1.0000   1.0000   1.0000   1.0000
        1.0000   1.0000   1.0000   1.0000   1.0000   1.0000   1.0000   1.0000
        1.0000   1.0000   1.0000   1.0000   1.0000   1.0000   1.0000   1.0000
        1.0000   1.0000   1.0000   1.0000   1.0000   1.0000   1.0000   1.0000
        1.0000   1.0000   1.0000   1.0000   1.0000   1.0000   1.0000   1.0000
        1.0000   1.0000   1.0000   1.0000   1.0000   1.0000   1.0000   1.0000
        1.0000   1.0000   1.0000   1.0000   1.0000   1.0000   1.0000   1.0000
        1.0000   1.0000   1.0000   1.0000   1.0000   1.0000   1.0000   1.0000
        1.0000   1.0000   1.0000   1.0000   1.0000   1.0000   1.0000   1.0000
        1.0000   1.0000   1.0000   1.0000   1.0000   1.0000   1.0000   1.0000
        1.0000   1.0000   1.0000   1.0000   1.0000   1.0000   1.0000   1.0000
        1.0000   1.0000   1.0000   1.0000   1.0000   1.0000   1.0000   1.0000
        1.0000   1.0000   1.0000   1.0000   1.0000   1.0000   1.0000   1.0000
        1.0000   1.0000   1.0000   1.0000   1.0000   1.0000   1.0000   1.0000
        1.0000   1.0000   1.0000   1.0000   1.0000   1.0000   1.0000   1.0000
        1.0000   1.0000   1.0000   1.0000   1.0000   1.0000   1.0000   1.0000
        1.0000   1.0000   1.0000   1.0000   1.0000   1.0000   1.0000   1.0000
        1.0000   1.0000   1.0000   1.0000   1.0000   1.0000   1.0000   1.0000
        1.0000   1.0000   1.0000   1.0000   1.0000   1.0000   1.0000   1.0000
        1.0000   1.0000   1.0000   1.0000   1.0000   1.0000   1.0000   1.0000
        1.0000   1.0000   1.0000   1.0000   1.0000   1.0000   1.0000   1.0000
        1.0000   1.0000   1.0000   1.0000   1.0000   1.0000   1.0000   1.0000
        1.0000   1.0000   1.0000   1.0000   1.0000   1.0000   1.0000   1.0000
        1.0000   1.0000   1.0000   1.0000   1.0000   1.0000   1.0000   1.0000
        1.0000   1.0000   1.0000   1.0000   1.0000   1.0000   1.0000   1.0000
        1.0000   1.0000   1.0000   1.0000   1.0000   1.0000   1.0000   1.0000
        1.0000   1.0000   1.0000   1.0000   1.0000   1.0000   1.0000   1.0000
        1.0000   1.0000   1.0000   1.0000   1.0000   1.0000   1.0000   1.0000
        1.0000   1.0000   1.0000   1.0000   1.0000   1.0000   1.0000   1.0000
        1.0000   1.0000   1.0000   1.0000   1.0000   1.0000   1.0000   1.0000
        1.0000   1.0000   1.0000   1.0000   1.0000   1.0000   1.0000   1.0000
        1.0000   1.0000   1.0000   1.0000   1.0000   1.0000   1.0000   1.0000
        1.0000   1.0000   1.0000   1.0000   1.0000   1.0000   1.0000   1.0000
        1.0000   1.0000   1.0000   1.0000   1.0000   1.0000   1.0000   1.0000
        1.0000   1.0000   1.0000   1.0000   1.0000   1.0000   1.0000   1.0000
        1.0000   1.0000   1.0000   1.0000   1.0000   1.0000   1.0000   1.0000
        1.0000   1.0000   1.0000   1.0000   1.0000   1.0000   1.0000   1.0000
        1.0000   1.0000   1.0000   1.0000   1.0000   1.0000   1.0000   1.0000
        1.0000   1.0000   1.0000   1.0000   1.0000   1.0000   1.0000   1.0000
        1.0000   1.0000   1.0000   1.0000   1.0000   1.0000   1.0000   1.0000
        1.0000   1.0000   1.0000   1.0000   1.0000   1.0000   1.0000   1.0000
        1.0000   1.0000   1.0000   1.0000   1.0000   1.0000   1.0000   1.0000
        1.0000   1.0000   1.0000   1.0000   1.0000   1.0000   1.0000   1.0000
        1.0000   1.0000   1.0000   1.0000   1.0000   1.0000   1.0000   1.0000
        1.0000   1.0000   1.0000   1.0000   1.0000   1.0000   1.0000   1.0000
        1.0000   1.0000   1.0000   1.0000   1.0000   1.0000   1.0000   1.0000
        1.0000   1.0000   1.0000   1.0000   1.0000   1.0000   1.0000   1.0000
        1.0000   1.0000   1.0000   1.0000   1.0000   1.0000   1.0000   1.0000
        1.0000   1.0000   1.0000   1.0000   1.0000   1.0000   1.0000   1.0000
        1.0000   1.0000   1.0000   1.0000   1.0000   1.0000   1.0000   1.0000
        1.0000   1.0000   1.0000   1.0000   1.0000   1.0000   1.0000   1.0000
        1.0000   1.0000   1.0000   1.0000   1.0000   1.0000   1.0000   1.0000
        1.0000   1.0000   1.0000   1.0000   1.0000   1.0000   1.0000   1.0000
        1.0000   1.0000   1.0000   1.0000   1.0000   1.0000   1.0000   1.0000
        1.0000   1.0000   1.0000   1.0000   1.0000   1.0000   1.0000   1.0000
        1.0000   1.0000   1.0000   1.0000   1.0000   1.0000   1.0000   1.0000
        1.0000   1.0000   1.0000   1.0000   1.0000   1.0000   1.0000   1.0000
        1.0000   1.0000   1.0000   1.0000   1.0000   1.0000   1.0000   1.0000
        1.0000   1.0000   1.0000   1.0000   1.0000   1.0000   1.0000   1.0000
        1.0000   1.0000   1.0000   1.0000   1.0000   1.0000   1.0000   1.0000
        1.0000   1.0000   1.0000   1.0000   1.0000   1.0000   1.0000   1.0000
        1.0000   1.0000   1.0000   1.0000   1.0000   1.0000   1.0000   1.0000
        1.0000   1.0000   1.0000   1.0000   1.0000   1.0000   1.0000   1.0000
        1.0000   1.0000   1.0000   1.0000   1.0000   1.0000   1.0000   1.0000
        1.0000   1.0000   1.0000   1.0000   1.0000   1.0000   1.0000   1.0000
        1.0000   1.0000   1.0000   1.0000   1.0000   1.0000   1.0000   1.0000
        1.0000   1.0000   1.0000   1.0000   1.0000   1.0000   1.0000   1.0000
        1.0000   1.0000   1.0000   1.0000   1.0000   1.0000   1.0000   1.0000
        1.0000   1.0000   1.0000   1.0000   1.0000   1.0000   1.0000   1.0000
        1.0000   1.0000   1.0000   1.0000   1.0000   1.0000   1.0000   1.0000
        1.0000   1.0000   1.0000   1.0000   1.0000   1.0000   1.0000   1.0000
        1.0000   1.0000   1.0000   1.0000   1.0000   1.0000   1.0000   1.0000
        1.0000   1.0000   1.0000   1.0000   1.0000   1.0000   1.0000   1.0000
        1.0000   1.0000   1.0000   1.0000   1.0000   1.0000   1.0000   1.0000
        1.0000   1.0000   1.0000   1.0000   1.0000   1.0000   1.0000   1.0000
        1.0000   1.0000   1.0000   1.0000   1.0000   1.0000   1.0000   1.0000
        1.0000   1.0000   1.0000   1.0000   1.0000   1.0000   1.0000   1.0000
        1.0000   1.0000   1.0000   1.0000   1.0000   1.0000   1.0000   1.0000
        1.0000   1.0000   1.0000   1.0000   1.0000   1.0000   1.0000   1.0000
        1.0000   1.0000   1.0000   1.0000   1.0000   1.0000   1.0000   1.0000
        1.0000   1.0000   1.0000   1.0000   1.0000   1.0000   1.0000   1.0000
        1.0000   1.0000   1.0000   1.0000   1.0000   1.0000   1.0000   1.0000
        1.0000   1.0000   1.0000   1.0000   1.0000   1.0000   1.0000   1.0000
        1.0000   1.0000   1.0000   1.0000   1.0000   1.0000   1.0000   1.0000
        1.0000   1.0000   1.0000   1.0000   1.0000   1.0000   1.0000   1.0000
        1.0000   1.0000   1.0000   1.0000   1.0000   1.0000   1.0000   1.0000
        1.0000   1.0000   1.0000   1.0000   1.0000   0.0000   1.0000   0.0000
        0.0000   0.0000   0.0000   0.0000   0.0000   0.0000   0.0000   0.0000

     Dynamical RAM for                 wfc:      38.88 MB

     Dynamical RAM for     wfc (w. buffer):      38.88 MB

     Dynamical RAM for           str. fact:       0.60 MB

     Dynamical RAM for           local pot:       0.00 MB

     Dynamical RAM for          nlocal pot:     154.01 MB

     Dynamical RAM for                qrad:       0.82 MB

     Dynamical RAM for          rho,v,vnew:       6.50 MB

     Dynamical RAM for               rhoin:       2.17 MB

     Dynamical RAM for            rho*nmix:       9.65 MB

     Dynamical RAM for           G-vectors:       1.28 MB

     Dynamical RAM for          h,s,v(r/c):       2.71 MB

     Dynamical RAM for          <psi|beta>:      32.19 MB

     Dynamical RAM for                 psi:      77.76 MB

     Dynamical RAM for                hpsi:      77.76 MB

     Dynamical RAM for      wfcinit/wfcrot:     102.14 MB

     Estimated static dynamical RAM per process >     209.85 MB

     Estimated max dynamical RAM per process >     409.91 MB

     Estimated total dynamical RAM >      37.98 GB
     Generating pointlists ...
     new r_m :   0.0426 (alat units)  1.1501 (a.u.) for type    1
     new r_m :   0.0426 (alat units)  1.1501 (a.u.) for type    2

     Initial potential from superposition of free atoms

     starting charge    2041.4445, renormalised to    2046.0000
     Starting wfcs are random

     total cpu time spent up to now is       13.5 secs

     Self-consistent Calculation

     iteration #  1     ecut=    80.00 Ry     beta= 0.70
     Davidson diagonalization with overlap

---- Real-time Memory Report at c_bands before calling an iterative solver
           514 MiB given to the printing process from OS
             0 MiB allocation reported by mallinfo(arena+hblkhd)
        163004 MiB available memory on the node where the printing process lives
------------------
     ethr =  1.00E-02,  avg # of iterations = 13.0

     total cpu time spent up to now is       99.7 secs

     total energy              =   -5823.74428358 Ry
     estimated scf accuracy    <      29.19360049 Ry

     total magnetization       =     2.00 Bohr mag/cell
     absolute magnetization    =     2.00 Bohr mag/cell

     iteration #  2     ecut=    80.00 Ry     beta= 0.70
     Davidson diagonalization with overlap

---- Real-time Memory Report at c_bands before calling an iterative solver
           630 MiB given to the printing process from OS
             0 MiB allocation reported by mallinfo(arena+hblkhd)
        161481 MiB available memory on the node where the printing process lives
------------------
     ethr =  1.43E-03,  avg # of iterations = 14.0

     total cpu time spent up to now is      129.1 secs

     total energy              =   -5824.84587777 Ry
     estimated scf accuracy    <       5.75286685 Ry

     total magnetization       =     2.00 Bohr mag/cell
     absolute magnetization    =     2.12 Bohr mag/cell

     iteration #  3     ecut=    80.00 Ry     beta= 0.70
     Davidson diagonalization with overlap

---- Real-time Memory Report at c_bands before calling an iterative solver
           652 MiB given to the printing process from OS
             0 MiB allocation reported by mallinfo(arena+hblkhd)
        161253 MiB available memory on the node where the printing process lives
------------------
     ethr =  2.81E-04,  avg # of iterations = 12.0

     total cpu time spent up to now is      160.7 secs

     total energy              =   -5816.57048069 Ry
     estimated scf accuracy    <      88.89166485 Ry

     total magnetization       =     2.00 Bohr mag/cell
     absolute magnetization    =     3.04 Bohr mag/cell

     iteration #  4     ecut=    80.00 Ry     beta= 0.70
     Davidson diagonalization with overlap

---- Real-time Memory Report at c_bands before calling an iterative solver
           659 MiB given to the printing process from OS
             0 MiB allocation reported by mallinfo(arena+hblkhd)
        161091 MiB available memory on the node where the printing process lives
------------------
     c_bands:  2 eigenvalues not converged
     ethr =  2.81E-04,  avg # of iterations = 20.0

     total cpu time spent up to now is      192.5 secs

     total energy              =   -5828.65180811 Ry
     estimated scf accuracy    <       2.62860687 Ry

     total magnetization       =     2.00 Bohr mag/cell
     absolute magnetization    =     2.15 Bohr mag/cell

     iteration #  5     ecut=    80.00 Ry     beta= 0.70
     Davidson diagonalization with overlap

---- Real-time Memory Report at c_bands before calling an iterative solver
           663 MiB given to the printing process from OS
             0 MiB allocation reported by mallinfo(arena+hblkhd)
        161091 MiB available memory on the node where the printing process lives
------------------
     ethr =  1.28E-04,  avg # of iterations = 13.0

     total cpu time spent up to now is      213.3 secs

     total energy              =   -5828.92491014 Ry
     estimated scf accuracy    <       0.24099386 Ry

     total magnetization       =     2.00 Bohr mag/cell
     absolute magnetization    =     2.15 Bohr mag/cell

     iteration #  6     ecut=    80.00 Ry     beta= 0.70
     Davidson diagonalization with overlap

---- Real-time Memory Report at c_bands before calling an iterative solver
           663 MiB given to the printing process from OS
             0 MiB allocation reported by mallinfo(arena+hblkhd)
        161090 MiB available memory on the node where the printing process lives
------------------
     c_bands:  1 eigenvalues not converged
     ethr =  1.18E-05,  avg # of iterations = 20.0

     total cpu time spent up to now is      239.8 secs

     total energy              =   -5828.94483764 Ry
     estimated scf accuracy    <       0.12423044 Ry

     total magnetization       =     2.00 Bohr mag/cell
     absolute magnetization    =     2.17 Bohr mag/cell

     iteration #  7     ecut=    80.00 Ry     beta= 0.70
     Davidson diagonalization with overlap

---- Real-time Memory Report at c_bands before calling an iterative solver
           663 MiB given to the printing process from OS
             0 MiB allocation reported by mallinfo(arena+hblkhd)
        161084 MiB available memory on the node where the printing process lives
------------------
     ethr =  6.07E-06,  avg # of iterations = 12.5

     total cpu time spent up to now is      258.2 secs

     total energy              =   -5828.96208471 Ry
     estimated scf accuracy    <       0.05329164 Ry

     total magnetization       =     2.00 Bohr mag/cell
     absolute magnetization    =     2.17 Bohr mag/cell

     iteration #  8     ecut=    80.00 Ry     beta= 0.70
     Davidson diagonalization with overlap

---- Real-time Memory Report at c_bands before calling an iterative solver
           663 MiB given to the printing process from OS
             0 MiB allocation reported by mallinfo(arena+hblkhd)
        161088 MiB available memory on the node where the printing process lives
------------------
     ethr =  2.60E-06,  avg # of iterations = 13.0

     total cpu time spent up to now is      278.2 secs

     total energy              =   -5828.96217058 Ry
     estimated scf accuracy    <       0.03061280 Ry

     total magnetization       =     2.00 Bohr mag/cell
     absolute magnetization    =     2.18 Bohr mag/cell

     iteration #  9     ecut=    80.00 Ry     beta= 0.70
     Davidson diagonalization with overlap

---- Real-time Memory Report at c_bands before calling an iterative solver
           663 MiB given to the printing process from OS
             0 MiB allocation reported by mallinfo(arena+hblkhd)
        161088 MiB available memory on the node where the printing process lives
------------------
     ethr =  1.50E-06,  avg # of iterations = 12.5

     total cpu time spent up to now is      300.3 secs

     total energy              =   -5828.96181356 Ry
     estimated scf accuracy    <       0.10302043 Ry

     total magnetization       =     2.00 Bohr mag/cell
     absolute magnetization    =     2.22 Bohr mag/cell

     iteration # 10     ecut=    80.00 Ry     beta= 0.70
     Davidson diagonalization with overlap

---- Real-time Memory Report at c_bands before calling an iterative solver
           663 MiB given to the printing process from OS
             0 MiB allocation reported by mallinfo(arena+hblkhd)
        161086 MiB available memory on the node where the printing process lives
------------------
     ethr =  1.50E-06,  avg # of iterations = 12.0

     total cpu time spent up to now is      322.5 secs

     total energy              =   -5828.96608080 Ry
     estimated scf accuracy    <       0.01440213 Ry

     total magnetization       =     2.00 Bohr mag/cell
     absolute magnetization    =     2.21 Bohr mag/cell

     iteration # 11     ecut=    80.00 Ry     beta= 0.70
     Davidson diagonalization with overlap

---- Real-time Memory Report at c_bands before calling an iterative solver
           663 MiB given to the printing process from OS
             0 MiB allocation reported by mallinfo(arena+hblkhd)
        161086 MiB available memory on the node where the printing process lives
------------------
     ethr =  7.04E-07,  avg # of iterations = 11.0

     total cpu time spent up to now is      338.7 secs

     total energy              =   -5828.96601249 Ry
     estimated scf accuracy    <       0.02178397 Ry

     total magnetization       =     2.00 Bohr mag/cell
     absolute magnetization    =     2.23 Bohr mag/cell

     iteration # 12     ecut=    80.00 Ry     beta= 0.70
     Davidson diagonalization with overlap

---- Real-time Memory Report at c_bands before calling an iterative solver
           663 MiB given to the printing process from OS
             0 MiB allocation reported by mallinfo(arena+hblkhd)
        161087 MiB available memory on the node where the printing process lives
------------------
     ethr =  7.04E-07,  avg # of iterations =  4.0

     total cpu time spent up to now is      353.9 secs

     total energy              =   -5828.96626645 Ry
     estimated scf accuracy    <       0.02069481 Ry

     total magnetization       =     2.00 Bohr mag/cell
     absolute magnetization    =     2.24 Bohr mag/cell

     iteration # 13     ecut=    80.00 Ry     beta= 0.70
     Davidson diagonalization with overlap

---- Real-time Memory Report at c_bands before calling an iterative solver
           663 MiB given to the printing process from OS
             0 MiB allocation reported by mallinfo(arena+hblkhd)
        161086 MiB available memory on the node where the printing process lives
------------------
     ethr =  7.04E-07,  avg # of iterations =  2.0

     total cpu time spent up to now is      368.8 secs

     total energy              =   -5828.96606741 Ry
     estimated scf accuracy    <       0.01910750 Ry

     total magnetization       =     2.00 Bohr mag/cell
     absolute magnetization    =     2.24 Bohr mag/cell

     iteration # 14     ecut=    80.00 Ry     beta= 0.70
     Davidson diagonalization with overlap

---- Real-time Memory Report at c_bands before calling an iterative solver
           663 MiB given to the printing process from OS
             0 MiB allocation reported by mallinfo(arena+hblkhd)
        161086 MiB available memory on the node where the printing process lives
------------------
     ethr =  7.04E-07,  avg # of iterations =  2.0

     total cpu time spent up to now is      381.4 secs

     total energy              =   -5828.96635656 Ry
     estimated scf accuracy    <       0.05096350 Ry

     total magnetization       =     2.00 Bohr mag/cell
     absolute magnetization    =     2.25 Bohr mag/cell

     iteration # 15     ecut=    80.00 Ry     beta= 0.70
     Davidson diagonalization with overlap

---- Real-time Memory Report at c_bands before calling an iterative solver
           663 MiB given to the printing process from OS
             0 MiB allocation reported by mallinfo(arena+hblkhd)
        161086 MiB available memory on the node where the printing process lives
------------------
     ethr =  7.04E-07,  avg # of iterations =  1.5

     total cpu time spent up to now is      396.0 secs

     total energy              =   -5828.96646889 Ry
     estimated scf accuracy    <       0.01031645 Ry

     total magnetization       =     2.00 Bohr mag/cell
     absolute magnetization    =     2.24 Bohr mag/cell

     iteration # 16     ecut=    80.00 Ry     beta= 0.70
     Davidson diagonalization with overlap

---- Real-time Memory Report at c_bands before calling an iterative solver
           663 MiB given to the printing process from OS
             0 MiB allocation reported by mallinfo(arena+hblkhd)
        161086 MiB available memory on the node where the printing process lives
------------------
     ethr =  5.04E-07,  avg # of iterations =  1.0

     total cpu time spent up to now is      411.6 secs

     total energy              =   -5828.96638650 Ry
     estimated scf accuracy    <       0.01070003 Ry

     total magnetization       =     2.00 Bohr mag/cell
     absolute magnetization    =     2.25 Bohr mag/cell

     iteration # 17     ecut=    80.00 Ry     beta= 0.70
     Davidson diagonalization with overlap

---- Real-time Memory Report at c_bands before calling an iterative solver
           663 MiB given to the printing process from OS
             0 MiB allocation reported by mallinfo(arena+hblkhd)
        161086 MiB available memory on the node where the printing process lives
------------------
     ethr =  5.04E-07,  avg # of iterations =  2.0

     total cpu time spent up to now is      424.2 secs

     total energy              =   -5828.96622828 Ry
     estimated scf accuracy    <       0.07845683 Ry

     total magnetization       =     2.00 Bohr mag/cell
     absolute magnetization    =     2.27 Bohr mag/cell

     iteration # 18     ecut=    80.00 Ry     beta= 0.70
     Davidson diagonalization with overlap

---- Real-time Memory Report at c_bands before calling an iterative solver
           663 MiB given to the printing process from OS
             0 MiB allocation reported by mallinfo(arena+hblkhd)
        161087 MiB available memory on the node where the printing process lives
------------------
     ethr =  5.04E-07,  avg # of iterations =  1.0

     total cpu time spent up to now is      435.3 secs

     total energy              =   -5828.96649928 Ry
     estimated scf accuracy    <       0.00907765 Ry

     total magnetization       =     2.00 Bohr mag/cell
     absolute magnetization    =     2.25 Bohr mag/cell

     iteration # 19     ecut=    80.00 Ry     beta= 0.70
     Davidson diagonalization with overlap

---- Real-time Memory Report at c_bands before calling an iterative solver
           663 MiB given to the printing process from OS
             0 MiB allocation reported by mallinfo(arena+hblkhd)
        161085 MiB available memory on the node where the printing process lives
------------------
     ethr =  4.44E-07,  avg # of iterations =  1.0

     total cpu time spent up to now is      446.8 secs

     total energy              =   -5828.96656050 Ry
     estimated scf accuracy    <       0.00787053 Ry

     total magnetization       =     2.00 Bohr mag/cell
     absolute magnetization    =     2.25 Bohr mag/cell

     iteration # 20     ecut=    80.00 Ry     beta= 0.70
     Davidson diagonalization with overlap

---- Real-time Memory Report at c_bands before calling an iterative solver
           663 MiB given to the printing process from OS
             0 MiB allocation reported by mallinfo(arena+hblkhd)
        161082 MiB available memory on the node where the printing process lives
------------------
     ethr =  3.85E-07,  avg # of iterations =  1.0

     total cpu time spent up to now is      472.3 secs

     total energy              =   -5828.96655422 Ry
     estimated scf accuracy    <       0.00778153 Ry

     total magnetization       =     2.00 Bohr mag/cell
     absolute magnetization    =     2.25 Bohr mag/cell

     iteration # 21     ecut=    80.00 Ry     beta= 0.70
     Davidson diagonalization with overlap

---- Real-time Memory Report at c_bands before calling an iterative solver
           663 MiB given to the printing process from OS
             0 MiB allocation reported by mallinfo(arena+hblkhd)
        161085 MiB available memory on the node where the printing process lives
------------------
     ethr =  3.80E-07,  avg # of iterations =  1.0

     total cpu time spent up to now is      485.3 secs

     total energy              =   -5828.96655119 Ry
     estimated scf accuracy    <       0.00688818 Ry

     total magnetization       =     2.00 Bohr mag/cell
     absolute magnetization    =     2.26 Bohr mag/cell

     iteration # 22     ecut=    80.00 Ry     beta= 0.70
     Davidson diagonalization with overlap

---- Real-time Memory Report at c_bands before calling an iterative solver
           663 MiB given to the printing process from OS
             0 MiB allocation reported by mallinfo(arena+hblkhd)
        161085 MiB available memory on the node where the printing process lives
------------------
     ethr =  3.37E-07,  avg # of iterations =  1.0

     total cpu time spent up to now is      496.6 secs

     total energy              =   -5828.96654824 Ry
     estimated scf accuracy    <       0.00646807 Ry

     total magnetization       =     2.00 Bohr mag/cell
     absolute magnetization    =     2.26 Bohr mag/cell

     iteration # 23     ecut=    80.00 Ry     beta= 0.70
     Davidson diagonalization with overlap

---- Real-time Memory Report at c_bands before calling an iterative solver
           663 MiB given to the printing process from OS
             0 MiB allocation reported by mallinfo(arena+hblkhd)
        161084 MiB available memory on the node where the printing process lives
------------------
     ethr =  3.16E-07,  avg # of iterations =  1.0

     total cpu time spent up to now is      508.1 secs

     total energy              =   -5828.96654371 Ry
     estimated scf accuracy    <       0.00612431 Ry

     total magnetization       =     2.00 Bohr mag/cell
     absolute magnetization    =     2.26 Bohr mag/cell

     iteration # 24     ecut=    80.00 Ry     beta= 0.70
     Davidson diagonalization with overlap

---- Real-time Memory Report at c_bands before calling an iterative solver
           663 MiB given to the printing process from OS
             0 MiB allocation reported by mallinfo(arena+hblkhd)
        161085 MiB available memory on the node where the printing process lives
------------------
     ethr =  2.99E-07,  avg # of iterations =  1.0

     total cpu time spent up to now is      525.8 secs

     total energy              =   -5828.96654262 Ry
     estimated scf accuracy    <       0.00599053 Ry

     total magnetization       =     2.00 Bohr mag/cell
     absolute magnetization    =     2.26 Bohr mag/cell

     iteration # 25     ecut=    80.00 Ry     beta= 0.70
     Davidson diagonalization with overlap

---- Real-time Memory Report at c_bands before calling an iterative solver
           663 MiB given to the printing process from OS
             0 MiB allocation reported by mallinfo(arena+hblkhd)
        161078 MiB available memory on the node where the printing process lives
------------------
     ethr =  2.93E-07,  avg # of iterations =  1.0

     total cpu time spent up to now is      539.8 secs

     total energy              =   -5828.96653998 Ry
     estimated scf accuracy    <       0.00575217 Ry

     total magnetization       =     2.00 Bohr mag/cell
     absolute magnetization    =     2.26 Bohr mag/cell

     iteration # 26     ecut=    80.00 Ry     beta= 0.70
     Davidson diagonalization with overlap

---- Real-time Memory Report at c_bands before calling an iterative solver
           663 MiB given to the printing process from OS
             0 MiB allocation reported by mallinfo(arena+hblkhd)
        161079 MiB available memory on the node where the printing process lives
------------------
     ethr =  2.81E-07,  avg # of iterations =  1.0

     total cpu time spent up to now is      563.3 secs

     total energy              =   -5828.96163885 Ry
     estimated scf accuracy    <       0.00545720 Ry

     total magnetization       =     2.00 Bohr mag/cell
     absolute magnetization    =     2.26 Bohr mag/cell

     iteration # 27     ecut=    80.00 Ry     beta= 0.70
     Davidson diagonalization with overlap

---- Real-time Memory Report at c_bands before calling an iterative solver
           663 MiB given to the printing process from OS
             0 MiB allocation reported by mallinfo(arena+hblkhd)
        161085 MiB available memory on the node where the printing process lives
------------------
     ethr =  2.67E-07,  avg # of iterations = 17.0

     total cpu time spent up to now is      591.2 secs

     total energy              =   -5828.96534351 Ry
     estimated scf accuracy    <       0.01062513 Ry

     total magnetization       =     2.00 Bohr mag/cell
     absolute magnetization    =     2.31 Bohr mag/cell

     iteration # 28     ecut=    80.00 Ry     beta= 0.70
     Davidson diagonalization with overlap

---- Real-time Memory Report at c_bands before calling an iterative solver
           663 MiB given to the printing process from OS
             0 MiB allocation reported by mallinfo(arena+hblkhd)
        160767 MiB available memory on the node where the printing process lives
------------------
     ethr =  2.67E-07,  avg # of iterations = 10.5

     total cpu time spent up to now is      611.9 secs

     total energy              =   -5828.96667923 Ry
     estimated scf accuracy    <       0.00400238 Ry

     total magnetization       =     2.00 Bohr mag/cell
     absolute magnetization    =     2.28 Bohr mag/cell

     iteration # 29     ecut=    80.00 Ry     beta= 0.70
     Davidson diagonalization with overlap

---- Real-time Memory Report at c_bands before calling an iterative solver
           669 MiB given to the printing process from OS
             0 MiB allocation reported by mallinfo(arena+hblkhd)
        160766 MiB available memory on the node where the printing process lives
------------------
     ethr =  1.96E-07,  avg # of iterations =  1.0

     total cpu time spent up to now is      623.3 secs

     total energy              =   -5828.96670033 Ry
     estimated scf accuracy    <       0.00288548 Ry

     total magnetization       =     2.00 Bohr mag/cell
     absolute magnetization    =     2.28 Bohr mag/cell

     iteration # 30     ecut=    80.00 Ry     beta= 0.70
     Davidson diagonalization with overlap

---- Real-time Memory Report at c_bands before calling an iterative solver
           669 MiB given to the printing process from OS
             0 MiB allocation reported by mallinfo(arena+hblkhd)
        160767 MiB available memory on the node where the printing process lives
------------------
     ethr =  1.41E-07,  avg # of iterations =  1.0

     total cpu time spent up to now is      638.6 secs

     total energy              =   -5828.96670625 Ry
     estimated scf accuracy    <       0.00222819 Ry

     total magnetization       =     2.00 Bohr mag/cell
     absolute magnetization    =     2.28 Bohr mag/cell

     iteration # 31     ecut=    80.00 Ry     beta= 0.70
     Davidson diagonalization with overlap

---- Real-time Memory Report at c_bands before calling an iterative solver
           669 MiB given to the printing process from OS
             0 MiB allocation reported by mallinfo(arena+hblkhd)
        160767 MiB available memory on the node where the printing process lives
------------------
     ethr =  1.09E-07,  avg # of iterations =  1.5

     total cpu time spent up to now is      652.9 secs

     total energy              =   -5828.96670825 Ry
     estimated scf accuracy    <       0.00168047 Ry

     total magnetization       =     2.00 Bohr mag/cell
     absolute magnetization    =     2.27 Bohr mag/cell

     iteration # 32     ecut=    80.00 Ry     beta= 0.70
     Davidson diagonalization with overlap

---- Real-time Memory Report at c_bands before calling an iterative solver
           669 MiB given to the printing process from OS
             0 MiB allocation reported by mallinfo(arena+hblkhd)
        160767 MiB available memory on the node where the printing process lives
------------------
     ethr =  8.21E-08,  avg # of iterations =  1.0

     total cpu time spent up to now is      664.7 secs

     total energy              =   -5828.96670890 Ry
     estimated scf accuracy    <       0.00155841 Ry

     total magnetization       =     2.00 Bohr mag/cell
     absolute magnetization    =     2.27 Bohr mag/cell

     iteration # 33     ecut=    80.00 Ry     beta= 0.70
     Davidson diagonalization with overlap

---- Real-time Memory Report at c_bands before calling an iterative solver
           669 MiB given to the printing process from OS
             0 MiB allocation reported by mallinfo(arena+hblkhd)
        160767 MiB available memory on the node where the printing process lives
------------------
     ethr =  7.62E-08,  avg # of iterations =  1.0

     total cpu time spent up to now is      676.0 secs

     total energy              =   -5828.96669824 Ry
     estimated scf accuracy    <       0.00153880 Ry

     total magnetization       =     2.00 Bohr mag/cell
     absolute magnetization    =     2.27 Bohr mag/cell

     iteration # 34     ecut=    80.00 Ry     beta= 0.70
     Davidson diagonalization with overlap

---- Real-time Memory Report at c_bands before calling an iterative solver
           669 MiB given to the printing process from OS
             0 MiB allocation reported by mallinfo(arena+hblkhd)
        160766 MiB available memory on the node where the printing process lives
------------------
     ethr =  7.52E-08,  avg # of iterations =  2.0

     total cpu time spent up to now is      694.1 secs

     total energy              =   -5828.96665602 Ry
     estimated scf accuracy    <       0.00134313 Ry

     total magnetization       =     2.00 Bohr mag/cell
     absolute magnetization    =     2.27 Bohr mag/cell

     iteration # 35     ecut=    80.00 Ry     beta= 0.70
     Davidson diagonalization with overlap

---- Real-time Memory Report at c_bands before calling an iterative solver
           669 MiB given to the printing process from OS
             0 MiB allocation reported by mallinfo(arena+hblkhd)
        160768 MiB available memory on the node where the printing process lives
------------------
     ethr =  6.56E-08,  avg # of iterations = 10.5

     total cpu time spent up to now is      722.4 secs

     total energy              =   -5828.96667634 Ry
     estimated scf accuracy    <       0.00211151 Ry

     total magnetization       =     2.00 Bohr mag/cell
     absolute magnetization    =     2.26 Bohr mag/cell

     iteration # 36     ecut=    80.00 Ry     beta= 0.70
     Davidson diagonalization with overlap

---- Real-time Memory Report at c_bands before calling an iterative solver
           669 MiB given to the printing process from OS
             0 MiB allocation reported by mallinfo(arena+hblkhd)
        160767 MiB available memory on the node where the printing process lives
------------------
     ethr =  6.56E-08,  avg # of iterations =  6.0

     total cpu time spent up to now is      736.1 secs

     total energy              =   -5828.96667707 Ry
     estimated scf accuracy    <       0.00027689 Ry

     total magnetization       =     2.00 Bohr mag/cell
     absolute magnetization    =     2.26 Bohr mag/cell

     iteration # 37     ecut=    80.00 Ry     beta= 0.70
     Davidson diagonalization with overlap

---- Real-time Memory Report at c_bands before calling an iterative solver
           669 MiB given to the printing process from OS
             0 MiB allocation reported by mallinfo(arena+hblkhd)
        160767 MiB available memory on the node where the printing process lives
------------------
     ethr =  1.35E-08,  avg # of iterations = 13.0

     total cpu time spent up to now is      756.0 secs

     total energy              =   -5828.96669310 Ry
     estimated scf accuracy    <       0.00012705 Ry

     total magnetization       =     2.00 Bohr mag/cell
     absolute magnetization    =     2.26 Bohr mag/cell

     iteration # 38     ecut=    80.00 Ry     beta= 0.70
     Davidson diagonalization with overlap

---- Real-time Memory Report at c_bands before calling an iterative solver
           669 MiB given to the printing process from OS
             0 MiB allocation reported by mallinfo(arena+hblkhd)
        160766 MiB available memory on the node where the printing process lives
------------------
     c_bands:  2 eigenvalues not converged
     ethr =  6.21E-09,  avg # of iterations = 13.5

     total cpu time spent up to now is      773.2 secs

     total energy              =   -5828.96668854 Ry
     estimated scf accuracy    <       0.00018386 Ry

     total magnetization       =     2.00 Bohr mag/cell
     absolute magnetization    =     2.26 Bohr mag/cell

     iteration # 39     ecut=    80.00 Ry     beta= 0.70
     Davidson diagonalization with overlap

---- Real-time Memory Report at c_bands before calling an iterative solver
           669 MiB given to the printing process from OS
             0 MiB allocation reported by mallinfo(arena+hblkhd)
        160766 MiB available memory on the node where the printing process lives
------------------
     ethr =  6.21E-09,  avg # of iterations = 10.0

     total cpu time spent up to now is      787.8 secs

     total energy              =   -5828.96668967 Ry
     estimated scf accuracy    <       0.00018339 Ry

     total magnetization       =     2.00 Bohr mag/cell
     absolute magnetization    =     2.27 Bohr mag/cell

     iteration # 40     ecut=    80.00 Ry     beta= 0.70
     Davidson diagonalization with overlap

---- Real-time Memory Report at c_bands before calling an iterative solver
           669 MiB given to the printing process from OS
             0 MiB allocation reported by mallinfo(arena+hblkhd)
        160767 MiB available memory on the node where the printing process lives
------------------
     ethr =  6.21E-09,  avg # of iterations = 11.0

     total cpu time spent up to now is      806.7 secs

     total energy              =   -5828.96669262 Ry
     estimated scf accuracy    <       0.00011276 Ry

     total magnetization       =     2.00 Bohr mag/cell
     absolute magnetization    =     2.27 Bohr mag/cell

     iteration # 41     ecut=    80.00 Ry     beta= 0.70
     Davidson diagonalization with overlap

---- Real-time Memory Report at c_bands before calling an iterative solver
           669 MiB given to the printing process from OS
             0 MiB allocation reported by mallinfo(arena+hblkhd)
        160766 MiB available memory on the node where the printing process lives
------------------
     ethr =  5.51E-09,  avg # of iterations =  6.0

     total cpu time spent up to now is      820.7 secs

     total energy              =   -5828.96669452 Ry
     estimated scf accuracy    <       0.00015461 Ry

     total magnetization       =     2.00 Bohr mag/cell
     absolute magnetization    =     2.27 Bohr mag/cell

     iteration # 42     ecut=    80.00 Ry     beta= 0.70
     Davidson diagonalization with overlap

---- Real-time Memory Report at c_bands before calling an iterative solver
           669 MiB given to the printing process from OS
             0 MiB allocation reported by mallinfo(arena+hblkhd)
        160759 MiB available memory on the node where the printing process lives
------------------
     ethr =  5.51E-09,  avg # of iterations =  4.5

     total cpu time spent up to now is      835.9 secs

     total energy              =   -5828.96669042 Ry
     estimated scf accuracy    <       0.00033299 Ry

     total magnetization       =     2.00 Bohr mag/cell
     absolute magnetization    =     2.27 Bohr mag/cell

     iteration # 43     ecut=    80.00 Ry     beta= 0.70
     Davidson diagonalization with overlap

---- Real-time Memory Report at c_bands before calling an iterative solver
           669 MiB given to the printing process from OS
             0 MiB allocation reported by mallinfo(arena+hblkhd)
        160761 MiB available memory on the node where the printing process lives
------------------
     ethr =  5.51E-09,  avg # of iterations =  2.5

     total cpu time spent up to now is      851.3 secs

     total energy              =   -5828.96669042 Ry
     estimated scf accuracy    <       0.00006853 Ry

     total magnetization       =     2.00 Bohr mag/cell
     absolute magnetization    =     2.27 Bohr mag/cell

     iteration # 44     ecut=    80.00 Ry     beta= 0.70
     Davidson diagonalization with overlap

---- Real-time Memory Report at c_bands before calling an iterative solver
           669 MiB given to the printing process from OS
             0 MiB allocation reported by mallinfo(arena+hblkhd)
        160765 MiB available memory on the node where the printing process lives
------------------
     ethr =  3.35E-09,  avg # of iterations =  3.5

     total cpu time spent up to now is      865.6 secs

     total energy              =   -5828.96669050 Ry
     estimated scf accuracy    <       0.00001500 Ry

     total magnetization       =     2.00 Bohr mag/cell
     absolute magnetization    =     2.27 Bohr mag/cell

     iteration # 45     ecut=    80.00 Ry     beta= 0.70
     Davidson diagonalization with overlap

---- Real-time Memory Report at c_bands before calling an iterative solver
           669 MiB given to the printing process from OS
             0 MiB allocation reported by mallinfo(arena+hblkhd)
        160766 MiB available memory on the node where the printing process lives
------------------
     c_bands:  2 eigenvalues not converged
     ethr =  7.33E-10,  avg # of iterations = 20.0

     total cpu time spent up to now is      883.1 secs

     total energy              =   -5828.96669084 Ry
     estimated scf accuracy    <       0.00000184 Ry

     total magnetization       =     2.00 Bohr mag/cell
     absolute magnetization    =     2.27 Bohr mag/cell

     iteration # 46     ecut=    80.00 Ry     beta= 0.70
     Davidson diagonalization with overlap

---- Real-time Memory Report at c_bands before calling an iterative solver
           669 MiB given to the printing process from OS
             0 MiB allocation reported by mallinfo(arena+hblkhd)
        160767 MiB available memory on the node where the printing process lives
------------------
     c_bands:  2 eigenvalues not converged
     ethr =  8.98E-11,  avg # of iterations = 17.5

     total cpu time spent up to now is      902.1 secs

     total energy              =   -5828.96669093 Ry
     estimated scf accuracy    <       0.00000030 Ry

     total magnetization       =     2.00 Bohr mag/cell
     absolute magnetization    =     2.27 Bohr mag/cell

     iteration # 47     ecut=    80.00 Ry     beta= 0.70
     Davidson diagonalization with overlap

---- Real-time Memory Report at c_bands before calling an iterative solver
           669 MiB given to the printing process from OS
             0 MiB allocation reported by mallinfo(arena+hblkhd)
        160766 MiB available memory on the node where the printing process lives
------------------
     c_bands:  2 eigenvalues not converged
     ethr =  1.48E-11,  avg # of iterations = 20.0

     total cpu time spent up to now is      927.4 secs

     total energy              =   -5828.96669104 Ry
     estimated scf accuracy    <       0.00000050 Ry

     total magnetization       =     2.00 Bohr mag/cell
     absolute magnetization    =     2.27 Bohr mag/cell

     iteration # 48     ecut=    80.00 Ry     beta= 0.70
     Davidson diagonalization with overlap

---- Real-time Memory Report at c_bands before calling an iterative solver
           669 MiB given to the printing process from OS
             0 MiB allocation reported by mallinfo(arena+hblkhd)
        160766 MiB available memory on the node where the printing process lives
------------------
     ethr =  1.48E-11,  avg # of iterations = 12.0

     total cpu time spent up to now is      945.1 secs

     total energy              =   -5828.96669107 Ry
     estimated scf accuracy    <       0.00000304 Ry

     total magnetization       =     2.00 Bohr mag/cell
     absolute magnetization    =     2.27 Bohr mag/cell

     iteration # 49     ecut=    80.00 Ry     beta= 0.70
     Davidson diagonalization with overlap

---- Real-time Memory Report at c_bands before calling an iterative solver
           669 MiB given to the printing process from OS
             0 MiB allocation reported by mallinfo(arena+hblkhd)
        160766 MiB available memory on the node where the printing process lives
------------------
     ethr =  1.48E-11,  avg # of iterations = 11.0

     total cpu time spent up to now is      961.4 secs

     total energy              =   -5828.96669106 Ry
     estimated scf accuracy    <       0.00000168 Ry

     total magnetization       =     2.00 Bohr mag/cell
     absolute magnetization    =     2.27 Bohr mag/cell

     iteration # 50     ecut=    80.00 Ry     beta= 0.70
     Davidson diagonalization with overlap

---- Real-time Memory Report at c_bands before calling an iterative solver
           669 MiB given to the printing process from OS
             0 MiB allocation reported by mallinfo(arena+hblkhd)
        160767 MiB available memory on the node where the printing process lives
------------------
     ethr =  1.48E-11,  avg # of iterations =  7.0

     total cpu time spent up to now is      987.7 secs

     total energy              =   -5828.96669107 Ry
     estimated scf accuracy    <       0.00000036 Ry

     total magnetization       =     2.00 Bohr mag/cell
     absolute magnetization    =     2.27 Bohr mag/cell

     iteration # 51     ecut=    80.00 Ry     beta= 0.70
     Davidson diagonalization with overlap

---- Real-time Memory Report at c_bands before calling an iterative solver
           669 MiB given to the printing process from OS
             0 MiB allocation reported by mallinfo(arena+hblkhd)
        160766 MiB available memory on the node where the printing process lives
------------------
     ethr =  1.48E-11,  avg # of iterations =  4.5

     total cpu time spent up to now is     1001.1 secs

     total energy              =   -5828.96669107 Ry
     estimated scf accuracy    <       0.00000009 Ry

     total magnetization       =     2.00 Bohr mag/cell
     absolute magnetization    =     2.27 Bohr mag/cell

     iteration # 52     ecut=    80.00 Ry     beta= 0.70
     Davidson diagonalization with overlap

---- Real-time Memory Report at c_bands before calling an iterative solver
           669 MiB given to the printing process from OS
             0 MiB allocation reported by mallinfo(arena+hblkhd)
        160765 MiB available memory on the node where the printing process lives
------------------
     c_bands:  2 eigenvalues not converged
     ethr =  4.52E-12,  avg # of iterations = 15.5

     total cpu time spent up to now is     1022.6 secs

     total energy              =   -5828.96669108 Ry
     estimated scf accuracy    <          7.6E-09 Ry

     total magnetization       =     2.00 Bohr mag/cell
     absolute magnetization    =     2.27 Bohr mag/cell

     iteration # 53     ecut=    80.00 Ry     beta= 0.70
     Davidson diagonalization with overlap

---- Real-time Memory Report at c_bands before calling an iterative solver
           669 MiB given to the printing process from OS
             0 MiB allocation reported by mallinfo(arena+hblkhd)
        160766 MiB available memory on the node where the printing process lives
------------------
     c_bands:  1 eigenvalues not converged
     ethr =  3.69E-13,  avg # of iterations = 20.0

     total cpu time spent up to now is     1047.8 secs

     total energy              =   -5828.96669108 Ry
     estimated scf accuracy    <       0.00000003 Ry

     total magnetization       =     2.00 Bohr mag/cell
     absolute magnetization    =     2.27 Bohr mag/cell

     iteration # 54     ecut=    80.00 Ry     beta= 0.70
     Davidson diagonalization with overlap

---- Real-time Memory Report at c_bands before calling an iterative solver
           669 MiB given to the printing process from OS
             0 MiB allocation reported by mallinfo(arena+hblkhd)
        160764 MiB available memory on the node where the printing process lives
------------------
     ethr =  3.69E-13,  avg # of iterations =  5.5

     total cpu time spent up to now is     1068.1 secs

     total energy              =   -5828.96669108 Ry
     estimated scf accuracy    <       0.00000001 Ry

     total magnetization       =     2.00 Bohr mag/cell
     absolute magnetization    =     2.27 Bohr mag/cell

     iteration # 55     ecut=    80.00 Ry     beta= 0.70
     Davidson diagonalization with overlap

---- Real-time Memory Report at c_bands before calling an iterative solver
           669 MiB given to the printing process from OS
             0 MiB allocation reported by mallinfo(arena+hblkhd)
        160767 MiB available memory on the node where the printing process lives
------------------
     ethr =  3.69E-13,  avg # of iterations = 12.0

     total cpu time spent up to now is     1097.1 secs

     total energy              =   -5828.96669108 Ry
     estimated scf accuracy    <          6.8E-09 Ry

     total magnetization       =     2.00 Bohr mag/cell
     absolute magnetization    =     2.27 Bohr mag/cell

     iteration # 56     ecut=    80.00 Ry     beta= 0.70
     Davidson diagonalization with overlap

---- Real-time Memory Report at c_bands before calling an iterative solver
           669 MiB given to the printing process from OS
             0 MiB allocation reported by mallinfo(arena+hblkhd)
        160766 MiB available memory on the node where the printing process lives
------------------
     ethr =  3.34E-13,  avg # of iterations =  7.0

     total cpu time spent up to now is     1111.0 secs

     total energy              =   -5828.96669108 Ry
     estimated scf accuracy    <          2.1E-09 Ry

     total magnetization       =     2.00 Bohr mag/cell
     absolute magnetization    =     2.27 Bohr mag/cell

     iteration # 57     ecut=    80.00 Ry     beta= 0.70
     Davidson diagonalization with overlap

---- Real-time Memory Report at c_bands before calling an iterative solver
           669 MiB given to the printing process from OS
             0 MiB allocation reported by mallinfo(arena+hblkhd)
        160767 MiB available memory on the node where the printing process lives
------------------
     ethr =  1.01E-13,  avg # of iterations = 10.0

     total cpu time spent up to now is     1126.3 secs

     total energy              =   -5828.96669108 Ry
     estimated scf accuracy    <          1.4E-10 Ry

     total magnetization       =     2.00 Bohr mag/cell
     absolute magnetization    =     2.27 Bohr mag/cell

     iteration # 58     ecut=    80.00 Ry     beta= 0.70
     Davidson diagonalization with overlap

---- Real-time Memory Report at c_bands before calling an iterative solver
           669 MiB given to the printing process from OS
             0 MiB allocation reported by mallinfo(arena+hblkhd)
        160760 MiB available memory on the node where the printing process lives
------------------
     ethr =  1.00E-13,  avg # of iterations =  5.0
 
     Magnetic moment per site  (integrated on atomic sphere of radius R)
     atom   1 (R=0.043)  charge=  1.8122  magn=  0.0000
     atom   2 (R=0.043)  charge=  1.8122  magn=  0.0000
     atom   3 (R=0.043)  charge=  1.8137  magn=  0.0002
     atom   4 (R=0.043)  charge=  1.8120  magn=  0.0000
     atom   5 (R=0.043)  charge=  1.8122  magn=  0.0000
     atom   6 (R=0.043)  charge=  1.8127  magn=  0.0000
     atom   7 (R=0.043)  charge=  1.8123  magn= -0.0000
     atom   8 (R=0.043)  charge=  1.8123  magn= -0.0000
     atom   9 (R=0.043)  charge=  1.8137  magn=  0.0002
     atom  10 (R=0.043)  charge=  1.8123  magn= -0.0000
     atom  11 (R=0.043)  charge=  1.8121  magn= -0.0000
     atom  12 (R=0.043)  charge=  1.8125  magn= -0.0000
     atom  13 (R=0.043)  charge=  1.8120  magn=  0.0000
     atom  14 (R=0.043)  charge=  1.8123  magn= -0.0000
     atom  15 (R=0.043)  charge=  1.8125  magn= -0.0000
     atom  16 (R=0.043)  charge=  1.8127  magn= -0.0000
     atom  17 (R=0.043)  charge=  1.8122  magn=  0.0000
     atom  18 (R=0.043)  charge=  1.8127  magn=  0.0000
     atom  19 (R=0.043)  charge=  1.8124  magn= -0.0000
     atom  20 (R=0.043)  charge=  1.8123  magn= -0.0000
     atom  21 (R=0.043)  charge=  1.8127  magn=  0.0000
     atom  22 (R=0.043)  charge=  1.8120  magn=  0.0003
     atom  23 (R=0.043)  charge=  1.8163  magn=  0.0026
     atom  24 (R=0.043)  charge=  1.8118  magn= -0.0001
     atom  25 (R=0.043)  charge=  1.8124  magn= -0.0000
     atom  26 (R=0.043)  charge=  1.8163  magn=  0.0026
     atom  27 (R=0.043)  charge=  1.8120  magn= -0.0007
     atom  28 (R=0.043)  charge=  1.8153  magn=  0.0019
     atom  29 (R=0.043)  charge=  1.8123  magn= -0.0000
     atom  30 (R=0.043)  charge=  1.8118  magn= -0.0001
     atom  31 (R=0.043)  charge=  1.8153  magn=  0.0019
     atom  32 (R=0.043)  charge=  1.8110  magn=  0.0001
     atom  33 (R=0.043)  charge=  1.8139  magn=  0.0002
     atom  34 (R=0.043)  charge=  1.8124  magn= -0.0000
     atom  35 (R=0.043)  charge=  1.8122  magn= -0.0000
     atom  36 (R=0.043)  charge=  1.8125  magn= -0.0000
     atom  37 (R=0.043)  charge=  1.8124  magn= -0.0000
     atom  38 (R=0.043)  charge=  1.8156  magn=  0.0039
     atom  39 (R=0.043)  charge=  1.8126  magn= -0.0009
     atom  40 (R=0.043)  charge=  1.8163  magn=  0.0004
     atom  41 (R=0.043)  charge=  1.8122  magn= -0.0000
     atom  42 (R=0.043)  charge=  1.8126  magn= -0.0009
     atom  43 (R=0.043)  charge=  1.8153  magn= -0.0005
     atom  44 (R=0.043)  charge=  1.8125  magn= -0.0000
     atom  45 (R=0.043)  charge=  1.8163  magn=  0.0004
     atom  46 (R=0.043)  charge=  1.8153  magn= -0.0005
     atom  47 (R=0.043)  charge=  1.8161  magn=  0.0009
     atom  48 (R=0.043)  charge=  1.8121  magn=  0.0000
     atom  49 (R=0.043)  charge=  1.8124  magn= -0.0000
     atom  50 (R=0.043)  charge=  1.8125  magn= -0.0000
     atom  51 (R=0.043)  charge=  1.8128  magn= -0.0000
     atom  52 (R=0.043)  charge=  1.8124  magn= -0.0000
     atom  53 (R=0.043)  charge=  1.8120  magn= -0.0001
     atom  54 (R=0.043)  charge=  1.8146  magn=  0.0032
     atom  55 (R=0.043)  charge=  1.8111  magn= -0.0000
     atom  56 (R=0.043)  charge=  1.8125  magn= -0.0000
     atom  57 (R=0.043)  charge=  1.8146  magn=  0.0032
     atom  58 (R=0.043)  charge=  1.8156  magn= -0.0008
     atom  59 (R=0.043)  charge=  1.8164  magn=  0.0008
     atom  60 (R=0.043)  charge=  1.8128  magn= -0.0000
     atom  61 (R=0.043)  charge=  1.8111  magn= -0.0000
     atom  62 (R=0.043)  charge=  1.8164  magn=  0.0008
     atom  63 (R=0.043)  charge=  1.8126  magn=  0.0000
     atom  64 (R=0.043)  charge=  1.8123  magn=  0.0000
     atom  65 (R=0.043)  charge=  1.8127  magn= -0.0000
     atom  66 (R=0.043)  charge=  1.8121  magn= -0.0000
     atom  67 (R=0.043)  charge=  1.8121  magn=  0.0000
     atom  68 (R=0.043)  charge=  1.8127  magn= -0.0000
     atom  69 (R=0.043)  charge=  1.8122  magn=  0.0000
     atom  70 (R=0.043)  charge=  1.8123  magn= -0.0000
     atom  71 (R=0.043)  charge=  1.8125  magn= -0.0000
     atom  72 (R=0.043)  charge=  1.8121  magn= -0.0000
     atom  73 (R=0.043)  charge=  1.8123  magn= -0.0000
     atom  74 (R=0.043)  charge=  1.8124  magn=  0.0000
     atom  75 (R=0.043)  charge=  1.8127  magn= -0.0000
     atom  76 (R=0.043)  charge=  1.8121  magn=  0.0000
     atom  77 (R=0.043)  charge=  1.8125  magn= -0.0000
     atom  78 (R=0.043)  charge=  1.8127  magn= -0.0000
     atom  79 (R=0.043)  charge=  1.8121  magn=  0.0000
     atom  80 (R=0.043)  charge=  1.8124  magn=  0.0001
     atom  81 (R=0.043)  charge=  1.8126  magn=  0.0000
     atom  82 (R=0.043)  charge=  1.8124  magn= -0.0000
     atom  83 (R=0.043)  charge=  1.8123  magn= -0.0000
     atom  84 (R=0.043)  charge=  1.8126  magn=  0.0000
     atom  85 (R=0.043)  charge=  1.8109  magn= -0.0001
     atom  86 (R=0.043)  charge=  1.8106  magn= -0.0007
     atom  87 (R=0.043)  charge=  1.8125  magn= -0.0001
     atom  88 (R=0.043)  charge=  1.8124  magn= -0.0000
     atom  89 (R=0.043)  charge=  1.8106  magn= -0.0007
     atom  90 (R=0.043)  charge=  1.8100  magn= -0.0002
     atom  91 (R=0.043)  charge=  1.8110  magn= -0.0000
     atom  92 (R=0.043)  charge=  1.8123  magn= -0.0000
     atom  93 (R=0.043)  charge=  1.8125  magn= -0.0001
     atom  94 (R=0.043)  charge=  1.8110  magn= -0.0000
     atom  95 (R=0.043)  charge=  1.8121  magn=  0.0000
     atom  96 (R=0.043)  charge=  1.8136  magn=  0.0007
     atom  97 (R=0.043)  charge=  1.8123  magn= -0.0001
     atom  98 (R=0.043)  charge=  1.8122  magn= -0.0000
     atom  99 (R=0.043)  charge=  1.8137  magn=  0.0001
     atom 100 (R=0.043)  charge=  1.8123  magn= -0.0001
     atom 101 (R=0.043)  charge=  1.8195  magn= -0.0043
     atom 102 (R=0.043)  charge=  1.8137  magn= -0.0035
     atom 103 (R=0.043)  charge=  1.8125  magn= -0.0001
     atom 104 (R=0.043)  charge=  1.8122  magn= -0.0000
     atom 105 (R=0.043)  charge=  1.8137  magn= -0.0035
     atom 106 (R=0.043)  charge=  1.7912  magn=  0.0001
     atom 107 (R=0.043)  charge=  1.8126  magn= -0.0000
     atom 108 (R=0.043)  charge=  1.8137  magn=  0.0001
     atom 109 (R=0.043)  charge=  1.8125  magn= -0.0001
     atom 110 (R=0.043)  charge=  1.8126  magn= -0.0000
     atom 111 (R=0.043)  charge=  1.8137  magn=  0.0002
     atom 112 (R=0.043)  charge=  1.8122  magn= -0.0000
     atom 113 (R=0.043)  charge=  1.8124  magn= -0.0001
     atom 114 (R=0.043)  charge=  1.8122  magn= -0.0000
     atom 115 (R=0.043)  charge=  1.8120  magn=  0.0000
     atom 116 (R=0.043)  charge=  1.8124  magn= -0.0001
     atom 117 (R=0.043)  charge=  1.8118  magn= -0.0015
     atom 118 (R=0.043)  charge=  1.8071  magn= -0.0005
     atom 119 (R=0.043)  charge=  1.8121  magn=  0.0000
     atom 120 (R=0.043)  charge=  1.8122  magn= -0.0000
     atom 121 (R=0.043)  charge=  1.8072  magn= -0.0005
     atom 122 (R=0.043)  charge=  1.8138  magn= -0.0004
     atom 123 (R=0.043)  charge=  1.8132  magn= -0.0000
     atom 124 (R=0.043)  charge=  1.8120  magn=  0.0000
     atom 125 (R=0.043)  charge=  1.8121  magn=  0.0000
     atom 126 (R=0.043)  charge=  1.8132  magn= -0.0000
     atom 127 (R=0.043)  charge=  1.8126  magn=  0.0000
     atom 128 (R=0.043)  charge=  1.8123  magn=  0.0000
     atom 129 (R=0.043)  charge=  1.8127  magn=  0.0000
     atom 130 (R=0.043)  charge=  1.8121  magn=  0.0000
     atom 131 (R=0.043)  charge=  1.8121  magn=  0.0000
     atom 132 (R=0.043)  charge=  1.8124  magn=  0.0001
     atom 133 (R=0.043)  charge=  1.8125  magn=  0.0000
     atom 134 (R=0.043)  charge=  1.8123  magn= -0.0000
     atom 135 (R=0.043)  charge=  1.8123  magn= -0.0000
     atom 136 (R=0.043)  charge=  1.8138  magn=  0.0004
     atom 137 (R=0.043)  charge=  1.8121  magn= -0.0000
     atom 138 (R=0.043)  charge=  1.8121  magn= -0.0000
     atom 139 (R=0.043)  charge=  1.8134  magn=  0.0003
     atom 140 (R=0.043)  charge=  1.8121  magn= -0.0000
     atom 141 (R=0.043)  charge=  1.8123  magn= -0.0001
     atom 142 (R=0.043)  charge=  1.8121  magn= -0.0000
     atom 143 (R=0.043)  charge=  1.8119  magn=  0.0000
     atom 144 (R=0.043)  charge=  1.8127  magn=  0.0000
     atom 145 (R=0.043)  charge=  1.8123  magn= -0.0000
     atom 146 (R=0.043)  charge=  1.8124  magn= -0.0000
     atom 147 (R=0.043)  charge=  1.8125  magn= -0.0000
     atom 148 (R=0.043)  charge=  1.8126  magn= -0.0000
     atom 149 (R=0.043)  charge=  1.8113  magn= -0.0005
     atom 150 (R=0.043)  charge=  1.8107  magn= -0.0007
     atom 151 (R=0.043)  charge=  1.8125  magn= -0.0001
     atom 152 (R=0.043)  charge=  1.8122  magn= -0.0001
     atom 153 (R=0.043)  charge=  1.8149  magn=  0.0027
     atom 154 (R=0.043)  charge=  1.8121  magn=  0.0003
     atom 155 (R=0.043)  charge=  1.8124  magn= -0.0001
     atom 156 (R=0.043)  charge=  1.8124  magn= -0.0001
     atom 157 (R=0.043)  charge=  1.8112  magn= -0.0008
     atom 158 (R=0.043)  charge=  1.8072  magn= -0.0003
     atom 159 (R=0.043)  charge=  1.8120  magn= -0.0000
     atom 160 (R=0.043)  charge=  1.8122  magn= -0.0000
     atom 161 (R=0.043)  charge=  1.8123  magn= -0.0000
     atom 162 (R=0.043)  charge=  1.8125  magn=  0.0000
     atom 163 (R=0.043)  charge=  1.8128  magn=  0.0000
     atom 164 (R=0.043)  charge=  1.8123  magn= -0.0001
     atom 165 (R=0.043)  charge=  1.8112  magn= -0.0015
     atom 166 (R=0.043)  charge=  1.8104  magn= -0.0004
     atom 167 (R=0.043)  charge=  1.8112  magn= -0.0000
     atom 168 (R=0.043)  charge=  1.8122  magn= -0.0000
     atom 169 (R=0.043)  charge=  1.8170  magn= -0.0080
     atom 170 (R=0.043)  charge=  1.7921  magn= -0.0009
     atom 171 (R=0.043)  charge=  1.8126  magn= -0.0000
     atom 172 (R=0.043)  charge=  1.8123  magn= -0.0000
     atom 173 (R=0.043)  charge=  1.8072  magn= -0.0001
     atom 174 (R=0.043)  charge=  1.8138  magn= -0.0004
     atom 175 (R=0.043)  charge=  1.8132  magn= -0.0000
     atom 176 (R=0.043)  charge=  1.8122  magn=  0.0000
     atom 177 (R=0.043)  charge=  1.8125  magn= -0.0000
     atom 178 (R=0.043)  charge=  1.8128  magn= -0.0000
     atom 179 (R=0.043)  charge=  1.8121  magn=  0.0000
     atom 180 (R=0.043)  charge=  1.8123  magn= -0.0000
     atom 181 (R=0.043)  charge=  1.8125  magn= -0.0001
     atom 182 (R=0.043)  charge=  1.8110  magn= -0.0000
     atom 183 (R=0.043)  charge=  1.8121  magn= -0.0000
     atom 184 (R=0.043)  charge=  1.8132  magn=  0.0006
     atom 185 (R=0.043)  charge=  1.8124  magn= -0.0001
     atom 186 (R=0.043)  charge=  1.8126  magn= -0.0000
     atom 187 (R=0.043)  charge=  1.8137  magn=  0.0002
     atom 188 (R=0.043)  charge=  1.8120  magn= -0.0000
     atom 189 (R=0.043)  charge=  1.8120  magn=  0.0000
     atom 190 (R=0.043)  charge=  1.8132  magn= -0.0000
     atom 191 (R=0.043)  charge=  1.8126  magn=  0.0000
     atom 192 (R=0.043)  charge=  1.8123  magn=  0.0000
     atom 193 (R=0.043)  charge=  1.8124  magn=  0.0001
     atom 194 (R=0.043)  charge=  1.8138  magn=  0.0004
     atom 195 (R=0.043)  charge=  1.8121  magn= -0.0000
     atom 196 (R=0.043)  charge=  1.8127  magn=  0.0000
     atom 197 (R=0.043)  charge=  1.8125  magn=  0.0000
     atom 198 (R=0.043)  charge=  1.8121  magn= -0.0000
     atom 199 (R=0.043)  charge=  1.8123  magn= -0.0001
     atom 200 (R=0.043)  charge=  1.8121  magn=  0.0000
     atom 201 (R=0.043)  charge=  1.8123  magn= -0.0000
     atom 202 (R=0.043)  charge=  1.8121  magn= -0.0000
     atom 203 (R=0.043)  charge=  1.8121  magn= -0.0000
     atom 204 (R=0.043)  charge=  1.8121  magn=  0.0000
     atom 205 (R=0.043)  charge=  1.8123  magn= -0.0000
     atom 206 (R=0.043)  charge=  1.8134  magn=  0.0003
     atom 207 (R=0.043)  charge=  1.8119  magn=  0.0000
     atom 208 (R=0.043)  charge=  1.8127  magn=  0.0000
     atom 209 (R=0.043)  charge=  1.8126  magn= -0.0000
     atom 210 (R=0.043)  charge=  1.8122  magn= -0.0001
     atom 211 (R=0.043)  charge=  1.8124  magn= -0.0001
     atom 212 (R=0.043)  charge=  1.8123  magn= -0.0000
     atom 213 (R=0.043)  charge=  1.8113  magn= -0.0005
     atom 214 (R=0.043)  charge=  1.8149  magn=  0.0027
     atom 215 (R=0.043)  charge=  1.8112  magn= -0.0008
     atom 216 (R=0.043)  charge=  1.8124  magn= -0.0000
     atom 217 (R=0.043)  charge=  1.8107  magn= -0.0007
     atom 218 (R=0.043)  charge=  1.8121  magn=  0.0003
     atom 219 (R=0.043)  charge=  1.8072  magn= -0.0003
     atom 220 (R=0.043)  charge=  1.8125  magn= -0.0000
     atom 221 (R=0.043)  charge=  1.8125  magn= -0.0001
     atom 222 (R=0.043)  charge=  1.8124  magn= -0.0001
     atom 223 (R=0.043)  charge=  1.8120  magn= -0.0000
     atom 224 (R=0.043)  charge=  1.8122  magn= -0.0000
     atom 225 (R=0.043)  charge=  1.8123  magn= -0.0001
     atom 226 (R=0.043)  charge=  1.8122  magn= -0.0000
     atom 227 (R=0.043)  charge=  1.8123  magn= -0.0000
     atom 228 (R=0.043)  charge=  1.8123  magn= -0.0000
     atom 229 (R=0.043)  charge=  1.8112  magn= -0.0015
     atom 230 (R=0.043)  charge=  1.8170  magn= -0.0080
     atom 231 (R=0.043)  charge=  1.8072  magn= -0.0001
     atom 232 (R=0.043)  charge=  1.8125  magn=  0.0000
     atom 233 (R=0.043)  charge=  1.8104  magn= -0.0004
     atom 234 (R=0.043)  charge=  1.7921  magn= -0.0009
     atom 235 (R=0.043)  charge=  1.8138  magn= -0.0004
     atom 236 (R=0.043)  charge=  1.8128  magn=  0.0000
     atom 237 (R=0.043)  charge=  1.8112  magn= -0.0000
     atom 238 (R=0.043)  charge=  1.8126  magn= -0.0000
     atom 239 (R=0.043)  charge=  1.8132  magn= -0.0000
     atom 240 (R=0.043)  charge=  1.8122  magn=  0.0000
     atom 241 (R=0.043)  charge=  1.8123  magn= -0.0000
     atom 242 (R=0.043)  charge=  1.8132  magn=  0.0006
     atom 243 (R=0.043)  charge=  1.8120  magn= -0.0000
     atom 244 (R=0.043)  charge=  1.8125  magn= -0.0000
     atom 245 (R=0.043)  charge=  1.8125  magn= -0.0001
     atom 246 (R=0.043)  charge=  1.8124  magn= -0.0001
     atom 247 (R=0.043)  charge=  1.8120  magn=  0.0000
     atom 248 (R=0.043)  charge=  1.8128  magn= -0.0000
     atom 249 (R=0.043)  charge=  1.8110  magn= -0.0000
     atom 250 (R=0.043)  charge=  1.8126  magn= -0.0000
     atom 251 (R=0.043)  charge=  1.8132  magn= -0.0000
     atom 252 (R=0.043)  charge=  1.8121  magn=  0.0000
     atom 253 (R=0.043)  charge=  1.8121  magn= -0.0000
     atom 254 (R=0.043)  charge=  1.8137  magn=  0.0002
     atom 255 (R=0.043)  charge=  1.8126  magn=  0.0000
     atom 256 (R=0.043)  charge=  1.8124  magn=  0.0000
     atom 257 (R=0.043)  charge=  1.8121  magn= -0.0000
     atom 258 (R=0.043)  charge=  1.8127  magn=  0.0001
     atom 259 (R=0.043)  charge=  1.8125  magn=  0.0001
     atom 260 (R=0.043)  charge=  1.8120  magn=  0.0000
     atom 261 (R=0.043)  charge=  1.8117  magn=  0.0001
     atom 262 (R=0.043)  charge=  1.8123  magn=  0.0008
     atom 263 (R=0.043)  charge=  1.8126  magn=  0.0001
     atom 264 (R=0.043)  charge=  1.8143  magn=  0.0010
     atom 265 (R=0.043)  charge=  1.8122  magn=  0.0002
     atom 266 (R=0.043)  charge=  1.8113  magn=  0.0001
     atom 267 (R=0.043)  charge=  1.8114  magn= -0.0000
     atom 268 (R=0.043)  charge=  1.8124  magn=  0.0003
     atom 269 (R=0.043)  charge=  1.8133  magn=  0.0009
     atom 270 (R=0.043)  charge=  1.8120  magn= -0.0000
     atom 271 (R=0.043)  charge=  1.8126  magn=  0.0000
     atom 272 (R=0.043)  charge=  1.8122  magn=  0.0000
     atom 273 (R=0.043)  charge=  1.8123  magn=  0.0002
     atom 274 (R=0.043)  charge=  1.8122  magn=  0.0001
     atom 275 (R=0.043)  charge=  1.8130  magn=  0.0000
     atom 276 (R=0.043)  charge=  1.8121  magn=  0.0000
     atom 277 (R=0.043)  charge=  1.8123  magn=  0.0049
     atom 278 (R=0.043)  charge=  1.8111  magn=  0.0099
     atom 279 (R=0.043)  charge=  1.8119  magn=  0.0001
     atom 280 (R=0.043)  charge=  1.8121  magn=  0.0010
     atom 281 (R=0.043)  charge=  1.8090  magn=  0.0024
     atom 282 (R=0.043)  charge=  1.8122  magn=  0.0002
     atom 283 (R=0.043)  charge=  1.8137  magn=  0.0007
     atom 284 (R=0.043)  charge=  1.8120  magn=  0.0008
     atom 285 (R=0.043)  charge=  1.8117  magn=  0.0001
     atom 286 (R=0.043)  charge=  1.8120  magn=  0.0000
     atom 287 (R=0.043)  charge=  1.8127  magn=  0.0002
     atom 288 (R=0.043)  charge=  1.8122  magn=  0.0001
     atom 289 (R=0.043)  charge=  1.8125  magn= -0.0000
     atom 290 (R=0.043)  charge=  1.8125  magn=  0.0000
     atom 291 (R=0.043)  charge=  1.8121  magn=  0.0016
     atom 292 (R=0.043)  charge=  1.8080  magn=  0.0237
     atom 293 (R=0.043)  charge=  1.8127  magn=  0.0002
     atom 294 (R=0.043)  charge=  1.8124  magn= -0.0000
     atom 295 (R=0.043)  charge=  1.8118  magn=  0.0001
     atom 296 (R=0.043)  charge=  1.8089  magn=  0.0056
     atom 297 (R=0.043)  charge=  1.8197  magn=  0.0071
     atom 298 (R=0.043)  charge=  1.8124  magn=  0.0001
     atom 299 (R=0.043)  charge=  1.8120  magn=  0.0000
     atom 300 (R=0.043)  charge=  1.8118  magn=  0.0001
     atom 301 (R=0.043)  charge=  1.8141  magn=  0.0009
     atom 302 (R=0.043)  charge=  1.8133  magn=  0.0001
     atom 303 (R=0.043)  charge=  1.8124  magn=  0.0001
     atom 304 (R=0.043)  charge=  1.8127  magn=  0.0002
     atom 305 (R=0.043)  charge=  1.8126  magn=  0.0000
     atom 306 (R=0.043)  charge=  1.8126  magn=  0.0001
     atom 307 (R=0.043)  charge=  1.8125  magn=  0.0002
     atom 308 (R=0.043)  charge=  1.8119  magn=  0.0001
     atom 309 (R=0.043)  charge=  1.8124  magn= -0.0000
     atom 310 (R=0.043)  charge=  1.8124  magn=  0.0000
     atom 311 (R=0.043)  charge=  1.8115  magn= -0.0000
     atom 312 (R=0.043)  charge=  1.8122  magn=  0.0002
     atom 313 (R=0.043)  charge=  1.8123  magn=  0.0001
     atom 314 (R=0.043)  charge=  1.8131  magn=  0.0001
     atom 315 (R=0.043)  charge=  1.8126  magn=  0.0000
     atom 316 (R=0.043)  charge=  1.8120  magn= -0.0000
     atom 317 (R=0.043)  charge=  1.8132  magn=  0.0001
     atom 318 (R=0.043)  charge=  1.8128  magn=  0.0001
     atom 319 (R=0.043)  charge=  1.8125  magn=  0.0001
     atom 320 (R=0.043)  charge=  1.8124  magn=  0.0000
     atom 321 (R=0.043)  charge=  1.8128  magn=  0.0001
     atom 322 (R=0.043)  charge=  1.8125  magn=  0.0001
     atom 323 (R=0.043)  charge=  1.8124  magn=  0.0000
     atom 324 (R=0.043)  charge=  1.8123  magn=  0.0000
     atom 325 (R=0.043)  charge=  1.8122  magn= -0.0000
     atom 326 (R=0.043)  charge=  1.8126  magn=  0.0001
     atom 327 (R=0.043)  charge=  1.8128  magn=  0.0001
     atom 328 (R=0.043)  charge=  1.8122  magn= -0.0000
     atom 329 (R=0.043)  charge=  1.8122  magn=  0.0000
     atom 330 (R=0.043)  charge=  1.8120  magn=  0.0000
     atom 331 (R=0.043)  charge=  1.8125  magn=  0.0001
     atom 332 (R=0.043)  charge=  1.8126  magn=  0.0001
     atom 333 (R=0.043)  charge=  1.8120  magn=  0.0000
     atom 334 (R=0.043)  charge=  1.8127  magn=  0.0000
     atom 335 (R=0.043)  charge=  1.8125  magn=  0.0000
     atom 336 (R=0.043)  charge=  1.8124  magn=  0.0000
     atom 337 (R=0.043)  charge=  1.8122  magn=  0.0001
     atom 338 (R=0.043)  charge=  1.8127  magn=  0.0001
     atom 339 (R=0.043)  charge=  1.8124  magn=  0.0000
     atom 340 (R=0.043)  charge=  1.8120  magn=  0.0006
     atom 341 (R=0.043)  charge=  1.8137  magn=  0.0113
     atom 342 (R=0.043)  charge=  1.8122  magn=  0.0011
     atom 343 (R=0.043)  charge=  1.8122  magn=  0.0001
     atom 344 (R=0.043)  charge=  1.8137  magn=  0.0113
     atom 345 (R=0.043)  charge=  1.8120  magn=  0.0045
     atom 346 (R=0.043)  charge=  1.8096  magn= -0.0000
     atom 347 (R=0.043)  charge=  1.8127  magn=  0.0001
     atom 348 (R=0.043)  charge=  1.8122  magn=  0.0011
     atom 349 (R=0.043)  charge=  1.8096  magn= -0.0000
     atom 350 (R=0.043)  charge=  1.8122  magn=  0.0000
     atom 351 (R=0.043)  charge=  1.8127  magn=  0.0003
     atom 352 (R=0.043)  charge=  1.8123  magn=  0.0001
     atom 353 (R=0.043)  charge=  1.8123  magn=  0.0002
     atom 354 (R=0.043)  charge=  1.8121  magn=  0.0000
     atom 355 (R=0.043)  charge=  1.8123  magn=  0.0001
     atom 356 (R=0.043)  charge=  1.8116  magn=  0.0232
     atom 357 (R=0.043)  charge=  1.8123  magn=  0.0058
     atom 358 (R=0.043)  charge=  1.8095  magn=  0.0000
     atom 359 (R=0.043)  charge=  1.8123  magn=  0.0002
     atom 360 (R=0.043)  charge=  1.8123  magn=  0.0058
     atom 361 (R=0.043)  charge=  1.8124  magn=  0.0007
     atom 362 (R=0.043)  charge=  1.8121  magn=  0.0000
     atom 363 (R=0.043)  charge=  1.8095  magn=  0.0000
     atom 364 (R=0.043)  charge=  1.8124  magn=  0.0007
     atom 365 (R=0.043)  charge=  1.8140  magn=  0.0007
     atom 366 (R=0.043)  charge=  1.8125  magn=  0.0001
     atom 367 (R=0.043)  charge=  1.8125  magn=  0.0001
     atom 368 (R=0.043)  charge=  1.8122  magn= -0.0000
     atom 369 (R=0.043)  charge=  1.8126  magn=  0.0000
     atom 370 (R=0.043)  charge=  1.8125  magn=  0.0001
     atom 371 (R=0.043)  charge=  1.8119  magn=  0.0018
     atom 372 (R=0.043)  charge=  1.8098  magn=  0.0001
     atom 373 (R=0.043)  charge=  1.8122  magn=  0.0000
     atom 374 (R=0.043)  charge=  1.8122  magn= -0.0000
     atom 375 (R=0.043)  charge=  1.8098  magn=  0.0001
     atom 376 (R=0.043)  charge=  1.8121  magn=  0.0011
     atom 377 (R=0.043)  charge=  1.8141  magn=  0.0007
     atom 378 (R=0.043)  charge=  1.8126  magn=  0.0000
     atom 379 (R=0.043)  charge=  1.8122  magn=  0.0000
     atom 380 (R=0.043)  charge=  1.8141  magn=  0.0007
     atom 381 (R=0.043)  charge=  1.8132  magn=  0.0003
     atom 382 (R=0.043)  charge=  1.8124  magn=  0.0000
     atom 383 (R=0.043)  charge=  1.8120  magn=  0.0000
     atom 384 (R=0.043)  charge=  1.8127  magn=  0.0001
     atom 385 (R=0.043)  charge=  1.8124  magn=  0.0001
     atom 386 (R=0.043)  charge=  1.8120  magn=  0.0000
     atom 387 (R=0.043)  charge=  1.8122  magn=  0.0000
     atom 388 (R=0.043)  charge=  1.8121  magn= -0.0000
     atom 389 (R=0.043)  charge=  1.8128  magn=  0.0001
     atom 390 (R=0.043)  charge=  1.8127  magn=  0.0001
     atom 391 (R=0.043)  charge=  1.8121  magn= -0.0000
     atom 392 (R=0.043)  charge=  1.8124  magn=  0.0000
     atom 393 (R=0.043)  charge=  1.8125  magn=  0.0000
     atom 394 (R=0.043)  charge=  1.8124  magn=  0.0001
     atom 395 (R=0.043)  charge=  1.8128  magn=  0.0001
     atom 396 (R=0.043)  charge=  1.8125  magn=  0.0000
     atom 397 (R=0.043)  charge=  1.8126  magn=  0.0000
     atom 398 (R=0.043)  charge=  1.8120  magn=  0.0000
     atom 399 (R=0.043)  charge=  1.8119  magn=  0.0000
     atom 400 (R=0.043)  charge=  1.8124  magn=  0.0009
     atom 401 (R=0.043)  charge=  1.8127  magn=  0.0001
     atom 402 (R=0.043)  charge=  1.8118  magn=  0.0000
     atom 403 (R=0.043)  charge=  1.8113  magn=  0.0044
     atom 404 (R=0.043)  charge=  1.8099  magn=  0.0119
     atom 405 (R=0.043)  charge=  1.8119  magn=  0.0001
     atom 406 (R=0.043)  charge=  1.8124  magn=  0.0009
     atom 407 (R=0.043)  charge=  1.8099  magn=  0.0119
     atom 408 (R=0.043)  charge=  1.8126  magn=  0.0002
     atom 409 (R=0.043)  charge=  1.8124  magn=  0.0000
     atom 410 (R=0.043)  charge=  1.8127  magn=  0.0001
     atom 411 (R=0.043)  charge=  1.8119  magn=  0.0001
     atom 412 (R=0.043)  charge=  1.8124  magn=  0.0000
     atom 413 (R=0.043)  charge=  1.8125  magn=  0.0000
     atom 414 (R=0.043)  charge=  1.8140  magn=  0.0019
     atom 415 (R=0.043)  charge=  1.8125  magn=  0.0011
     atom 416 (R=0.043)  charge=  1.8115  magn=  0.0001
     atom 417 (R=0.043)  charge=  1.8115  magn= -0.0000
     atom 418 (R=0.043)  charge=  1.8125  magn=  0.0011
     atom 419 (R=0.043)  charge=  1.8085  magn=  0.0032
     atom 420 (R=0.043)  charge=  1.8122  magn=  0.0002
     atom 421 (R=0.043)  charge=  1.8115  magn=  0.0001
     atom 422 (R=0.043)  charge=  1.8085  magn=  0.0032
     atom 423 (R=0.043)  charge=  1.8194  magn=  0.0072
     atom 424 (R=0.043)  charge=  1.8124  magn=  0.0001
     atom 425 (R=0.043)  charge=  1.8115  magn= -0.0000
     atom 426 (R=0.043)  charge=  1.8122  magn=  0.0002
     atom 427 (R=0.043)  charge=  1.8124  magn=  0.0001
     atom 428 (R=0.043)  charge=  1.8130  magn=  0.0001
     atom 429 (R=0.043)  charge=  1.8123  magn=  0.0005
     atom 430 (R=0.043)  charge=  1.8130  magn=  0.0019
     atom 431 (R=0.043)  charge=  1.8121  magn=  0.0000
     atom 432 (R=0.043)  charge=  1.8126  magn=  0.0000
     atom 433 (R=0.043)  charge=  1.8130  magn=  0.0019
     atom 434 (R=0.043)  charge=  1.8121  magn=  0.0013
     atom 435 (R=0.043)  charge=  1.8117  magn=  0.0001
     atom 436 (R=0.043)  charge=  1.8121  magn= -0.0000
     atom 437 (R=0.043)  charge=  1.8120  magn=  0.0000
     atom 438 (R=0.043)  charge=  1.8117  magn=  0.0001
     atom 439 (R=0.043)  charge=  1.8141  magn=  0.0009
     atom 440 (R=0.043)  charge=  1.8133  magn=  0.0001
     atom 441 (R=0.043)  charge=  1.8126  magn=  0.0000
     atom 442 (R=0.043)  charge=  1.8121  magn= -0.0000
     atom 443 (R=0.043)  charge=  1.8133  magn=  0.0001
     atom 444 (R=0.043)  charge=  1.8128  magn=  0.0001
     atom 445 (R=0.043)  charge=  1.8124  magn=  0.0000
     atom 446 (R=0.043)  charge=  1.8120  magn=  0.0000
     atom 447 (R=0.043)  charge=  1.8143  magn=  0.0010
     atom 448 (R=0.043)  charge=  1.8124  magn=  0.0003
     atom 449 (R=0.043)  charge=  1.8121  magn= -0.0000
     atom 450 (R=0.043)  charge=  1.8117  magn=  0.0001
     atom 451 (R=0.043)  charge=  1.8122  magn=  0.0002
     atom 452 (R=0.043)  charge=  1.8133  magn=  0.0009
     atom 453 (R=0.043)  charge=  1.8127  magn=  0.0001
     atom 454 (R=0.043)  charge=  1.8123  magn=  0.0008
     atom 455 (R=0.043)  charge=  1.8113  magn=  0.0001
     atom 456 (R=0.043)  charge=  1.8120  magn= -0.0000
     atom 457 (R=0.043)  charge=  1.8125  magn=  0.0001
     atom 458 (R=0.043)  charge=  1.8126  magn=  0.0001
     atom 459 (R=0.043)  charge=  1.8114  magn= -0.0000
     atom 460 (R=0.043)  charge=  1.8126  magn=  0.0000
     atom 461 (R=0.043)  charge=  1.8122  magn=  0.0000
     atom 462 (R=0.043)  charge=  1.8121  magn=  0.0000
     atom 463 (R=0.043)  charge=  1.8121  magn=  0.0010
     atom 464 (R=0.043)  charge=  1.8137  magn=  0.0007
     atom 465 (R=0.043)  charge=  1.8123  magn=  0.0002
     atom 466 (R=0.043)  charge=  1.8123  magn=  0.0049
     atom 467 (R=0.043)  charge=  1.8120  magn=  0.0008
     atom 468 (R=0.043)  charge=  1.8122  magn=  0.0001
     atom 469 (R=0.043)  charge=  1.8111  magn=  0.0099
     atom 470 (R=0.043)  charge=  1.8090  magn=  0.0024
     atom 471 (R=0.043)  charge=  1.8117  magn=  0.0001
     atom 472 (R=0.043)  charge=  1.8130  magn=  0.0000
     atom 473 (R=0.043)  charge=  1.8119  magn=  0.0001
     atom 474 (R=0.043)  charge=  1.8122  magn=  0.0002
     atom 475 (R=0.043)  charge=  1.8120  magn=  0.0000
     atom 476 (R=0.043)  charge=  1.8126  magn=  0.0002
     atom 477 (R=0.043)  charge=  1.8121  magn=  0.0016
     atom 478 (R=0.043)  charge=  1.8118  magn=  0.0001
     atom 479 (R=0.043)  charge=  1.8120  magn=  0.0000
     atom 480 (R=0.043)  charge=  1.8122  magn=  0.0001
     atom 481 (R=0.043)  charge=  1.8080  magn=  0.0237
     atom 482 (R=0.043)  charge=  1.8089  magn=  0.0056
     atom 483 (R=0.043)  charge=  1.8118  magn=  0.0001
     atom 484 (R=0.043)  charge=  1.8125  magn= -0.0000
     atom 485 (R=0.043)  charge=  1.8127  magn=  0.0002
     atom 486 (R=0.043)  charge=  1.8197  magn=  0.0071
     atom 487 (R=0.043)  charge=  1.8141  magn=  0.0009
     atom 488 (R=0.043)  charge=  1.8125  magn=  0.0000
     atom 489 (R=0.043)  charge=  1.8124  magn= -0.0000
     atom 490 (R=0.043)  charge=  1.8124  magn=  0.0001
     atom 491 (R=0.043)  charge=  1.8133  magn=  0.0001
     atom 492 (R=0.043)  charge=  1.8124  magn=  0.0001
     atom 493 (R=0.043)  charge=  1.8125  magn=  0.0002
     atom 494 (R=0.043)  charge=  1.8115  magn= -0.0000
     atom 495 (R=0.043)  charge=  1.8126  magn=  0.0000
     atom 496 (R=0.043)  charge=  1.8127  magn=  0.0002
     atom 497 (R=0.043)  charge=  1.8119  magn=  0.0001
     atom 498 (R=0.043)  charge=  1.8122  magn=  0.0002
     atom 499 (R=0.043)  charge=  1.8120  magn= -0.0000
     atom 500 (R=0.043)  charge=  1.8126  magn=  0.0000
     atom 501 (R=0.043)  charge=  1.8124  magn= -0.0000
     atom 502 (R=0.043)  charge=  1.8123  magn=  0.0001
     atom 503 (R=0.043)  charge=  1.8132  magn=  0.0001
     atom 504 (R=0.043)  charge=  1.8126  magn=  0.0001
     atom 505 (R=0.043)  charge=  1.8124  magn=  0.0000
     atom 506 (R=0.043)  charge=  1.8131  magn=  0.0001
     atom 507 (R=0.043)  charge=  1.8128  magn=  0.0001
     atom 508 (R=0.043)  charge=  1.8067  magn=  0.3301
     atom 509 (R=0.043)  charge=  1.8407  magn=  0.1392
     atom 510 (R=0.043)  charge=  1.8407  magn=  0.1392
     atom 511 (R=0.043)  charge=  2.8778  magn=  0.1219

     total cpu time spent up to now is     1139.2 secs

     End of self-consistent calculation

 ------ SPIN UP ------------


          k = 0.0000 0.0000 0.0000 (118565 PWs)   bands (ev):

    -8.2081  -7.7514  -7.6396  -7.6370  -7.6175  -7.6044  -7.5679  -7.2860
    -7.0753  -7.0700  -7.0652  -7.0587  -7.0564  -7.0458  -7.0417  -7.0332
    -7.0044  -6.9802  -6.9182  -6.6471  -6.4787  -6.4714  -6.4657  -6.4593
    -6.4483  -6.4347  -6.3710  -6.0422  -5.9142  -5.9119  -5.9043  -5.8989
    -5.8814  -5.7095  -5.3913  -5.3864  -5.3849  -5.3831  -5.3778  -5.3764
    -5.3745  -5.3695  -5.3681  -5.3639  -5.3599  -5.3584  -5.3548  -5.3473
    -5.3376  -5.3330  -5.3268  -5.3191  -5.3126  -5.3041  -5.2786  -5.2533
    -5.1906  -5.0308  -4.8402  -4.8368  -4.8263  -4.8234  -4.8176  -4.8168
    -4.8148  -4.8139  -4.8123  -4.8106  -4.8078  -4.8024  -4.8013  -4.7959
    -4.7900  -4.7807  -4.7713  -4.7450  -4.7441  -4.7202  -4.7060  -4.6658
    -4.4694  -3.9400  -3.7359  -3.7336  -3.7319  -3.7297  -3.7268  -3.7189
    -3.7156  -3.7136  -3.7088  -3.7027  -3.6663  -3.5183  -3.2779  -3.2773
    -3.2737  -3.2679  -3.2665  -3.2664  -3.2622  -3.2585  -3.2554  -3.2523
    -3.2475  -3.2453  -3.2420  -3.2351  -3.2344  -3.2238  -3.2172  -3.1936
    -3.1908  -3.1754  -3.1668  -3.1575  -3.1549  -3.1459  -3.1425  -3.1388
    -3.1341  -3.1162  -3.0076  -2.8053  -2.6685  -2.6655  -2.6597  -2.6580
    -2.6576  -2.6566  -2.6548  -2.6529  -2.6479  -2.6467  -2.6428  -2.6337
    -2.6320  -2.6310  -2.6283  -2.6173  -2.6148  -2.6128  -2.5905  -2.5836
    -2.5635  -2.5495  -2.4985  -2.4498  -2.4012  -2.3970  -2.3697  -2.3027
    -2.2068  -2.2036  -2.1828  -2.1804  -2.1788  -2.1763  -2.1734  -2.1683
    -2.1661  -2.1628  -2.1621  -2.1594  -2.1592  -2.1555  -2.1531  -2.1508
    -2.1377  -2.1305  -2.1187  -2.1175  -2.0861  -2.0471  -1.8446  -1.6032
    -1.4555  -1.4542  -1.4480  -1.4470  -1.4434  -1.4369  -1.4361  -1.4324
    -1.4306  -1.4262  -1.4253  -1.4216  -1.4167  -1.4124  -1.4102  -1.3987
    -1.3929  -1.3895  -1.3867  -1.3803  -1.3664  -1.3660  -1.3450  -1.3007
    -1.2589  -1.2582  -1.2516  -1.2512  -1.2498  -1.2474  -1.2456  -1.2307
    -1.2292  -1.2273  -1.2228  -1.2124  -1.1986  -1.1917  -1.1900  -1.1833
    -1.1685  -1.1389  -1.1349  -1.1140  -1.0980  -0.9744  -0.4391  -0.0922
    -0.0909  -0.0879  -0.0678   0.2008   0.2778   0.2793   0.2996   0.3033
     0.3065   0.3100   0.3123   0.3142   0.3164   0.3318   0.3880   0.4868
     0.4936   0.4973   0.5045   0.5068   0.5360   0.7396   0.7832   0.7886
     0.8178   0.8213   0.8219   0.8226   0.8233   0.8259   0.8327   0.8367
     0.8392   0.8492   0.8514   0.8538   0.8541   0.8609   0.8612   0.8634
     0.8668   0.8687   0.8796   0.8802   0.8821   0.8855   0.8861   0.8884
     0.8934   0.8943   0.8977   0.8978   0.9028   0.9064   0.9114   0.9173
     0.9217   0.9261   0.9312   0.9343   0.9365   0.9385   0.9421   0.9494
     0.9536   0.9876   1.0439   1.0518   1.1417   1.2384   1.2846   1.2872
     1.3102   1.3167   1.3189   1.3200   1.3258   1.3338   1.3384   1.3567
     1.4256   1.5110   1.5209   1.5222   1.5481   1.5489   1.5537   1.5611
     1.5639   1.5788   1.5869   1.6096   1.6657   1.6849   1.6866   1.6883
     1.6999   1.7027   1.7034   1.7065   1.7074   1.7126   1.7128   1.7140
     1.7241   1.7259   1.7259   1.7386   1.7388   1.7392   1.7607   1.7639
     1.7661   1.8639   1.8998   1.9243   2.2079   2.4222   2.4339   2.4348
     2.4764   2.4805   2.4826   2.4833   2.4856   2.4894   2.4895   2.4907
     2.4916   2.4938   2.4954   2.4963   2.4996   2.5011   2.5037   2.5052
     2.5099   2.5550   2.5733   2.5811   2.6723   2.8129   2.8139   2.8236
     2.8388   2.8407   2.8463   2.8501   2.8518   2.8543   2.8562   2.8594
     2.8616   2.8737   2.8818   2.8835   2.8868   2.8905   2.9009   2.9082
     2.9148   2.9212   3.0199   3.0859   3.6659   3.8937   3.8942   3.9422
     3.9432   3.9459   3.9468   3.9493   3.9520   3.9537   3.9594   3.9670
     3.9678   4.0590   4.0686   4.0760   4.1266   4.1275   4.1283   4.1358
     4.1387   4.1387   4.1406   4.1417   4.1426   4.1469   4.1492   4.1514
     4.1517   4.1518   4.1552   4.1597   4.1833   4.2002   4.2047   4.2065
     4.2162   4.2251   4.2264   4.2333   4.2340   4.2369   4.2394   4.2407
     4.2413   4.2447   4.2573   4.2587   4.2629   4.2694   4.2701   4.2725
     4.2733   4.2779   4.2829   4.2917   4.2946   4.2954   4.3285   4.3511
     4.3552   4.3624   4.3677   4.3720   4.3724   4.3759   4.3782   4.3788
     4.3800   4.3845   4.3928   4.3946   4.3969   4.3975   4.4078   4.4129
     4.4183   4.4202   4.4352   4.4437   4.4442   4.4861   4.5000   4.5086
     4.5119   4.5464   4.5517   4.5757   4.5761   4.5851   4.5858   4.5891
     4.5948   4.6099   4.6435   4.6450   4.6590   4.6919   4.7147   4.7172
     4.7849   4.8367   4.9186   4.9192   4.9481   4.9488   4.9515   4.9522
     4.9557   4.9607   4.9680   5.0252   5.0649   5.0898   5.5661   5.6082
     5.6098   5.6492   5.6604   5.6614   5.6663   5.6674   5.6704   5.6978
     5.7002   5.7030   5.8632   5.8658   5.8831   5.9128   5.9166   5.9181
     5.9183   5.9213   5.9225   5.9273   5.9324   5.9380   5.9416   5.9422
     5.9506   5.9534   5.9535   5.9640   5.9713   5.9714   5.9874   5.9909
     6.0043   6.0115   6.0633   6.1647   6.1680   6.2559   6.2572   6.2598
     6.2627   6.2635   6.2667   6.2681   6.2706   6.2720   6.2731   6.2746
     6.2780   6.2814   6.2855   6.2896   6.2970   6.2985   6.3063   6.3166
     6.3335   6.3337   6.3377   6.4626   6.4629   6.4822   6.5117   6.5122
     6.5134   6.5168   6.5173   6.5180   6.5193   6.5217   6.5226   6.5227
     6.5237   6.5241   6.5258   6.5288   6.5294   6.5387   6.5394   6.5672
     6.5805   6.5831   6.5863   6.6420   6.6473   6.6498   6.6626   6.6652
     6.6681   6.6732   6.6851   6.7038   6.7063   6.7238   6.7268   6.7288
     6.7301   6.7330   6.7377   6.7390   6.7429   6.7447   6.7469   6.7472
     6.7525   6.7594   6.7767   6.7806   6.7881   6.7919   6.7985   6.8032
     6.8560   6.8640   6.8859   6.8976   6.9008   6.9285   6.9287   6.9323
     6.9372   6.9374   6.9392   6.9407   6.9412   6.9453   6.9492   6.9529
     6.9571   6.9578   6.9617   6.9630   6.9632   6.9658   6.9693   6.9743
     6.9777   6.9849   6.9944   7.0061   7.0080   7.0628   7.1073   7.1337
     7.2443   7.2524   7.2982   7.2983   7.2997   7.3012   7.3043   7.3047
     7.3058   7.3070   7.3088   7.3116   7.3122   7.3138   7.3159   7.3187
     7.3247   7.3279   7.3299   7.3450   7.3452   7.3767   7.3804   7.3827
     7.4750   7.4771   7.5179   7.5237   7.5240   7.5299   7.5400   7.5452
     7.5658   7.5833   7.5929   7.5941   7.6496   7.6726   7.6758   7.7332
     7.7342   7.7355   7.7360   7.7401   7.7402   7.7444   7.7462   7.7487
     7.7509   7.7536   7.7557   7.7557   7.7581   7.7594   7.7605   7.7612
     7.7613   7.7627   7.7674   7.7681   7.7698   7.7706   7.7719   7.7732
     7.7739   7.7752   7.7761   7.7777   7.7798   7.7813   7.7815   7.7850
     7.7856   7.7871   7.7908   7.7962   7.7992   7.7998   7.8023   7.8268
     7.8295   7.8539   7.8587   7.8677   7.8831   7.9016   7.9128   7.9171
     7.9269   7.9290   7.9447   7.9460   7.9675   8.0804   8.1002   8.1112
     8.2891   8.2900   8.3534   8.3571   8.3581   8.3592   8.3602   8.3627
     8.3660   8.3677   8.3687   8.3694   8.3704   8.3724   8.3735   8.3809
     8.3838   8.3916   8.3923   8.4002   8.4016   8.4120   8.4232   8.4263
     8.4459   8.5004   8.5219   8.5437   8.5449   8.5469   8.5486   8.5537
     8.5558   8.5584   8.5610   8.5619   8.5626   8.5669   8.5716   8.5776
     8.5823   8.5857   8.6013   8.6013   8.6025   8.6081   8.6330   8.6335
     8.6440   8.6466   8.6568   8.6610   8.6618   8.6665   8.6706   8.6718
     8.6788   8.6793   8.6924   8.6939   8.6969   8.6999   8.7044   8.7052
     8.7154   8.7170   8.7272   8.7328   8.7381   8.7425   8.7443   8.7521
     8.7662   8.7824   8.7991   8.9776   9.0300   9.0425   9.1070   9.1075
     9.1301   9.1331   9.1357   9.1359   9.1391   9.1402   9.1459   9.1653
     9.1873   9.2033   9.2067   9.2505   9.2546   9.2589   9.2618   9.2714
     9.2822   9.2914   9.2947   9.4084   9.4466   9.4664   9.6509   9.6525
     9.7064   9.7072   9.7073   9.7082   9.7133   9.7154   9.7191   9.7230
     9.7234   9.7302   9.7331   9.7348   9.7370   9.7416   9.7489   9.7542
     9.7612   9.7636   9.7798   9.7868   9.8446   9.8493   9.8598   9.9641
     9.9741   9.9846   9.9901   9.9952   9.9990  10.0008  10.0033  10.0060
    10.0166  10.0171  10.0198  10.0234  10.0272  10.0311  10.0317  10.0353
    10.0361  10.0390  10.0394  10.0403  10.0436  10.0440  10.0451  10.0457
    10.0489  10.0502  10.0516  10.0528  10.0613  10.0623  10.0700  10.1411
    10.1445  10.1550  10.1904  10.1954  10.1966  10.1973  10.1991  10.2010
    10.2013  10.2022  10.2028  10.2053  10.2065  10.2091  10.2669  10.2778
    10.2787  10.3052  10.3052  10.3075  10.3118  10.3153  10.3158  10.3170
    10.3188  10.3189  10.3221  10.3225  10.3228  10.3253  10.3260  10.3273
    10.3285  10.3308  10.3315  10.3325  10.3334  10.3369  10.3420  10.3458
    10.3494  10.3528  10.3545  10.3550  10.3567  10.3621  10.3632  10.3726
    10.3777  10.3873  10.3876  10.4094  10.4166  10.4240  10.4345  10.4357
    10.4545  10.4553  10.4669  10.4961  10.5059  10.5073  10.5239  10.5760
    10.6125  10.6152  10.7193  11.1182  11.2947  11.3316  11.4440  11.4568
    11.4632  11.4768  11.4780  11.4866  11.4884  11.4896  11.4909  11.4921
    11.4940  11.4955  11.5017  11.5028  11.5062  11.5067  11.5141  11.5207
    11.5263  11.5362  11.5431  11.5478  11.5533  11.5848  11.5860  11.5892
    11.8789  11.8800  11.8851  11.9201  11.9231  12.0722  12.3102  12.3458
    12.3608  12.4554  12.4619  12.4674  12.4776  12.4893  12.4928  12.5193
    12.5332  12.5462  13.1183  13.1900  13.1903  13.6625  15.1213  15.8246
    17.4005  17.4036  17.4050  17.4175  17.4203  17.4304  17.7113  17.7127

     occupation numbers 
     1.0000   1.0000   1.0000   1.0000   1.0000   1.0000   1.0000   1.0000
     1.0000   1.0000   1.0000   1.0000   1.0000   1.0000   1.0000   1.0000
     1.0000   1.0000   1.0000   1.0000   1.0000   1.0000   1.0000   1.0000
     1.0000   1.0000   1.0000   1.0000   1.0000   1.0000   1.0000   1.0000
     1.0000   1.0000   1.0000   1.0000   1.0000   1.0000   1.0000   1.0000
     1.0000   1.0000   1.0000   1.0000   1.0000   1.0000   1.0000   1.0000
     1.0000   1.0000   1.0000   1.0000   1.0000   1.0000   1.0000   1.0000
     1.0000   1.0000   1.0000   1.0000   1.0000   1.0000   1.0000   1.0000
     1.0000   1.0000   1.0000   1.0000   1.0000   1.0000   1.0000   1.0000
     1.0000   1.0000   1.0000   1.0000   1.0000   1.0000   1.0000   1.0000
     1.0000   1.0000   1.0000   1.0000   1.0000   1.0000   1.0000   1.0000
     1.0000   1.0000   1.0000   1.0000   1.0000   1.0000   1.0000   1.0000
     1.0000   1.0000   1.0000   1.0000   1.0000   1.0000   1.0000   1.0000
     1.0000   1.0000   1.0000   1.0000   1.0000   1.0000   1.0000   1.0000
     1.0000   1.0000   1.0000   1.0000   1.0000   1.0000   1.0000   1.0000
     1.0000   1.0000   1.0000   1.0000   1.0000   1.0000   1.0000   1.0000
     1.0000   1.0000   1.0000   1.0000   1.0000   1.0000   1.0000   1.0000
     1.0000   1.0000   1.0000   1.0000   1.0000   1.0000   1.0000   1.0000
     1.0000   1.0000   1.0000   1.0000   1.0000   1.0000   1.0000   1.0000
     1.0000   1.0000   1.0000   1.0000   1.0000   1.0000   1.0000   1.0000
     1.0000   1.0000   1.0000   1.0000   1.0000   1.0000   1.0000   1.0000
     1.0000   1.0000   1.0000   1.0000   1.0000   1.0000   1.0000   1.0000
     1.0000   1.0000   1.0000   1.0000   1.0000   1.0000   1.0000   1.0000
     1.0000   1.0000   1.0000   1.0000   1.0000   1.0000   1.0000   1.0000
     1.0000   1.0000   1.0000   1.0000   1.0000   1.0000   1.0000   1.0000
     1.0000   1.0000   1.0000   1.0000   1.0000   1.0000   1.0000   1.0000
     1.0000   1.0000   1.0000   1.0000   1.0000   1.0000   1.0000   1.0000
     1.0000   1.0000   1.0000   1.0000   1.0000   1.0000   1.0000   1.0000
     1.0000   1.0000   1.0000   1.0000   1.0000   1.0000   1.0000   1.0000
     1.0000   1.0000   1.0000   1.0000   1.0000   1.0000   1.0000   1.0000
     1.0000   1.0000   1.0000   1.0000   1.0000   1.0000   1.0000   1.0000
     1.0000   1.0000   1.0000   1.0000   1.0000   1.0000   1.0000   1.0000
     1.0000   1.0000   1.0000   1.0000   1.0000   1.0000   1.0000   1.0000
     1.0000   1.0000   1.0000   1.0000   1.0000   1.0000   1.0000   1.0000
     1.0000   1.0000   1.0000   1.0000   1.0000   1.0000   1.0000   1.0000
     1.0000   1.0000   1.0000   1.0000   1.0000   1.0000   1.0000   1.0000
     1.0000   1.0000   1.0000   1.0000   1.0000   1.0000   1.0000   1.0000
     1.0000   1.0000   1.0000   1.0000   1.0000   1.0000   1.0000   1.0000
     1.0000   1.0000   1.0000   1.0000   1.0000   1.0000   1.0000   1.0000
     1.0000   1.0000   1.0000   1.0000   1.0000   1.0000   1.0000   1.0000
     1.0000   1.0000   1.0000   1.0000   1.0000   1.0000   1.0000   1.0000
     1.0000   1.0000   1.0000   1.0000   1.0000   1.0000   1.0000   1.0000
     1.0000   1.0000   1.0000   1.0000   1.0000   1.0000   1.0000   1.0000
     1.0000   1.0000   1.0000   1.0000   1.0000   1.0000   1.0000   1.0000
     1.0000   1.0000   1.0000   1.0000   1.0000   1.0000   1.0000   1.0000
     1.0000   1.0000   1.0000   1.0000   1.0000   1.0000   1.0000   1.0000
     1.0000   1.0000   1.0000   1.0000   1.0000   1.0000   1.0000   1.0000
     1.0000   1.0000   1.0000   1.0000   1.0000   1.0000   1.0000   1.0000
     1.0000   1.0000   1.0000   1.0000   1.0000   1.0000   1.0000   1.0000
     1.0000   1.0000   1.0000   1.0000   1.0000   1.0000   1.0000   1.0000
     1.0000   1.0000   1.0000   1.0000   1.0000   1.0000   1.0000   1.0000
     1.0000   1.0000   1.0000   1.0000   1.0000   1.0000   1.0000   1.0000
     1.0000   1.0000   1.0000   1.0000   1.0000   1.0000   1.0000   1.0000
     1.0000   1.0000   1.0000   1.0000   1.0000   1.0000   1.0000   1.0000
     1.0000   1.0000   1.0000   1.0000   1.0000   1.0000   1.0000   1.0000
     1.0000   1.0000   1.0000   1.0000   1.0000   1.0000   1.0000   1.0000
     1.0000   1.0000   1.0000   1.0000   1.0000   1.0000   1.0000   1.0000
     1.0000   1.0000   1.0000   1.0000   1.0000   1.0000   1.0000   1.0000
     1.0000   1.0000   1.0000   1.0000   1.0000   1.0000   1.0000   1.0000
     1.0000   1.0000   1.0000   1.0000   1.0000   1.0000   1.0000   1.0000
     1.0000   1.0000   1.0000   1.0000   1.0000   1.0000   1.0000   1.0000
     1.0000   1.0000   1.0000   1.0000   1.0000   1.0000   1.0000   1.0000
     1.0000   1.0000   1.0000   1.0000   1.0000   1.0000   1.0000   1.0000
     1.0000   1.0000   1.0000   1.0000   1.0000   1.0000   1.0000   1.0000
     1.0000   1.0000   1.0000   1.0000   1.0000   1.0000   1.0000   1.0000
     1.0000   1.0000   1.0000   1.0000   1.0000   1.0000   1.0000   1.0000
     1.0000   1.0000   1.0000   1.0000   1.0000   1.0000   1.0000   1.0000
     1.0000   1.0000   1.0000   1.0000   1.0000   1.0000   1.0000   1.0000
     1.0000   1.0000   1.0000   1.0000   1.0000   1.0000   1.0000   1.0000
     1.0000   1.0000   1.0000   1.0000   1.0000   1.0000   1.0000   1.0000
     1.0000   1.0000   1.0000   1.0000   1.0000   1.0000   1.0000   1.0000
     1.0000   1.0000   1.0000   1.0000   1.0000   1.0000   1.0000   1.0000
     1.0000   1.0000   1.0000   1.0000   1.0000   1.0000   1.0000   1.0000
     1.0000   1.0000   1.0000   1.0000   1.0000   1.0000   1.0000   1.0000
     1.0000   1.0000   1.0000   1.0000   1.0000   1.0000   1.0000   1.0000
     1.0000   1.0000   1.0000   1.0000   1.0000   1.0000   1.0000   1.0000
     1.0000   1.0000   1.0000   1.0000   1.0000   1.0000   1.0000   1.0000
     1.0000   1.0000   1.0000   1.0000   1.0000   1.0000   1.0000   1.0000
     1.0000   1.0000   1.0000   1.0000   1.0000   1.0000   1.0000   1.0000
     1.0000   1.0000   1.0000   1.0000   1.0000   1.0000   1.0000   1.0000
     1.0000   1.0000   1.0000   1.0000   1.0000   1.0000   1.0000   1.0000
     1.0000   1.0000   1.0000   1.0000   1.0000   1.0000   1.0000   1.0000
     1.0000   1.0000   1.0000   1.0000   1.0000   1.0000   1.0000   1.0000
     1.0000   1.0000   1.0000   1.0000   1.0000   1.0000   1.0000   1.0000
     1.0000   1.0000   1.0000   1.0000   1.0000   1.0000   1.0000   1.0000
     1.0000   1.0000   1.0000   1.0000   1.0000   1.0000   1.0000   1.0000
     1.0000   1.0000   1.0000   1.0000   1.0000   1.0000   1.0000   1.0000
     1.0000   1.0000   1.0000   1.0000   1.0000   1.0000   1.0000   1.0000
     1.0000   1.0000   1.0000   1.0000   1.0000   1.0000   1.0000   1.0000
     1.0000   1.0000   1.0000   1.0000   1.0000   1.0000   1.0000   1.0000
     1.0000   1.0000   1.0000   1.0000   1.0000   1.0000   1.0000   1.0000
     1.0000   1.0000   1.0000   1.0000   1.0000   1.0000   1.0000   1.0000
     1.0000   1.0000   1.0000   1.0000   1.0000   1.0000   1.0000   1.0000
     1.0000   1.0000   1.0000   1.0000   1.0000   1.0000   1.0000   1.0000
     1.0000   1.0000   1.0000   1.0000   1.0000   1.0000   1.0000   1.0000
     1.0000   1.0000   1.0000   1.0000   1.0000   1.0000   1.0000   1.0000
     1.0000   1.0000   1.0000   1.0000   1.0000   1.0000   1.0000   1.0000
     1.0000   1.0000   1.0000   1.0000   1.0000   1.0000   1.0000   1.0000
     1.0000   1.0000   1.0000   1.0000   1.0000   1.0000   1.0000   1.0000
     1.0000   1.0000   1.0000   1.0000   1.0000   1.0000   1.0000   1.0000
     1.0000   1.0000   1.0000   1.0000   1.0000   1.0000   1.0000   1.0000
     1.0000   1.0000   1.0000   1.0000   1.0000   1.0000   1.0000   1.0000
     1.0000   1.0000   1.0000   1.0000   1.0000   1.0000   1.0000   1.0000
     1.0000   1.0000   1.0000   1.0000   1.0000   1.0000   1.0000   1.0000
     1.0000   1.0000   1.0000   1.0000   1.0000   1.0000   1.0000   1.0000
     1.0000   1.0000   1.0000   1.0000   1.0000   1.0000   1.0000   1.0000
     1.0000   1.0000   1.0000   1.0000   1.0000   1.0000   1.0000   1.0000
     1.0000   1.0000   1.0000   1.0000   1.0000   1.0000   1.0000   1.0000
     1.0000   1.0000   1.0000   1.0000   1.0000   1.0000   1.0000   1.0000
     1.0000   1.0000   1.0000   1.0000   1.0000   1.0000   1.0000   1.0000
     1.0000   1.0000   1.0000   1.0000   1.0000   1.0000   1.0000   1.0000
     1.0000   1.0000   1.0000   1.0000   1.0000   1.0000   1.0000   1.0000
     1.0000   1.0000   1.0000   1.0000   1.0000   1.0000   1.0000   1.0000
     1.0000   1.0000   1.0000   1.0000   1.0000   1.0000   1.0000   1.0000
     1.0000   1.0000   1.0000   1.0000   1.0000   1.0000   1.0000   1.0000
     1.0000   1.0000   1.0000   1.0000   1.0000   1.0000   1.0000   1.0000
     1.0000   1.0000   1.0000   1.0000   1.0000   1.0000   1.0000   1.0000
     1.0000   1.0000   1.0000   1.0000   1.0000   1.0000   1.0000   1.0000
     1.0000   1.0000   1.0000   1.0000   1.0000   1.0000   1.0000   1.0000
     1.0000   1.0000   1.0000   1.0000   1.0000   1.0000   1.0000   1.0000
     1.0000   1.0000   1.0000   1.0000   1.0000   1.0000   1.0000   1.0000
     1.0000   1.0000   1.0000   1.0000   1.0000   1.0000   1.0000   1.0000
     1.0000   1.0000   1.0000   1.0000   1.0000   1.0000   1.0000   1.0000
     1.0000   1.0000   1.0000   1.0000   1.0000   1.0000   1.0000   1.0000
     1.0000   1.0000   1.0000   1.0000   1.0000   1.0000   1.0000   1.0000
     1.0000   1.0000   1.0000   1.0000   1.0000   1.0000   1.0000   1.0000
     1.0000   1.0000   1.0000   1.0000   1.0000   1.0000   1.0000   1.0000
     1.0000   1.0000   1.0000   1.0000   1.0000   1.0000   1.0000   1.0000
     0.0000   0.0000   0.0000   0.0000   0.0000   0.0000   0.0000   0.0000

 ------ SPIN DOWN ----------


          k = 0.0000 0.0000 0.0000 (118565 PWs)   bands (ev):

    -8.2045  -7.7302  -7.6388  -7.6365  -7.6148  -7.6035  -7.5616  -7.2625
    -7.0745  -7.0695  -7.0641  -7.0580  -7.0559  -7.0428  -7.0404  -7.0324
    -6.9982  -6.9774  -6.9084  -6.6343  -6.4768  -6.4694  -6.4632  -6.4551
    -6.4441  -6.4318  -6.3612  -6.0272  -5.9125  -5.9101  -5.9004  -5.8973
    -5.8782  -5.6906  -5.3898  -5.3858  -5.3831  -5.3827  -5.3772  -5.3760
    -5.3737  -5.3683  -5.3678  -5.3629  -5.3594  -5.3576  -5.3529  -5.3467
    -5.3342  -5.3304  -5.3216  -5.3174  -5.3092  -5.3019  -5.2668  -5.2473
    -5.1826  -5.0225  -4.8382  -4.8355  -4.8248  -4.8215  -4.8164  -4.8159
    -4.8136  -4.8133  -4.8107  -4.8098  -4.8072  -4.8006  -4.7993  -4.7914
    -4.7881  -4.7789  -4.7658  -4.7406  -4.7330  -4.7157  -4.6898  -4.6535
    -4.4435  -3.9207  -3.7338  -3.7321  -3.7303  -3.7280  -3.7201  -3.7169
    -3.7140  -3.7110  -3.7048  -3.7002  -3.6608  -3.5059  -3.2757  -3.2752
    -3.2715  -3.2667  -3.2658  -3.2643  -3.2604  -3.2581  -3.2546  -3.2488
    -3.2463  -3.2435  -3.2405  -3.2320  -3.2310  -3.2216  -3.2130  -3.1892
    -3.1877  -3.1706  -3.1571  -3.1554  -3.1524  -3.1436  -3.1391  -3.1357
    -3.1263  -3.1083  -2.9960  -2.7926  -2.6657  -2.6637  -2.6591  -2.6575
    -2.6561  -2.6560  -2.6542  -2.6523  -2.6467  -2.6452  -2.6421  -2.6309
    -2.6303  -2.6276  -2.6270  -2.6159  -2.6127  -2.6103  -2.5862  -2.5801
    -2.5506  -2.5438  -2.4941  -2.4466  -2.3951  -2.3935  -2.3643  -2.2968
    -2.2043  -2.2008  -2.1782  -2.1768  -2.1765  -2.1741  -2.1716  -2.1658
    -2.1643  -2.1608  -2.1599  -2.1578  -2.1566  -2.1531  -2.1522  -2.1465
    -2.1350  -2.1239  -2.1143  -2.1138  -2.0600  -2.0326  -1.8278  -1.5927
    -1.4539  -1.4522  -1.4470  -1.4464  -1.4427  -1.4356  -1.4356  -1.4311
    -1.4300  -1.4248  -1.4244  -1.4211  -1.4153  -1.4110  -1.4041  -1.3963
    -1.3900  -1.3859  -1.3847  -1.3792  -1.3634  -1.3589  -1.3419  -1.2966
    -1.2571  -1.2555  -1.2507  -1.2499  -1.2493  -1.2454  -1.2439  -1.2288
    -1.2277  -1.2246  -1.2189  -1.2090  -1.1955  -1.1876  -1.1858  -1.1791
    -1.1622  -1.1327  -1.1281  -1.1078  -1.0353  -0.9382  -0.3765  -0.0904
    -0.0884  -0.0848  -0.0630   0.2111   0.2802   0.2820   0.3024   0.3056
     0.3083   0.3122   0.3146   0.3159   0.3288   0.3379   0.3981   0.4895
     0.4950   0.4989   0.5068   0.5095   0.5410   0.7568   0.7871   0.7929
     0.8184   0.8218   0.8229   0.8233   0.8237   0.8265   0.8348   0.8389
     0.8417   0.8512   0.8539   0.8551   0.8573   0.8627   0.8634   0.8651
     0.8678   0.8703   0.8804   0.8810   0.8826   0.8871   0.8874   0.8897
     0.8942   0.8974   0.8985   0.8989   0.9035   0.9071   0.9166   0.9242
     0.9264   0.9308   0.9343   0.9379   0.9411   0.9418   0.9456   0.9574
     0.9585   0.9945   1.0581   1.0589   1.1499   1.2454   1.2871   1.2892
     1.3134   1.3195   1.3222   1.3231   1.3277   1.3354   1.3546   1.3645
     1.4323   1.5161   1.5240   1.5246   1.5504   1.5509   1.5562   1.5651
     1.5687   1.5824   1.6035   1.6198   1.6706   1.6876   1.6882   1.6899
     1.7014   1.7045   1.7056   1.7075   1.7089   1.7142   1.7146   1.7156
     1.7270   1.7277   1.7302   1.7405   1.7407   1.7438   1.7681   1.7724
     1.7761   1.8741   1.9242   1.9391   2.2300   2.4277   2.4375   2.4381
     2.4829   2.4842   2.4857   2.4874   2.4888   2.4915   2.4920   2.4929
     2.4933   2.4958   2.4988   2.4997   2.5022   2.5025   2.5059   2.5109
     2.5136   2.5614   2.5864   2.5878   2.6821   2.8155   2.8170   2.8347
     2.8397   2.8419   2.8481   2.8503   2.8528   2.8572   2.8576   2.8636
     2.8671   2.8754   2.8850   2.8866   2.8908   2.8942   2.9051   2.9121
     2.9182   2.9245   3.0682   3.1147   3.7195   3.8988   3.9001   3.9441
     3.9455   3.9475   3.9481   3.9506   3.9543   3.9552   3.9621   3.9692
     3.9706   4.0707   4.0752   4.0814   4.1278   4.1284   4.1295   4.1386
     4.1400   4.1409   4.1420   4.1428   4.1444   4.1476   4.1499   4.1523
     4.1527   4.1555   4.1580   4.1616   4.1904   4.2022   4.2061   4.2085
     4.2192   4.2275   4.2325   4.2359   4.2381   4.2399   4.2416   4.2425
     4.2457   4.2472   4.2622   4.2631   4.2662   4.2720   4.2742   4.2755
     4.2758   4.2798   4.2860   4.2937   4.2979   4.2983   4.3440   4.3569
     4.3592   4.3640   4.3704   4.3732   4.3732   4.3773   4.3800   4.3807
     4.3826   4.3855   4.3941   4.3974   4.3988   4.4013   4.4110   4.4155
     4.4208   4.4224   4.4367   4.4476   4.4491   4.4914   4.5091   4.5144
     4.5185   4.5506   4.5551   4.5798   4.5814   4.5882   4.5893   4.5953
     4.5982   4.6202   4.6485   4.6507   4.6623   4.6999   4.7184   4.7206
     4.8216   4.8581   4.9219   4.9221   4.9503   4.9519   4.9536   4.9545
     4.9578   4.9665   4.9716   5.0344   5.0922   5.1095   5.5941   5.6145
     5.6152   5.6535   5.6619   5.6630   5.6675   5.6711   5.6741   5.7032
     5.7036   5.7074   5.8691   5.8723   5.9003   5.9155   5.9180   5.9188
     5.9200   5.9223   5.9233   5.9282   5.9341   5.9404   5.9428   5.9439
     5.9521   5.9549   5.9560   5.9672   5.9754   5.9758   5.9897   5.9973
     6.0120   6.0151   6.1013   6.1707   6.1730   6.2586   6.2597   6.2638
     6.2657   6.2668   6.2682   6.2699   6.2719   6.2744   6.2754   6.2761
     6.2811   6.2831   6.2898   6.2928   6.3021   6.3024   6.3100   6.3284
     6.3382   6.3423   6.3457   6.4669   6.4678   6.4861   6.5138   6.5148
     6.5162   6.5189   6.5199   6.5201   6.5217   6.5236   6.5240   6.5251
     6.5255   6.5269   6.5291   6.5316   6.5325   6.5434   6.5435   6.5734
     6.5873   6.5883   6.5955   6.6475   6.6516   6.6542   6.6638   6.6661
     6.6692   6.6752   6.6878   6.7078   6.7091   6.7242   6.7278   6.7294
     6.7335   6.7353   6.7395   6.7409   6.7448   6.7454   6.7478   6.7487
     6.7542   6.7644   6.7794   6.7841   6.7960   6.7984   6.8012   6.8177
     6.8636   6.8691   6.8908   6.9015   6.9072   6.9296   6.9301   6.9333
     6.9386   6.9405   6.9409   6.9431   6.9444   6.9494   6.9541   6.9545
     6.9597   6.9613   6.9653   6.9655   6.9667   6.9676   6.9751   6.9763
     6.9817   6.9889   6.9987   7.0204   7.0205   7.0774   7.1269   7.1462
     7.2491   7.2562   7.2992   7.3003   7.3022   7.3023   7.3060   7.3065
     7.3075   7.3087   7.3100   7.3124   7.3144   7.3159   7.3190   7.3198
     7.3279   7.3312   7.3321   7.3501   7.3503   7.3815   7.3847   7.3901
     7.4810   7.4814   7.5234   7.5262   7.5270   7.5319   7.5458   7.5490
     7.5703   7.5906   7.5976   7.6013   7.6746   7.6765   7.6805   7.7349
     7.7354   7.7371   7.7373   7.7414   7.7420   7.7456   7.7490   7.7516
     7.7522   7.7563   7.7575   7.7590   7.7603   7.7605   7.7624   7.7629
     7.7647   7.7651   7.7689   7.7694   7.7720   7.7726   7.7733   7.7751
     7.7757   7.7780   7.7787   7.7809   7.7816   7.7825   7.7865   7.7866
     7.7885   7.7885   7.7928   7.7990   7.8016   7.8040   7.8115   7.8352
     7.8365   7.8563   7.8619   7.8741   7.8901   7.9078   7.9194   7.9210
     7.9309   7.9335   7.9504   7.9558   7.9733   8.0963   8.1209   8.1222
     8.2930   8.2946   8.3557   8.3591   8.3596   8.3618   8.3639   8.3646
     8.3672   8.3691   8.3703   8.3707   8.3738   8.3739   8.3775   8.3839
     8.3860   8.3937   8.3972   8.4019   8.4159   8.4263   8.4275   8.4316
     8.4754   8.5042   8.5255   8.5463   8.5467   8.5491   8.5512   8.5569
     8.5576   8.5600   8.5622   8.5643   8.5648   8.5692   8.5747   8.5803
     8.5855   8.5898   8.6040   8.6051   8.6076   8.6118   8.6377   8.6404
     8.6467   8.6510   8.6590   8.6621   8.6633   8.6717   8.6737   8.6766
     8.6833   8.6846   8.6946   8.6965   8.7007   8.7057   8.7104   8.7105
     8.7237   8.7241   8.7351   8.7385   8.7422   8.7495   8.7495   8.7603
     8.7741   8.7951   8.8121   8.9993   9.0521   9.0524   9.1122   9.1123
     9.1348   9.1373   9.1375   9.1389   9.1423   9.1455   9.1478   9.1838
     9.2021   9.2139   9.2154   9.2534   9.2573   9.2612   9.2627   9.2743
     9.2890   9.2961   9.3041   9.4288   9.4728   9.4801   9.6576   9.6580
     9.7074   9.7086   9.7092   9.7148   9.7163   9.7169   9.7205   9.7256
     9.7319   9.7348   9.7370   9.7398   9.7413   9.7448   9.7512   9.7558
     9.7708   9.7716   9.7857   9.8261   9.8567   9.8568   9.8840   9.9704
     9.9783   9.9881   9.9930   9.9968  10.0002  10.0034  10.0043  10.0120
    10.0180  10.0181  10.0214  10.0264  10.0306  10.0339  10.0344  10.0374
    10.0385  10.0412  10.0415  10.0433  10.0452  10.0460  10.0474  10.0478
    10.0512  10.0522  10.0536  10.0547  10.0682  10.0704  10.0774  10.1485
    10.1489  10.1625  10.1921  10.1966  10.1974  10.1982  10.2001  10.2018
    10.2019  10.2029  10.2036  10.2062  10.2084  10.2107  10.2731  10.2820
    10.2975  10.3059  10.3064  10.3090  10.3125  10.3160  10.3176  10.3181
    10.3194  10.3204  10.3236  10.3237  10.3247  10.3266  10.3279  10.3286
    10.3305  10.3322  10.3335  10.3344  10.3344  10.3383  10.3434  10.3481
    10.3511  10.3547  10.3558  10.3577  10.3594  10.3645  10.3690  10.3764
    10.3816  10.3966  10.3975  10.4164  10.4246  10.4281  10.4362  10.4381
    10.4577  10.4596  10.4774  10.5023  10.5157  10.5183  10.5395  10.5879
    10.6357  10.6439  10.7427  11.2061  11.3457  11.3486  11.4556  11.4599
    11.4779  11.4789  11.4880  11.4896  11.4908  11.4920  11.4957  11.4966
    11.4970  11.4992  11.5047  11.5057  11.5093  11.5114  11.5249  11.5255
    11.5313  11.5467  11.5518  11.5589  11.5749  11.5976  11.5980  11.7233
    11.8844  11.8868  11.8961  11.9217  11.9256  12.2066  12.3611  12.3641
    12.4562  12.4649  12.4691  12.4786  12.4884  12.4962  12.5140  12.5229
    12.5408  12.5523  13.1988  13.2053  13.2106  14.6997  16.5589  16.5870
    17.4036  17.4062  17.4063  17.4211  17.4225  17.4347  17.7131  17.7149

     occupation numbers 
     1.0000   1.0000   1.0000   1.0000   1.0000   1.0000   1.0000   1.0000
     1.0000   1.0000   1.0000   1.0000   1.0000   1.0000   1.0000   1.0000
     1.0000   1.0000   1.0000   1.0000   1.0000   1.0000   1.0000   1.0000
     1.0000   1.0000   1.0000   1.0000   1.0000   1.0000   1.0000   1.0000
     1.0000   1.0000   1.0000   1.0000   1.0000   1.0000   1.0000   1.0000
     1.0000   1.0000   1.0000   1.0000   1.0000   1.0000   1.0000   1.0000
     1.0000   1.0000   1.0000   1.0000   1.0000   1.0000   1.0000   1.0000
     1.0000   1.0000   1.0000   1.0000   1.0000   1.0000   1.0000   1.0000
     1.0000   1.0000   1.0000   1.0000   1.0000   1.0000   1.0000   1.0000
     1.0000   1.0000   1.0000   1.0000   1.0000   1.0000   1.0000   1.0000
     1.0000   1.0000   1.0000   1.0000   1.0000   1.0000   1.0000   1.0000
     1.0000   1.0000   1.0000   1.0000   1.0000   1.0000   1.0000   1.0000
     1.0000   1.0000   1.0000   1.0000   1.0000   1.0000   1.0000   1.0000
     1.0000   1.0000   1.0000   1.0000   1.0000   1.0000   1.0000   1.0000
     1.0000   1.0000   1.0000   1.0000   1.0000   1.0000   1.0000   1.0000
     1.0000   1.0000   1.0000   1.0000   1.0000   1.0000   1.0000   1.0000
     1.0000   1.0000   1.0000   1.0000   1.0000   1.0000   1.0000   1.0000
     1.0000   1.0000   1.0000   1.0000   1.0000   1.0000   1.0000   1.0000
     1.0000   1.0000   1.0000   1.0000   1.0000   1.0000   1.0000   1.0000
     1.0000   1.0000   1.0000   1.0000   1.0000   1.0000   1.0000   1.0000
     1.0000   1.0000   1.0000   1.0000   1.0000   1.0000   1.0000   1.0000
     1.0000   1.0000   1.0000   1.0000   1.0000   1.0000   1.0000   1.0000
     1.0000   1.0000   1.0000   1.0000   1.0000   1.0000   1.0000   1.0000
     1.0000   1.0000   1.0000   1.0000   1.0000   1.0000   1.0000   1.0000
     1.0000   1.0000   1.0000   1.0000   1.0000   1.0000   1.0000   1.0000
     1.0000   1.0000   1.0000   1.0000   1.0000   1.0000   1.0000   1.0000
     1.0000   1.0000   1.0000   1.0000   1.0000   1.0000   1.0000   1.0000
     1.0000   1.0000   1.0000   1.0000   1.0000   1.0000   1.0000   1.0000
     1.0000   1.0000   1.0000   1.0000   1.0000   1.0000   1.0000   1.0000
     1.0000   1.0000   1.0000   1.0000   1.0000   1.0000   1.0000   1.0000
     1.0000   1.0000   1.0000   1.0000   1.0000   1.0000   1.0000   1.0000
     1.0000   1.0000   1.0000   1.0000   1.0000   1.0000   1.0000   1.0000
     1.0000   1.0000   1.0000   1.0000   1.0000   1.0000   1.0000   1.0000
     1.0000   1.0000   1.0000   1.0000   1.0000   1.0000   1.0000   1.0000
     1.0000   1.0000   1.0000   1.0000   1.0000   1.0000   1.0000   1.0000
     1.0000   1.0000   1.0000   1.0000   1.0000   1.0000   1.0000   1.0000
     1.0000   1.0000   1.0000   1.0000   1.0000   1.0000   1.0000   1.0000
     1.0000   1.0000   1.0000   1.0000   1.0000   1.0000   1.0000   1.0000
     1.0000   1.0000   1.0000   1.0000   1.0000   1.0000   1.0000   1.0000
     1.0000   1.0000   1.0000   1.0000   1.0000   1.0000   1.0000   1.0000
     1.0000   1.0000   1.0000   1.0000   1.0000   1.0000   1.0000   1.0000
     1.0000   1.0000   1.0000   1.0000   1.0000   1.0000   1.0000   1.0000
     1.0000   1.0000   1.0000   1.0000   1.0000   1.0000   1.0000   1.0000
     1.0000   1.0000   1.0000   1.0000   1.0000   1.0000   1.0000   1.0000
     1.0000   1.0000   1.0000   1.0000   1.0000   1.0000   1.0000   1.0000
     1.0000   1.0000   1.0000   1.0000   1.0000   1.0000   1.0000   1.0000
     1.0000   1.0000   1.0000   1.0000   1.0000   1.0000   1.0000   1.0000
     1.0000   1.0000   1.0000   1.0000   1.0000   1.0000   1.0000   1.0000
     1.0000   1.0000   1.0000   1.0000   1.0000   1.0000   1.0000   1.0000
     1.0000   1.0000   1.0000   1.0000   1.0000   1.0000   1.0000   1.0000
     1.0000   1.0000   1.0000   1.0000   1.0000   1.0000   1.0000   1.0000
     1.0000   1.0000   1.0000   1.0000   1.0000   1.0000   1.0000   1.0000
     1.0000   1.0000   1.0000   1.0000   1.0000   1.0000   1.0000   1.0000
     1.0000   1.0000   1.0000   1.0000   1.0000   1.0000   1.0000   1.0000
     1.0000   1.0000   1.0000   1.0000   1.0000   1.0000   1.0000   1.0000
     1.0000   1.0000   1.0000   1.0000   1.0000   1.0000   1.0000   1.0000
     1.0000   1.0000   1.0000   1.0000   1.0000   1.0000   1.0000   1.0000
     1.0000   1.0000   1.0000   1.0000   1.0000   1.0000   1.0000   1.0000
     1.0000   1.0000   1.0000   1.0000   1.0000   1.0000   1.0000   1.0000
     1.0000   1.0000   1.0000   1.0000   1.0000   1.0000   1.0000   1.0000
     1.0000   1.0000   1.0000   1.0000   1.0000   1.0000   1.0000   1.0000
     1.0000   1.0000   1.0000   1.0000   1.0000   1.0000   1.0000   1.0000
     1.0000   1.0000   1.0000   1.0000   1.0000   1.0000   1.0000   1.0000
     1.0000   1.0000   1.0000   1.0000   1.0000   1.0000   1.0000   1.0000
     1.0000   1.0000   1.0000   1.0000   1.0000   1.0000   1.0000   1.0000
     1.0000   1.0000   1.0000   1.0000   1.0000   1.0000   1.0000   1.0000
     1.0000   1.0000   1.0000   1.0000   1.0000   1.0000   1.0000   1.0000
     1.0000   1.0000   1.0000   1.0000   1.0000   1.0000   1.0000   1.0000
     1.0000   1.0000   1.0000   1.0000   1.0000   1.0000   1.0000   1.0000
     1.0000   1.0000   1.0000   1.0000   1.0000   1.0000   1.0000   1.0000
     1.0000   1.0000   1.0000   1.0000   1.0000   1.0000   1.0000   1.0000
     1.0000   1.0000   1.0000   1.0000   1.0000   1.0000   1.0000   1.0000
     1.0000   1.0000   1.0000   1.0000   1.0000   1.0000   1.0000   1.0000
     1.0000   1.0000   1.0000   1.0000   1.0000   1.0000   1.0000   1.0000
     1.0000   1.0000   1.0000   1.0000   1.0000   1.0000   1.0000   1.0000
     1.0000   1.0000   1.0000   1.0000   1.0000   1.0000   1.0000   1.0000
     1.0000   1.0000   1.0000   1.0000   1.0000   1.0000   1.0000   1.0000
     1.0000   1.0000   1.0000   1.0000   1.0000   1.0000   1.0000   1.0000
     1.0000   1.0000   1.0000   1.0000   1.0000   1.0000   1.0000   1.0000
     1.0000   1.0000   1.0000   1.0000   1.0000   1.0000   1.0000   1.0000
     1.0000   1.0000   1.0000   1.0000   1.0000   1.0000   1.0000   1.0000
     1.0000   1.0000   1.0000   1.0000   1.0000   1.0000   1.0000   1.0000
     1.0000   1.0000   1.0000   1.0000   1.0000   1.0000   1.0000   1.0000
     1.0000   1.0000   1.0000   1.0000   1.0000   1.0000   1.0000   1.0000
     1.0000   1.0000   1.0000   1.0000   1.0000   1.0000   1.0000   1.0000
     1.0000   1.0000   1.0000   1.0000   1.0000   1.0000   1.0000   1.0000
     1.0000   1.0000   1.0000   1.0000   1.0000   1.0000   1.0000   1.0000
     1.0000   1.0000   1.0000   1.0000   1.0000   1.0000   1.0000   1.0000
     1.0000   1.0000   1.0000   1.0000   1.0000   1.0000   1.0000   1.0000
     1.0000   1.0000   1.0000   1.0000   1.0000   1.0000   1.0000   1.0000
     1.0000   1.0000   1.0000   1.0000   1.0000   1.0000   1.0000   1.0000
     1.0000   1.0000   1.0000   1.0000   1.0000   1.0000   1.0000   1.0000
     1.0000   1.0000   1.0000   1.0000   1.0000   1.0000   1.0000   1.0000
     1.0000   1.0000   1.0000   1.0000   1.0000   1.0000   1.0000   1.0000
     1.0000   1.0000   1.0000   1.0000   1.0000   1.0000   1.0000   1.0000
     1.0000   1.0000   1.0000   1.0000   1.0000   1.0000   1.0000   1.0000
     1.0000   1.0000   1.0000   1.0000   1.0000   1.0000   1.0000   1.0000
     1.0000   1.0000   1.0000   1.0000   1.0000   1.0000   1.0000   1.0000
     1.0000   1.0000   1.0000   1.0000   1.0000   1.0000   1.0000   1.0000
     1.0000   1.0000   1.0000   1.0000   1.0000   1.0000   1.0000   1.0000
     1.0000   1.0000   1.0000   1.0000   1.0000   1.0000   1.0000   1.0000
     1.0000   1.0000   1.0000   1.0000   1.0000   1.0000   1.0000   1.0000
     1.0000   1.0000   1.0000   1.0000   1.0000   1.0000   1.0000   1.0000
     1.0000   1.0000   1.0000   1.0000   1.0000   1.0000   1.0000   1.0000
     1.0000   1.0000   1.0000   1.0000   1.0000   1.0000   1.0000   1.0000
     1.0000   1.0000   1.0000   1.0000   1.0000   1.0000   1.0000   1.0000
     1.0000   1.0000   1.0000   1.0000   1.0000   1.0000   1.0000   1.0000
     1.0000   1.0000   1.0000   1.0000   1.0000   1.0000   1.0000   1.0000
     1.0000   1.0000   1.0000   1.0000   1.0000   1.0000   1.0000   1.0000
     1.0000   1.0000   1.0000   1.0000   1.0000   1.0000   1.0000   1.0000
     1.0000   1.0000   1.0000   1.0000   1.0000   1.0000   1.0000   1.0000
     1.0000   1.0000   1.0000   1.0000   1.0000   1.0000   1.0000   1.0000
     1.0000   1.0000   1.0000   1.0000   1.0000   1.0000   1.0000   1.0000
     1.0000   1.0000   1.0000   1.0000   1.0000   1.0000   1.0000   1.0000
     1.0000   1.0000   1.0000   1.0000   1.0000   1.0000   1.0000   1.0000
     1.0000   1.0000   1.0000   1.0000   1.0000   1.0000   1.0000   1.0000
     1.0000   1.0000   1.0000   1.0000   1.0000   1.0000   1.0000   1.0000
     1.0000   1.0000   1.0000   1.0000   1.0000   1.0000   1.0000   1.0000
     1.0000   1.0000   1.0000   1.0000   1.0000   1.0000   1.0000   1.0000
     1.0000   1.0000   1.0000   1.0000   1.0000   1.0000   1.0000   1.0000
     1.0000   1.0000   1.0000   1.0000   1.0000   1.0000   1.0000   1.0000
     1.0000   1.0000   1.0000   1.0000   1.0000   1.0000   1.0000   1.0000
     1.0000   1.0000   1.0000   1.0000   1.0000   1.0000   1.0000   1.0000
     1.0000   1.0000   1.0000   1.0000   1.0000   1.0000   1.0000   1.0000
     1.0000   1.0000   1.0000   1.0000   1.0000   1.0000   1.0000   1.0000
     1.0000   1.0000   1.0000   1.0000   1.0000   1.0000   1.0000   1.0000
     1.0000   1.0000   1.0000   1.0000   1.0000   1.0000   1.0000   1.0000
     1.0000   1.0000   1.0000   1.0000   1.0000   0.0000   1.0000   0.0000
     0.0000   0.0000   0.0000   0.0000   0.0000   0.0000   0.0000   0.0000

     highest occupied, lowest unoccupied level (ev):    15.8246   14.6997

!    total energy              =   -5828.96669108 Ry
     estimated scf accuracy    <          1.9E-11 Ry

     The total energy is the sum of the following terms:
     one-electron contribution =    2012.59933059 Ry
     hartree contribution      =     504.89843898 Ry
     xc contribution           =   -1820.27674107 Ry
     ewald contribution        =   -6526.18771958 Ry

     total magnetization       =     2.00 Bohr mag/cell
     absolute magnetization    =     2.27 Bohr mag/cell

     convergence has been achieved in  58 iterations

 %%%%%%%%%%%%%%%%%%%%%%%%%%%%%%%%%%%%%%%%%%%%%%%%%%%%%%%%%%%%%%%%%%%%%%%%%%%%%%
     Error in routine write_rhog (2):
     error writing file ./pwscf.save/charge-density
 %%%%%%%%%%%%%%%%%%%%%%%%%%%%%%%%%%%%%%%%%%%%%%%%%%%%%%%%%%%%%%%%%%%%%%%%%%%%%%

     stopping ...

 %%%%%%%%%%%%%%%%%%%%%%%%%%%%%%%%%%%%%%%%%%%%%%%%%%%%%%%%%%%%%%%%%%%%%%%%%%%%%%
     Error in routine write_rhog (2):
     error writing file ./pwscf.save/charge-density
 %%%%%%%%%%%%%%%%%%%%%%%%%%%%%%%%%%%%%%%%%%%%%%%%%%%%%%%%%%%%%%%%%%%%%%%%%%%%%%

     stopping ...

 %%%%%%%%%%%%%%%%%%%%%%%%%%%%%%%%%%%%%%%%%%%%%%%%%%%%%%%%%%%%%%%%%%%%%%%%%%%%%%
     Error in routine write_rhog (2):
     error writing file ./pwscf.save/charge-density
 %%%%%%%%%%%%%%%%%%%%%%%%%%%%%%%%%%%%%%%%%%%%%%%%%%%%%%%%%%%%%%%%%%%%%%%%%%%%%%

     stopping ...

 %%%%%%%%%%%%%%%%%%%%%%%%%%%%%%%%%%%%%%%%%%%%%%%%%%%%%%%%%%%%%%%%%%%%%%%%%%%%%%
     Error in routine write_rhog (2):
     error writing file ./pwscf.save/charge-density
 %%%%%%%%%%%%%%%%%%%%%%%%%%%%%%%%%%%%%%%%%%%%%%%%%%%%%%%%%%%%%%%%%%%%%%%%%%%%%%

     stopping ...

 %%%%%%%%%%%%%%%%%%%%%%%%%%%%%%%%%%%%%%%%%%%%%%%%%%%%%%%%%%%%%%%%%%%%%%%%%%%%%%
     Error in routine write_rhog (2):
     error writing file ./pwscf.save/charge-density
 %%%%%%%%%%%%%%%%%%%%%%%%%%%%%%%%%%%%%%%%%%%%%%%%%%%%%%%%%%%%%%%%%%%%%%%%%%%%%%

     stopping ...

 %%%%%%%%%%%%%%%%%%%%%%%%%%%%%%%%%%%%%%%%%%%%%%%%%%%%%%%%%%%%%%%%%%%%%%%%%%%%%%
     Error in routine write_rhog (2):
     error writing file ./pwscf.save/charge-density
 %%%%%%%%%%%%%%%%%%%%%%%%%%%%%%%%%%%%%%%%%%%%%%%%%%%%%%%%%%%%%%%%%%%%%%%%%%%%%%

     stopping ...

 %%%%%%%%%%%%%%%%%%%%%%%%%%%%%%%%%%%%%%%%%%%%%%%%%%%%%%%%%%%%%%%%%%%%%%%%%%%%%%
     Error in routine write_rhog (2):
     error writing file ./pwscf.save/charge-density
 %%%%%%%%%%%%%%%%%%%%%%%%%%%%%%%%%%%%%%%%%%%%%%%%%%%%%%%%%%%%%%%%%%%%%%%%%%%%%%

     stopping ...

 %%%%%%%%%%%%%%%%%%%%%%%%%%%%%%%%%%%%%%%%%%%%%%%%%%%%%%%%%%%%%%%%%%%%%%%%%%%%%%
     Error in routine write_rhog (2):
     error writing file ./pwscf.save/charge-density
 %%%%%%%%%%%%%%%%%%%%%%%%%%%%%%%%%%%%%%%%%%%%%%%%%%%%%%%%%%%%%%%%%%%%%%%%%%%%%%

     stopping ...

 %%%%%%%%%%%%%%%%%%%%%%%%%%%%%%%%%%%%%%%%%%%%%%%%%%%%%%%%%%%%%%%%%%%%%%%%%%%%%%
     Error in routine write_rhog (2):
     error writing file ./pwscf.save/charge-density
 %%%%%%%%%%%%%%%%%%%%%%%%%%%%%%%%%%%%%%%%%%%%%%%%%%%%%%%%%%%%%%%%%%%%%%%%%%%%%%

     stopping ...

 %%%%%%%%%%%%%%%%%%%%%%%%%%%%%%%%%%%%%%%%%%%%%%%%%%%%%%%%%%%%%%%%%%%%%%%%%%%%%%
     Error in routine write_rhog (2):
     error writing file ./pwscf.save/charge-density
 %%%%%%%%%%%%%%%%%%%%%%%%%%%%%%%%%%%%%%%%%%%%%%%%%%%%%%%%%%%%%%%%%%%%%%%%%%%%%%

     stopping ...

 %%%%%%%%%%%%%%%%%%%%%%%%%%%%%%%%%%%%%%%%%%%%%%%%%%%%%%%%%%%%%%%%%%%%%%%%%%%%%%
     Error in routine write_rhog (2):
     error writing file ./pwscf.save/charge-density
 %%%%%%%%%%%%%%%%%%%%%%%%%%%%%%%%%%%%%%%%%%%%%%%%%%%%%%%%%%%%%%%%%%%%%%%%%%%%%%

     stopping ...

 %%%%%%%%%%%%%%%%%%%%%%%%%%%%%%%%%%%%%%%%%%%%%%%%%%%%%%%%%%%%%%%%%%%%%%%%%%%%%%
     Error in routine write_rhog (2):
     error writing file ./pwscf.save/charge-density
 %%%%%%%%%%%%%%%%%%%%%%%%%%%%%%%%%%%%%%%%%%%%%%%%%%%%%%%%%%%%%%%%%%%%%%%%%%%%%%

     stopping ...

 %%%%%%%%%%%%%%%%%%%%%%%%%%%%%%%%%%%%%%%%%%%%%%%%%%%%%%%%%%%%%%%%%%%%%%%%%%%%%%
     Error in routine write_rhog (2):
     error writing file ./pwscf.save/charge-density
 %%%%%%%%%%%%%%%%%%%%%%%%%%%%%%%%%%%%%%%%%%%%%%%%%%%%%%%%%%%%%%%%%%%%%%%%%%%%%%

     stopping ...

 %%%%%%%%%%%%%%%%%%%%%%%%%%%%%%%%%%%%%%%%%%%%%%%%%%%%%%%%%%%%%%%%%%%%%%%%%%%%%%
     Error in routine write_rhog (2):
     error writing file ./pwscf.save/charge-density
 %%%%%%%%%%%%%%%%%%%%%%%%%%%%%%%%%%%%%%%%%%%%%%%%%%%%%%%%%%%%%%%%%%%%%%%%%%%%%%

     stopping ...

 %%%%%%%%%%%%%%%%%%%%%%%%%%%%%%%%%%%%%%%%%%%%%%%%%%%%%%%%%%%%%%%%%%%%%%%%%%%%%%
     Error in routine write_rhog (2):
     error writing file ./pwscf.save/charge-density
 %%%%%%%%%%%%%%%%%%%%%%%%%%%%%%%%%%%%%%%%%%%%%%%%%%%%%%%%%%%%%%%%%%%%%%%%%%%%%%

     stopping ...

 %%%%%%%%%%%%%%%%%%%%%%%%%%%%%%%%%%%%%%%%%%%%%%%%%%%%%%%%%%%%%%%%%%%%%%%%%%%%%%
     Error in routine write_rhog (2):
     error writing file ./pwscf.save/charge-density
 %%%%%%%%%%%%%%%%%%%%%%%%%%%%%%%%%%%%%%%%%%%%%%%%%%%%%%%%%%%%%%%%%%%%%%%%%%%%%%

     stopping ...

 %%%%%%%%%%%%%%%%%%%%%%%%%%%%%%%%%%%%%%%%%%%%%%%%%%%%%%%%%%%%%%%%%%%%%%%%%%%%%%
     Error in routine write_rhog (2):
     error writing file ./pwscf.save/charge-density
 %%%%%%%%%%%%%%%%%%%%%%%%%%%%%%%%%%%%%%%%%%%%%%%%%%%%%%%%%%%%%%%%%%%%%%%%%%%%%%

     stopping ...

 %%%%%%%%%%%%%%%%%%%%%%%%%%%%%%%%%%%%%%%%%%%%%%%%%%%%%%%%%%%%%%%%%%%%%%%%%%%%%%
     Error in routine write_rhog (2):
     error writing file ./pwscf.save/charge-density
 %%%%%%%%%%%%%%%%%%%%%%%%%%%%%%%%%%%%%%%%%%%%%%%%%%%%%%%%%%%%%%%%%%%%%%%%%%%%%%

     stopping ...

 %%%%%%%%%%%%%%%%%%%%%%%%%%%%%%%%%%%%%%%%%%%%%%%%%%%%%%%%%%%%%%%%%%%%%%%%%%%%%%
     Error in routine write_rhog (2):
     error writing file ./pwscf.save/charge-density
 %%%%%%%%%%%%%%%%%%%%%%%%%%%%%%%%%%%%%%%%%%%%%%%%%%%%%%%%%%%%%%%%%%%%%%%%%%%%%%

     stopping ...

 %%%%%%%%%%%%%%%%%%%%%%%%%%%%%%%%%%%%%%%%%%%%%%%%%%%%%%%%%%%%%%%%%%%%%%%%%%%%%%
     Error in routine write_rhog (2):
     error writing file ./pwscf.save/charge-density
 %%%%%%%%%%%%%%%%%%%%%%%%%%%%%%%%%%%%%%%%%%%%%%%%%%%%%%%%%%%%%%%%%%%%%%%%%%%%%%

     stopping ...

 %%%%%%%%%%%%%%%%%%%%%%%%%%%%%%%%%%%%%%%%%%%%%%%%%%%%%%%%%%%%%%%%%%%%%%%%%%%%%%
     Error in routine write_rhog (2):
     error writing file ./pwscf.save/charge-density
 %%%%%%%%%%%%%%%%%%%%%%%%%%%%%%%%%%%%%%%%%%%%%%%%%%%%%%%%%%%%%%%%%%%%%%%%%%%%%%

     stopping ...

 %%%%%%%%%%%%%%%%%%%%%%%%%%%%%%%%%%%%%%%%%%%%%%%%%%%%%%%%%%%%%%%%%%%%%%%%%%%%%%
     Error in routine write_rhog (2):
     error writing file ./pwscf.save/charge-density
 %%%%%%%%%%%%%%%%%%%%%%%%%%%%%%%%%%%%%%%%%%%%%%%%%%%%%%%%%%%%%%%%%%%%%%%%%%%%%%

     stopping ...

 %%%%%%%%%%%%%%%%%%%%%%%%%%%%%%%%%%%%%%%%%%%%%%%%%%%%%%%%%%%%%%%%%%%%%%%%%%%%%%
     Error in routine write_rhog (2):
     error writing file ./pwscf.save/charge-density
 %%%%%%%%%%%%%%%%%%%%%%%%%%%%%%%%%%%%%%%%%%%%%%%%%%%%%%%%%%%%%%%%%%%%%%%%%%%%%%

     stopping ...

 %%%%%%%%%%%%%%%%%%%%%%%%%%%%%%%%%%%%%%%%%%%%%%%%%%%%%%%%%%%%%%%%%%%%%%%%%%%%%%
     Error in routine write_rhog (2):
     error writing file ./pwscf.save/charge-density
 %%%%%%%%%%%%%%%%%%%%%%%%%%%%%%%%%%%%%%%%%%%%%%%%%%%%%%%%%%%%%%%%%%%%%%%%%%%%%%

     stopping ...

 %%%%%%%%%%%%%%%%%%%%%%%%%%%%%%%%%%%%%%%%%%%%%%%%%%%%%%%%%%%%%%%%%%%%%%%%%%%%%%
     Error in routine write_rhog (2):
     error writing file ./pwscf.save/charge-density
 %%%%%%%%%%%%%%%%%%%%%%%%%%%%%%%%%%%%%%%%%%%%%%%%%%%%%%%%%%%%%%%%%%%%%%%%%%%%%%

     stopping ...

 %%%%%%%%%%%%%%%%%%%%%%%%%%%%%%%%%%%%%%%%%%%%%%%%%%%%%%%%%%%%%%%%%%%%%%%%%%%%%%
     Error in routine write_rhog (2):
     error writing file ./pwscf.save/charge-density
 %%%%%%%%%%%%%%%%%%%%%%%%%%%%%%%%%%%%%%%%%%%%%%%%%%%%%%%%%%%%%%%%%%%%%%%%%%%%%%

     stopping ...

 %%%%%%%%%%%%%%%%%%%%%%%%%%%%%%%%%%%%%%%%%%%%%%%%%%%%%%%%%%%%%%%%%%%%%%%%%%%%%%
     Error in routine write_rhog (2):
     error writing file ./pwscf.save/charge-density
 %%%%%%%%%%%%%%%%%%%%%%%%%%%%%%%%%%%%%%%%%%%%%%%%%%%%%%%%%%%%%%%%%%%%%%%%%%%%%%

     stopping ...

 %%%%%%%%%%%%%%%%%%%%%%%%%%%%%%%%%%%%%%%%%%%%%%%%%%%%%%%%%%%%%%%%%%%%%%%%%%%%%%
     Error in routine write_rhog (2):
     error writing file ./pwscf.save/charge-density
 %%%%%%%%%%%%%%%%%%%%%%%%%%%%%%%%%%%%%%%%%%%%%%%%%%%%%%%%%%%%%%%%%%%%%%%%%%%%%%

     stopping ...

 %%%%%%%%%%%%%%%%%%%%%%%%%%%%%%%%%%%%%%%%%%%%%%%%%%%%%%%%%%%%%%%%%%%%%%%%%%%%%%
     Error in routine write_rhog (2):
     error writing file ./pwscf.save/charge-density
 %%%%%%%%%%%%%%%%%%%%%%%%%%%%%%%%%%%%%%%%%%%%%%%%%%%%%%%%%%%%%%%%%%%%%%%%%%%%%%

     stopping ...

 %%%%%%%%%%%%%%%%%%%%%%%%%%%%%%%%%%%%%%%%%%%%%%%%%%%%%%%%%%%%%%%%%%%%%%%%%%%%%%
     Error in routine write_rhog (2):
     error writing file ./pwscf.save/charge-density
 %%%%%%%%%%%%%%%%%%%%%%%%%%%%%%%%%%%%%%%%%%%%%%%%%%%%%%%%%%%%%%%%%%%%%%%%%%%%%%

     stopping ...

 %%%%%%%%%%%%%%%%%%%%%%%%%%%%%%%%%%%%%%%%%%%%%%%%%%%%%%%%%%%%%%%%%%%%%%%%%%%%%%
     Error in routine write_rhog (2):
     error writing file ./pwscf.save/charge-density
 %%%%%%%%%%%%%%%%%%%%%%%%%%%%%%%%%%%%%%%%%%%%%%%%%%%%%%%%%%%%%%%%%%%%%%%%%%%%%%

     stopping ...

 %%%%%%%%%%%%%%%%%%%%%%%%%%%%%%%%%%%%%%%%%%%%%%%%%%%%%%%%%%%%%%%%%%%%%%%%%%%%%%
     Error in routine write_rhog (2):
     error writing file ./pwscf.save/charge-density
 %%%%%%%%%%%%%%%%%%%%%%%%%%%%%%%%%%%%%%%%%%%%%%%%%%%%%%%%%%%%%%%%%%%%%%%%%%%%%%

     stopping ...

 %%%%%%%%%%%%%%%%%%%%%%%%%%%%%%%%%%%%%%%%%%%%%%%%%%%%%%%%%%%%%%%%%%%%%%%%%%%%%%
     Error in routine write_rhog (2):
     error writing file ./pwscf.save/charge-density
 %%%%%%%%%%%%%%%%%%%%%%%%%%%%%%%%%%%%%%%%%%%%%%%%%%%%%%%%%%%%%%%%%%%%%%%%%%%%%%

     stopping ...

 %%%%%%%%%%%%%%%%%%%%%%%%%%%%%%%%%%%%%%%%%%%%%%%%%%%%%%%%%%%%%%%%%%%%%%%%%%%%%%
     Error in routine write_rhog (2):
     error writing file ./pwscf.save/charge-density
 %%%%%%%%%%%%%%%%%%%%%%%%%%%%%%%%%%%%%%%%%%%%%%%%%%%%%%%%%%%%%%%%%%%%%%%%%%%%%%

     stopping ...

 %%%%%%%%%%%%%%%%%%%%%%%%%%%%%%%%%%%%%%%%%%%%%%%%%%%%%%%%%%%%%%%%%%%%%%%%%%%%%%
     Error in routine write_rhog (2):
     error writing file ./pwscf.save/charge-density
 %%%%%%%%%%%%%%%%%%%%%%%%%%%%%%%%%%%%%%%%%%%%%%%%%%%%%%%%%%%%%%%%%%%%%%%%%%%%%%

     stopping ...

 %%%%%%%%%%%%%%%%%%%%%%%%%%%%%%%%%%%%%%%%%%%%%%%%%%%%%%%%%%%%%%%%%%%%%%%%%%%%%%
     Error in routine write_rhog (2):
     error writing file ./pwscf.save/charge-density
 %%%%%%%%%%%%%%%%%%%%%%%%%%%%%%%%%%%%%%%%%%%%%%%%%%%%%%%%%%%%%%%%%%%%%%%%%%%%%%

     stopping ...

 %%%%%%%%%%%%%%%%%%%%%%%%%%%%%%%%%%%%%%%%%%%%%%%%%%%%%%%%%%%%%%%%%%%%%%%%%%%%%%
     Error in routine write_rhog (2):
     error writing file ./pwscf.save/charge-density
 %%%%%%%%%%%%%%%%%%%%%%%%%%%%%%%%%%%%%%%%%%%%%%%%%%%%%%%%%%%%%%%%%%%%%%%%%%%%%%

     stopping ...

 %%%%%%%%%%%%%%%%%%%%%%%%%%%%%%%%%%%%%%%%%%%%%%%%%%%%%%%%%%%%%%%%%%%%%%%%%%%%%%
     Error in routine write_rhog (2):
     error writing file ./pwscf.save/charge-density
 %%%%%%%%%%%%%%%%%%%%%%%%%%%%%%%%%%%%%%%%%%%%%%%%%%%%%%%%%%%%%%%%%%%%%%%%%%%%%%

     stopping ...

 %%%%%%%%%%%%%%%%%%%%%%%%%%%%%%%%%%%%%%%%%%%%%%%%%%%%%%%%%%%%%%%%%%%%%%%%%%%%%%
     Error in routine write_rhog (2):
     error writing file ./pwscf.save/charge-density
 %%%%%%%%%%%%%%%%%%%%%%%%%%%%%%%%%%%%%%%%%%%%%%%%%%%%%%%%%%%%%%%%%%%%%%%%%%%%%%

     stopping ...

 %%%%%%%%%%%%%%%%%%%%%%%%%%%%%%%%%%%%%%%%%%%%%%%%%%%%%%%%%%%%%%%%%%%%%%%%%%%%%%
     Error in routine write_rhog (2):
     error writing file ./pwscf.save/charge-density
 %%%%%%%%%%%%%%%%%%%%%%%%%%%%%%%%%%%%%%%%%%%%%%%%%%%%%%%%%%%%%%%%%%%%%%%%%%%%%%

     stopping ...

 %%%%%%%%%%%%%%%%%%%%%%%%%%%%%%%%%%%%%%%%%%%%%%%%%%%%%%%%%%%%%%%%%%%%%%%%%%%%%%
     Error in routine write_rhog (2):
     error writing file ./pwscf.save/charge-density
 %%%%%%%%%%%%%%%%%%%%%%%%%%%%%%%%%%%%%%%%%%%%%%%%%%%%%%%%%%%%%%%%%%%%%%%%%%%%%%

     stopping ...

 %%%%%%%%%%%%%%%%%%%%%%%%%%%%%%%%%%%%%%%%%%%%%%%%%%%%%%%%%%%%%%%%%%%%%%%%%%%%%%
     Error in routine write_rhog (2):
     error writing file ./pwscf.save/charge-density
 %%%%%%%%%%%%%%%%%%%%%%%%%%%%%%%%%%%%%%%%%%%%%%%%%%%%%%%%%%%%%%%%%%%%%%%%%%%%%%

     stopping ...

 %%%%%%%%%%%%%%%%%%%%%%%%%%%%%%%%%%%%%%%%%%%%%%%%%%%%%%%%%%%%%%%%%%%%%%%%%%%%%%
     Error in routine write_rhog (2):
     error writing file ./pwscf.save/charge-density
 %%%%%%%%%%%%%%%%%%%%%%%%%%%%%%%%%%%%%%%%%%%%%%%%%%%%%%%%%%%%%%%%%%%%%%%%%%%%%%

     stopping ...

 %%%%%%%%%%%%%%%%%%%%%%%%%%%%%%%%%%%%%%%%%%%%%%%%%%%%%%%%%%%%%%%%%%%%%%%%%%%%%%
     Error in routine write_rhog (2):
     error writing file ./pwscf.save/charge-density
 %%%%%%%%%%%%%%%%%%%%%%%%%%%%%%%%%%%%%%%%%%%%%%%%%%%%%%%%%%%%%%%%%%%%%%%%%%%%%%

     stopping ...

 %%%%%%%%%%%%%%%%%%%%%%%%%%%%%%%%%%%%%%%%%%%%%%%%%%%%%%%%%%%%%%%%%%%%%%%%%%%%%%
     Error in routine write_rhog (2):
     error writing file ./pwscf.save/charge-density
 %%%%%%%%%%%%%%%%%%%%%%%%%%%%%%%%%%%%%%%%%%%%%%%%%%%%%%%%%%%%%%%%%%%%%%%%%%%%%%

     stopping ...

 %%%%%%%%%%%%%%%%%%%%%%%%%%%%%%%%%%%%%%%%%%%%%%%%%%%%%%%%%%%%%%%%%%%%%%%%%%%%%%
     Error in routine write_rhog (2):
     error writing file ./pwscf.save/charge-density
 %%%%%%%%%%%%%%%%%%%%%%%%%%%%%%%%%%%%%%%%%%%%%%%%%%%%%%%%%%%%%%%%%%%%%%%%%%%%%%

     stopping ...

 %%%%%%%%%%%%%%%%%%%%%%%%%%%%%%%%%%%%%%%%%%%%%%%%%%%%%%%%%%%%%%%%%%%%%%%%%%%%%%
     Error in routine write_rhog (2):
     error writing file ./pwscf.save/charge-density
 %%%%%%%%%%%%%%%%%%%%%%%%%%%%%%%%%%%%%%%%%%%%%%%%%%%%%%%%%%%%%%%%%%%%%%%%%%%%%%

     stopping ...

 %%%%%%%%%%%%%%%%%%%%%%%%%%%%%%%%%%%%%%%%%%%%%%%%%%%%%%%%%%%%%%%%%%%%%%%%%%%%%%
     Error in routine write_rhog (2):
     error writing file ./pwscf.save/charge-density
 %%%%%%%%%%%%%%%%%%%%%%%%%%%%%%%%%%%%%%%%%%%%%%%%%%%%%%%%%%%%%%%%%%%%%%%%%%%%%%

     stopping ...
