
     Program PWSCF v.7.5 starts on  4Dec2025 at 23:26:15 

     This program is part of the open-source Quantum ESPRESSO suite
     for quantum simulation of materials; please cite
         "P. Giannozzi et al., J. Phys.:Condens. Matter 21 395502 (2009);
         "P. Giannozzi et al., J. Phys.:Condens. Matter 29 465901 (2017);
         "P. Giannozzi et al., J. Chem. Phys. 152 154105 (2020);
          URL http://www.quantum-espresso.org", 
     in publications or presentations arising from this work. More details at
     http://www.quantum-espresso.org/quote

     Parallel version (MPI), running on    96 processors

     MPI processes distributed on     2 nodes
     175749 MiB available memory on the printing compute node when the environment starts
 
     Reading input from pw.in

     Current dimensions of program PWSCF are:
     Max number of different atomic species (ntypx) = 10
     Max number of k-points (npk) =  40000
     Max angular momentum in pseudopotentials (lmaxx) =  4

     gamma-point specific algorithms are used
     Message from routine setup:
     using ibrav=0 with symmetry is DISCOURAGED, use correct ibrav instead
 
     K-points division:     npool     =       2
     R & G space division:  proc/nbgrp/npool/nimage =      48
     Subspace diagonalization in iterative solution of the eigenvalue problem:
     one sub-group per band group will be used
     scalapack distributed-memory algorithm (size of sub-group:  6*  6 procs)

 
     Parallelization info
     --------------------
     sticks:   dense  smooth     PW     G-vecs:    dense   smooth      PW
     Min         384     384     96                39496    39496    4936
     Max         386     386     98                39521    39521    4949
     Sum       18505   18505   4637              1896521  1896521  237129
 
     Using Slab Decomposition
 


     bravais-lattice index     =            0
     lattice parameter (alat)  =      26.9702  a.u.
     unit-cell volume          =   19617.8366 (a.u.)^3
     number of atoms/cell      =          511
     number of atomic types    =            2
     number of electrons       =      2046.00 (up:1024.00, down:1022.00)
     number of Kohn-Sham states=         1032
     kinetic-energy cutoff     =      80.0000  Ry
     charge density cutoff     =     320.0000  Ry
     scf convergence threshold =      1.0E-10
     mixing beta               =       0.7000
     number of iterations used =            8  plain     mixing
     Exchange-correlation= PBE
                           (   1   4   3   4   0   0   0)

     celldm(1)=  26.970171  celldm(2)=   0.000000  celldm(3)=   0.000000
     celldm(4)=   0.000000  celldm(5)=   0.000000  celldm(6)=   0.000000

     crystal axes: (cart. coord. in units of alat)
               a(1) = (   1.000000   0.000000   0.000000 )  
               a(2) = (   0.000000   1.000000   0.000000 )  
               a(3) = (   0.000000   0.000000   1.000000 )  

     reciprocal axes: (cart. coord. in units 2 pi/alat)
               b(1) = (  1.000000  0.000000  0.000000 )  
               b(2) = (  0.000000  1.000000  0.000000 )  
               b(3) = (  0.000000  0.000000  1.000000 )  


     PseudoPot. # 1 for C  read from file:
     ./C_ONCV_PBE-1.2.upf
     MD5 check sum: d60b57d9bdca4133f5fde4b584ee909d
     Pseudo is Norm-conserving, Zval =  4.0
     Generated using ONCVPSP code by D. R. Hamann
     Using radial grid of  602 points,  4 beta functions with: 
                l(1) =   0
                l(2) =   0
                l(3) =   1
                l(4) =   1

     PseudoPot. # 2 for N  read from file:
     ./N_ONCV_PBE-1.2.upf
     MD5 check sum: 5312fdf34e96954e02a33bdc911c617a
     Pseudo is Norm-conserving, Zval =  5.0
     Generated using ONCVPSP code by D. R. Hamann
     Using radial grid of  602 points,  4 beta functions with: 
                l(1) =   0
                l(2) =   0
                l(3) =   1
                l(4) =   1

     atomic species   valence    mass     pseudopotential
     C                 4.00    12.01100     C ( 1.00)
     N                 5.00    14.00670     N ( 1.00)

     Starting magnetic structure 
     atomic species   magnetization
     C               0.000
     N               0.000

      6 Sym. Ops. (no inversion) found


                                    s                        frac. trans.

      isym =  1     identity                                     

 cryst.   s( 1) = (     1          0          0      )
                  (     0          1          0      )
                  (     0          0          1      )

 cart.    s( 1) = (  1.0000000  0.0000000  0.0000000 )
                  (  0.0000000  1.0000000  0.0000000 )
                  (  0.0000000  0.0000000  1.0000000 )


      isym =  2     120 deg rotation - cart. axis [-1,-1,-1]     

 cryst.   s( 2) = (     0          0          1      )
                  (     1          0          0      )
                  (     0          1          0      )

 cart.    s( 2) = (  0.0000000  1.0000000  0.0000000 )
                  (  0.0000000  0.0000000  1.0000000 )
                  (  1.0000000  0.0000000  0.0000000 )


      isym =  3     120 deg rotation - cart. axis [1,1,1]        

 cryst.   s( 3) = (     0          1          0      )
                  (     0          0          1      )
                  (     1          0          0      )

 cart.    s( 3) = (  0.0000000  0.0000000  1.0000000 )
                  (  1.0000000  0.0000000  0.0000000 )
                  (  0.0000000  1.0000000  0.0000000 )


      isym =  4     inv. 180 deg rotation - cart. axis [1,-1,0]  

 cryst.   s( 4) = (     0          1          0      )
                  (     1          0          0      )
                  (     0          0          1      )

 cart.    s( 4) = (  0.0000000  1.0000000  0.0000000 )
                  (  1.0000000  0.0000000  0.0000000 )
                  (  0.0000000  0.0000000  1.0000000 )


      isym =  5     inv. 180 deg rotation - cart. axis [-1,0,1]  

 cryst.   s( 5) = (     0          0          1      )
                  (     0          1          0      )
                  (     1          0          0      )

 cart.    s( 5) = (  0.0000000  0.0000000  1.0000000 )
                  (  0.0000000  1.0000000  0.0000000 )
                  (  1.0000000  0.0000000  0.0000000 )


      isym =  6     inv. 180 deg rotation - cart. axis [0,1,-1]  

 cryst.   s( 6) = (     1          0          0      )
                  (     0          0          1      )
                  (     0          1          0      )

 cart.    s( 6) = (  1.0000000  0.0000000  0.0000000 )
                  (  0.0000000  0.0000000  1.0000000 )
                  (  0.0000000  1.0000000  0.0000000 )


   Cartesian axes

     site n.     atom                  positions (alat units)
         1        C      tau(   1) = (   0.0000099   0.0000099   0.0000099  )
         2        C      tau(   2) = (  -0.0000537  -0.0000536   0.2500159  )
         3        C      tau(   3) = (  -0.0000022  -0.0000022   0.5000072  )
         4        C      tau(   4) = (   0.0000753   0.0000753   0.7499974  )
         5        C      tau(   5) = (  -0.0000537   0.2500159  -0.0000537  )
         6        C      tau(   6) = (  -0.0001070   0.2499598   0.2499598  )
         7        C      tau(   7) = (  -0.0001381   0.2500428   0.4999662  )
         8        C      tau(   8) = (  -0.0000785   0.2500694   0.7499405  )
         9        C      tau(   9) = (  -0.0000022   0.5000072  -0.0000022  )
        10        C      tau(  10) = (  -0.0001381   0.4999661   0.2500428  )
        11        C      tau(  11) = (  -0.0000395   0.5000034   0.5000034  )
        12        C      tau(  12) = (   0.0000813   0.5000425   0.7499814  )
        13        C      tau(  13) = (   0.0000753   0.7499974   0.0000753  )
        14        C      tau(  14) = (  -0.0000785   0.7499405   0.2500694  )
        15        C      tau(  15) = (   0.0000813   0.7499814   0.5000425  )
        16        C      tau(  16) = (   0.0002492   0.7500694   0.7500694  )
        17        C      tau(  17) = (   0.2500159  -0.0000536  -0.0000537  )
        18        C      tau(  18) = (   0.2499598  -0.0001070   0.2499598  )
        19        C      tau(  19) = (   0.2500428  -0.0001381   0.4999662  )
        20        C      tau(  20) = (   0.2500694  -0.0000785   0.7499405  )
        21        C      tau(  21) = (   0.2499598   0.2499598  -0.0001070  )
        22        C      tau(  22) = (   0.2499494   0.2499494   0.2499494  )
        23        C      tau(  23) = (   0.2494935   0.2494935   0.4999426  )
        24        C      tau(  24) = (   0.2500065   0.2500065   0.7498719  )
        25        C      tau(  25) = (   0.2500428   0.4999661  -0.0001381  )
        26        C      tau(  26) = (   0.2494935   0.4999426   0.2494935  )
        27        C      tau(  27) = (   0.2503151   0.4997701   0.4997700  )
        28        C      tau(  28) = (   0.2499921   0.4998625   0.7499531  )
        29        C      tau(  29) = (   0.2500694   0.7499405  -0.0000785  )
        30        C      tau(  30) = (   0.2500065   0.7498719   0.2500065  )
        31        C      tau(  31) = (   0.2499921   0.7499531   0.4998626  )
        32        C      tau(  32) = (   0.2503962   0.7497575   0.7497575  )
        33        C      tau(  33) = (   0.5000072  -0.0000022  -0.0000022  )
        34        C      tau(  34) = (   0.4999662  -0.0001381   0.2500428  )
        35        C      tau(  35) = (   0.5000034  -0.0000395   0.5000034  )
        36        C      tau(  36) = (   0.5000425   0.0000814   0.7499814  )
        37        C      tau(  37) = (   0.4999662   0.2500428  -0.0001381  )
        38        C      tau(  38) = (   0.4999426   0.2494935   0.2494935  )
        39        C      tau(  39) = (   0.4997701   0.2503151   0.4997700  )
        40        C      tau(  40) = (   0.4998626   0.2499921   0.7499531  )
        41        C      tau(  41) = (   0.5000034   0.5000034  -0.0000395  )
        42        C      tau(  42) = (   0.4997700   0.4997701   0.2503151  )
        43        C      tau(  43) = (   0.5001657   0.5001656   0.7495291  )
        44        C      tau(  44) = (   0.5000425   0.7499814   0.0000813  )
        45        C      tau(  45) = (   0.4998626   0.7499531   0.2499921  )
        46        C      tau(  46) = (   0.5001657   0.7495291   0.5001656  )
        47        C      tau(  47) = (   0.5004072   0.7505162   0.7505162  )
        48        C      tau(  48) = (   0.7499974   0.0000753   0.0000753  )
        49        C      tau(  49) = (   0.7499405  -0.0000785   0.2500694  )
        50        C      tau(  50) = (   0.7499814   0.0000814   0.5000425  )
        51        C      tau(  51) = (   0.7500694   0.0002493   0.7500694  )
        52        C      tau(  52) = (   0.7499405   0.2500694  -0.0000785  )
        53        C      tau(  53) = (   0.7498719   0.2500065   0.2500065  )
        54        C      tau(  54) = (   0.7499531   0.2499921   0.4998626  )
        55        C      tau(  55) = (   0.7497575   0.2503962   0.7497575  )
        56        C      tau(  56) = (   0.7499814   0.5000425   0.0000813  )
        57        C      tau(  57) = (   0.7499531   0.4998625   0.2499921  )
        58        C      tau(  58) = (   0.7495291   0.5001656   0.5001656  )
        59        C      tau(  59) = (   0.7505162   0.5004072   0.7505162  )
        60        C      tau(  60) = (   0.7500694   0.7500694   0.0002493  )
        61        C      tau(  61) = (   0.7497575   0.7497575   0.2503962  )
        62        C      tau(  62) = (   0.7505162   0.7505162   0.5004072  )
        63        C      tau(  63) = (   0.7503396   0.7503396   0.7503396  )
        64        C      tau(  64) = (  -0.0000517   0.1249803   0.1249803  )
        65        C      tau(  65) = (  -0.0000880   0.1249603   0.3749744  )
        66        C      tau(  66) = (  -0.0000800   0.1250821   0.6249792  )
        67        C      tau(  67) = (  -0.0000177   0.1250555   0.8749604  )
        68        C      tau(  68) = (  -0.0000880   0.3749744   0.1249603  )
        69        C      tau(  69) = (  -0.0001498   0.3749980   0.3749980  )
        70        C      tau(  70) = (  -0.0000581   0.3750522   0.6249526  )
        71        C      tau(  71) = (  -0.0000282   0.3750332   0.8749465  )
        72        C      tau(  72) = (  -0.0000800   0.6249792   0.1250821  )
        73        C      tau(  73) = (  -0.0000581   0.6249526   0.3750522  )
        74        C      tau(  74) = (   0.0001324   0.6250226   0.6250226  )
        75        C      tau(  75) = (   0.0001742   0.6250408   0.8750621  )
        76        C      tau(  76) = (  -0.0000177   0.8749604   0.1250555  )
        77        C      tau(  77) = (  -0.0000282   0.8749465   0.3750332  )
        78        C      tau(  78) = (   0.0001742   0.8750621   0.6250408  )
        79        C      tau(  79) = (   0.0001329   0.8750415   0.8750415  )
        80        C      tau(  80) = (   0.2499613   0.1249402   0.1249402  )
        81        C      tau(  81) = (   0.2499385   0.1248591   0.3749320  )
        82        C      tau(  82) = (   0.2499323   0.1248892   0.6249347  )
        83        C      tau(  83) = (   0.2500037   0.1249796   0.8749155  )
        84        C      tau(  84) = (   0.2499385   0.3749320   0.1248591  )
        85        C      tau(  85) = (   0.2500148   0.3749870   0.3749870  )
        86        C      tau(  86) = (   0.2499583   0.3748793   0.6248042  )
        87        C      tau(  87) = (   0.2499985   0.3749814   0.8748971  )
        88        C      tau(  88) = (   0.2499323   0.6249347   0.1248892  )
        89        C      tau(  89) = (   0.2499583   0.6248042   0.3748793  )
        90        C      tau(  90) = (   0.2505244   0.6245782   0.6245782  )
        91        C      tau(  91) = (   0.2503366   0.6249377   0.8747052  )
        92        C      tau(  92) = (   0.2500037   0.8749155   0.1249796  )
        93        C      tau(  93) = (   0.2499985   0.8748971   0.3749815  )
        94        C      tau(  94) = (   0.2503366   0.8747052   0.6249377  )
        95        C      tau(  95) = (   0.2501211   0.8749119   0.8749119  )
        96        C      tau(  96) = (   0.4999759   0.1248010   0.1248010  )
        97        C      tau(  97) = (   0.4999176   0.1249593   0.3749469  )
        98        C      tau(  98) = (   0.4999309   0.1251186   0.6248732  )
        99        C      tau(  99) = (   0.4999666   0.1250174   0.8749758  )
       100        C      tau( 100) = (   0.4999176   0.3749469   0.1249593  )
       101        C      tau( 101) = (   0.5002198   0.3750479   0.3750478  )
       102        C      tau( 102) = (   0.4992199   0.3760346   0.6235135  )
       103        C      tau( 103) = (   0.5000003   0.3751773   0.8747344  )
       104        C      tau( 104) = (   0.4999309   0.6248732   0.1251185  )
       105        C      tau( 105) = (   0.4992199   0.6235135   0.3760346  )
       106        C      tau( 106) = (   0.5031253   0.6249492   0.6249492  )
       107        C      tau( 107) = (   0.5001578   0.6250510   0.8749912  )
       108        C      tau( 108) = (   0.4999666   0.8749759   0.1250174  )
       109        C      tau( 109) = (   0.5000003   0.8747344   0.3751773  )
       110        C      tau( 110) = (   0.5001578   0.8749912   0.6250510  )
       111        C      tau( 111) = (   0.5001270   0.8751851   0.8751851  )
       112        C      tau( 112) = (   0.7499424   0.1250025   0.1250025  )
       113        C      tau( 113) = (   0.7499386   0.1249824   0.3749867  )
       114        C      tau( 114) = (   0.7498630   0.1252235   0.6249301  )
       115        C      tau( 115) = (   0.7499480   0.1252104   0.8749271  )
       116        C      tau( 116) = (   0.7499385   0.3749867   0.1249824  )
       117        C      tau( 117) = (   0.7497701   0.3750267   0.3750267  )
       118        C      tau( 118) = (   0.7491565   0.3758680   0.6247933  )
       119        C      tau( 119) = (   0.7499057   0.3751632   0.8748960  )
       120        C      tau( 120) = (   0.7498630   0.6249301   0.1252235  )
       121        C      tau( 121) = (   0.7491565   0.6247933   0.3758680  )
       122        C      tau( 122) = (   0.7506715   0.6255198   0.6255198  )
       123        C      tau( 123) = (   0.7502686   0.6252168   0.8753492  )
       124        C      tau( 124) = (   0.7499480   0.8749271   0.1252104  )
       125        C      tau( 125) = (   0.7499057   0.8748960   0.3751632  )
       126        C      tau( 126) = (   0.7502686   0.8753492   0.6252168  )
       127        C      tau( 127) = (   0.7501318   0.8751952   0.8751952  )
       128        C      tau( 128) = (   0.1249803  -0.0000517   0.1249803  )
       129        C      tau( 129) = (   0.1249603  -0.0000880   0.3749744  )
       130        C      tau( 130) = (   0.1250821  -0.0000800   0.6249792  )
       131        C      tau( 131) = (   0.1250555  -0.0000177   0.8749604  )
       132        C      tau( 132) = (   0.1249402   0.2499613   0.1249402  )
       133        C      tau( 133) = (   0.1248591   0.2499385   0.3749320  )
       134        C      tau( 134) = (   0.1248892   0.2499323   0.6249347  )
       135        C      tau( 135) = (   0.1249796   0.2500037   0.8749155  )
       136        C      tau( 136) = (   0.1248010   0.4999759   0.1248010  )
       137        C      tau( 137) = (   0.1249593   0.4999176   0.3749469  )
       138        C      tau( 138) = (   0.1251185   0.4999309   0.6248732  )
       139        C      tau( 139) = (   0.1250174   0.4999666   0.8749758  )
       140        C      tau( 140) = (   0.1250025   0.7499424   0.1250025  )
       141        C      tau( 141) = (   0.1249824   0.7499386   0.3749867  )
       142        C      tau( 142) = (   0.1252235   0.7498630   0.6249302  )
       143        C      tau( 143) = (   0.1252104   0.7499480   0.8749271  )
       144        C      tau( 144) = (   0.3749744  -0.0000880   0.1249603  )
       145        C      tau( 145) = (   0.3749980  -0.0001498   0.3749980  )
       146        C      tau( 146) = (   0.3750522  -0.0000581   0.6249526  )
       147        C      tau( 147) = (   0.3750332  -0.0000282   0.8749465  )
       148        C      tau( 148) = (   0.3749320   0.2499385   0.1248591  )
       149        C      tau( 149) = (   0.3749870   0.2500148   0.3749870  )
       150        C      tau( 150) = (   0.3748793   0.2499583   0.6248042  )
       151        C      tau( 151) = (   0.3749815   0.2499985   0.8748971  )
       152        C      tau( 152) = (   0.3749469   0.4999176   0.1249593  )
       153        C      tau( 153) = (   0.3750479   0.5002198   0.3750478  )
       154        C      tau( 154) = (   0.3760346   0.4992199   0.6235135  )
       155        C      tau( 155) = (   0.3751773   0.5000003   0.8747344  )
       156        C      tau( 156) = (   0.3749867   0.7499386   0.1249824  )
       157        C      tau( 157) = (   0.3750268   0.7497702   0.3750267  )
       158        C      tau( 158) = (   0.3758680   0.7491565   0.6247934  )
       159        C      tau( 159) = (   0.3751632   0.7499057   0.8748960  )
       160        C      tau( 160) = (   0.6249792  -0.0000800   0.1250821  )
       161        C      tau( 161) = (   0.6249526  -0.0000581   0.3750522  )
       162        C      tau( 162) = (   0.6250226   0.0001324   0.6250226  )
       163        C      tau( 163) = (   0.6250409   0.0001742   0.8750621  )
       164        C      tau( 164) = (   0.6249347   0.2499323   0.1248892  )
       165        C      tau( 165) = (   0.6248042   0.2499583   0.3748793  )
       166        C      tau( 166) = (   0.6245782   0.2505244   0.6245782  )
       167        C      tau( 167) = (   0.6249377   0.2503366   0.8747052  )
       168        C      tau( 168) = (   0.6248732   0.4999309   0.1251185  )
       169        C      tau( 169) = (   0.6235135   0.4992199   0.3760346  )
       170        C      tau( 170) = (   0.6249492   0.5031253   0.6249492  )
       171        C      tau( 171) = (   0.6250510   0.5001578   0.8749912  )
       172        C      tau( 172) = (   0.6249302   0.7498630   0.1252235  )
       173        C      tau( 173) = (   0.6247934   0.7491565   0.3758680  )
       174        C      tau( 174) = (   0.6255198   0.7506715   0.6255198  )
       175        C      tau( 175) = (   0.6252168   0.7502685   0.8753492  )
       176        C      tau( 176) = (   0.8749604  -0.0000177   0.1250555  )
       177        C      tau( 177) = (   0.8749465  -0.0000282   0.3750332  )
       178        C      tau( 178) = (   0.8750621   0.0001742   0.6250408  )
       179        C      tau( 179) = (   0.8750415   0.0001329   0.8750415  )
       180        C      tau( 180) = (   0.8749155   0.2500037   0.1249796  )
       181        C      tau( 181) = (   0.8748971   0.2499985   0.3749815  )
       182        C      tau( 182) = (   0.8747052   0.2503366   0.6249377  )
       183        C      tau( 183) = (   0.8749119   0.2501211   0.8749119  )
       184        C      tau( 184) = (   0.8749758   0.4999666   0.1250174  )
       185        C      tau( 185) = (   0.8747343   0.5000003   0.3751773  )
       186        C      tau( 186) = (   0.8749912   0.5001578   0.6250510  )
       187        C      tau( 187) = (   0.8751851   0.5001270   0.8751851  )
       188        C      tau( 188) = (   0.8749271   0.7499480   0.1252104  )
       189        C      tau( 189) = (   0.8748960   0.7499057   0.3751632  )
       190        C      tau( 190) = (   0.8753492   0.7502686   0.6252168  )
       191        C      tau( 191) = (   0.8751952   0.7501318   0.8751952  )
       192        C      tau( 192) = (   0.1249803   0.1249803  -0.0000517  )
       193        C      tau( 193) = (   0.1249402   0.1249402   0.2499613  )
       194        C      tau( 194) = (   0.1248010   0.1248010   0.4999759  )
       195        C      tau( 195) = (   0.1250025   0.1250025   0.7499424  )
       196        C      tau( 196) = (   0.1249603   0.3749744  -0.0000880  )
       197        C      tau( 197) = (   0.1248591   0.3749320   0.2499385  )
       198        C      tau( 198) = (   0.1249593   0.3749469   0.4999176  )
       199        C      tau( 199) = (   0.1249824   0.3749867   0.7499386  )
       200        C      tau( 200) = (   0.1250821   0.6249792  -0.0000800  )
       201        C      tau( 201) = (   0.1248891   0.6249347   0.2499323  )
       202        C      tau( 202) = (   0.1251185   0.6248732   0.4999309  )
       203        C      tau( 203) = (   0.1252235   0.6249301   0.7498630  )
       204        C      tau( 204) = (   0.1250555   0.8749604  -0.0000177  )
       205        C      tau( 205) = (   0.1249796   0.8749155   0.2500037  )
       206        C      tau( 206) = (   0.1250174   0.8749759   0.4999666  )
       207        C      tau( 207) = (   0.1252104   0.8749271   0.7499480  )
       208        C      tau( 208) = (   0.3749744   0.1249603  -0.0000880  )
       209        C      tau( 209) = (   0.3749320   0.1248591   0.2499385  )
       210        C      tau( 210) = (   0.3749469   0.1249593   0.4999176  )
       211        C      tau( 211) = (   0.3749867   0.1249824   0.7499386  )
       212        C      tau( 212) = (   0.3749980   0.3749980  -0.0001498  )
       213        C      tau( 213) = (   0.3749870   0.3749870   0.2500148  )
       214        C      tau( 214) = (   0.3750479   0.3750479   0.5002198  )
       215        C      tau( 215) = (   0.3750268   0.3750267   0.7497701  )
       216        C      tau( 216) = (   0.3750522   0.6249526  -0.0000581  )
       217        C      tau( 217) = (   0.3748793   0.6248042   0.2499583  )
       218        C      tau( 218) = (   0.3760346   0.6235135   0.4992199  )
       219        C      tau( 219) = (   0.3758680   0.6247933   0.7491565  )
       220        C      tau( 220) = (   0.3750332   0.8749465  -0.0000282  )
       221        C      tau( 221) = (   0.3749815   0.8748971   0.2499985  )
       222        C      tau( 222) = (   0.3751773   0.8747344   0.5000003  )
       223        C      tau( 223) = (   0.3751632   0.8748960   0.7499057  )
       224        C      tau( 224) = (   0.6249792   0.1250821  -0.0000800  )
       225        C      tau( 225) = (   0.6249347   0.1248892   0.2499323  )
       226        C      tau( 226) = (   0.6248732   0.1251186   0.4999309  )
       227        C      tau( 227) = (   0.6249302   0.1252235   0.7498630  )
       228        C      tau( 228) = (   0.6249526   0.3750522  -0.0000581  )
       229        C      tau( 229) = (   0.6248042   0.3748793   0.2499583  )
       230        C      tau( 230) = (   0.6235135   0.3760346   0.4992199  )
       231        C      tau( 231) = (   0.6247934   0.3758680   0.7491565  )
       232        C      tau( 232) = (   0.6250226   0.6250226   0.0001324  )
       233        C      tau( 233) = (   0.6245782   0.6245782   0.2505244  )
       234        C      tau( 234) = (   0.6249492   0.6249492   0.5031253  )
       235        C      tau( 235) = (   0.6255198   0.6255198   0.7506715  )
       236        C      tau( 236) = (   0.6250409   0.8750621   0.0001742  )
       237        C      tau( 237) = (   0.6249377   0.8747052   0.2503366  )
       238        C      tau( 238) = (   0.6250510   0.8749912   0.5001578  )
       239        C      tau( 239) = (   0.6252168   0.8753492   0.7502686  )
       240        C      tau( 240) = (   0.8749604   0.1250555  -0.0000177  )
       241        C      tau( 241) = (   0.8749155   0.1249796   0.2500037  )
       242        C      tau( 242) = (   0.8749758   0.1250174   0.4999666  )
       243        C      tau( 243) = (   0.8749270   0.1252104   0.7499480  )
       244        C      tau( 244) = (   0.8749465   0.3750332  -0.0000282  )
       245        C      tau( 245) = (   0.8748971   0.3749814   0.2499985  )
       246        C      tau( 246) = (   0.8747343   0.3751773   0.5000003  )
       247        C      tau( 247) = (   0.8748960   0.3751632   0.7499057  )
       248        C      tau( 248) = (   0.8750621   0.6250408   0.0001742  )
       249        C      tau( 249) = (   0.8747052   0.6249377   0.2503366  )
       250        C      tau( 250) = (   0.8749912   0.6250510   0.5001578  )
       251        C      tau( 251) = (   0.8753492   0.6252168   0.7502686  )
       252        C      tau( 252) = (   0.8750415   0.8750415   0.0001329  )
       253        C      tau( 253) = (   0.8749119   0.8749119   0.2501211  )
       254        C      tau( 254) = (   0.8751851   0.8751851   0.5001270  )
       255        C      tau( 255) = (   0.8751952   0.8751952   0.7501318  )
       256        C      tau( 256) = (   0.1874618   0.0624332   0.1874619  )
       257        C      tau( 257) = (   0.1874384   0.0623594   0.4374541  )
       258        C      tau( 258) = (   0.1875293   0.0624307   0.6874520  )
       259        C      tau( 259) = (   0.1875188   0.0624772   0.9374447  )
       260        C      tau( 260) = (   0.1874186   0.3124320   0.1874186  )
       261        C      tau( 261) = (   0.1873471   0.3123461   0.4373685  )
       262        C      tau( 262) = (   0.1874453   0.3124920   0.6873808  )
       263        C      tau( 263) = (   0.1874792   0.3124861   0.9374065  )
       264        C      tau( 264) = (   0.1871788   0.5623715   0.1871788  )
       265        C      tau( 265) = (   0.1875681   0.5623248   0.4374350  )
       266        C      tau( 266) = (   0.1877307   0.5624058   0.6873227  )
       267        C      tau( 267) = (   0.1876465   0.5624610   0.9373313  )
       268        C      tau( 268) = (   0.1875084   0.8124066   0.1875084  )
       269        C      tau( 269) = (   0.1874503   0.8125047   0.4375233  )
       270        C      tau( 270) = (   0.1877843   0.8123165   0.6874005  )
       271        C      tau( 271) = (   0.1876126   0.8124475   0.9374417  )
       272        C      tau( 272) = (   0.4374541   0.0623594   0.1874384  )
       273        C      tau( 273) = (   0.4374574   0.0624249   0.4374574  )
       274        C      tau( 274) = (   0.4375200   0.0625356   0.6874314  )
       275        C      tau( 275) = (   0.4375170   0.0624727   0.9374670  )
       276        C      tau( 276) = (   0.4373685   0.3123461   0.1873471  )
       277        C      tau( 277) = (   0.4373573   0.3126473   0.4373573  )
       278        C      tau( 278) = (   0.4376498   0.3122677   0.6875989  )
       279        C      tau( 279) = (   0.4375038   0.3125559   0.9373167  )
       280        C      tau( 280) = (   0.4374350   0.5623248   0.1875681  )
       281        C      tau( 281) = (   0.4387879   0.5619420   0.6861813  )
       282        C      tau( 282) = (   0.4375761   0.5625105   0.9374106  )
       283        C      tau( 283) = (   0.4375233   0.8125047   0.1874503  )
       284        C      tau( 284) = (   0.4376017   0.8121792   0.4376016  )
       285        C      tau( 285) = (   0.4378151   0.8123661   0.6875093  )
       286        C      tau( 286) = (   0.4375929   0.8124847   0.9375107  )
       287        C      tau( 287) = (   0.6874520   0.0624307   0.1875294  )
       288        C      tau( 288) = (   0.6874314   0.0625356   0.4375199  )
       289        C      tau( 289) = (   0.6874929   0.0626917   0.6874929  )
       290        C      tau( 290) = (   0.6874943   0.0626448   0.9374971  )
       291        C      tau( 291) = (   0.6873808   0.3124920   0.1874453  )
       292        C      tau( 292) = (   0.6875989   0.3122677   0.4376497  )
       293        C      tau( 293) = (   0.6871194   0.3130391   0.6871194  )
       294        C      tau( 294) = (   0.6874444   0.3126308   0.9373855  )
       295        C      tau( 295) = (   0.6873227   0.5624058   0.1877307  )
       296        C      tau( 296) = (   0.6861813   0.5619420   0.4387879  )
       297        C      tau( 297) = (   0.6885962   0.5629893   0.6885962  )
       298        C      tau( 298) = (   0.6875733   0.5626035   0.9376196  )
       299        C      tau( 299) = (   0.6874005   0.8123165   0.1877843  )
       300        C      tau( 300) = (   0.6875093   0.8123661   0.4378151  )
       301        C      tau( 301) = (   0.6878624   0.8130009   0.6878624  )
       302        C      tau( 302) = (   0.6876291   0.8126667   0.9377732  )
       303        C      tau( 303) = (   0.9374447   0.0624772   0.1875189  )
       304        C      tau( 304) = (   0.9374670   0.0624727   0.4375170  )
       305        C      tau( 305) = (   0.9374970   0.0626448   0.6874943  )
       306        C      tau( 306) = (   0.9375067   0.0625685   0.9375067  )
       307        C      tau( 307) = (   0.9374065   0.3124862   0.1874792  )
       308        C      tau( 308) = (   0.9373167   0.3125559   0.4375038  )
       309        C      tau( 309) = (   0.9373855   0.3126308   0.6874444  )
       310        C      tau( 310) = (   0.9374404   0.3125575   0.9374404  )
       311        C      tau( 311) = (   0.9373312   0.5624610   0.1876465  )
       312        C      tau( 312) = (   0.9374106   0.5625105   0.4375761  )
       313        C      tau( 313) = (   0.9376196   0.5626035   0.6875733  )
       314        C      tau( 314) = (   0.9376200   0.5625432   0.9376200  )
       315        C      tau( 315) = (   0.9374417   0.8124475   0.1876126  )
       316        C      tau( 316) = (   0.9375107   0.8124847   0.4375929  )
       317        C      tau( 317) = (   0.9377732   0.8126667   0.6876291  )
       318        C      tau( 318) = (   0.9376229   0.8125642   0.9376230  )
       319        C      tau( 319) = (   0.0624834   0.0624834   0.0624834  )
       320        C      tau( 320) = (   0.0624440   0.0624440   0.3124868  )
       321        C      tau( 321) = (   0.0624280   0.0624280   0.5624625  )
       322        C      tau( 322) = (   0.0625353   0.0625353   0.8124705  )
       323        C      tau( 323) = (   0.0624440   0.3124868   0.0624440  )
       324        C      tau( 324) = (   0.0623429   0.3124384   0.3124384  )
       325        C      tau( 325) = (   0.0624181   0.3125023   0.5624365  )
       326        C      tau( 326) = (   0.0624607   0.3125333   0.8124326  )
       327        C      tau( 327) = (   0.0624280   0.5624625   0.0624280  )
       328        C      tau( 328) = (   0.0624181   0.5624365   0.3125023  )
       329        C      tau( 329) = (   0.0625702   0.5624743   0.5624743  )
       330        C      tau( 330) = (   0.0626293   0.5625121   0.8124655  )
       331        C      tau( 331) = (   0.0625353   0.8124706   0.0625353  )
       332        C      tau( 332) = (   0.0624607   0.8124326   0.3125333  )
       333        C      tau( 333) = (   0.0626293   0.8124655   0.5625121  )
       334        C      tau( 334) = (   0.0627128   0.8125045   0.8125045  )
       335        C      tau( 335) = (   0.3124868   0.0624440   0.0624440  )
       336        C      tau( 336) = (   0.3124384   0.0623430   0.3124384  )
       337        C      tau( 337) = (   0.3125023   0.0624181   0.5624365  )
       338        C      tau( 338) = (   0.3125333   0.0624607   0.8124326  )
       339        C      tau( 339) = (   0.3124384   0.3124384   0.0623430  )
       340        C      tau( 340) = (   0.3124345   0.3124345   0.3124345  )
       341        C      tau( 341) = (   0.3117405   0.3117405   0.5620277  )
       342        C      tau( 342) = (   0.3125300   0.3125300   0.8123758  )
       343        C      tau( 343) = (   0.3125023   0.5624365   0.0624181  )
       344        C      tau( 344) = (   0.3117405   0.5620277   0.3117405  )
       345        C      tau( 345) = (   0.3131417   0.5620332   0.5620332  )
       346        C      tau( 346) = (   0.3129408   0.5623907   0.8120240  )
       347        C      tau( 347) = (   0.3125333   0.8124326   0.0624607  )
       348        C      tau( 348) = (   0.3125300   0.8123759   0.3125300  )
       349        C      tau( 349) = (   0.3129408   0.8120240   0.5623907  )
       350        C      tau( 350) = (   0.3126875   0.8123734   0.8123734  )
       351        C      tau( 351) = (   0.5624625   0.0624280   0.0624280  )
       352        C      tau( 352) = (   0.5624365   0.0624181   0.3125023  )
       353        C      tau( 353) = (   0.5624743   0.0625702   0.5624743  )
       354        C      tau( 354) = (   0.5625121   0.0626294   0.8124655  )
       355        C      tau( 355) = (   0.5624365   0.3125023   0.0624181  )
       356        C      tau( 356) = (   0.5620277   0.3117405   0.3117405  )
       357        C      tau( 357) = (   0.5620332   0.3131418   0.5620332  )
       358        C      tau( 358) = (   0.5623907   0.3129408   0.8120240  )
       359        C      tau( 359) = (   0.5624743   0.5624743   0.0625702  )
       360        C      tau( 360) = (   0.5620332   0.5620332   0.3131417  )
       361        C      tau( 361) = (   0.5626866   0.5626866   0.8125243  )
       362        C      tau( 362) = (   0.5625121   0.8124655   0.0626293  )
       363        C      tau( 363) = (   0.5623907   0.8120240   0.3129408  )
       364        C      tau( 364) = (   0.5626866   0.8125243   0.5626866  )
       365        C      tau( 365) = (   0.5627075   0.8129135   0.8129136  )
       366        C      tau( 366) = (   0.8124705   0.0625353   0.0625353  )
       367        C      tau( 367) = (   0.8124326   0.0624607   0.3125333  )
       368        C      tau( 368) = (   0.8124655   0.0626294   0.5625121  )
       369        C      tau( 369) = (   0.8125045   0.0627128   0.8125045  )
       370        C      tau( 370) = (   0.8124326   0.3125333   0.0624607  )
       371        C      tau( 371) = (   0.8123758   0.3125300   0.3125300  )
       372        C      tau( 372) = (   0.8120240   0.3129408   0.5623907  )
       373        C      tau( 373) = (   0.8123734   0.3126875   0.8123734  )
       374        C      tau( 374) = (   0.8124655   0.5625121   0.0626293  )
       375        C      tau( 375) = (   0.8120240   0.5623907   0.3129408  )
       376        C      tau( 376) = (   0.8125243   0.5626866   0.5626866  )
       377        C      tau( 377) = (   0.8129135   0.5627075   0.8129136  )
       378        C      tau( 378) = (   0.8125045   0.8125045   0.0627128  )
       379        C      tau( 379) = (   0.8123734   0.8123734   0.3126875  )
       380        C      tau( 380) = (   0.8129135   0.8129136   0.5627075  )
       381        C      tau( 381) = (   0.8127413   0.8127413   0.8127413  )
       382        C      tau( 382) = (   0.0624332   0.1874619   0.1874619  )
       383        C      tau( 383) = (   0.0623594   0.1874384   0.4374541  )
       384        C      tau( 384) = (   0.0624306   0.1875293   0.6874520  )
       385        C      tau( 385) = (   0.0624772   0.1875188   0.9374447  )
       386        C      tau( 386) = (   0.0623594   0.4374541   0.1874385  )
       387        C      tau( 387) = (   0.0624249   0.4374573   0.4374574  )
       388        C      tau( 388) = (   0.0625356   0.4375199   0.6874314  )
       389        C      tau( 389) = (   0.0624727   0.4375170   0.9374670  )
       390        C      tau( 390) = (   0.0624306   0.6874520   0.1875293  )
       391        C      tau( 391) = (   0.0625356   0.6874314   0.4375199  )
       392        C      tau( 392) = (   0.0626917   0.6874929   0.6874929  )
       393        C      tau( 393) = (   0.0626447   0.6874943   0.9374971  )
       394        C      tau( 394) = (   0.0624772   0.9374447   0.1875188  )
       395        C      tau( 395) = (   0.0624727   0.9374670   0.4375170  )
       396        C      tau( 396) = (   0.0626447   0.9374971   0.6874943  )
       397        C      tau( 397) = (   0.0625685   0.9375067   0.9375067  )
       398        C      tau( 398) = (   0.3124320   0.1874186   0.1874186  )
       399        C      tau( 399) = (   0.3123461   0.1873471   0.4373685  )
       400        C      tau( 400) = (   0.3124920   0.1874453   0.6873808  )
       401        C      tau( 401) = (   0.3124862   0.1874792   0.9374065  )
       402        C      tau( 402) = (   0.3123461   0.4373685   0.1873471  )
       403        C      tau( 403) = (   0.3126473   0.4373573   0.4373573  )
       404        C      tau( 404) = (   0.3122677   0.4376498   0.6875989  )
       405        C      tau( 405) = (   0.3125559   0.4375038   0.9373167  )
       406        C      tau( 406) = (   0.3124920   0.6873809   0.1874453  )
       407        C      tau( 407) = (   0.3122677   0.6875989   0.4376498  )
       408        C      tau( 408) = (   0.3130391   0.6871194   0.6871194  )
       409        C      tau( 409) = (   0.3126309   0.6874444   0.9373855  )
       410        C      tau( 410) = (   0.3124862   0.9374065   0.1874792  )
       411        C      tau( 411) = (   0.3125559   0.9373167   0.4375038  )
       412        C      tau( 412) = (   0.3126309   0.9373856   0.6874444  )
       413        C      tau( 413) = (   0.3125575   0.9374404   0.9374404  )
       414        C      tau( 414) = (   0.5623715   0.1871788   0.1871788  )
       415        C      tau( 415) = (   0.5623248   0.1875682   0.4374350  )
       416        C      tau( 416) = (   0.5624058   0.1877307   0.6873227  )
       417        C      tau( 417) = (   0.5624610   0.1876465   0.9373313  )
       418        C      tau( 418) = (   0.5623248   0.4374350   0.1875681  )
       419        C      tau( 419) = (   0.5619420   0.4387879   0.6861813  )
       420        C      tau( 420) = (   0.5625105   0.4375761   0.9374106  )
       421        C      tau( 421) = (   0.5624058   0.6873227   0.1877307  )
       422        C      tau( 422) = (   0.5619420   0.6861813   0.4387879  )
       423        C      tau( 423) = (   0.5629894   0.6885962   0.6885963  )
       424        C      tau( 424) = (   0.5626035   0.6875733   0.9376196  )
       425        C      tau( 425) = (   0.5624610   0.9373313   0.1876465  )
       426        C      tau( 426) = (   0.5625105   0.9374106   0.4375761  )
       427        C      tau( 427) = (   0.5626035   0.9376197   0.6875733  )
       428        C      tau( 428) = (   0.5625432   0.9376200   0.9376200  )
       429        C      tau( 429) = (   0.8124066   0.1875084   0.1875084  )
       430        C      tau( 430) = (   0.8125046   0.1874503   0.4375233  )
       431        C      tau( 431) = (   0.8123165   0.1877843   0.6874005  )
       432        C      tau( 432) = (   0.8124475   0.1876126   0.9374417  )
       433        C      tau( 433) = (   0.8125046   0.4375233   0.1874503  )
       434        C      tau( 434) = (   0.8121792   0.4376016   0.4376016  )
       435        C      tau( 435) = (   0.8123660   0.4378151   0.6875093  )
       436        C      tau( 436) = (   0.8124847   0.4375929   0.9375107  )
       437        C      tau( 437) = (   0.8123165   0.6874004   0.1877843  )
       438        C      tau( 438) = (   0.8123661   0.6875093   0.4378151  )
       439        C      tau( 439) = (   0.8130009   0.6878623   0.6878623  )
       440        C      tau( 440) = (   0.8126667   0.6876291   0.9377732  )
       441        C      tau( 441) = (   0.8124475   0.9374417   0.1876126  )
       442        C      tau( 442) = (   0.8124847   0.9375107   0.4375929  )
       443        C      tau( 443) = (   0.8126667   0.9377732   0.6876291  )
       444        C      tau( 444) = (   0.8125642   0.9376229   0.9376230  )
       445        C      tau( 445) = (   0.1874619   0.1874618   0.0624332  )
       446        C      tau( 446) = (   0.1874186   0.1874186   0.3124320  )
       447        C      tau( 447) = (   0.1871788   0.1871788   0.5623715  )
       448        C      tau( 448) = (   0.1875084   0.1875084   0.8124066  )
       449        C      tau( 449) = (   0.1874384   0.4374541   0.0623594  )
       450        C      tau( 450) = (   0.1873471   0.4373685   0.3123461  )
       451        C      tau( 451) = (   0.1875681   0.4374350   0.5623248  )
       452        C      tau( 452) = (   0.1874503   0.4375233   0.8125046  )
       453        C      tau( 453) = (   0.1875293   0.6874520   0.0624306  )
       454        C      tau( 454) = (   0.1874453   0.6873809   0.3124920  )
       455        C      tau( 455) = (   0.1877307   0.6873227   0.5624058  )
       456        C      tau( 456) = (   0.1877843   0.6874004   0.8123165  )
       457        C      tau( 457) = (   0.1875188   0.9374447   0.0624772  )
       458        C      tau( 458) = (   0.1874792   0.9374065   0.3124862  )
       459        C      tau( 459) = (   0.1876465   0.9373313   0.5624610  )
       460        C      tau( 460) = (   0.1876126   0.9374417   0.8124475  )
       461        C      tau( 461) = (   0.4374541   0.1874384   0.0623594  )
       462        C      tau( 462) = (   0.4373685   0.1873471   0.3123461  )
       463        C      tau( 463) = (   0.4374350   0.1875682   0.5623248  )
       464        C      tau( 464) = (   0.4375233   0.1874503   0.8125046  )
       465        C      tau( 465) = (   0.4374574   0.4374573   0.0624249  )
       466        C      tau( 466) = (   0.4373574   0.4373573   0.3126472  )
       467        C      tau( 467) = (   0.4376016   0.4376016   0.8121792  )
       468        C      tau( 468) = (   0.4375199   0.6874314   0.0625356  )
       469        C      tau( 469) = (   0.4376498   0.6875989   0.3122676  )
       470        C      tau( 470) = (   0.4387879   0.6861813   0.5619420  )
       471        C      tau( 471) = (   0.4378151   0.6875093   0.8123661  )
       472        C      tau( 472) = (   0.4375170   0.9374670   0.0624727  )
       473        C      tau( 473) = (   0.4375038   0.9373167   0.3125559  )
       474        C      tau( 474) = (   0.4375761   0.9374107   0.5625105  )
       475        C      tau( 475) = (   0.4375929   0.9375107   0.8124847  )
       476        C      tau( 476) = (   0.6874520   0.1875293   0.0624307  )
       477        C      tau( 477) = (   0.6873808   0.1874453   0.3124920  )
       478        C      tau( 478) = (   0.6873227   0.1877307   0.5624058  )
       479        C      tau( 479) = (   0.6874005   0.1877843   0.8123165  )
       480        C      tau( 480) = (   0.6874314   0.4375199   0.0625356  )
       481        C      tau( 481) = (   0.6875989   0.4376498   0.3122677  )
       482        C      tau( 482) = (   0.6861813   0.4387879   0.5619420  )
       483        C      tau( 483) = (   0.6875093   0.4378151   0.8123661  )
       484        C      tau( 484) = (   0.6874929   0.6874929   0.0626917  )
       485        C      tau( 485) = (   0.6871194   0.6871194   0.3130391  )
       486        C      tau( 486) = (   0.6885962   0.6885962   0.5629894  )
       487        C      tau( 487) = (   0.6878624   0.6878623   0.8130009  )
       488        C      tau( 488) = (   0.6874943   0.9374970   0.0626448  )
       489        C      tau( 489) = (   0.6874444   0.9373856   0.3126308  )
       490        C      tau( 490) = (   0.6875733   0.9376197   0.5626035  )
       491        C      tau( 491) = (   0.6876291   0.9377732   0.8126667  )
       492        C      tau( 492) = (   0.9374447   0.1875188   0.0624772  )
       493        C      tau( 493) = (   0.9374065   0.1874792   0.3124862  )
       494        C      tau( 494) = (   0.9373312   0.1876465   0.5624610  )
       495        C      tau( 495) = (   0.9374417   0.1876126   0.8124475  )
       496        C      tau( 496) = (   0.9374670   0.4375170   0.0624727  )
       497        C      tau( 497) = (   0.9373167   0.4375038   0.3125559  )
       498        C      tau( 498) = (   0.9374106   0.4375761   0.5625105  )
       499        C      tau( 499) = (   0.9375107   0.4375929   0.8124847  )
       500        C      tau( 500) = (   0.9374970   0.6874943   0.0626448  )
       501        C      tau( 501) = (   0.9373855   0.6874444   0.3126308  )
       502        C      tau( 502) = (   0.9376196   0.6875733   0.5626035  )
       503        C      tau( 503) = (   0.9377732   0.6876291   0.8126667  )
       504        C      tau( 504) = (   0.9375067   0.9375067   0.0625685  )
       505        C      tau( 505) = (   0.9374404   0.9374404   0.3125575  )
       506        C      tau( 506) = (   0.9376200   0.9376200   0.5625432  )
       507        C      tau( 507) = (   0.9376229   0.9376229   0.8125642  )
       508        C      tau( 508) = (   0.5649939   0.4330112   0.4330111  )
       509        C      tau( 509) = (   0.4330112   0.4330112   0.5649939  )
       510        C      tau( 510) = (   0.4330112   0.5649939   0.4330111  )
       511        N      tau( 511) = (   0.5686231   0.5686231   0.5686231  )

   Crystallographic axes

     site n.     atom                  positions (cryst. coord.)
         1        C      tau(   1) = (  0.0000099  0.0000099  0.0000099  )
         2        C      tau(   2) = ( -0.0000537 -0.0000536  0.2500159  )
         3        C      tau(   3) = ( -0.0000022 -0.0000022  0.5000072  )
         4        C      tau(   4) = (  0.0000753  0.0000753  0.7499974  )
         5        C      tau(   5) = ( -0.0000537  0.2500159 -0.0000537  )
         6        C      tau(   6) = ( -0.0001070  0.2499598  0.2499598  )
         7        C      tau(   7) = ( -0.0001381  0.2500428  0.4999662  )
         8        C      tau(   8) = ( -0.0000785  0.2500694  0.7499405  )
         9        C      tau(   9) = ( -0.0000022  0.5000072 -0.0000022  )
        10        C      tau(  10) = ( -0.0001381  0.4999661  0.2500428  )
        11        C      tau(  11) = ( -0.0000395  0.5000034  0.5000034  )
        12        C      tau(  12) = (  0.0000813  0.5000425  0.7499814  )
        13        C      tau(  13) = (  0.0000753  0.7499974  0.0000753  )
        14        C      tau(  14) = ( -0.0000785  0.7499405  0.2500694  )
        15        C      tau(  15) = (  0.0000813  0.7499814  0.5000425  )
        16        C      tau(  16) = (  0.0002492  0.7500694  0.7500694  )
        17        C      tau(  17) = (  0.2500159 -0.0000536 -0.0000537  )
        18        C      tau(  18) = (  0.2499598 -0.0001070  0.2499598  )
        19        C      tau(  19) = (  0.2500428 -0.0001381  0.4999662  )
        20        C      tau(  20) = (  0.2500694 -0.0000785  0.7499405  )
        21        C      tau(  21) = (  0.2499598  0.2499598 -0.0001070  )
        22        C      tau(  22) = (  0.2499494  0.2499494  0.2499494  )
        23        C      tau(  23) = (  0.2494935  0.2494935  0.4999426  )
        24        C      tau(  24) = (  0.2500065  0.2500065  0.7498719  )
        25        C      tau(  25) = (  0.2500428  0.4999661 -0.0001381  )
        26        C      tau(  26) = (  0.2494935  0.4999426  0.2494935  )
        27        C      tau(  27) = (  0.2503151  0.4997701  0.4997700  )
        28        C      tau(  28) = (  0.2499921  0.4998625  0.7499531  )
        29        C      tau(  29) = (  0.2500694  0.7499405 -0.0000785  )
        30        C      tau(  30) = (  0.2500065  0.7498719  0.2500065  )
        31        C      tau(  31) = (  0.2499921  0.7499531  0.4998626  )
        32        C      tau(  32) = (  0.2503962  0.7497575  0.7497575  )
        33        C      tau(  33) = (  0.5000072 -0.0000022 -0.0000022  )
        34        C      tau(  34) = (  0.4999662 -0.0001381  0.2500428  )
        35        C      tau(  35) = (  0.5000034 -0.0000395  0.5000034  )
        36        C      tau(  36) = (  0.5000425  0.0000814  0.7499814  )
        37        C      tau(  37) = (  0.4999662  0.2500428 -0.0001381  )
        38        C      tau(  38) = (  0.4999426  0.2494935  0.2494935  )
        39        C      tau(  39) = (  0.4997701  0.2503151  0.4997700  )
        40        C      tau(  40) = (  0.4998626  0.2499921  0.7499531  )
        41        C      tau(  41) = (  0.5000034  0.5000034 -0.0000395  )
        42        C      tau(  42) = (  0.4997700  0.4997701  0.2503151  )
        43        C      tau(  43) = (  0.5001657  0.5001656  0.7495291  )
        44        C      tau(  44) = (  0.5000425  0.7499814  0.0000813  )
        45        C      tau(  45) = (  0.4998626  0.7499531  0.2499921  )
        46        C      tau(  46) = (  0.5001657  0.7495291  0.5001656  )
        47        C      tau(  47) = (  0.5004072  0.7505162  0.7505162  )
        48        C      tau(  48) = (  0.7499974  0.0000753  0.0000753  )
        49        C      tau(  49) = (  0.7499405 -0.0000785  0.2500694  )
        50        C      tau(  50) = (  0.7499814  0.0000814  0.5000425  )
        51        C      tau(  51) = (  0.7500694  0.0002493  0.7500694  )
        52        C      tau(  52) = (  0.7499405  0.2500694 -0.0000785  )
        53        C      tau(  53) = (  0.7498719  0.2500065  0.2500065  )
        54        C      tau(  54) = (  0.7499531  0.2499921  0.4998626  )
        55        C      tau(  55) = (  0.7497575  0.2503962  0.7497575  )
        56        C      tau(  56) = (  0.7499814  0.5000425  0.0000813  )
        57        C      tau(  57) = (  0.7499531  0.4998625  0.2499921  )
        58        C      tau(  58) = (  0.7495291  0.5001656  0.5001656  )
        59        C      tau(  59) = (  0.7505162  0.5004072  0.7505162  )
        60        C      tau(  60) = (  0.7500694  0.7500694  0.0002493  )
        61        C      tau(  61) = (  0.7497575  0.7497575  0.2503962  )
        62        C      tau(  62) = (  0.7505162  0.7505162  0.5004072  )
        63        C      tau(  63) = (  0.7503396  0.7503396  0.7503396  )
        64        C      tau(  64) = ( -0.0000517  0.1249803  0.1249803  )
        65        C      tau(  65) = ( -0.0000880  0.1249603  0.3749744  )
        66        C      tau(  66) = ( -0.0000800  0.1250821  0.6249792  )
        67        C      tau(  67) = ( -0.0000177  0.1250555  0.8749604  )
        68        C      tau(  68) = ( -0.0000880  0.3749744  0.1249603  )
        69        C      tau(  69) = ( -0.0001498  0.3749980  0.3749980  )
        70        C      tau(  70) = ( -0.0000581  0.3750522  0.6249526  )
        71        C      tau(  71) = ( -0.0000282  0.3750332  0.8749465  )
        72        C      tau(  72) = ( -0.0000800  0.6249792  0.1250821  )
        73        C      tau(  73) = ( -0.0000581  0.6249526  0.3750522  )
        74        C      tau(  74) = (  0.0001324  0.6250226  0.6250226  )
        75        C      tau(  75) = (  0.0001742  0.6250408  0.8750621  )
        76        C      tau(  76) = ( -0.0000177  0.8749604  0.1250555  )
        77        C      tau(  77) = ( -0.0000282  0.8749465  0.3750332  )
        78        C      tau(  78) = (  0.0001742  0.8750621  0.6250408  )
        79        C      tau(  79) = (  0.0001329  0.8750415  0.8750415  )
        80        C      tau(  80) = (  0.2499613  0.1249402  0.1249402  )
        81        C      tau(  81) = (  0.2499385  0.1248591  0.3749320  )
        82        C      tau(  82) = (  0.2499323  0.1248892  0.6249347  )
        83        C      tau(  83) = (  0.2500037  0.1249796  0.8749155  )
        84        C      tau(  84) = (  0.2499385  0.3749320  0.1248591  )
        85        C      tau(  85) = (  0.2500148  0.3749870  0.3749870  )
        86        C      tau(  86) = (  0.2499583  0.3748793  0.6248042  )
        87        C      tau(  87) = (  0.2499985  0.3749814  0.8748971  )
        88        C      tau(  88) = (  0.2499323  0.6249347  0.1248892  )
        89        C      tau(  89) = (  0.2499583  0.6248042  0.3748793  )
        90        C      tau(  90) = (  0.2505244  0.6245782  0.6245782  )
        91        C      tau(  91) = (  0.2503366  0.6249377  0.8747052  )
        92        C      tau(  92) = (  0.2500037  0.8749155  0.1249796  )
        93        C      tau(  93) = (  0.2499985  0.8748971  0.3749815  )
        94        C      tau(  94) = (  0.2503366  0.8747052  0.6249377  )
        95        C      tau(  95) = (  0.2501211  0.8749119  0.8749119  )
        96        C      tau(  96) = (  0.4999759  0.1248010  0.1248010  )
        97        C      tau(  97) = (  0.4999176  0.1249593  0.3749469  )
        98        C      tau(  98) = (  0.4999309  0.1251186  0.6248732  )
        99        C      tau(  99) = (  0.4999666  0.1250174  0.8749758  )
       100        C      tau( 100) = (  0.4999176  0.3749469  0.1249593  )
       101        C      tau( 101) = (  0.5002198  0.3750479  0.3750478  )
       102        C      tau( 102) = (  0.4992199  0.3760346  0.6235135  )
       103        C      tau( 103) = (  0.5000003  0.3751773  0.8747344  )
       104        C      tau( 104) = (  0.4999309  0.6248732  0.1251185  )
       105        C      tau( 105) = (  0.4992199  0.6235135  0.3760346  )
       106        C      tau( 106) = (  0.5031253  0.6249492  0.6249492  )
       107        C      tau( 107) = (  0.5001578  0.6250510  0.8749912  )
       108        C      tau( 108) = (  0.4999666  0.8749759  0.1250174  )
       109        C      tau( 109) = (  0.5000003  0.8747344  0.3751773  )
       110        C      tau( 110) = (  0.5001578  0.8749912  0.6250510  )
       111        C      tau( 111) = (  0.5001270  0.8751851  0.8751851  )
       112        C      tau( 112) = (  0.7499424  0.1250025  0.1250025  )
       113        C      tau( 113) = (  0.7499386  0.1249824  0.3749867  )
       114        C      tau( 114) = (  0.7498630  0.1252235  0.6249301  )
       115        C      tau( 115) = (  0.7499480  0.1252104  0.8749271  )
       116        C      tau( 116) = (  0.7499385  0.3749867  0.1249824  )
       117        C      tau( 117) = (  0.7497701  0.3750267  0.3750267  )
       118        C      tau( 118) = (  0.7491565  0.3758680  0.6247933  )
       119        C      tau( 119) = (  0.7499057  0.3751632  0.8748960  )
       120        C      tau( 120) = (  0.7498630  0.6249301  0.1252235  )
       121        C      tau( 121) = (  0.7491565  0.6247933  0.3758680  )
       122        C      tau( 122) = (  0.7506715  0.6255198  0.6255198  )
       123        C      tau( 123) = (  0.7502686  0.6252168  0.8753492  )
       124        C      tau( 124) = (  0.7499480  0.8749271  0.1252104  )
       125        C      tau( 125) = (  0.7499057  0.8748960  0.3751632  )
       126        C      tau( 126) = (  0.7502686  0.8753492  0.6252168  )
       127        C      tau( 127) = (  0.7501318  0.8751952  0.8751952  )
       128        C      tau( 128) = (  0.1249803 -0.0000517  0.1249803  )
       129        C      tau( 129) = (  0.1249603 -0.0000880  0.3749744  )
       130        C      tau( 130) = (  0.1250821 -0.0000800  0.6249792  )
       131        C      tau( 131) = (  0.1250555 -0.0000177  0.8749604  )
       132        C      tau( 132) = (  0.1249402  0.2499613  0.1249402  )
       133        C      tau( 133) = (  0.1248591  0.2499385  0.3749320  )
       134        C      tau( 134) = (  0.1248892  0.2499323  0.6249347  )
       135        C      tau( 135) = (  0.1249796  0.2500037  0.8749155  )
       136        C      tau( 136) = (  0.1248010  0.4999759  0.1248010  )
       137        C      tau( 137) = (  0.1249593  0.4999176  0.3749469  )
       138        C      tau( 138) = (  0.1251185  0.4999309  0.6248732  )
       139        C      tau( 139) = (  0.1250174  0.4999666  0.8749758  )
       140        C      tau( 140) = (  0.1250025  0.7499424  0.1250025  )
       141        C      tau( 141) = (  0.1249824  0.7499386  0.3749867  )
       142        C      tau( 142) = (  0.1252235  0.7498630  0.6249302  )
       143        C      tau( 143) = (  0.1252104  0.7499480  0.8749271  )
       144        C      tau( 144) = (  0.3749744 -0.0000880  0.1249603  )
       145        C      tau( 145) = (  0.3749980 -0.0001498  0.3749980  )
       146        C      tau( 146) = (  0.3750522 -0.0000581  0.6249526  )
       147        C      tau( 147) = (  0.3750332 -0.0000282  0.8749465  )
       148        C      tau( 148) = (  0.3749320  0.2499385  0.1248591  )
       149        C      tau( 149) = (  0.3749870  0.2500148  0.3749870  )
       150        C      tau( 150) = (  0.3748793  0.2499583  0.6248042  )
       151        C      tau( 151) = (  0.3749815  0.2499985  0.8748971  )
       152        C      tau( 152) = (  0.3749469  0.4999176  0.1249593  )
       153        C      tau( 153) = (  0.3750479  0.5002198  0.3750478  )
       154        C      tau( 154) = (  0.3760346  0.4992199  0.6235135  )
       155        C      tau( 155) = (  0.3751773  0.5000003  0.8747344  )
       156        C      tau( 156) = (  0.3749867  0.7499386  0.1249824  )
       157        C      tau( 157) = (  0.3750268  0.7497702  0.3750267  )
       158        C      tau( 158) = (  0.3758680  0.7491565  0.6247934  )
       159        C      tau( 159) = (  0.3751632  0.7499057  0.8748960  )
       160        C      tau( 160) = (  0.6249792 -0.0000800  0.1250821  )
       161        C      tau( 161) = (  0.6249526 -0.0000581  0.3750522  )
       162        C      tau( 162) = (  0.6250226  0.0001324  0.6250226  )
       163        C      tau( 163) = (  0.6250409  0.0001742  0.8750621  )
       164        C      tau( 164) = (  0.6249347  0.2499323  0.1248892  )
       165        C      tau( 165) = (  0.6248042  0.2499583  0.3748793  )
       166        C      tau( 166) = (  0.6245782  0.2505244  0.6245782  )
       167        C      tau( 167) = (  0.6249377  0.2503366  0.8747052  )
       168        C      tau( 168) = (  0.6248732  0.4999309  0.1251185  )
       169        C      tau( 169) = (  0.6235135  0.4992199  0.3760346  )
       170        C      tau( 170) = (  0.6249492  0.5031253  0.6249492  )
       171        C      tau( 171) = (  0.6250510  0.5001578  0.8749912  )
       172        C      tau( 172) = (  0.6249302  0.7498630  0.1252235  )
       173        C      tau( 173) = (  0.6247934  0.7491565  0.3758680  )
       174        C      tau( 174) = (  0.6255198  0.7506715  0.6255198  )
       175        C      tau( 175) = (  0.6252168  0.7502685  0.8753492  )
       176        C      tau( 176) = (  0.8749604 -0.0000177  0.1250555  )
       177        C      tau( 177) = (  0.8749465 -0.0000282  0.3750332  )
       178        C      tau( 178) = (  0.8750621  0.0001742  0.6250408  )
       179        C      tau( 179) = (  0.8750415  0.0001329  0.8750415  )
       180        C      tau( 180) = (  0.8749155  0.2500037  0.1249796  )
       181        C      tau( 181) = (  0.8748971  0.2499985  0.3749815  )
       182        C      tau( 182) = (  0.8747052  0.2503366  0.6249377  )
       183        C      tau( 183) = (  0.8749119  0.2501211  0.8749119  )
       184        C      tau( 184) = (  0.8749758  0.4999666  0.1250174  )
       185        C      tau( 185) = (  0.8747343  0.5000003  0.3751773  )
       186        C      tau( 186) = (  0.8749912  0.5001578  0.6250510  )
       187        C      tau( 187) = (  0.8751851  0.5001270  0.8751851  )
       188        C      tau( 188) = (  0.8749271  0.7499480  0.1252104  )
       189        C      tau( 189) = (  0.8748960  0.7499057  0.3751632  )
       190        C      tau( 190) = (  0.8753492  0.7502686  0.6252168  )
       191        C      tau( 191) = (  0.8751952  0.7501318  0.8751952  )
       192        C      tau( 192) = (  0.1249803  0.1249803 -0.0000517  )
       193        C      tau( 193) = (  0.1249402  0.1249402  0.2499613  )
       194        C      tau( 194) = (  0.1248010  0.1248010  0.4999759  )
       195        C      tau( 195) = (  0.1250025  0.1250025  0.7499424  )
       196        C      tau( 196) = (  0.1249603  0.3749744 -0.0000880  )
       197        C      tau( 197) = (  0.1248591  0.3749320  0.2499385  )
       198        C      tau( 198) = (  0.1249593  0.3749469  0.4999176  )
       199        C      tau( 199) = (  0.1249824  0.3749867  0.7499386  )
       200        C      tau( 200) = (  0.1250821  0.6249792 -0.0000800  )
       201        C      tau( 201) = (  0.1248891  0.6249347  0.2499323  )
       202        C      tau( 202) = (  0.1251185  0.6248732  0.4999309  )
       203        C      tau( 203) = (  0.1252235  0.6249301  0.7498630  )
       204        C      tau( 204) = (  0.1250555  0.8749604 -0.0000177  )
       205        C      tau( 205) = (  0.1249796  0.8749155  0.2500037  )
       206        C      tau( 206) = (  0.1250174  0.8749759  0.4999666  )
       207        C      tau( 207) = (  0.1252104  0.8749271  0.7499480  )
       208        C      tau( 208) = (  0.3749744  0.1249603 -0.0000880  )
       209        C      tau( 209) = (  0.3749320  0.1248591  0.2499385  )
       210        C      tau( 210) = (  0.3749469  0.1249593  0.4999176  )
       211        C      tau( 211) = (  0.3749867  0.1249824  0.7499386  )
       212        C      tau( 212) = (  0.3749980  0.3749980 -0.0001498  )
       213        C      tau( 213) = (  0.3749870  0.3749870  0.2500148  )
       214        C      tau( 214) = (  0.3750479  0.3750479  0.5002198  )
       215        C      tau( 215) = (  0.3750268  0.3750267  0.7497701  )
       216        C      tau( 216) = (  0.3750522  0.6249526 -0.0000581  )
       217        C      tau( 217) = (  0.3748793  0.6248042  0.2499583  )
       218        C      tau( 218) = (  0.3760346  0.6235135  0.4992199  )
       219        C      tau( 219) = (  0.3758680  0.6247933  0.7491565  )
       220        C      tau( 220) = (  0.3750332  0.8749465 -0.0000282  )
       221        C      tau( 221) = (  0.3749815  0.8748971  0.2499985  )
       222        C      tau( 222) = (  0.3751773  0.8747344  0.5000003  )
       223        C      tau( 223) = (  0.3751632  0.8748960  0.7499057  )
       224        C      tau( 224) = (  0.6249792  0.1250821 -0.0000800  )
       225        C      tau( 225) = (  0.6249347  0.1248892  0.2499323  )
       226        C      tau( 226) = (  0.6248732  0.1251186  0.4999309  )
       227        C      tau( 227) = (  0.6249302  0.1252235  0.7498630  )
       228        C      tau( 228) = (  0.6249526  0.3750522 -0.0000581  )
       229        C      tau( 229) = (  0.6248042  0.3748793  0.2499583  )
       230        C      tau( 230) = (  0.6235135  0.3760346  0.4992199  )
       231        C      tau( 231) = (  0.6247934  0.3758680  0.7491565  )
       232        C      tau( 232) = (  0.6250226  0.6250226  0.0001324  )
       233        C      tau( 233) = (  0.6245782  0.6245782  0.2505244  )
       234        C      tau( 234) = (  0.6249492  0.6249492  0.5031253  )
       235        C      tau( 235) = (  0.6255198  0.6255198  0.7506715  )
       236        C      tau( 236) = (  0.6250409  0.8750621  0.0001742  )
       237        C      tau( 237) = (  0.6249377  0.8747052  0.2503366  )
       238        C      tau( 238) = (  0.6250510  0.8749912  0.5001578  )
       239        C      tau( 239) = (  0.6252168  0.8753492  0.7502686  )
       240        C      tau( 240) = (  0.8749604  0.1250555 -0.0000177  )
       241        C      tau( 241) = (  0.8749155  0.1249796  0.2500037  )
       242        C      tau( 242) = (  0.8749758  0.1250174  0.4999666  )
       243        C      tau( 243) = (  0.8749270  0.1252104  0.7499480  )
       244        C      tau( 244) = (  0.8749465  0.3750332 -0.0000282  )
       245        C      tau( 245) = (  0.8748971  0.3749814  0.2499985  )
       246        C      tau( 246) = (  0.8747343  0.3751773  0.5000003  )
       247        C      tau( 247) = (  0.8748960  0.3751632  0.7499057  )
       248        C      tau( 248) = (  0.8750621  0.6250408  0.0001742  )
       249        C      tau( 249) = (  0.8747052  0.6249377  0.2503366  )
       250        C      tau( 250) = (  0.8749912  0.6250510  0.5001578  )
       251        C      tau( 251) = (  0.8753492  0.6252168  0.7502686  )
       252        C      tau( 252) = (  0.8750415  0.8750415  0.0001329  )
       253        C      tau( 253) = (  0.8749119  0.8749119  0.2501211  )
       254        C      tau( 254) = (  0.8751851  0.8751851  0.5001270  )
       255        C      tau( 255) = (  0.8751952  0.8751952  0.7501318  )
       256        C      tau( 256) = (  0.1874618  0.0624332  0.1874619  )
       257        C      tau( 257) = (  0.1874384  0.0623594  0.4374541  )
       258        C      tau( 258) = (  0.1875293  0.0624307  0.6874520  )
       259        C      tau( 259) = (  0.1875188  0.0624772  0.9374447  )
       260        C      tau( 260) = (  0.1874186  0.3124320  0.1874186  )
       261        C      tau( 261) = (  0.1873471  0.3123461  0.4373685  )
       262        C      tau( 262) = (  0.1874453  0.3124920  0.6873808  )
       263        C      tau( 263) = (  0.1874792  0.3124861  0.9374065  )
       264        C      tau( 264) = (  0.1871788  0.5623715  0.1871788  )
       265        C      tau( 265) = (  0.1875681  0.5623248  0.4374350  )
       266        C      tau( 266) = (  0.1877307  0.5624058  0.6873227  )
       267        C      tau( 267) = (  0.1876465  0.5624610  0.9373313  )
       268        C      tau( 268) = (  0.1875084  0.8124066  0.1875084  )
       269        C      tau( 269) = (  0.1874503  0.8125047  0.4375233  )
       270        C      tau( 270) = (  0.1877843  0.8123165  0.6874005  )
       271        C      tau( 271) = (  0.1876126  0.8124475  0.9374417  )
       272        C      tau( 272) = (  0.4374541  0.0623594  0.1874384  )
       273        C      tau( 273) = (  0.4374574  0.0624249  0.4374574  )
       274        C      tau( 274) = (  0.4375200  0.0625356  0.6874314  )
       275        C      tau( 275) = (  0.4375170  0.0624727  0.9374670  )
       276        C      tau( 276) = (  0.4373685  0.3123461  0.1873471  )
       277        C      tau( 277) = (  0.4373573  0.3126473  0.4373573  )
       278        C      tau( 278) = (  0.4376498  0.3122677  0.6875989  )
       279        C      tau( 279) = (  0.4375038  0.3125559  0.9373167  )
       280        C      tau( 280) = (  0.4374350  0.5623248  0.1875681  )
       281        C      tau( 281) = (  0.4387879  0.5619420  0.6861813  )
       282        C      tau( 282) = (  0.4375761  0.5625105  0.9374106  )
       283        C      tau( 283) = (  0.4375233  0.8125047  0.1874503  )
       284        C      tau( 284) = (  0.4376017  0.8121792  0.4376016  )
       285        C      tau( 285) = (  0.4378151  0.8123661  0.6875093  )
       286        C      tau( 286) = (  0.4375929  0.8124847  0.9375107  )
       287        C      tau( 287) = (  0.6874520  0.0624307  0.1875294  )
       288        C      tau( 288) = (  0.6874314  0.0625356  0.4375199  )
       289        C      tau( 289) = (  0.6874929  0.0626917  0.6874929  )
       290        C      tau( 290) = (  0.6874943  0.0626448  0.9374971  )
       291        C      tau( 291) = (  0.6873808  0.3124920  0.1874453  )
       292        C      tau( 292) = (  0.6875989  0.3122677  0.4376497  )
       293        C      tau( 293) = (  0.6871194  0.3130391  0.6871194  )
       294        C      tau( 294) = (  0.6874444  0.3126308  0.9373855  )
       295        C      tau( 295) = (  0.6873227  0.5624058  0.1877307  )
       296        C      tau( 296) = (  0.6861813  0.5619420  0.4387879  )
       297        C      tau( 297) = (  0.6885962  0.5629893  0.6885962  )
       298        C      tau( 298) = (  0.6875733  0.5626035  0.9376196  )
       299        C      tau( 299) = (  0.6874005  0.8123165  0.1877843  )
       300        C      tau( 300) = (  0.6875093  0.8123661  0.4378151  )
       301        C      tau( 301) = (  0.6878624  0.8130009  0.6878624  )
       302        C      tau( 302) = (  0.6876291  0.8126667  0.9377732  )
       303        C      tau( 303) = (  0.9374447  0.0624772  0.1875189  )
       304        C      tau( 304) = (  0.9374670  0.0624727  0.4375170  )
       305        C      tau( 305) = (  0.9374970  0.0626448  0.6874943  )
       306        C      tau( 306) = (  0.9375067  0.0625685  0.9375067  )
       307        C      tau( 307) = (  0.9374065  0.3124862  0.1874792  )
       308        C      tau( 308) = (  0.9373167  0.3125559  0.4375038  )
       309        C      tau( 309) = (  0.9373855  0.3126308  0.6874444  )
       310        C      tau( 310) = (  0.9374404  0.3125575  0.9374404  )
       311        C      tau( 311) = (  0.9373312  0.5624610  0.1876465  )
       312        C      tau( 312) = (  0.9374106  0.5625105  0.4375761  )
       313        C      tau( 313) = (  0.9376196  0.5626035  0.6875733  )
       314        C      tau( 314) = (  0.9376200  0.5625432  0.9376200  )
       315        C      tau( 315) = (  0.9374417  0.8124475  0.1876126  )
       316        C      tau( 316) = (  0.9375107  0.8124847  0.4375929  )
       317        C      tau( 317) = (  0.9377732  0.8126667  0.6876291  )
       318        C      tau( 318) = (  0.9376229  0.8125642  0.9376230  )
       319        C      tau( 319) = (  0.0624834  0.0624834  0.0624834  )
       320        C      tau( 320) = (  0.0624440  0.0624440  0.3124868  )
       321        C      tau( 321) = (  0.0624280  0.0624280  0.5624625  )
       322        C      tau( 322) = (  0.0625353  0.0625353  0.8124705  )
       323        C      tau( 323) = (  0.0624440  0.3124868  0.0624440  )
       324        C      tau( 324) = (  0.0623429  0.3124384  0.3124384  )
       325        C      tau( 325) = (  0.0624181  0.3125023  0.5624365  )
       326        C      tau( 326) = (  0.0624607  0.3125333  0.8124326  )
       327        C      tau( 327) = (  0.0624280  0.5624625  0.0624280  )
       328        C      tau( 328) = (  0.0624181  0.5624365  0.3125023  )
       329        C      tau( 329) = (  0.0625702  0.5624743  0.5624743  )
       330        C      tau( 330) = (  0.0626293  0.5625121  0.8124655  )
       331        C      tau( 331) = (  0.0625353  0.8124706  0.0625353  )
       332        C      tau( 332) = (  0.0624607  0.8124326  0.3125333  )
       333        C      tau( 333) = (  0.0626293  0.8124655  0.5625121  )
       334        C      tau( 334) = (  0.0627128  0.8125045  0.8125045  )
       335        C      tau( 335) = (  0.3124868  0.0624440  0.0624440  )
       336        C      tau( 336) = (  0.3124384  0.0623430  0.3124384  )
       337        C      tau( 337) = (  0.3125023  0.0624181  0.5624365  )
       338        C      tau( 338) = (  0.3125333  0.0624607  0.8124326  )
       339        C      tau( 339) = (  0.3124384  0.3124384  0.0623430  )
       340        C      tau( 340) = (  0.3124345  0.3124345  0.3124345  )
       341        C      tau( 341) = (  0.3117405  0.3117405  0.5620277  )
       342        C      tau( 342) = (  0.3125300  0.3125300  0.8123758  )
       343        C      tau( 343) = (  0.3125023  0.5624365  0.0624181  )
       344        C      tau( 344) = (  0.3117405  0.5620277  0.3117405  )
       345        C      tau( 345) = (  0.3131417  0.5620332  0.5620332  )
       346        C      tau( 346) = (  0.3129408  0.5623907  0.8120240  )
       347        C      tau( 347) = (  0.3125333  0.8124326  0.0624607  )
       348        C      tau( 348) = (  0.3125300  0.8123759  0.3125300  )
       349        C      tau( 349) = (  0.3129408  0.8120240  0.5623907  )
       350        C      tau( 350) = (  0.3126875  0.8123734  0.8123734  )
       351        C      tau( 351) = (  0.5624625  0.0624280  0.0624280  )
       352        C      tau( 352) = (  0.5624365  0.0624181  0.3125023  )
       353        C      tau( 353) = (  0.5624743  0.0625702  0.5624743  )
       354        C      tau( 354) = (  0.5625121  0.0626294  0.8124655  )
       355        C      tau( 355) = (  0.5624365  0.3125023  0.0624181  )
       356        C      tau( 356) = (  0.5620277  0.3117405  0.3117405  )
       357        C      tau( 357) = (  0.5620332  0.3131418  0.5620332  )
       358        C      tau( 358) = (  0.5623907  0.3129408  0.8120240  )
       359        C      tau( 359) = (  0.5624743  0.5624743  0.0625702  )
       360        C      tau( 360) = (  0.5620332  0.5620332  0.3131417  )
       361        C      tau( 361) = (  0.5626866  0.5626866  0.8125243  )
       362        C      tau( 362) = (  0.5625121  0.8124655  0.0626293  )
       363        C      tau( 363) = (  0.5623907  0.8120240  0.3129408  )
       364        C      tau( 364) = (  0.5626866  0.8125243  0.5626866  )
       365        C      tau( 365) = (  0.5627075  0.8129135  0.8129136  )
       366        C      tau( 366) = (  0.8124705  0.0625353  0.0625353  )
       367        C      tau( 367) = (  0.8124326  0.0624607  0.3125333  )
       368        C      tau( 368) = (  0.8124655  0.0626294  0.5625121  )
       369        C      tau( 369) = (  0.8125045  0.0627128  0.8125045  )
       370        C      tau( 370) = (  0.8124326  0.3125333  0.0624607  )
       371        C      tau( 371) = (  0.8123758  0.3125300  0.3125300  )
       372        C      tau( 372) = (  0.8120240  0.3129408  0.5623907  )
       373        C      tau( 373) = (  0.8123734  0.3126875  0.8123734  )
       374        C      tau( 374) = (  0.8124655  0.5625121  0.0626293  )
       375        C      tau( 375) = (  0.8120240  0.5623907  0.3129408  )
       376        C      tau( 376) = (  0.8125243  0.5626866  0.5626866  )
       377        C      tau( 377) = (  0.8129135  0.5627075  0.8129136  )
       378        C      tau( 378) = (  0.8125045  0.8125045  0.0627128  )
       379        C      tau( 379) = (  0.8123734  0.8123734  0.3126875  )
       380        C      tau( 380) = (  0.8129135  0.8129136  0.5627075  )
       381        C      tau( 381) = (  0.8127413  0.8127413  0.8127413  )
       382        C      tau( 382) = (  0.0624332  0.1874619  0.1874619  )
       383        C      tau( 383) = (  0.0623594  0.1874384  0.4374541  )
       384        C      tau( 384) = (  0.0624306  0.1875293  0.6874520  )
       385        C      tau( 385) = (  0.0624772  0.1875188  0.9374447  )
       386        C      tau( 386) = (  0.0623594  0.4374541  0.1874385  )
       387        C      tau( 387) = (  0.0624249  0.4374573  0.4374574  )
       388        C      tau( 388) = (  0.0625356  0.4375199  0.6874314  )
       389        C      tau( 389) = (  0.0624727  0.4375170  0.9374670  )
       390        C      tau( 390) = (  0.0624306  0.6874520  0.1875293  )
       391        C      tau( 391) = (  0.0625356  0.6874314  0.4375199  )
       392        C      tau( 392) = (  0.0626917  0.6874929  0.6874929  )
       393        C      tau( 393) = (  0.0626447  0.6874943  0.9374971  )
       394        C      tau( 394) = (  0.0624772  0.9374447  0.1875188  )
       395        C      tau( 395) = (  0.0624727  0.9374670  0.4375170  )
       396        C      tau( 396) = (  0.0626447  0.9374971  0.6874943  )
       397        C      tau( 397) = (  0.0625685  0.9375067  0.9375067  )
       398        C      tau( 398) = (  0.3124320  0.1874186  0.1874186  )
       399        C      tau( 399) = (  0.3123461  0.1873471  0.4373685  )
       400        C      tau( 400) = (  0.3124920  0.1874453  0.6873808  )
       401        C      tau( 401) = (  0.3124862  0.1874792  0.9374065  )
       402        C      tau( 402) = (  0.3123461  0.4373685  0.1873471  )
       403        C      tau( 403) = (  0.3126473  0.4373573  0.4373573  )
       404        C      tau( 404) = (  0.3122677  0.4376498  0.6875989  )
       405        C      tau( 405) = (  0.3125559  0.4375038  0.9373167  )
       406        C      tau( 406) = (  0.3124920  0.6873809  0.1874453  )
       407        C      tau( 407) = (  0.3122677  0.6875989  0.4376498  )
       408        C      tau( 408) = (  0.3130391  0.6871194  0.6871194  )
       409        C      tau( 409) = (  0.3126309  0.6874444  0.9373855  )
       410        C      tau( 410) = (  0.3124862  0.9374065  0.1874792  )
       411        C      tau( 411) = (  0.3125559  0.9373167  0.4375038  )
       412        C      tau( 412) = (  0.3126309  0.9373856  0.6874444  )
       413        C      tau( 413) = (  0.3125575  0.9374404  0.9374404  )
       414        C      tau( 414) = (  0.5623715  0.1871788  0.1871788  )
       415        C      tau( 415) = (  0.5623248  0.1875682  0.4374350  )
       416        C      tau( 416) = (  0.5624058  0.1877307  0.6873227  )
       417        C      tau( 417) = (  0.5624610  0.1876465  0.9373313  )
       418        C      tau( 418) = (  0.5623248  0.4374350  0.1875681  )
       419        C      tau( 419) = (  0.5619420  0.4387879  0.6861813  )
       420        C      tau( 420) = (  0.5625105  0.4375761  0.9374106  )
       421        C      tau( 421) = (  0.5624058  0.6873227  0.1877307  )
       422        C      tau( 422) = (  0.5619420  0.6861813  0.4387879  )
       423        C      tau( 423) = (  0.5629894  0.6885962  0.6885963  )
       424        C      tau( 424) = (  0.5626035  0.6875733  0.9376196  )
       425        C      tau( 425) = (  0.5624610  0.9373313  0.1876465  )
       426        C      tau( 426) = (  0.5625105  0.9374106  0.4375761  )
       427        C      tau( 427) = (  0.5626035  0.9376197  0.6875733  )
       428        C      tau( 428) = (  0.5625432  0.9376200  0.9376200  )
       429        C      tau( 429) = (  0.8124066  0.1875084  0.1875084  )
       430        C      tau( 430) = (  0.8125046  0.1874503  0.4375233  )
       431        C      tau( 431) = (  0.8123165  0.1877843  0.6874005  )
       432        C      tau( 432) = (  0.8124475  0.1876126  0.9374417  )
       433        C      tau( 433) = (  0.8125046  0.4375233  0.1874503  )
       434        C      tau( 434) = (  0.8121792  0.4376016  0.4376016  )
       435        C      tau( 435) = (  0.8123660  0.4378151  0.6875093  )
       436        C      tau( 436) = (  0.8124847  0.4375929  0.9375107  )
       437        C      tau( 437) = (  0.8123165  0.6874004  0.1877843  )
       438        C      tau( 438) = (  0.8123661  0.6875093  0.4378151  )
       439        C      tau( 439) = (  0.8130009  0.6878623  0.6878623  )
       440        C      tau( 440) = (  0.8126667  0.6876291  0.9377732  )
       441        C      tau( 441) = (  0.8124475  0.9374417  0.1876126  )
       442        C      tau( 442) = (  0.8124847  0.9375107  0.4375929  )
       443        C      tau( 443) = (  0.8126667  0.9377732  0.6876291  )
       444        C      tau( 444) = (  0.8125642  0.9376229  0.9376230  )
       445        C      tau( 445) = (  0.1874619  0.1874618  0.0624332  )
       446        C      tau( 446) = (  0.1874186  0.1874186  0.3124320  )
       447        C      tau( 447) = (  0.1871788  0.1871788  0.5623715  )
       448        C      tau( 448) = (  0.1875084  0.1875084  0.8124066  )
       449        C      tau( 449) = (  0.1874384  0.4374541  0.0623594  )
       450        C      tau( 450) = (  0.1873471  0.4373685  0.3123461  )
       451        C      tau( 451) = (  0.1875681  0.4374350  0.5623248  )
       452        C      tau( 452) = (  0.1874503  0.4375233  0.8125046  )
       453        C      tau( 453) = (  0.1875293  0.6874520  0.0624306  )
       454        C      tau( 454) = (  0.1874453  0.6873809  0.3124920  )
       455        C      tau( 455) = (  0.1877307  0.6873227  0.5624058  )
       456        C      tau( 456) = (  0.1877843  0.6874004  0.8123165  )
       457        C      tau( 457) = (  0.1875188  0.9374447  0.0624772  )
       458        C      tau( 458) = (  0.1874792  0.9374065  0.3124862  )
       459        C      tau( 459) = (  0.1876465  0.9373313  0.5624610  )
       460        C      tau( 460) = (  0.1876126  0.9374417  0.8124475  )
       461        C      tau( 461) = (  0.4374541  0.1874384  0.0623594  )
       462        C      tau( 462) = (  0.4373685  0.1873471  0.3123461  )
       463        C      tau( 463) = (  0.4374350  0.1875682  0.5623248  )
       464        C      tau( 464) = (  0.4375233  0.1874503  0.8125046  )
       465        C      tau( 465) = (  0.4374574  0.4374573  0.0624249  )
       466        C      tau( 466) = (  0.4373574  0.4373573  0.3126472  )
       467        C      tau( 467) = (  0.4376016  0.4376016  0.8121792  )
       468        C      tau( 468) = (  0.4375199  0.6874314  0.0625356  )
       469        C      tau( 469) = (  0.4376498  0.6875989  0.3122676  )
       470        C      tau( 470) = (  0.4387879  0.6861813  0.5619420  )
       471        C      tau( 471) = (  0.4378151  0.6875093  0.8123661  )
       472        C      tau( 472) = (  0.4375170  0.9374670  0.0624727  )
       473        C      tau( 473) = (  0.4375038  0.9373167  0.3125559  )
       474        C      tau( 474) = (  0.4375761  0.9374107  0.5625105  )
       475        C      tau( 475) = (  0.4375929  0.9375107  0.8124847  )
       476        C      tau( 476) = (  0.6874520  0.1875293  0.0624307  )
       477        C      tau( 477) = (  0.6873808  0.1874453  0.3124920  )
       478        C      tau( 478) = (  0.6873227  0.1877307  0.5624058  )
       479        C      tau( 479) = (  0.6874005  0.1877843  0.8123165  )
       480        C      tau( 480) = (  0.6874314  0.4375199  0.0625356  )
       481        C      tau( 481) = (  0.6875989  0.4376498  0.3122677  )
       482        C      tau( 482) = (  0.6861813  0.4387879  0.5619420  )
       483        C      tau( 483) = (  0.6875093  0.4378151  0.8123661  )
       484        C      tau( 484) = (  0.6874929  0.6874929  0.0626917  )
       485        C      tau( 485) = (  0.6871194  0.6871194  0.3130391  )
       486        C      tau( 486) = (  0.6885962  0.6885962  0.5629894  )
       487        C      tau( 487) = (  0.6878624  0.6878623  0.8130009  )
       488        C      tau( 488) = (  0.6874943  0.9374970  0.0626448  )
       489        C      tau( 489) = (  0.6874444  0.9373856  0.3126308  )
       490        C      tau( 490) = (  0.6875733  0.9376197  0.5626035  )
       491        C      tau( 491) = (  0.6876291  0.9377732  0.8126667  )
       492        C      tau( 492) = (  0.9374447  0.1875188  0.0624772  )
       493        C      tau( 493) = (  0.9374065  0.1874792  0.3124862  )
       494        C      tau( 494) = (  0.9373312  0.1876465  0.5624610  )
       495        C      tau( 495) = (  0.9374417  0.1876126  0.8124475  )
       496        C      tau( 496) = (  0.9374670  0.4375170  0.0624727  )
       497        C      tau( 497) = (  0.9373167  0.4375038  0.3125559  )
       498        C      tau( 498) = (  0.9374106  0.4375761  0.5625105  )
       499        C      tau( 499) = (  0.9375107  0.4375929  0.8124847  )
       500        C      tau( 500) = (  0.9374970  0.6874943  0.0626448  )
       501        C      tau( 501) = (  0.9373855  0.6874444  0.3126308  )
       502        C      tau( 502) = (  0.9376196  0.6875733  0.5626035  )
       503        C      tau( 503) = (  0.9377732  0.6876291  0.8126667  )
       504        C      tau( 504) = (  0.9375067  0.9375067  0.0625685  )
       505        C      tau( 505) = (  0.9374404  0.9374404  0.3125575  )
       506        C      tau( 506) = (  0.9376200  0.9376200  0.5625432  )
       507        C      tau( 507) = (  0.9376229  0.9376229  0.8125642  )
       508        C      tau( 508) = (  0.5649939  0.4330112  0.4330111  )
       509        C      tau( 509) = (  0.4330112  0.4330112  0.5649939  )
       510        C      tau( 510) = (  0.4330112  0.5649939  0.4330111  )
       511        N      tau( 511) = (  0.5686231  0.5686231  0.5686231  )

     number of k points=     1
                       cart. coord. in units 2pi/alat
        k(    1) = (   0.0000000   0.0000000   0.0000000), wk =   1.0000000

                       cryst. coord.
        k(    1) = (   0.0000000   0.0000000   0.0000000), wk =   1.0000000

     Dense  grid:   948261 G-vectors     FFT dimensions: ( 160, 160, 160)

     Dynamical RAM for                 wfc:      38.88 MB

     Dynamical RAM for     wfc (w. buffer):      38.88 MB

     Dynamical RAM for           str. fact:       0.60 MB

     Dynamical RAM for           local pot:       0.00 MB

     Dynamical RAM for          nlocal pot:     154.01 MB

     Dynamical RAM for                qrad:       0.82 MB

     Dynamical RAM for          rho,v,vnew:       6.50 MB

     Dynamical RAM for               rhoin:       2.17 MB

     Dynamical RAM for            rho*nmix:       9.65 MB

     Dynamical RAM for           G-vectors:       1.28 MB

     Dynamical RAM for          h,s,v(r/c):       2.71 MB

     Dynamical RAM for          <psi|beta>:      32.19 MB

     Dynamical RAM for                 psi:      77.76 MB

     Dynamical RAM for                hpsi:      77.76 MB

     Dynamical RAM for      wfcinit/wfcrot:     102.14 MB

     Estimated static dynamical RAM per process >     209.85 MB

     Estimated max dynamical RAM per process >     409.91 MB

     Estimated total dynamical RAM >      37.98 GB
     Generating pointlists ...
     new r_m :   0.0425 (alat units)  1.1473 (a.u.) for type    1
     new r_m :   0.0425 (alat units)  1.1473 (a.u.) for type    2

     Initial potential from superposition of free atoms

     starting charge    2041.4445, renormalised to    2046.0000
     Starting wfcs are random

     total cpu time spent up to now is       13.9 secs

     Self-consistent Calculation

     iteration #  1     ecut=    80.00 Ry     beta= 0.70
     Davidson diagonalization with overlap

---- Real-time Memory Report at c_bands before calling an iterative solver
           513 MiB given to the printing process from OS
             0 MiB allocation reported by mallinfo(arena+hblkhd)
        162935 MiB available memory on the node where the printing process lives
------------------
     ethr =  1.00E-02,  avg # of iterations = 13.0

     total cpu time spent up to now is       91.1 secs

     total energy              =   -5824.04447297 Ry
     estimated scf accuracy    <      29.01271051 Ry

     total magnetization       =     2.00 Bohr mag/cell
     absolute magnetization    =     2.00 Bohr mag/cell

     iteration #  2     ecut=    80.00 Ry     beta= 0.70
     Davidson diagonalization with overlap

---- Real-time Memory Report at c_bands before calling an iterative solver
           630 MiB given to the printing process from OS
             0 MiB allocation reported by mallinfo(arena+hblkhd)
        161420 MiB available memory on the node where the printing process lives
------------------
     ethr =  1.42E-03,  avg # of iterations = 16.5

     total cpu time spent up to now is      122.3 secs

     total energy              =   -5828.20311240 Ry
     estimated scf accuracy    <       1.17913223 Ry

     total magnetization       =     2.00 Bohr mag/cell
     absolute magnetization    =     2.07 Bohr mag/cell

     iteration #  3     ecut=    80.00 Ry     beta= 0.70
     Davidson diagonalization with overlap

---- Real-time Memory Report at c_bands before calling an iterative solver
           652 MiB given to the printing process from OS
             0 MiB allocation reported by mallinfo(arena+hblkhd)
        161267 MiB available memory on the node where the printing process lives
------------------
     c_bands:  1 eigenvalues not converged
     ethr =  5.76E-05,  avg # of iterations = 20.0

     total cpu time spent up to now is      154.3 secs

     total energy              =   -5828.09537124 Ry
     estimated scf accuracy    <       4.57923553 Ry

     total magnetization       =     2.00 Bohr mag/cell
     absolute magnetization    =     2.19 Bohr mag/cell

     iteration #  4     ecut=    80.00 Ry     beta= 0.70
     Davidson diagonalization with overlap

---- Real-time Memory Report at c_bands before calling an iterative solver
           659 MiB given to the printing process from OS
             0 MiB allocation reported by mallinfo(arena+hblkhd)
        161264 MiB available memory on the node where the printing process lives
------------------
     c_bands:  1 eigenvalues not converged
     ethr =  5.76E-05,  avg # of iterations = 20.0

     total cpu time spent up to now is      182.7 secs

     total energy              =   -5829.07520152 Ry
     estimated scf accuracy    <       0.14901562 Ry

     total magnetization       =     2.00 Bohr mag/cell
     absolute magnetization    =     2.15 Bohr mag/cell

     iteration #  5     ecut=    80.00 Ry     beta= 0.70
     Davidson diagonalization with overlap

---- Real-time Memory Report at c_bands before calling an iterative solver
           659 MiB given to the printing process from OS
             0 MiB allocation reported by mallinfo(arena+hblkhd)
        161265 MiB available memory on the node where the printing process lives
------------------
     c_bands:  2 eigenvalues not converged
     ethr =  7.28E-06,  avg # of iterations = 20.0

     total cpu time spent up to now is      208.8 secs

     total energy              =   -5829.09193471 Ry
     estimated scf accuracy    <       0.05074862 Ry

     total magnetization       =     2.00 Bohr mag/cell
     absolute magnetization    =     2.18 Bohr mag/cell

     iteration #  6     ecut=    80.00 Ry     beta= 0.70
     Davidson diagonalization with overlap

---- Real-time Memory Report at c_bands before calling an iterative solver
           659 MiB given to the printing process from OS
             0 MiB allocation reported by mallinfo(arena+hblkhd)
        161264 MiB available memory on the node where the printing process lives
------------------
     c_bands:  1 eigenvalues not converged
     ethr =  2.48E-06,  avg # of iterations = 20.0

     total cpu time spent up to now is      234.9 secs

     total energy              =   -5829.10175868 Ry
     estimated scf accuracy    <       0.00329568 Ry

     total magnetization       =     2.00 Bohr mag/cell
     absolute magnetization    =     2.21 Bohr mag/cell

     iteration #  7     ecut=    80.00 Ry     beta= 0.70
     Davidson diagonalization with overlap

---- Real-time Memory Report at c_bands before calling an iterative solver
           659 MiB given to the printing process from OS
             0 MiB allocation reported by mallinfo(arena+hblkhd)
        161264 MiB available memory on the node where the printing process lives
------------------
     c_bands:  1 eigenvalues not converged
     ethr =  1.61E-07,  avg # of iterations = 20.0

     total cpu time spent up to now is      260.5 secs

     total energy              =   -5829.10315065 Ry
     estimated scf accuracy    <       0.00043739 Ry

     total magnetization       =     2.00 Bohr mag/cell
     absolute magnetization    =     2.23 Bohr mag/cell

     iteration #  8     ecut=    80.00 Ry     beta= 0.70
     Davidson diagonalization with overlap

---- Real-time Memory Report at c_bands before calling an iterative solver
           659 MiB given to the printing process from OS
             0 MiB allocation reported by mallinfo(arena+hblkhd)
        161029 MiB available memory on the node where the printing process lives
------------------
     c_bands:  2 eigenvalues not converged
     ethr =  2.14E-08,  avg # of iterations = 20.0

     total cpu time spent up to now is      288.8 secs

     total energy              =   -5829.10339332 Ry
     estimated scf accuracy    <       0.00019110 Ry

     total magnetization       =     2.00 Bohr mag/cell
     absolute magnetization    =     2.24 Bohr mag/cell

     iteration #  9     ecut=    80.00 Ry     beta= 0.70
     Davidson diagonalization with overlap

---- Real-time Memory Report at c_bands before calling an iterative solver
           664 MiB given to the printing process from OS
             0 MiB allocation reported by mallinfo(arena+hblkhd)
        160926 MiB available memory on the node where the printing process lives
------------------
     c_bands:  2 eigenvalues not converged
     ethr =  9.34E-09,  avg # of iterations = 20.0

     total cpu time spent up to now is      316.1 secs

     total energy              =   -5829.10346927 Ry
     estimated scf accuracy    <       0.00004709 Ry

     total magnetization       =     2.00 Bohr mag/cell
     absolute magnetization    =     2.25 Bohr mag/cell

     iteration # 10     ecut=    80.00 Ry     beta= 0.70
     Davidson diagonalization with overlap

---- Real-time Memory Report at c_bands before calling an iterative solver
           666 MiB given to the printing process from OS
             0 MiB allocation reported by mallinfo(arena+hblkhd)
        160925 MiB available memory on the node where the printing process lives
------------------
     c_bands:  1 eigenvalues not converged
     ethr =  2.30E-09,  avg # of iterations = 20.0

     total cpu time spent up to now is      346.0 secs

     total energy              =   -5829.10348718 Ry
     estimated scf accuracy    <       0.00001323 Ry

     total magnetization       =     2.00 Bohr mag/cell
     absolute magnetization    =     2.26 Bohr mag/cell

     iteration # 11     ecut=    80.00 Ry     beta= 0.70
     Davidson diagonalization with overlap

---- Real-time Memory Report at c_bands before calling an iterative solver
           666 MiB given to the printing process from OS
             0 MiB allocation reported by mallinfo(arena+hblkhd)
        160919 MiB available memory on the node where the printing process lives
------------------
     c_bands:  2 eigenvalues not converged
     ethr =  6.47E-10,  avg # of iterations = 17.0

     total cpu time spent up to now is      371.6 secs

     total energy              =   -5829.10349092 Ry
     estimated scf accuracy    <       0.00000216 Ry

     total magnetization       =     2.00 Bohr mag/cell
     absolute magnetization    =     2.27 Bohr mag/cell

     iteration # 12     ecut=    80.00 Ry     beta= 0.70
     Davidson diagonalization with overlap

---- Real-time Memory Report at c_bands before calling an iterative solver
           666 MiB given to the printing process from OS
             0 MiB allocation reported by mallinfo(arena+hblkhd)
        160854 MiB available memory on the node where the printing process lives
------------------
     c_bands:  2 eigenvalues not converged
     ethr =  1.05E-10,  avg # of iterations = 20.0

     total cpu time spent up to now is      407.4 secs

     total energy              =   -5829.10349178 Ry
     estimated scf accuracy    <       0.00000136 Ry

     total magnetization       =     2.00 Bohr mag/cell
     absolute magnetization    =     2.27 Bohr mag/cell

     iteration # 13     ecut=    80.00 Ry     beta= 0.70
     Davidson diagonalization with overlap

---- Real-time Memory Report at c_bands before calling an iterative solver
           666 MiB given to the printing process from OS
             0 MiB allocation reported by mallinfo(arena+hblkhd)
        160795 MiB available memory on the node where the printing process lives
------------------
     c_bands:  2 eigenvalues not converged
     ethr =  6.64E-11,  avg # of iterations = 20.0

     total cpu time spent up to now is      433.5 secs

     total energy              =   -5829.10349220 Ry
     estimated scf accuracy    <       0.00000032 Ry

     total magnetization       =     2.00 Bohr mag/cell
     absolute magnetization    =     2.27 Bohr mag/cell

     iteration # 14     ecut=    80.00 Ry     beta= 0.70
     Davidson diagonalization with overlap

---- Real-time Memory Report at c_bands before calling an iterative solver
           667 MiB given to the printing process from OS
             0 MiB allocation reported by mallinfo(arena+hblkhd)
        160800 MiB available memory on the node where the printing process lives
------------------
     c_bands:  1 eigenvalues not converged
     ethr =  1.54E-11,  avg # of iterations = 20.0

     total cpu time spent up to now is      460.0 secs

     total energy              =   -5829.10349231 Ry
     estimated scf accuracy    <       0.00000004 Ry

     total magnetization       =     2.00 Bohr mag/cell
     absolute magnetization    =     2.27 Bohr mag/cell

     iteration # 15     ecut=    80.00 Ry     beta= 0.70
     Davidson diagonalization with overlap

---- Real-time Memory Report at c_bands before calling an iterative solver
           667 MiB given to the printing process from OS
             0 MiB allocation reported by mallinfo(arena+hblkhd)
        160800 MiB available memory on the node where the printing process lives
------------------
     c_bands:  1 eigenvalues not converged
     ethr =  1.98E-12,  avg # of iterations = 18.0

     total cpu time spent up to now is      488.6 secs

     total energy              =   -5829.10349233 Ry
     estimated scf accuracy    <       0.00000003 Ry

     total magnetization       =     2.00 Bohr mag/cell
     absolute magnetization    =     2.27 Bohr mag/cell

     iteration # 16     ecut=    80.00 Ry     beta= 0.70
     Davidson diagonalization with overlap

---- Real-time Memory Report at c_bands before calling an iterative solver
           667 MiB given to the printing process from OS
             0 MiB allocation reported by mallinfo(arena+hblkhd)
        160594 MiB available memory on the node where the printing process lives
------------------
     c_bands:  1 eigenvalues not converged
     ethr =  1.22E-12,  avg # of iterations = 20.0

     total cpu time spent up to now is      517.8 secs

     total energy              =   -5829.10349234 Ry
     estimated scf accuracy    <          4.9E-09 Ry

     total magnetization       =     2.00 Bohr mag/cell
     absolute magnetization    =     2.27 Bohr mag/cell

     iteration # 17     ecut=    80.00 Ry     beta= 0.70
     Davidson diagonalization with overlap

---- Real-time Memory Report at c_bands before calling an iterative solver
           671 MiB given to the printing process from OS
             0 MiB allocation reported by mallinfo(arena+hblkhd)
        160592 MiB available memory on the node where the printing process lives
------------------
     ethr =  2.39E-13,  avg # of iterations = 17.0

     total cpu time spent up to now is      561.1 secs

     total energy              =   -5829.10349234 Ry
     estimated scf accuracy    <          2.1E-09 Ry

     total magnetization       =     2.00 Bohr mag/cell
     absolute magnetization    =     2.27 Bohr mag/cell

     iteration # 18     ecut=    80.00 Ry     beta= 0.70
     Davidson diagonalization with overlap

---- Real-time Memory Report at c_bands before calling an iterative solver
           671 MiB given to the printing process from OS
             0 MiB allocation reported by mallinfo(arena+hblkhd)
        160594 MiB available memory on the node where the printing process lives
------------------
     c_bands:  1 eigenvalues not converged
     ethr =  1.01E-13,  avg # of iterations = 18.0

     total cpu time spent up to now is      589.4 secs

     total energy              =   -5829.10349235 Ry
     estimated scf accuracy    <          4.3E-10 Ry

     total magnetization       =     2.00 Bohr mag/cell
     absolute magnetization    =     2.27 Bohr mag/cell

     iteration # 19     ecut=    80.00 Ry     beta= 0.70
     Davidson diagonalization with overlap

---- Real-time Memory Report at c_bands before calling an iterative solver
           671 MiB given to the printing process from OS
             0 MiB allocation reported by mallinfo(arena+hblkhd)
        160595 MiB available memory on the node where the printing process lives
------------------
     c_bands:  2 eigenvalues not converged
     ethr =  1.00E-13,  avg # of iterations = 20.0

     total cpu time spent up to now is      614.7 secs

     total energy              =   -5829.10349235 Ry
     estimated scf accuracy    <          3.8E-10 Ry

     total magnetization       =     2.00 Bohr mag/cell
     absolute magnetization    =     2.27 Bohr mag/cell

     iteration # 20     ecut=    80.00 Ry     beta= 0.70
     Davidson diagonalization with overlap

---- Real-time Memory Report at c_bands before calling an iterative solver
           671 MiB given to the printing process from OS
             0 MiB allocation reported by mallinfo(arena+hblkhd)
        160594 MiB available memory on the node where the printing process lives
------------------
     ethr =  1.00E-13,  avg # of iterations = 13.0
 
     Magnetic moment per site  (integrated on atomic sphere of radius R)
     atom   1 (R=0.043)  charge=  1.8024  magn= -0.0000
     atom   2 (R=0.043)  charge=  1.8025  magn= -0.0000
     atom   3 (R=0.043)  charge=  1.8039  magn=  0.0002
     atom   4 (R=0.043)  charge=  1.8022  magn=  0.0000
     atom   5 (R=0.043)  charge=  1.8025  magn= -0.0000
     atom   6 (R=0.043)  charge=  1.8029  magn= -0.0000
     atom   7 (R=0.043)  charge=  1.8025  magn= -0.0000
     atom   8 (R=0.043)  charge=  1.8025  magn= -0.0000
     atom   9 (R=0.043)  charge=  1.8039  magn=  0.0002
     atom  10 (R=0.043)  charge=  1.8025  magn= -0.0000
     atom  11 (R=0.043)  charge=  1.8024  magn= -0.0000
     atom  12 (R=0.043)  charge=  1.8027  magn=  0.0000
     atom  13 (R=0.043)  charge=  1.8022  magn=  0.0000
     atom  14 (R=0.043)  charge=  1.8025  magn= -0.0000
     atom  15 (R=0.043)  charge=  1.8027  magn=  0.0000
     atom  16 (R=0.043)  charge=  1.8028  magn= -0.0000
     atom  17 (R=0.043)  charge=  1.8025  magn= -0.0000
     atom  18 (R=0.043)  charge=  1.8029  magn= -0.0000
     atom  19 (R=0.043)  charge=  1.8025  magn= -0.0000
     atom  20 (R=0.043)  charge=  1.8025  magn= -0.0000
     atom  21 (R=0.043)  charge=  1.8029  magn= -0.0000
     atom  22 (R=0.043)  charge=  1.8025  magn= -0.0001
     atom  23 (R=0.043)  charge=  1.8065  magn=  0.0016
     atom  24 (R=0.043)  charge=  1.8021  magn= -0.0001
     atom  25 (R=0.043)  charge=  1.8025  magn= -0.0000
     atom  26 (R=0.043)  charge=  1.8065  magn=  0.0016
     atom  27 (R=0.043)  charge=  1.8026  magn= -0.0009
     atom  28 (R=0.043)  charge=  1.8047  magn=  0.0028
     atom  29 (R=0.043)  charge=  1.8025  magn= -0.0000
     atom  30 (R=0.043)  charge=  1.8021  magn= -0.0001
     atom  31 (R=0.043)  charge=  1.8047  magn=  0.0028
     atom  32 (R=0.043)  charge=  1.8012  magn=  0.0001
     atom  33 (R=0.043)  charge=  1.8039  magn=  0.0002
     atom  34 (R=0.043)  charge=  1.8025  magn= -0.0000
     atom  35 (R=0.043)  charge=  1.8024  magn= -0.0000
     atom  36 (R=0.043)  charge=  1.8027  magn=  0.0000
     atom  37 (R=0.043)  charge=  1.8025  magn= -0.0000
     atom  38 (R=0.043)  charge=  1.8065  magn=  0.0016
     atom  39 (R=0.043)  charge=  1.8026  magn= -0.0009
     atom  40 (R=0.043)  charge=  1.8047  magn=  0.0028
     atom  41 (R=0.043)  charge=  1.8024  magn= -0.0000
     atom  42 (R=0.043)  charge=  1.8026  magn= -0.0009
     atom  43 (R=0.043)  charge=  1.8055  magn= -0.0005
     atom  44 (R=0.043)  charge=  1.8027  magn=  0.0000
     atom  45 (R=0.043)  charge=  1.8047  magn=  0.0028
     atom  46 (R=0.043)  charge=  1.8055  magn= -0.0005
     atom  47 (R=0.043)  charge=  1.8074  magn=  0.0001
     atom  48 (R=0.043)  charge=  1.8022  magn=  0.0000
     atom  49 (R=0.043)  charge=  1.8025  magn= -0.0000
     atom  50 (R=0.043)  charge=  1.8027  magn=  0.0000
     atom  51 (R=0.043)  charge=  1.8028  magn= -0.0000
     atom  52 (R=0.043)  charge=  1.8025  magn= -0.0000
     atom  53 (R=0.043)  charge=  1.8021  magn= -0.0001
     atom  54 (R=0.043)  charge=  1.8047  magn=  0.0028
     atom  55 (R=0.043)  charge=  1.8012  magn=  0.0001
     atom  56 (R=0.043)  charge=  1.8027  magn=  0.0000
     atom  57 (R=0.043)  charge=  1.8047  magn=  0.0028
     atom  58 (R=0.043)  charge=  1.8055  magn= -0.0005
     atom  59 (R=0.043)  charge=  1.8074  magn=  0.0001
     atom  60 (R=0.043)  charge=  1.8028  magn= -0.0000
     atom  61 (R=0.043)  charge=  1.8012  magn=  0.0001
     atom  62 (R=0.043)  charge=  1.8074  magn=  0.0001
     atom  63 (R=0.043)  charge=  1.8027  magn= -0.0000
     atom  64 (R=0.043)  charge=  1.8025  magn= -0.0000
     atom  65 (R=0.043)  charge=  1.8029  magn= -0.0000
     atom  66 (R=0.043)  charge=  1.8022  magn= -0.0000
     atom  67 (R=0.043)  charge=  1.8023  magn= -0.0000
     atom  68 (R=0.043)  charge=  1.8029  magn= -0.0000
     atom  69 (R=0.043)  charge=  1.8025  magn=  0.0000
     atom  70 (R=0.043)  charge=  1.8025  magn=  0.0000
     atom  71 (R=0.043)  charge=  1.8027  magn= -0.0000
     atom  72 (R=0.043)  charge=  1.8022  magn= -0.0000
     atom  73 (R=0.043)  charge=  1.8025  magn=  0.0000
     atom  74 (R=0.043)  charge=  1.8027  magn= -0.0000
     atom  75 (R=0.043)  charge=  1.8029  magn=  0.0000
     atom  76 (R=0.043)  charge=  1.8023  magn= -0.0000
     atom  77 (R=0.043)  charge=  1.8027  magn= -0.0000
     atom  78 (R=0.043)  charge=  1.8029  magn=  0.0000
     atom  79 (R=0.043)  charge=  1.8022  magn=  0.0000
     atom  80 (R=0.043)  charge=  1.8027  magn= -0.0000
     atom  81 (R=0.043)  charge=  1.8028  magn=  0.0000
     atom  82 (R=0.043)  charge=  1.8024  magn= -0.0001
     atom  83 (R=0.043)  charge=  1.8025  magn= -0.0000
     atom  84 (R=0.043)  charge=  1.8028  magn=  0.0000
     atom  85 (R=0.043)  charge=  1.8018  magn= -0.0004
     atom  86 (R=0.043)  charge=  1.8011  magn= -0.0011
     atom  87 (R=0.043)  charge=  1.8026  magn= -0.0001
     atom  88 (R=0.043)  charge=  1.8024  magn= -0.0001
     atom  89 (R=0.043)  charge=  1.8011  magn= -0.0011
     atom  90 (R=0.043)  charge=  1.8006  magn= -0.0007
     atom  91 (R=0.043)  charge=  1.8011  magn= -0.0000
     atom  92 (R=0.043)  charge=  1.8025  magn= -0.0000
     atom  93 (R=0.043)  charge=  1.8026  magn= -0.0001
     atom  94 (R=0.043)  charge=  1.8011  magn= -0.0000
     atom  95 (R=0.043)  charge=  1.8023  magn=  0.0000
     atom  96 (R=0.043)  charge=  1.8039  magn=  0.0003
     atom  97 (R=0.043)  charge=  1.8024  magn= -0.0001
     atom  98 (R=0.043)  charge=  1.8024  magn= -0.0001
     atom  99 (R=0.043)  charge=  1.8034  magn=  0.0005
     atom 100 (R=0.043)  charge=  1.8024  magn= -0.0001
     atom 101 (R=0.043)  charge=  1.8092  magn= -0.0082
     atom 102 (R=0.043)  charge=  1.8039  magn= -0.0040
     atom 103 (R=0.043)  charge=  1.8025  magn= -0.0000
     atom 104 (R=0.043)  charge=  1.8024  magn= -0.0001
     atom 105 (R=0.043)  charge=  1.8039  magn= -0.0040
     atom 106 (R=0.043)  charge=  1.7824  magn=  0.0007
     atom 107 (R=0.043)  charge=  1.8028  magn= -0.0000
     atom 108 (R=0.043)  charge=  1.8034  magn=  0.0005
     atom 109 (R=0.043)  charge=  1.8025  magn= -0.0000
     atom 110 (R=0.043)  charge=  1.8028  magn= -0.0000
     atom 111 (R=0.043)  charge=  1.8041  magn=  0.0000
     atom 112 (R=0.043)  charge=  1.8023  magn= -0.0000
     atom 113 (R=0.043)  charge=  1.8025  magn= -0.0001
     atom 114 (R=0.043)  charge=  1.8022  magn= -0.0000
     atom 115 (R=0.043)  charge=  1.8021  magn=  0.0000
     atom 116 (R=0.043)  charge=  1.8025  magn= -0.0001
     atom 117 (R=0.043)  charge=  1.8016  magn= -0.0011
     atom 118 (R=0.043)  charge=  1.7972  magn= -0.0002
     atom 119 (R=0.043)  charge=  1.8022  magn=  0.0000
     atom 120 (R=0.043)  charge=  1.8022  magn= -0.0000
     atom 121 (R=0.043)  charge=  1.7972  magn= -0.0002
     atom 122 (R=0.043)  charge=  1.8038  magn= -0.0000
     atom 123 (R=0.043)  charge=  1.8033  magn= -0.0000
     atom 124 (R=0.043)  charge=  1.8021  magn=  0.0000
     atom 125 (R=0.043)  charge=  1.8022  magn=  0.0000
     atom 126 (R=0.043)  charge=  1.8033  magn= -0.0000
     atom 127 (R=0.043)  charge=  1.8026  magn=  0.0000
     atom 128 (R=0.043)  charge=  1.8025  magn= -0.0000
     atom 129 (R=0.043)  charge=  1.8029  magn= -0.0000
     atom 130 (R=0.043)  charge=  1.8022  magn= -0.0000
     atom 131 (R=0.043)  charge=  1.8023  magn= -0.0000
     atom 132 (R=0.043)  charge=  1.8027  magn= -0.0000
     atom 133 (R=0.043)  charge=  1.8028  magn=  0.0000
     atom 134 (R=0.043)  charge=  1.8024  magn= -0.0001
     atom 135 (R=0.043)  charge=  1.8025  magn= -0.0000
     atom 136 (R=0.043)  charge=  1.8039  magn=  0.0003
     atom 137 (R=0.043)  charge=  1.8024  magn= -0.0001
     atom 138 (R=0.043)  charge=  1.8024  magn= -0.0001
     atom 139 (R=0.043)  charge=  1.8034  magn=  0.0005
     atom 140 (R=0.043)  charge=  1.8023  magn= -0.0000
     atom 141 (R=0.043)  charge=  1.8025  magn= -0.0001
     atom 142 (R=0.043)  charge=  1.8022  magn= -0.0000
     atom 143 (R=0.043)  charge=  1.8021  magn=  0.0000
     atom 144 (R=0.043)  charge=  1.8029  magn= -0.0000
     atom 145 (R=0.043)  charge=  1.8025  magn=  0.0000
     atom 146 (R=0.043)  charge=  1.8025  magn=  0.0000
     atom 147 (R=0.043)  charge=  1.8027  magn= -0.0000
     atom 148 (R=0.043)  charge=  1.8028  magn=  0.0000
     atom 149 (R=0.043)  charge=  1.8018  magn= -0.0004
     atom 150 (R=0.043)  charge=  1.8011  magn= -0.0011
     atom 151 (R=0.043)  charge=  1.8026  magn= -0.0001
     atom 152 (R=0.043)  charge=  1.8024  magn= -0.0001
     atom 153 (R=0.043)  charge=  1.8092  magn= -0.0082
     atom 154 (R=0.043)  charge=  1.8039  magn= -0.0040
     atom 155 (R=0.043)  charge=  1.8025  magn= -0.0000
     atom 156 (R=0.043)  charge=  1.8025  magn= -0.0001
     atom 157 (R=0.043)  charge=  1.8016  magn= -0.0011
     atom 158 (R=0.043)  charge=  1.7972  magn= -0.0002
     atom 159 (R=0.043)  charge=  1.8022  magn=  0.0000
     atom 160 (R=0.043)  charge=  1.8022  magn= -0.0000
     atom 161 (R=0.043)  charge=  1.8025  magn=  0.0000
     atom 162 (R=0.043)  charge=  1.8027  magn= -0.0000
     atom 163 (R=0.043)  charge=  1.8029  magn=  0.0000
     atom 164 (R=0.043)  charge=  1.8024  magn= -0.0001
     atom 165 (R=0.043)  charge=  1.8011  magn= -0.0011
     atom 166 (R=0.043)  charge=  1.8006  magn= -0.0007
     atom 167 (R=0.043)  charge=  1.8011  magn= -0.0000
     atom 168 (R=0.043)  charge=  1.8024  magn= -0.0001
     atom 169 (R=0.043)  charge=  1.8039  magn= -0.0040
     atom 170 (R=0.043)  charge=  1.7824  magn=  0.0007
     atom 171 (R=0.043)  charge=  1.8028  magn= -0.0000
     atom 172 (R=0.043)  charge=  1.8022  magn= -0.0000
     atom 173 (R=0.043)  charge=  1.7972  magn= -0.0002
     atom 174 (R=0.043)  charge=  1.8038  magn= -0.0000
     atom 175 (R=0.043)  charge=  1.8033  magn= -0.0000
     atom 176 (R=0.043)  charge=  1.8023  magn= -0.0000
     atom 177 (R=0.043)  charge=  1.8027  magn= -0.0000
     atom 178 (R=0.043)  charge=  1.8029  magn=  0.0000
     atom 179 (R=0.043)  charge=  1.8022  magn=  0.0000
     atom 180 (R=0.043)  charge=  1.8025  magn= -0.0000
     atom 181 (R=0.043)  charge=  1.8026  magn= -0.0001
     atom 182 (R=0.043)  charge=  1.8011  magn= -0.0000
     atom 183 (R=0.043)  charge=  1.8023  magn=  0.0000
     atom 184 (R=0.043)  charge=  1.8034  magn=  0.0005
     atom 185 (R=0.043)  charge=  1.8025  magn= -0.0000
     atom 186 (R=0.043)  charge=  1.8028  magn= -0.0000
     atom 187 (R=0.043)  charge=  1.8041  magn=  0.0000
     atom 188 (R=0.043)  charge=  1.8021  magn=  0.0000
     atom 189 (R=0.043)  charge=  1.8022  magn=  0.0000
     atom 190 (R=0.043)  charge=  1.8033  magn= -0.0000
     atom 191 (R=0.043)  charge=  1.8026  magn=  0.0000
     atom 192 (R=0.043)  charge=  1.8025  magn= -0.0000
     atom 193 (R=0.043)  charge=  1.8027  magn= -0.0000
     atom 194 (R=0.043)  charge=  1.8039  magn=  0.0003
     atom 195 (R=0.043)  charge=  1.8023  magn= -0.0000
     atom 196 (R=0.043)  charge=  1.8029  magn= -0.0000
     atom 197 (R=0.043)  charge=  1.8028  magn=  0.0000
     atom 198 (R=0.043)  charge=  1.8024  magn= -0.0001
     atom 199 (R=0.043)  charge=  1.8025  magn= -0.0001
     atom 200 (R=0.043)  charge=  1.8022  magn= -0.0000
     atom 201 (R=0.043)  charge=  1.8024  magn= -0.0001
     atom 202 (R=0.043)  charge=  1.8024  magn= -0.0001
     atom 203 (R=0.043)  charge=  1.8022  magn= -0.0000
     atom 204 (R=0.043)  charge=  1.8023  magn= -0.0000
     atom 205 (R=0.043)  charge=  1.8025  magn= -0.0000
     atom 206 (R=0.043)  charge=  1.8034  magn=  0.0005
     atom 207 (R=0.043)  charge=  1.8021  magn=  0.0000
     atom 208 (R=0.043)  charge=  1.8029  magn= -0.0000
     atom 209 (R=0.043)  charge=  1.8028  magn=  0.0000
     atom 210 (R=0.043)  charge=  1.8024  magn= -0.0001
     atom 211 (R=0.043)  charge=  1.8025  magn= -0.0001
     atom 212 (R=0.043)  charge=  1.8025  magn=  0.0000
     atom 213 (R=0.043)  charge=  1.8018  magn= -0.0004
     atom 214 (R=0.043)  charge=  1.8092  magn= -0.0082
     atom 215 (R=0.043)  charge=  1.8016  magn= -0.0011
     atom 216 (R=0.043)  charge=  1.8025  magn=  0.0000
     atom 217 (R=0.043)  charge=  1.8011  magn= -0.0011
     atom 218 (R=0.043)  charge=  1.8039  magn= -0.0040
     atom 219 (R=0.043)  charge=  1.7972  magn= -0.0002
     atom 220 (R=0.043)  charge=  1.8027  magn= -0.0000
     atom 221 (R=0.043)  charge=  1.8026  magn= -0.0001
     atom 222 (R=0.043)  charge=  1.8025  magn= -0.0000
     atom 223 (R=0.043)  charge=  1.8022  magn=  0.0000
     atom 224 (R=0.043)  charge=  1.8022  magn= -0.0000
     atom 225 (R=0.043)  charge=  1.8024  magn= -0.0001
     atom 226 (R=0.043)  charge=  1.8024  magn= -0.0001
     atom 227 (R=0.043)  charge=  1.8022  magn= -0.0000
     atom 228 (R=0.043)  charge=  1.8025  magn=  0.0000
     atom 229 (R=0.043)  charge=  1.8011  magn= -0.0011
     atom 230 (R=0.043)  charge=  1.8039  magn= -0.0040
     atom 231 (R=0.043)  charge=  1.7972  magn= -0.0002
     atom 232 (R=0.043)  charge=  1.8027  magn= -0.0000
     atom 233 (R=0.043)  charge=  1.8006  magn= -0.0007
     atom 234 (R=0.043)  charge=  1.7824  magn=  0.0007
     atom 235 (R=0.043)  charge=  1.8038  magn= -0.0000
     atom 236 (R=0.043)  charge=  1.8029  magn=  0.0000
     atom 237 (R=0.043)  charge=  1.8011  magn= -0.0000
     atom 238 (R=0.043)  charge=  1.8028  magn= -0.0000
     atom 239 (R=0.043)  charge=  1.8033  magn= -0.0000
     atom 240 (R=0.043)  charge=  1.8023  magn= -0.0000
     atom 241 (R=0.043)  charge=  1.8025  magn= -0.0000
     atom 242 (R=0.043)  charge=  1.8034  magn=  0.0005
     atom 243 (R=0.043)  charge=  1.8021  magn=  0.0000
     atom 244 (R=0.043)  charge=  1.8027  magn= -0.0000
     atom 245 (R=0.043)  charge=  1.8026  magn= -0.0001
     atom 246 (R=0.043)  charge=  1.8025  magn= -0.0000
     atom 247 (R=0.043)  charge=  1.8022  magn=  0.0000
     atom 248 (R=0.043)  charge=  1.8029  magn=  0.0000
     atom 249 (R=0.043)  charge=  1.8011  magn= -0.0000
     atom 250 (R=0.043)  charge=  1.8028  magn= -0.0000
     atom 251 (R=0.043)  charge=  1.8033  magn= -0.0000
     atom 252 (R=0.043)  charge=  1.8022  magn=  0.0000
     atom 253 (R=0.043)  charge=  1.8023  magn=  0.0000
     atom 254 (R=0.043)  charge=  1.8041  magn=  0.0000
     atom 255 (R=0.043)  charge=  1.8026  magn=  0.0000
     atom 256 (R=0.043)  charge=  1.8026  magn=  0.0000
     atom 257 (R=0.043)  charge=  1.8023  magn=  0.0000
     atom 258 (R=0.043)  charge=  1.8029  magn=  0.0001
     atom 259 (R=0.043)  charge=  1.8026  magn=  0.0001
     atom 260 (R=0.043)  charge=  1.8022  magn=  0.0000
     atom 261 (R=0.043)  charge=  1.8022  magn=  0.0001
     atom 262 (R=0.043)  charge=  1.8024  magn=  0.0011
     atom 263 (R=0.043)  charge=  1.8027  magn=  0.0001
     atom 264 (R=0.043)  charge=  1.8044  magn=  0.0012
     atom 265 (R=0.043)  charge=  1.8024  magn=  0.0013
     atom 266 (R=0.043)  charge=  1.8017  magn=  0.0000
     atom 267 (R=0.043)  charge=  1.8016  magn=  0.0000
     atom 268 (R=0.043)  charge=  1.8025  magn=  0.0003
     atom 269 (R=0.043)  charge=  1.8031  magn=  0.0014
     atom 270 (R=0.043)  charge=  1.8021  magn=  0.0000
     atom 271 (R=0.043)  charge=  1.8027  magn=  0.0000
     atom 272 (R=0.043)  charge=  1.8023  magn=  0.0000
     atom 273 (R=0.043)  charge=  1.8025  magn=  0.0003
     atom 274 (R=0.043)  charge=  1.8024  magn=  0.0001
     atom 275 (R=0.043)  charge=  1.8028  magn=  0.0002
     atom 276 (R=0.043)  charge=  1.8022  magn=  0.0001
     atom 277 (R=0.043)  charge=  1.8019  magn=  0.0068
     atom 278 (R=0.043)  charge=  1.7990  magn=  0.0173
     atom 279 (R=0.043)  charge=  1.8021  magn=  0.0001
     atom 280 (R=0.043)  charge=  1.8024  magn=  0.0013
     atom 281 (R=0.043)  charge=  1.7987  magn=  0.0037
     atom 282 (R=0.043)  charge=  1.8024  magn=  0.0002
     atom 283 (R=0.043)  charge=  1.8031  magn=  0.0014
     atom 284 (R=0.043)  charge=  1.8022  magn=  0.0006
     atom 285 (R=0.043)  charge=  1.8016  magn=  0.0001
     atom 286 (R=0.043)  charge=  1.8022  magn=  0.0000
     atom 287 (R=0.043)  charge=  1.8029  magn=  0.0001
     atom 288 (R=0.043)  charge=  1.8024  magn=  0.0001
     atom 289 (R=0.043)  charge=  1.8026  magn=  0.0000
     atom 290 (R=0.043)  charge=  1.8027  magn=  0.0000
     atom 291 (R=0.043)  charge=  1.8024  magn=  0.0011
     atom 292 (R=0.043)  charge=  1.7990  magn=  0.0173
     atom 293 (R=0.043)  charge=  1.8028  magn=  0.0003
     atom 294 (R=0.043)  charge=  1.8025  magn=  0.0000
     atom 295 (R=0.043)  charge=  1.8017  magn=  0.0000
     atom 296 (R=0.043)  charge=  1.7987  magn=  0.0037
     atom 297 (R=0.043)  charge=  1.8122  magn=  0.0000
     atom 298 (R=0.043)  charge=  1.8025  magn=  0.0000
     atom 299 (R=0.043)  charge=  1.8021  magn=  0.0000
     atom 300 (R=0.043)  charge=  1.8016  magn=  0.0001
     atom 301 (R=0.043)  charge=  1.8047  magn=  0.0000
     atom 302 (R=0.043)  charge=  1.8034  magn=  0.0000
     atom 303 (R=0.043)  charge=  1.8026  magn=  0.0001
     atom 304 (R=0.043)  charge=  1.8028  magn=  0.0002
     atom 305 (R=0.043)  charge=  1.8027  magn=  0.0000
     atom 306 (R=0.043)  charge=  1.8028  magn=  0.0000
     atom 307 (R=0.043)  charge=  1.8027  magn=  0.0001
     atom 308 (R=0.043)  charge=  1.8021  magn=  0.0001
     atom 309 (R=0.043)  charge=  1.8025  magn=  0.0000
     atom 310 (R=0.043)  charge=  1.8025  magn=  0.0000
     atom 311 (R=0.043)  charge=  1.8016  magn=  0.0000
     atom 312 (R=0.043)  charge=  1.8024  magn=  0.0002
     atom 313 (R=0.043)  charge=  1.8025  magn=  0.0000
     atom 314 (R=0.043)  charge=  1.8033  magn=  0.0000
     atom 315 (R=0.043)  charge=  1.8027  magn=  0.0000
     atom 316 (R=0.043)  charge=  1.8022  magn=  0.0000
     atom 317 (R=0.043)  charge=  1.8034  magn=  0.0000
     atom 318 (R=0.043)  charge=  1.8030  magn=  0.0000
     atom 319 (R=0.043)  charge=  1.8027  magn=  0.0000
     atom 320 (R=0.043)  charge=  1.8025  magn=  0.0000
     atom 321 (R=0.043)  charge=  1.8030  magn=  0.0001
     atom 322 (R=0.043)  charge=  1.8027  magn=  0.0000
     atom 323 (R=0.043)  charge=  1.8025  magn=  0.0000
     atom 324 (R=0.043)  charge=  1.8026  magn= -0.0000
     atom 325 (R=0.043)  charge=  1.8024  magn=  0.0001
     atom 326 (R=0.043)  charge=  1.8027  magn=  0.0001
     atom 327 (R=0.043)  charge=  1.8030  magn=  0.0001
     atom 328 (R=0.043)  charge=  1.8024  magn=  0.0001
     atom 329 (R=0.043)  charge=  1.8025  magn=  0.0002
     atom 330 (R=0.043)  charge=  1.8023  magn= -0.0000
     atom 331 (R=0.043)  charge=  1.8027  magn=  0.0000
     atom 332 (R=0.043)  charge=  1.8027  magn=  0.0001
     atom 333 (R=0.043)  charge=  1.8023  magn= -0.0000
     atom 334 (R=0.043)  charge=  1.8028  magn=  0.0000
     atom 335 (R=0.043)  charge=  1.8025  magn=  0.0000
     atom 336 (R=0.043)  charge=  1.8026  magn= -0.0000
     atom 337 (R=0.043)  charge=  1.8024  magn=  0.0001
     atom 338 (R=0.043)  charge=  1.8027  magn=  0.0001
     atom 339 (R=0.043)  charge=  1.8026  magn= -0.0000
     atom 340 (R=0.043)  charge=  1.8024  magn=  0.0003
     atom 341 (R=0.043)  charge=  1.8034  magn=  0.0161
     atom 342 (R=0.043)  charge=  1.8022  magn=  0.0010
     atom 343 (R=0.043)  charge=  1.8024  magn=  0.0001
     atom 344 (R=0.043)  charge=  1.8034  magn=  0.0161
     atom 345 (R=0.043)  charge=  1.8030  magn=  0.0055
     atom 346 (R=0.043)  charge=  1.7998  magn=  0.0001
     atom 347 (R=0.043)  charge=  1.8027  magn=  0.0001
     atom 348 (R=0.043)  charge=  1.8022  magn=  0.0010
     atom 349 (R=0.043)  charge=  1.7998  magn=  0.0001
     atom 350 (R=0.043)  charge=  1.8023  magn=  0.0000
     atom 351 (R=0.043)  charge=  1.8030  magn=  0.0001
     atom 352 (R=0.043)  charge=  1.8024  magn=  0.0001
     atom 353 (R=0.043)  charge=  1.8025  magn=  0.0002
     atom 354 (R=0.043)  charge=  1.8023  magn= -0.0000
     atom 355 (R=0.043)  charge=  1.8024  magn=  0.0001
     atom 356 (R=0.043)  charge=  1.8034  magn=  0.0161
     atom 357 (R=0.043)  charge=  1.8030  magn=  0.0055
     atom 358 (R=0.043)  charge=  1.7998  magn=  0.0001
     atom 359 (R=0.043)  charge=  1.8025  magn=  0.0002
     atom 360 (R=0.043)  charge=  1.8030  magn=  0.0055
     atom 361 (R=0.043)  charge=  1.8022  magn=  0.0005
     atom 362 (R=0.043)  charge=  1.8023  magn= -0.0000
     atom 363 (R=0.043)  charge=  1.7998  magn=  0.0001
     atom 364 (R=0.043)  charge=  1.8022  magn=  0.0005
     atom 365 (R=0.043)  charge=  1.8047  magn=  0.0000
     atom 366 (R=0.043)  charge=  1.8027  magn=  0.0000
     atom 367 (R=0.043)  charge=  1.8027  magn=  0.0001
     atom 368 (R=0.043)  charge=  1.8023  magn= -0.0000
     atom 369 (R=0.043)  charge=  1.8028  magn=  0.0000
     atom 370 (R=0.043)  charge=  1.8027  magn=  0.0001
     atom 371 (R=0.043)  charge=  1.8022  magn=  0.0010
     atom 372 (R=0.043)  charge=  1.7998  magn=  0.0001
     atom 373 (R=0.043)  charge=  1.8023  magn=  0.0000
     atom 374 (R=0.043)  charge=  1.8023  magn= -0.0000
     atom 375 (R=0.043)  charge=  1.7998  magn=  0.0001
     atom 376 (R=0.043)  charge=  1.8022  magn=  0.0005
     atom 377 (R=0.043)  charge=  1.8047  magn=  0.0000
     atom 378 (R=0.043)  charge=  1.8028  magn=  0.0000
     atom 379 (R=0.043)  charge=  1.8023  magn=  0.0000
     atom 380 (R=0.043)  charge=  1.8047  magn=  0.0000
     atom 381 (R=0.043)  charge=  1.8034  magn= -0.0000
     atom 382 (R=0.043)  charge=  1.8026  magn=  0.0000
     atom 383 (R=0.043)  charge=  1.8023  magn=  0.0000
     atom 384 (R=0.043)  charge=  1.8029  magn=  0.0001
     atom 385 (R=0.043)  charge=  1.8026  magn=  0.0001
     atom 386 (R=0.043)  charge=  1.8023  magn=  0.0000
     atom 387 (R=0.043)  charge=  1.8025  magn=  0.0003
     atom 388 (R=0.043)  charge=  1.8024  magn=  0.0001
     atom 389 (R=0.043)  charge=  1.8028  magn=  0.0002
     atom 390 (R=0.043)  charge=  1.8029  magn=  0.0001
     atom 391 (R=0.043)  charge=  1.8024  magn=  0.0001
     atom 392 (R=0.043)  charge=  1.8026  magn=  0.0000
     atom 393 (R=0.043)  charge=  1.8027  magn=  0.0000
     atom 394 (R=0.043)  charge=  1.8026  magn=  0.0001
     atom 395 (R=0.043)  charge=  1.8028  magn=  0.0002
     atom 396 (R=0.043)  charge=  1.8027  magn=  0.0000
     atom 397 (R=0.043)  charge=  1.8028  magn=  0.0000
     atom 398 (R=0.043)  charge=  1.8022  magn=  0.0000
     atom 399 (R=0.043)  charge=  1.8022  magn=  0.0001
     atom 400 (R=0.043)  charge=  1.8024  magn=  0.0011
     atom 401 (R=0.043)  charge=  1.8027  magn=  0.0001
     atom 402 (R=0.043)  charge=  1.8022  magn=  0.0001
     atom 403 (R=0.043)  charge=  1.8019  magn=  0.0068
     atom 404 (R=0.043)  charge=  1.7990  magn=  0.0173
     atom 405 (R=0.043)  charge=  1.8021  magn=  0.0001
     atom 406 (R=0.043)  charge=  1.8024  magn=  0.0011
     atom 407 (R=0.043)  charge=  1.7990  magn=  0.0173
     atom 408 (R=0.043)  charge=  1.8028  magn=  0.0003
     atom 409 (R=0.043)  charge=  1.8025  magn=  0.0000
     atom 410 (R=0.043)  charge=  1.8027  magn=  0.0001
     atom 411 (R=0.043)  charge=  1.8021  magn=  0.0001
     atom 412 (R=0.043)  charge=  1.8025  magn=  0.0000
     atom 413 (R=0.043)  charge=  1.8025  magn=  0.0000
     atom 414 (R=0.043)  charge=  1.8044  magn=  0.0012
     atom 415 (R=0.043)  charge=  1.8024  magn=  0.0013
     atom 416 (R=0.043)  charge=  1.8017  magn=  0.0000
     atom 417 (R=0.043)  charge=  1.8016  magn=  0.0000
     atom 418 (R=0.043)  charge=  1.8024  magn=  0.0013
     atom 419 (R=0.043)  charge=  1.7987  magn=  0.0037
     atom 420 (R=0.043)  charge=  1.8024  magn=  0.0002
     atom 421 (R=0.043)  charge=  1.8017  magn=  0.0000
     atom 422 (R=0.043)  charge=  1.7987  magn=  0.0037
     atom 423 (R=0.043)  charge=  1.8122  magn=  0.0000
     atom 424 (R=0.043)  charge=  1.8025  magn=  0.0000
     atom 425 (R=0.043)  charge=  1.8016  magn=  0.0000
     atom 426 (R=0.043)  charge=  1.8024  magn=  0.0002
     atom 427 (R=0.043)  charge=  1.8025  magn=  0.0000
     atom 428 (R=0.043)  charge=  1.8033  magn=  0.0000
     atom 429 (R=0.043)  charge=  1.8025  magn=  0.0003
     atom 430 (R=0.043)  charge=  1.8031  magn=  0.0014
     atom 431 (R=0.043)  charge=  1.8021  magn=  0.0000
     atom 432 (R=0.043)  charge=  1.8027  magn=  0.0000
     atom 433 (R=0.043)  charge=  1.8031  magn=  0.0014
     atom 434 (R=0.043)  charge=  1.8022  magn=  0.0006
     atom 435 (R=0.043)  charge=  1.8016  magn=  0.0001
     atom 436 (R=0.043)  charge=  1.8022  magn=  0.0000
     atom 437 (R=0.043)  charge=  1.8021  magn=  0.0000
     atom 438 (R=0.043)  charge=  1.8016  magn=  0.0001
     atom 439 (R=0.043)  charge=  1.8047  magn=  0.0000
     atom 440 (R=0.043)  charge=  1.8034  magn=  0.0000
     atom 441 (R=0.043)  charge=  1.8027  magn=  0.0000
     atom 442 (R=0.043)  charge=  1.8022  magn=  0.0000
     atom 443 (R=0.043)  charge=  1.8034  magn=  0.0000
     atom 444 (R=0.043)  charge=  1.8030  magn=  0.0000
     atom 445 (R=0.043)  charge=  1.8026  magn=  0.0000
     atom 446 (R=0.043)  charge=  1.8022  magn=  0.0000
     atom 447 (R=0.043)  charge=  1.8044  magn=  0.0012
     atom 448 (R=0.043)  charge=  1.8025  magn=  0.0003
     atom 449 (R=0.043)  charge=  1.8023  magn=  0.0000
     atom 450 (R=0.043)  charge=  1.8022  magn=  0.0001
     atom 451 (R=0.043)  charge=  1.8024  magn=  0.0013
     atom 452 (R=0.043)  charge=  1.8031  magn=  0.0014
     atom 453 (R=0.043)  charge=  1.8029  magn=  0.0001
     atom 454 (R=0.043)  charge=  1.8024  magn=  0.0011
     atom 455 (R=0.043)  charge=  1.8017  magn=  0.0000
     atom 456 (R=0.043)  charge=  1.8021  magn=  0.0000
     atom 457 (R=0.043)  charge=  1.8026  magn=  0.0001
     atom 458 (R=0.043)  charge=  1.8027  magn=  0.0001
     atom 459 (R=0.043)  charge=  1.8016  magn=  0.0000
     atom 460 (R=0.043)  charge=  1.8027  magn=  0.0000
     atom 461 (R=0.043)  charge=  1.8023  magn=  0.0000
     atom 462 (R=0.043)  charge=  1.8022  magn=  0.0001
     atom 463 (R=0.043)  charge=  1.8024  magn=  0.0013
     atom 464 (R=0.043)  charge=  1.8031  magn=  0.0014
     atom 465 (R=0.043)  charge=  1.8025  magn=  0.0003
     atom 466 (R=0.043)  charge=  1.8019  magn=  0.0068
     atom 467 (R=0.043)  charge=  1.8022  magn=  0.0006
     atom 468 (R=0.043)  charge=  1.8024  magn=  0.0001
     atom 469 (R=0.043)  charge=  1.7990  magn=  0.0173
     atom 470 (R=0.043)  charge=  1.7987  magn=  0.0037
     atom 471 (R=0.043)  charge=  1.8016  magn=  0.0001
     atom 472 (R=0.043)  charge=  1.8028  magn=  0.0002
     atom 473 (R=0.043)  charge=  1.8021  magn=  0.0001
     atom 474 (R=0.043)  charge=  1.8024  magn=  0.0002
     atom 475 (R=0.043)  charge=  1.8022  magn=  0.0000
     atom 476 (R=0.043)  charge=  1.8029  magn=  0.0001
     atom 477 (R=0.043)  charge=  1.8024  magn=  0.0011
     atom 478 (R=0.043)  charge=  1.8017  magn=  0.0000
     atom 479 (R=0.043)  charge=  1.8021  magn=  0.0000
     atom 480 (R=0.043)  charge=  1.8024  magn=  0.0001
     atom 481 (R=0.043)  charge=  1.7990  magn=  0.0173
     atom 482 (R=0.043)  charge=  1.7987  magn=  0.0037
     atom 483 (R=0.043)  charge=  1.8016  magn=  0.0001
     atom 484 (R=0.043)  charge=  1.8026  magn=  0.0000
     atom 485 (R=0.043)  charge=  1.8028  magn=  0.0003
     atom 486 (R=0.043)  charge=  1.8122  magn=  0.0000
     atom 487 (R=0.043)  charge=  1.8047  magn=  0.0000
     atom 488 (R=0.043)  charge=  1.8027  magn=  0.0000
     atom 489 (R=0.043)  charge=  1.8025  magn=  0.0000
     atom 490 (R=0.043)  charge=  1.8025  magn=  0.0000
     atom 491 (R=0.043)  charge=  1.8034  magn=  0.0000
     atom 492 (R=0.043)  charge=  1.8026  magn=  0.0001
     atom 493 (R=0.043)  charge=  1.8027  magn=  0.0001
     atom 494 (R=0.043)  charge=  1.8016  magn=  0.0000
     atom 495 (R=0.043)  charge=  1.8027  magn=  0.0000
     atom 496 (R=0.043)  charge=  1.8028  magn=  0.0002
     atom 497 (R=0.043)  charge=  1.8021  magn=  0.0001
     atom 498 (R=0.043)  charge=  1.8024  magn=  0.0002
     atom 499 (R=0.043)  charge=  1.8022  magn=  0.0000
     atom 500 (R=0.043)  charge=  1.8027  magn=  0.0000
     atom 501 (R=0.043)  charge=  1.8025  magn=  0.0000
     atom 502 (R=0.043)  charge=  1.8025  magn=  0.0000
     atom 503 (R=0.043)  charge=  1.8034  magn=  0.0000
     atom 504 (R=0.043)  charge=  1.8028  magn=  0.0000
     atom 505 (R=0.043)  charge=  1.8025  magn=  0.0000
     atom 506 (R=0.043)  charge=  1.8033  magn=  0.0000
     atom 507 (R=0.043)  charge=  1.8030  magn=  0.0000
     atom 508 (R=0.043)  charge=  1.8046  magn=  0.2503
     atom 509 (R=0.043)  charge=  1.8046  magn=  0.2503
     atom 510 (R=0.043)  charge=  1.8046  magn=  0.2503
     atom 511 (R=0.043)  charge=  2.8938  magn= -0.0010

     total cpu time spent up to now is      631.3 secs

     End of self-consistent calculation

 ------ SPIN UP ------------


          k = 0.0000 0.0000 0.0000 (118565 PWs)   bands (ev):

    -8.1978  -7.6699  -7.6362  -7.6362  -7.6121  -7.6121  -7.5601  -7.1839
    -7.0670  -7.0670  -7.0595  -7.0595  -7.0594  -7.0406  -7.0405  -7.0374
    -6.9982  -6.9982  -6.9160  -6.5990  -6.4748  -6.4674  -6.4674  -6.4573
    -6.4464  -6.4464  -6.3741  -6.0000  -5.9107  -5.9107  -5.9014  -5.9014
    -5.8802  -5.6493  -5.3829  -5.3811  -5.3811  -5.3768  -5.3729  -5.3729
    -5.3690  -5.3690  -5.3607  -5.3605  -5.3576  -5.3576  -5.3515  -5.3515
    -5.3381  -5.3307  -5.3307  -5.3188  -5.3152  -5.3152  -5.2747  -5.2747
    -5.1903  -5.0068  -4.8246  -4.8246  -4.8191  -4.8153  -4.8153  -4.8148
    -4.8148  -4.8118  -4.8118  -4.8101  -4.8049  -4.8049  -4.8036  -4.7998
    -4.7925  -4.7925  -4.7712  -4.7511  -4.7511  -4.7270  -4.7043  -4.7043
    -4.4706  -3.8997  -3.7305  -3.7305  -3.7280  -3.7280  -3.7205  -3.7205
    -3.7184  -3.7121  -3.7077  -3.7077  -3.6657  -3.4892  -3.2647  -3.2647
    -3.2621  -3.2610  -3.2610  -3.2598  -3.2576  -3.2576  -3.2524  -3.2524
    -3.2467  -3.2431  -3.2431  -3.2411  -3.2411  -3.2265  -3.2177  -3.1979
    -3.1979  -3.1785  -3.1639  -3.1639  -3.1556  -3.1435  -3.1435  -3.1420
    -3.1321  -3.1321  -3.0109  -2.7858  -2.6572  -2.6572  -2.6566  -2.6555
    -2.6555  -2.6545  -2.6488  -2.6488  -2.6411  -2.6380  -2.6380  -2.6318
    -2.6318  -2.6295  -2.6295  -2.6295  -2.6245  -2.6122  -2.5908  -2.5908
    -2.5607  -2.5607  -2.4980  -2.4446  -2.3973  -2.3973  -2.3748  -2.2970
    -2.1931  -2.1931  -2.1760  -2.1743  -2.1743  -2.1729  -2.1729  -2.1712
    -2.1672  -2.1672  -2.1641  -2.1591  -2.1591  -2.1582  -2.1519  -2.1519
    -2.1510  -2.1322  -2.1322  -2.1255  -2.0797  -2.0797  -1.8451  -1.5847
    -1.4456  -1.4456  -1.4427  -1.4364  -1.4364  -1.4341  -1.4292  -1.4290
    -1.4290  -1.4256  -1.4238  -1.4238  -1.4130  -1.4130  -1.3995  -1.3995
    -1.3914  -1.3860  -1.3860  -1.3858  -1.3670  -1.3670  -1.3501  -1.3032
    -1.2519  -1.2510  -1.2510  -1.2462  -1.2462  -1.2442  -1.2382  -1.2382
    -1.2368  -1.2225  -1.2225  -1.2129  -1.2022  -1.2022  -1.1867  -1.1867
    -1.1835  -1.1559  -1.1559  -1.1363  -1.0709  -1.0709  -0.4494  -0.0882
    -0.0882  -0.0863  -0.0665   0.2122   0.2870   0.2870   0.3042   0.3066
     0.3066   0.3087   0.3087   0.3126   0.3214   0.3214   0.3865   0.4905
     0.4987   0.4987   0.5077   0.5077   0.5358   0.7550   0.8125   0.8125
     0.8223   0.8223   0.8232   0.8258   0.8262   0.8262   0.8418   0.8472
     0.8472   0.8518   0.8518   0.8520   0.8558   0.8558   0.8612   0.8647
     0.8702   0.8702   0.8841   0.8851   0.8851   0.8915   0.8921   0.8921
     0.8927   0.8976   0.8976   0.8988   0.8991   0.8991   0.9165   0.9165
     0.9216   0.9253   0.9253   0.9281   0.9311   0.9311   0.9311   0.9390
     0.9390   1.0014   1.0449   1.0449   1.1379   1.2423   1.2912   1.2912
     1.3133   1.3133   1.3169   1.3231   1.3231   1.3300   1.3414   1.3414
     1.4248   1.5123   1.5285   1.5285   1.5493   1.5493   1.5507   1.5579
     1.5674   1.5674   1.5930   1.5930   1.6735   1.6916   1.6978   1.6978
     1.7052   1.7052   1.7083   1.7102   1.7102   1.7108   1.7108   1.7173
     1.7249   1.7274   1.7274   1.7281   1.7281   1.7353   1.7495   1.7557
     1.7557   1.8643   1.9020   1.9020   2.2074   2.4274   2.4504   2.4504
     2.4822   2.4864   2.4869   2.4869   2.4871   2.4887   2.4887   2.4912
     2.4919   2.4919   2.4945   2.4945   2.4989   2.4989   2.4991   2.5032
     2.5032   2.5575   2.5734   2.5734   2.6688   2.8264   2.8264   2.8322
     2.8449   2.8449   2.8477   2.8505   2.8505   2.8515   2.8618   2.8618
     2.8672   2.8752   2.8816   2.8825   2.8825   2.8894   2.8894   2.9005
     2.9051   2.9051   3.0279   3.0279   3.6737   3.9187   3.9187   3.9466
     3.9473   3.9481   3.9481   3.9485   3.9544   3.9544   3.9640   3.9686
     3.9686   4.0807   4.1010   4.1010   4.1353   4.1353   4.1368   4.1410
     4.1410   4.1428   4.1435   4.1435   4.1441   4.1445   4.1445   4.1453
     4.1453   4.1496   4.1616   4.1616   4.1869   4.1978   4.2062   4.2062
     4.2144   4.2307   4.2307   4.2352   4.2379   4.2405   4.2407   4.2407
     4.2431   4.2431   4.2634   4.2634   4.2640   4.2676   4.2701   4.2701
     4.2718   4.2718   4.2771   4.2813   4.2877   4.2877   4.3334   4.3334
     4.3679   4.3679   4.3745   4.3768   4.3768   4.3791   4.3807   4.3807
     4.3835   4.3855   4.3922   4.3922   4.3927   4.4034   4.4034   4.4132
     4.4169   4.4169   4.4296   4.4374   4.4374   4.4839   4.5053   4.5067
     4.5067   4.5508   4.5508   4.5768   4.5773   4.5824   4.5824   4.5863
     4.5863   4.6122   4.6436   4.6436   4.6550   4.6891   4.7099   4.7099
     4.7904   4.7904   4.9252   4.9252   4.9482   4.9509   4.9517   4.9517
     4.9523   4.9639   4.9639   5.0331   5.0668   5.0668   5.5791   5.6285
     5.6285   5.6543   5.6621   5.6621   5.6668   5.6673   5.6673   5.7005
     5.7005   5.7039   5.8895   5.8956   5.8956   5.9160   5.9196   5.9196
     5.9223   5.9228   5.9228   5.9335   5.9391   5.9391   5.9448   5.9448
     5.9492   5.9519   5.9519   5.9579   5.9723   5.9723   5.9786   6.0031
     6.0089   6.0089   6.0641   6.1920   6.1920   6.2622   6.2622   6.2646
     6.2678   6.2678   6.2681   6.2692   6.2692   6.2706   6.2725   6.2768
     6.2768   6.2770   6.2873   6.2873   6.2946   6.2946   6.3009   6.3147
     6.3331   6.3331   6.3331   6.4755   6.4755   6.4856   6.5155   6.5170
     6.5170   6.5186   6.5195   6.5195   6.5203   6.5230   6.5230   6.5232
     6.5232   6.5254   6.5263   6.5300   6.5300   6.5374   6.5374   6.5730
     6.5811   6.5811   6.5859   6.6555   6.6562   6.6562   6.6654   6.6705
     6.6705   6.6717   6.6830   6.7104   6.7104   6.7280   6.7313   6.7313
     6.7328   6.7344   6.7411   6.7411   6.7434   6.7435   6.7435   6.7453
     6.7453   6.7704   6.7704   6.7790   6.7808   6.7840   6.7840   6.8078
     6.8539   6.8539   6.9008   6.9008   6.9017   6.9319   6.9319   6.9332
     6.9368   6.9404   6.9447   6.9447   6.9458   6.9477   6.9477   6.9478
     6.9564   6.9564   6.9625   6.9625   6.9633   6.9669   6.9685   6.9685
     6.9706   6.9706   6.9874   6.9958   6.9958   7.0752   7.1099   7.1099
     7.2627   7.2627   7.3032   7.3032   7.3039   7.3039   7.3068   7.3083
     7.3083   7.3090   7.3090   7.3095   7.3133   7.3133   7.3135   7.3188
     7.3254   7.3254   7.3282   7.3515   7.3515   7.3758   7.3758   7.3788
     7.4890   7.4890   7.5215   7.5260   7.5260   7.5286   7.5406   7.5406
     7.5639   7.5866   7.5892   7.5892   7.6600   7.6872   7.6872   7.7373
     7.7405   7.7405   7.7405   7.7433   7.7433   7.7446   7.7497   7.7497
     7.7538   7.7538   7.7560   7.7589   7.7621   7.7621   7.7648   7.7654
     7.7654   7.7666   7.7667   7.7667   7.7710   7.7710   7.7734   7.7734
     7.7737   7.7769   7.7790   7.7793   7.7793   7.7800   7.7800   7.7800
     7.7826   7.7845   7.7845   7.7909   7.7987   7.7987   7.8015   7.8219
     7.8219   7.8521   7.8521   7.8641   7.8892   7.8892   7.9060   7.9158
     7.9158   7.9281   7.9377   7.9377   7.9429   8.0927   8.1034   8.1034
     8.3040   8.3040   8.3589   8.3589   8.3604   8.3645   8.3645   8.3664
     8.3678   8.3694   8.3694   8.3708   8.3746   8.3747   8.3747   8.3820
     8.3820   8.3878   8.3969   8.3969   8.4127   8.4129   8.4203   8.4203
     8.4345   8.5157   8.5157   8.5471   8.5528   8.5528   8.5529   8.5543
     8.5543   8.5583   8.5598   8.5641   8.5641   8.5671   8.5671   8.5831
     8.5831   8.5948   8.5976   8.6011   8.6011   8.6073   8.6313   8.6313
     8.6340   8.6506   8.6589   8.6589   8.6591   8.6650   8.6650   8.6760
     8.6806   8.6806   8.6899   8.6899   8.6930   8.6962   8.6977   8.6977
     8.7150   8.7150   8.7197   8.7244   8.7244   8.7370   8.7464   8.7464
     8.7583   8.7583   8.7614   9.0020   9.0342   9.0342   9.1119   9.1119
     9.1324   9.1358   9.1359   9.1359   9.1374   9.1374   9.1450   9.1674
     9.1892   9.2036   9.2036   9.2542   9.2542   9.2610   9.2610   9.2708
     9.2775   9.2775   9.2868   9.4228   9.4485   9.4485   9.6648   9.6648
     9.7110   9.7118   9.7118   9.7133   9.7146   9.7174   9.7206   9.7206
     9.7328   9.7333   9.7333   9.7352   9.7352   9.7428   9.7428   9.7484
     9.7602   9.7602   9.7675   9.8008   9.8443   9.8443   9.8466   9.9767
     9.9767   9.9900   9.9953   9.9953  10.0022  10.0022  10.0024  10.0053
    10.0190  10.0193  10.0193  10.0266  10.0305  10.0305  10.0367  10.0373
    10.0373  10.0396  10.0396  10.0436  10.0453  10.0453  10.0468  10.0468
    10.0486  10.0490  10.0490  10.0525  10.0603  10.0624  10.0624  10.1422
    10.1422  10.1526  10.1988  10.1988  10.2025  10.2025  10.2025  10.2030
    10.2039  10.2048  10.2048  10.2063  10.2063  10.2073  10.2757  10.2823
    10.2823  10.3101  10.3120  10.3129  10.3129  10.3193  10.3193  10.3220
    10.3220  10.3232  10.3249  10.3266  10.3292  10.3292  10.3302  10.3302
    10.3342  10.3349  10.3349  10.3367  10.3367  10.3368  10.3431  10.3431
    10.3448  10.3504  10.3504  10.3528  10.3578  10.3578  10.3584  10.3730
    10.3730  10.3767  10.3977  10.3977  10.4166  10.4224  10.4224  10.4258
    10.4523  10.4523  10.4563  10.4717  10.4787  10.4787  10.5106  10.5106
    10.5881  10.6060  10.6060  11.2404  11.3162  11.3162  11.4653  11.4653
    11.4846  11.4846  11.4896  11.4913  11.4918  11.4918  11.4945  11.4957
    11.4957  11.4977  11.5007  11.5007  11.5059  11.5059  11.5174  11.5174
    11.5227  11.5350  11.5350  11.5453  11.5461  11.5584  11.5584  11.5853
    11.8782  11.8782  11.8817  11.9190  11.9190  12.2167  12.3309  12.3319
    12.3319  12.4586  12.4694  12.4694  12.4760  12.4881  12.4881  12.5037
    12.5282  12.5282  13.1478  13.1828  13.1828  13.9962  15.1386  15.1386
    17.4064  17.4064  17.4075  17.4199  17.4199  17.4320  17.7138  17.7138

     occupation numbers 
     1.0000   1.0000   1.0000   1.0000   1.0000   1.0000   1.0000   1.0000
     1.0000   1.0000   1.0000   1.0000   1.0000   1.0000   1.0000   1.0000
     1.0000   1.0000   1.0000   1.0000   1.0000   1.0000   1.0000   1.0000
     1.0000   1.0000   1.0000   1.0000   1.0000   1.0000   1.0000   1.0000
     1.0000   1.0000   1.0000   1.0000   1.0000   1.0000   1.0000   1.0000
     1.0000   1.0000   1.0000   1.0000   1.0000   1.0000   1.0000   1.0000
     1.0000   1.0000   1.0000   1.0000   1.0000   1.0000   1.0000   1.0000
     1.0000   1.0000   1.0000   1.0000   1.0000   1.0000   1.0000   1.0000
     1.0000   1.0000   1.0000   1.0000   1.0000   1.0000   1.0000   1.0000
     1.0000   1.0000   1.0000   1.0000   1.0000   1.0000   1.0000   1.0000
     1.0000   1.0000   1.0000   1.0000   1.0000   1.0000   1.0000   1.0000
     1.0000   1.0000   1.0000   1.0000   1.0000   1.0000   1.0000   1.0000
     1.0000   1.0000   1.0000   1.0000   1.0000   1.0000   1.0000   1.0000
     1.0000   1.0000   1.0000   1.0000   1.0000   1.0000   1.0000   1.0000
     1.0000   1.0000   1.0000   1.0000   1.0000   1.0000   1.0000   1.0000
     1.0000   1.0000   1.0000   1.0000   1.0000   1.0000   1.0000   1.0000
     1.0000   1.0000   1.0000   1.0000   1.0000   1.0000   1.0000   1.0000
     1.0000   1.0000   1.0000   1.0000   1.0000   1.0000   1.0000   1.0000
     1.0000   1.0000   1.0000   1.0000   1.0000   1.0000   1.0000   1.0000
     1.0000   1.0000   1.0000   1.0000   1.0000   1.0000   1.0000   1.0000
     1.0000   1.0000   1.0000   1.0000   1.0000   1.0000   1.0000   1.0000
     1.0000   1.0000   1.0000   1.0000   1.0000   1.0000   1.0000   1.0000
     1.0000   1.0000   1.0000   1.0000   1.0000   1.0000   1.0000   1.0000
     1.0000   1.0000   1.0000   1.0000   1.0000   1.0000   1.0000   1.0000
     1.0000   1.0000   1.0000   1.0000   1.0000   1.0000   1.0000   1.0000
     1.0000   1.0000   1.0000   1.0000   1.0000   1.0000   1.0000   1.0000
     1.0000   1.0000   1.0000   1.0000   1.0000   1.0000   1.0000   1.0000
     1.0000   1.0000   1.0000   1.0000   1.0000   1.0000   1.0000   1.0000
     1.0000   1.0000   1.0000   1.0000   1.0000   1.0000   1.0000   1.0000
     1.0000   1.0000   1.0000   1.0000   1.0000   1.0000   1.0000   1.0000
     1.0000   1.0000   1.0000   1.0000   1.0000   1.0000   1.0000   1.0000
     1.0000   1.0000   1.0000   1.0000   1.0000   1.0000   1.0000   1.0000
     1.0000   1.0000   1.0000   1.0000   1.0000   1.0000   1.0000   1.0000
     1.0000   1.0000   1.0000   1.0000   1.0000   1.0000   1.0000   1.0000
     1.0000   1.0000   1.0000   1.0000   1.0000   1.0000   1.0000   1.0000
     1.0000   1.0000   1.0000   1.0000   1.0000   1.0000   1.0000   1.0000
     1.0000   1.0000   1.0000   1.0000   1.0000   1.0000   1.0000   1.0000
     1.0000   1.0000   1.0000   1.0000   1.0000   1.0000   1.0000   1.0000
     1.0000   1.0000   1.0000   1.0000   1.0000   1.0000   1.0000   1.0000
     1.0000   1.0000   1.0000   1.0000   1.0000   1.0000   1.0000   1.0000
     1.0000   1.0000   1.0000   1.0000   1.0000   1.0000   1.0000   1.0000
     1.0000   1.0000   1.0000   1.0000   1.0000   1.0000   1.0000   1.0000
     1.0000   1.0000   1.0000   1.0000   1.0000   1.0000   1.0000   1.0000
     1.0000   1.0000   1.0000   1.0000   1.0000   1.0000   1.0000   1.0000
     1.0000   1.0000   1.0000   1.0000   1.0000   1.0000   1.0000   1.0000
     1.0000   1.0000   1.0000   1.0000   1.0000   1.0000   1.0000   1.0000
     1.0000   1.0000   1.0000   1.0000   1.0000   1.0000   1.0000   1.0000
     1.0000   1.0000   1.0000   1.0000   1.0000   1.0000   1.0000   1.0000
     1.0000   1.0000   1.0000   1.0000   1.0000   1.0000   1.0000   1.0000
     1.0000   1.0000   1.0000   1.0000   1.0000   1.0000   1.0000   1.0000
     1.0000   1.0000   1.0000   1.0000   1.0000   1.0000   1.0000   1.0000
     1.0000   1.0000   1.0000   1.0000   1.0000   1.0000   1.0000   1.0000
     1.0000   1.0000   1.0000   1.0000   1.0000   1.0000   1.0000   1.0000
     1.0000   1.0000   1.0000   1.0000   1.0000   1.0000   1.0000   1.0000
     1.0000   1.0000   1.0000   1.0000   1.0000   1.0000   1.0000   1.0000
     1.0000   1.0000   1.0000   1.0000   1.0000   1.0000   1.0000   1.0000
     1.0000   1.0000   1.0000   1.0000   1.0000   1.0000   1.0000   1.0000
     1.0000   1.0000   1.0000   1.0000   1.0000   1.0000   1.0000   1.0000
     1.0000   1.0000   1.0000   1.0000   1.0000   1.0000   1.0000   1.0000
     1.0000   1.0000   1.0000   1.0000   1.0000   1.0000   1.0000   1.0000
     1.0000   1.0000   1.0000   1.0000   1.0000   1.0000   1.0000   1.0000
     1.0000   1.0000   1.0000   1.0000   1.0000   1.0000   1.0000   1.0000
     1.0000   1.0000   1.0000   1.0000   1.0000   1.0000   1.0000   1.0000
     1.0000   1.0000   1.0000   1.0000   1.0000   1.0000   1.0000   1.0000
     1.0000   1.0000   1.0000   1.0000   1.0000   1.0000   1.0000   1.0000
     1.0000   1.0000   1.0000   1.0000   1.0000   1.0000   1.0000   1.0000
     1.0000   1.0000   1.0000   1.0000   1.0000   1.0000   1.0000   1.0000
     1.0000   1.0000   1.0000   1.0000   1.0000   1.0000   1.0000   1.0000
     1.0000   1.0000   1.0000   1.0000   1.0000   1.0000   1.0000   1.0000
     1.0000   1.0000   1.0000   1.0000   1.0000   1.0000   1.0000   1.0000
     1.0000   1.0000   1.0000   1.0000   1.0000   1.0000   1.0000   1.0000
     1.0000   1.0000   1.0000   1.0000   1.0000   1.0000   1.0000   1.0000
     1.0000   1.0000   1.0000   1.0000   1.0000   1.0000   1.0000   1.0000
     1.0000   1.0000   1.0000   1.0000   1.0000   1.0000   1.0000   1.0000
     1.0000   1.0000   1.0000   1.0000   1.0000   1.0000   1.0000   1.0000
     1.0000   1.0000   1.0000   1.0000   1.0000   1.0000   1.0000   1.0000
     1.0000   1.0000   1.0000   1.0000   1.0000   1.0000   1.0000   1.0000
     1.0000   1.0000   1.0000   1.0000   1.0000   1.0000   1.0000   1.0000
     1.0000   1.0000   1.0000   1.0000   1.0000   1.0000   1.0000   1.0000
     1.0000   1.0000   1.0000   1.0000   1.0000   1.0000   1.0000   1.0000
     1.0000   1.0000   1.0000   1.0000   1.0000   1.0000   1.0000   1.0000
     1.0000   1.0000   1.0000   1.0000   1.0000   1.0000   1.0000   1.0000
     1.0000   1.0000   1.0000   1.0000   1.0000   1.0000   1.0000   1.0000
     1.0000   1.0000   1.0000   1.0000   1.0000   1.0000   1.0000   1.0000
     1.0000   1.0000   1.0000   1.0000   1.0000   1.0000   1.0000   1.0000
     1.0000   1.0000   1.0000   1.0000   1.0000   1.0000   1.0000   1.0000
     1.0000   1.0000   1.0000   1.0000   1.0000   1.0000   1.0000   1.0000
     1.0000   1.0000   1.0000   1.0000   1.0000   1.0000   1.0000   1.0000
     1.0000   1.0000   1.0000   1.0000   1.0000   1.0000   1.0000   1.0000
     1.0000   1.0000   1.0000   1.0000   1.0000   1.0000   1.0000   1.0000
     1.0000   1.0000   1.0000   1.0000   1.0000   1.0000   1.0000   1.0000
     1.0000   1.0000   1.0000   1.0000   1.0000   1.0000   1.0000   1.0000
     1.0000   1.0000   1.0000   1.0000   1.0000   1.0000   1.0000   1.0000
     1.0000   1.0000   1.0000   1.0000   1.0000   1.0000   1.0000   1.0000
     1.0000   1.0000   1.0000   1.0000   1.0000   1.0000   1.0000   1.0000
     1.0000   1.0000   1.0000   1.0000   1.0000   1.0000   1.0000   1.0000
     1.0000   1.0000   1.0000   1.0000   1.0000   1.0000   1.0000   1.0000
     1.0000   1.0000   1.0000   1.0000   1.0000   1.0000   1.0000   1.0000
     1.0000   1.0000   1.0000   1.0000   1.0000   1.0000   1.0000   1.0000
     1.0000   1.0000   1.0000   1.0000   1.0000   1.0000   1.0000   1.0000
     1.0000   1.0000   1.0000   1.0000   1.0000   1.0000   1.0000   1.0000
     1.0000   1.0000   1.0000   1.0000   1.0000   1.0000   1.0000   1.0000
     1.0000   1.0000   1.0000   1.0000   1.0000   1.0000   1.0000   1.0000
     1.0000   1.0000   1.0000   1.0000   1.0000   1.0000   1.0000   1.0000
     1.0000   1.0000   1.0000   1.0000   1.0000   1.0000   1.0000   1.0000
     1.0000   1.0000   1.0000   1.0000   1.0000   1.0000   1.0000   1.0000
     1.0000   1.0000   1.0000   1.0000   1.0000   1.0000   1.0000   1.0000
     1.0000   1.0000   1.0000   1.0000   1.0000   1.0000   1.0000   1.0000
     1.0000   1.0000   1.0000   1.0000   1.0000   1.0000   1.0000   1.0000
     1.0000   1.0000   1.0000   1.0000   1.0000   1.0000   1.0000   1.0000
     1.0000   1.0000   1.0000   1.0000   1.0000   1.0000   1.0000   1.0000
     1.0000   1.0000   1.0000   1.0000   1.0000   1.0000   1.0000   1.0000
     1.0000   1.0000   1.0000   1.0000   1.0000   1.0000   1.0000   1.0000
     1.0000   1.0000   1.0000   1.0000   1.0000   1.0000   1.0000   1.0000
     1.0000   1.0000   1.0000   1.0000   1.0000   1.0000   1.0000   1.0000
     1.0000   1.0000   1.0000   1.0000   1.0000   1.0000   1.0000   1.0000
     1.0000   1.0000   1.0000   1.0000   1.0000   1.0000   1.0000   1.0000
     1.0000   1.0000   1.0000   1.0000   1.0000   1.0000   1.0000   1.0000
     1.0000   1.0000   1.0000   1.0000   1.0000   1.0000   1.0000   1.0000
     1.0000   1.0000   1.0000   1.0000   1.0000   1.0000   1.0000   1.0000
     1.0000   1.0000   1.0000   1.0000   1.0000   1.0000   1.0000   1.0000
     1.0000   1.0000   1.0000   1.0000   1.0000   1.0000   1.0000   1.0000
     1.0000   1.0000   1.0000   1.0000   1.0000   1.0000   1.0000   1.0000
     1.0000   1.0000   1.0000   1.0000   1.0000   1.0000   1.0000   1.0000
     1.0000   1.0000   1.0000   1.0000   1.0000   1.0000   1.0000   1.0000
     1.0000   1.0000   1.0000   1.0000   1.0000   1.0000   1.0000   1.0000
     1.0000   1.0000   1.0000   1.0000   1.0000   1.0000   1.0000   1.0000
     1.0000   1.0000   1.0000   1.0000   1.0000   1.0000   1.0000   1.0000
     0.0000   0.0000   0.0000   0.0000   0.0000   0.0000   0.0000   0.0000

 ------ SPIN DOWN ----------


          k = 0.0000 0.0000 0.0000 (118565 PWs)   bands (ev):

    -8.1964  -7.6687  -7.6357  -7.6357  -7.6105  -7.6105  -7.5554  -7.1822
    -7.0666  -7.0666  -7.0591  -7.0591  -7.0585  -7.0393  -7.0393  -7.0363
    -6.9931  -6.9931  -6.9068  -6.5978  -6.4740  -6.4652  -6.4652  -6.4550
    -6.4416  -6.4416  -6.3641  -5.9972  -5.9091  -5.9091  -5.8985  -5.8985
    -5.8769  -5.6442  -5.3827  -5.3806  -5.3806  -5.3762  -5.3722  -5.3722
    -5.3684  -5.3684  -5.3603  -5.3602  -5.3571  -5.3571  -5.3502  -5.3502
    -5.3349  -5.3279  -5.3279  -5.3176  -5.3119  -5.3119  -5.2636  -5.2636
    -5.1820  -5.0045  -4.8241  -4.8241  -4.8181  -4.8144  -4.8144  -4.8140
    -4.8140  -4.8109  -4.8109  -4.8096  -4.8033  -4.8033  -4.8027  -4.7964
    -4.7899  -4.7899  -4.7677  -4.7435  -4.7435  -4.7227  -4.6853  -4.6853
    -4.4439  -3.8932  -3.7287  -3.7287  -3.7268  -3.7268  -3.7163  -3.7158
    -3.7158  -3.7110  -3.7039  -3.7039  -3.6600  -3.4839  -3.2644  -3.2644
    -3.2617  -3.2603  -3.2603  -3.2592  -3.2565  -3.2565  -3.2505  -3.2505
    -3.2446  -3.2420  -3.2420  -3.2377  -3.2377  -3.2237  -3.2128  -3.1938
    -3.1938  -3.1752  -3.1561  -3.1561  -3.1527  -3.1409  -3.1409  -3.1407
    -3.1218  -3.1218  -2.9984  -2.7782  -2.6567  -2.6567  -2.6564  -2.6548
    -2.6548  -2.6538  -2.6475  -2.6475  -2.6405  -2.6371  -2.6371  -2.6300
    -2.6300  -2.6288  -2.6265  -2.6265  -2.6211  -2.6107  -2.5864  -2.5864
    -2.5498  -2.5498  -2.4937  -2.4432  -2.3926  -2.3926  -2.3684  -2.2931
    -2.1918  -2.1918  -2.1737  -2.1728  -2.1728  -2.1688  -2.1688  -2.1686
    -2.1645  -2.1645  -2.1628  -2.1577  -2.1577  -2.1566  -2.1483  -2.1483
    -2.1464  -2.1266  -2.1266  -2.1232  -2.0553  -2.0553  -1.8282  -1.5802
    -1.4451  -1.4451  -1.4420  -1.4357  -1.4357  -1.4337  -1.4284  -1.4284
    -1.4284  -1.4253  -1.4228  -1.4228  -1.4119  -1.4119  -1.3947  -1.3947
    -1.3895  -1.3847  -1.3847  -1.3831  -1.3615  -1.3615  -1.3455  -1.3001
    -1.2516  -1.2499  -1.2498  -1.2451  -1.2451  -1.2435  -1.2360  -1.2360
    -1.2359  -1.2201  -1.2201  -1.2086  -1.1982  -1.1982  -1.1810  -1.1807
    -1.1807  -1.1502  -1.1502  -1.1276  -1.0127  -1.0127  -0.3779  -0.0861
    -0.0861  -0.0843  -0.0622   0.2183   0.2886   0.2886   0.3060   0.3084
     0.3084   0.3114   0.3114   0.3142   0.3317   0.3317   0.3987   0.4926
     0.4999   0.4999   0.5104   0.5104   0.5414   0.7677   0.8137   0.8137
     0.8229   0.8229   0.8235   0.8263   0.8268   0.8268   0.8429   0.8486
     0.8486   0.8533   0.8533   0.8546   0.8583   0.8583   0.8620   0.8664
     0.8730   0.8730   0.8845   0.8856   0.8856   0.8922   0.8928   0.8928
     0.8933   0.8988   0.8988   0.8996   0.8999   0.8999   0.9234   0.9234
     0.9277   0.9290   0.9290   0.9315   0.9355   0.9355   0.9370   0.9473
     0.9473   1.0051   1.0570   1.0570   1.1462   1.2472   1.2927   1.2927
     1.3161   1.3161   1.3212   1.3250   1.3250   1.3319   1.3553   1.3553
     1.4319   1.5163   1.5304   1.5304   1.5516   1.5516   1.5529   1.5627
     1.5707   1.5707   1.6092   1.6092   1.6785   1.6935   1.6985   1.6985
     1.7067   1.7067   1.7093   1.7114   1.7114   1.7118   1.7118   1.7199
     1.7267   1.7294   1.7294   1.7310   1.7310   1.7398   1.7616   1.7616
     1.7684   1.8727   1.9251   1.9251   2.2295   2.4313   2.4521   2.4521
     2.4872   2.4876   2.4894   2.4894   2.4912   2.4912   2.4919   2.4928
     2.4928   2.4955   2.4978   2.4978   2.5016   2.5016   2.5023   2.5086
     2.5086   2.5624   2.5850   2.5850   2.6788   2.8277   2.8277   2.8392
     2.8457   2.8457   2.8484   2.8521   2.8523   2.8523   2.8635   2.8635
     2.8718   2.8773   2.8854   2.8854   2.8877   2.8924   2.8924   2.9070
     2.9090   2.9090   3.0751   3.0751   3.7240   3.9202   3.9202   3.9481
     3.9488   3.9496   3.9496   3.9499   3.9562   3.9562   3.9654   3.9713
     3.9713   4.0889   4.1040   4.1040   4.1359   4.1359   4.1375   4.1425
     4.1425   4.1438   4.1443   4.1443   4.1449   4.1458   4.1458   4.1466
     4.1466   4.1548   4.1644   4.1644   4.1920   4.2001   4.2079   4.2079
     4.2177   4.2326   4.2326   4.2387   4.2410   4.2417   4.2417   4.2443
     4.2443   4.2493   4.2664   4.2664   4.2693   4.2697   4.2734   4.2734
     4.2745   4.2745   4.2812   4.2845   4.2915   4.2915   4.3486   4.3486
     4.3687   4.3687   4.3774   4.3774   4.3775   4.3804   4.3814   4.3814
     4.3848   4.3892   4.3941   4.3944   4.3944   4.4075   4.4075   4.4153
     4.4186   4.4186   4.4312   4.4435   4.4435   4.4896   4.5118   4.5141
     4.5141   4.5539   4.5539   4.5806   4.5819   4.5853   4.5853   4.5911
     4.5911   4.6208   4.6494   4.6494   4.6585   4.6970   4.7134   4.7134
     4.8269   4.8269   4.9271   4.9271   4.9510   4.9532   4.9538   4.9543
     4.9543   4.9688   4.9688   5.0385   5.0923   5.0923   5.6010   5.6313
     5.6313   5.6569   5.6635   5.6635   5.6680   5.6716   5.6716   5.7050
     5.7050   5.7073   5.8978   5.8978   5.9057   5.9184   5.9200   5.9200
     5.9227   5.9240   5.9240   5.9346   5.9403   5.9403   5.9461   5.9461
     5.9504   5.9542   5.9542   5.9600   5.9765   5.9765   5.9830   6.0052
     6.0146   6.0146   6.1023   6.1938   6.1938   6.2632   6.2632   6.2677
     6.2694   6.2694   6.2702   6.2712   6.2712   6.2719   6.2758   6.2785
     6.2793   6.2793   6.2914   6.2914   6.2992   6.2992   6.3066   6.3300
     6.3397   6.3397   6.3400   6.4783   6.4783   6.4886   6.5178   6.5182
     6.5182   6.5209   6.5209   6.5217   6.5231   6.5242   6.5242   6.5263
     6.5277   6.5277   6.5286   6.5331   6.5331   6.5425   6.5425   6.5760
     6.5875   6.5875   6.5958   6.6593   6.6600   6.6600   6.6665   6.6714
     6.6714   6.6734   6.6858   6.7137   6.7137   6.7282   6.7317   6.7317
     6.7333   6.7385   6.7423   6.7423   6.7442   6.7448   6.7448   6.7476
     6.7476   6.7733   6.7733   6.7827   6.7893   6.7899   6.7899   6.8195
     6.8624   6.8624   6.9042   6.9042   6.9075   6.9327   6.9327   6.9339
     6.9377   6.9432   6.9461   6.9461   6.9487   6.9504   6.9504   6.9531
     6.9591   6.9591   6.9659   6.9659   6.9673   6.9684   6.9706   6.9706
     6.9769   6.9769   6.9920   7.0132   7.0132   7.0830   7.1291   7.1291
     7.2646   7.2646   7.3040   7.3046   7.3046   7.3062   7.3090   7.3095
     7.3095   7.3101   7.3101   7.3108   7.3152   7.3163   7.3163   7.3213
     7.3279   7.3279   7.3299   7.3565   7.3565   7.3813   7.3822   7.3822
     7.4921   7.4921   7.5249   7.5280   7.5280   7.5309   7.5458   7.5458
     7.5700   7.5903   7.5964   7.5964   7.6818   7.6900   7.6900   7.7382
     7.7412   7.7412   7.7415   7.7442   7.7442   7.7459   7.7508   7.7508
     7.7566   7.7566   7.7581   7.7612   7.7635   7.7635   7.7673   7.7673
     7.7675   7.7679   7.7679   7.7696   7.7729   7.7729   7.7746   7.7764
     7.7764   7.7791   7.7808   7.7813   7.7813   7.7815   7.7815   7.7832
     7.7867   7.7872   7.7872   7.7938   7.8031   7.8031   7.8078   7.8311
     7.8311   7.8552   7.8552   7.8694   7.8962   7.8962   7.9125   7.9218
     7.9218   7.9302   7.9479   7.9479   7.9498   8.1015   8.1213   8.1213
     8.3061   8.3061   8.3608   8.3608   8.3619   8.3656   8.3656   8.3688
     8.3695   8.3706   8.3706   8.3713   8.3761   8.3780   8.3780   8.3848
     8.3848   8.3902   8.4001   8.4001   8.4180   8.4260   8.4260   8.4265
     8.4701   8.5187   8.5187   8.5490   8.5540   8.5540   8.5555   8.5559
     8.5559   8.5610   8.5616   8.5659   8.5659   8.5691   8.5691   8.5854
     8.5854   8.5995   8.6030   8.6068   8.6068   8.6091   8.6357   8.6357
     8.6385   8.6525   8.6601   8.6603   8.6603   8.6695   8.6695   8.6798
     8.6854   8.6854   8.6926   8.6926   8.6958   8.7023   8.7042   8.7042
     8.7231   8.7231   8.7262   8.7339   8.7339   8.7412   8.7546   8.7546
     8.7680   8.7680   8.7802   9.0093   9.0519   9.0519   9.1163   9.1163
     9.1368   9.1376   9.1376   9.1395   9.1424   9.1424   9.1474   9.1850
     9.2011   9.2146   9.2146   9.2570   9.2570   9.2620   9.2620   9.2731
     9.2858   9.2858   9.2961   9.4342   9.4729   9.4729   9.6688   9.6688
     9.7118   9.7125   9.7125   9.7150   9.7156   9.7186   9.7234   9.7234
     9.7357   9.7357   9.7383   9.7401   9.7401   9.7452   9.7452   9.7507
     9.7699   9.7699   9.7765   9.8334   9.8555   9.8555   9.8748   9.9814
     9.9814   9.9918   9.9974   9.9974  10.0035  10.0046  10.0046  10.0105
    10.0203  10.0203  10.0205  10.0300  10.0331  10.0331  10.0400  10.0402
    10.0402  10.0409  10.0409  10.0459  10.0474  10.0474  10.0494  10.0494
    10.0501  10.0505  10.0505  10.0545  10.0680  10.0709  10.0709  10.1496
    10.1496  10.1592  10.1998  10.1998  10.2029  10.2029  10.2029  10.2035
    10.2045  10.2055  10.2055  10.2075  10.2075  10.2084  10.2860  10.2860
    10.2932  10.3105  10.3123  10.3133  10.3133  10.3203  10.3203  10.3231
    10.3231  10.3235  10.3257  10.3278  10.3301  10.3301  10.3309  10.3309
    10.3349  10.3363  10.3363  10.3377  10.3377  10.3380  10.3446  10.3446
    10.3465  10.3526  10.3526  10.3555  10.3601  10.3601  10.3628  10.3788
    10.3788  10.3846  10.4077  10.4077  10.4197  10.4249  10.4249  10.4290
    10.4564  10.4564  10.4601  10.4905  10.4919  10.4919  10.5263  10.5263
    10.6146  10.6384  10.6384  11.2454  11.3491  11.3491  11.4689  11.4689
    11.4854  11.4854  11.4906  11.4930  11.4930  11.4933  11.4976  11.4976
    11.4976  11.4985  11.5048  11.5048  11.5090  11.5090  11.5216  11.5216
    11.5275  11.5401  11.5401  11.5521  11.5623  11.5746  11.5746  11.7422
    11.8861  11.8861  11.8893  11.9209  11.9209  12.2708  12.3607  12.3607
    12.4590  12.4710  12.4710  12.4771  12.4916  12.4916  12.5093  12.5350
    12.5350  12.5840  13.2002  13.2003  13.2003  14.6383  16.5721  16.5721
    17.4078  17.4078  17.4102  17.4230  17.4230  17.4359  17.7158  17.7158

     occupation numbers 
     1.0000   1.0000   1.0000   1.0000   1.0000   1.0000   1.0000   1.0000
     1.0000   1.0000   1.0000   1.0000   1.0000   1.0000   1.0000   1.0000
     1.0000   1.0000   1.0000   1.0000   1.0000   1.0000   1.0000   1.0000
     1.0000   1.0000   1.0000   1.0000   1.0000   1.0000   1.0000   1.0000
     1.0000   1.0000   1.0000   1.0000   1.0000   1.0000   1.0000   1.0000
     1.0000   1.0000   1.0000   1.0000   1.0000   1.0000   1.0000   1.0000
     1.0000   1.0000   1.0000   1.0000   1.0000   1.0000   1.0000   1.0000
     1.0000   1.0000   1.0000   1.0000   1.0000   1.0000   1.0000   1.0000
     1.0000   1.0000   1.0000   1.0000   1.0000   1.0000   1.0000   1.0000
     1.0000   1.0000   1.0000   1.0000   1.0000   1.0000   1.0000   1.0000
     1.0000   1.0000   1.0000   1.0000   1.0000   1.0000   1.0000   1.0000
     1.0000   1.0000   1.0000   1.0000   1.0000   1.0000   1.0000   1.0000
     1.0000   1.0000   1.0000   1.0000   1.0000   1.0000   1.0000   1.0000
     1.0000   1.0000   1.0000   1.0000   1.0000   1.0000   1.0000   1.0000
     1.0000   1.0000   1.0000   1.0000   1.0000   1.0000   1.0000   1.0000
     1.0000   1.0000   1.0000   1.0000   1.0000   1.0000   1.0000   1.0000
     1.0000   1.0000   1.0000   1.0000   1.0000   1.0000   1.0000   1.0000
     1.0000   1.0000   1.0000   1.0000   1.0000   1.0000   1.0000   1.0000
     1.0000   1.0000   1.0000   1.0000   1.0000   1.0000   1.0000   1.0000
     1.0000   1.0000   1.0000   1.0000   1.0000   1.0000   1.0000   1.0000
     1.0000   1.0000   1.0000   1.0000   1.0000   1.0000   1.0000   1.0000
     1.0000   1.0000   1.0000   1.0000   1.0000   1.0000   1.0000   1.0000
     1.0000   1.0000   1.0000   1.0000   1.0000   1.0000   1.0000   1.0000
     1.0000   1.0000   1.0000   1.0000   1.0000   1.0000   1.0000   1.0000
     1.0000   1.0000   1.0000   1.0000   1.0000   1.0000   1.0000   1.0000
     1.0000   1.0000   1.0000   1.0000   1.0000   1.0000   1.0000   1.0000
     1.0000   1.0000   1.0000   1.0000   1.0000   1.0000   1.0000   1.0000
     1.0000   1.0000   1.0000   1.0000   1.0000   1.0000   1.0000   1.0000
     1.0000   1.0000   1.0000   1.0000   1.0000   1.0000   1.0000   1.0000
     1.0000   1.0000   1.0000   1.0000   1.0000   1.0000   1.0000   1.0000
     1.0000   1.0000   1.0000   1.0000   1.0000   1.0000   1.0000   1.0000
     1.0000   1.0000   1.0000   1.0000   1.0000   1.0000   1.0000   1.0000
     1.0000   1.0000   1.0000   1.0000   1.0000   1.0000   1.0000   1.0000
     1.0000   1.0000   1.0000   1.0000   1.0000   1.0000   1.0000   1.0000
     1.0000   1.0000   1.0000   1.0000   1.0000   1.0000   1.0000   1.0000
     1.0000   1.0000   1.0000   1.0000   1.0000   1.0000   1.0000   1.0000
     1.0000   1.0000   1.0000   1.0000   1.0000   1.0000   1.0000   1.0000
     1.0000   1.0000   1.0000   1.0000   1.0000   1.0000   1.0000   1.0000
     1.0000   1.0000   1.0000   1.0000   1.0000   1.0000   1.0000   1.0000
     1.0000   1.0000   1.0000   1.0000   1.0000   1.0000   1.0000   1.0000
     1.0000   1.0000   1.0000   1.0000   1.0000   1.0000   1.0000   1.0000
     1.0000   1.0000   1.0000   1.0000   1.0000   1.0000   1.0000   1.0000
     1.0000   1.0000   1.0000   1.0000   1.0000   1.0000   1.0000   1.0000
     1.0000   1.0000   1.0000   1.0000   1.0000   1.0000   1.0000   1.0000
     1.0000   1.0000   1.0000   1.0000   1.0000   1.0000   1.0000   1.0000
     1.0000   1.0000   1.0000   1.0000   1.0000   1.0000   1.0000   1.0000
     1.0000   1.0000   1.0000   1.0000   1.0000   1.0000   1.0000   1.0000
     1.0000   1.0000   1.0000   1.0000   1.0000   1.0000   1.0000   1.0000
     1.0000   1.0000   1.0000   1.0000   1.0000   1.0000   1.0000   1.0000
     1.0000   1.0000   1.0000   1.0000   1.0000   1.0000   1.0000   1.0000
     1.0000   1.0000   1.0000   1.0000   1.0000   1.0000   1.0000   1.0000
     1.0000   1.0000   1.0000   1.0000   1.0000   1.0000   1.0000   1.0000
     1.0000   1.0000   1.0000   1.0000   1.0000   1.0000   1.0000   1.0000
     1.0000   1.0000   1.0000   1.0000   1.0000   1.0000   1.0000   1.0000
     1.0000   1.0000   1.0000   1.0000   1.0000   1.0000   1.0000   1.0000
     1.0000   1.0000   1.0000   1.0000   1.0000   1.0000   1.0000   1.0000
     1.0000   1.0000   1.0000   1.0000   1.0000   1.0000   1.0000   1.0000
     1.0000   1.0000   1.0000   1.0000   1.0000   1.0000   1.0000   1.0000
     1.0000   1.0000   1.0000   1.0000   1.0000   1.0000   1.0000   1.0000
     1.0000   1.0000   1.0000   1.0000   1.0000   1.0000   1.0000   1.0000
     1.0000   1.0000   1.0000   1.0000   1.0000   1.0000   1.0000   1.0000
     1.0000   1.0000   1.0000   1.0000   1.0000   1.0000   1.0000   1.0000
     1.0000   1.0000   1.0000   1.0000   1.0000   1.0000   1.0000   1.0000
     1.0000   1.0000   1.0000   1.0000   1.0000   1.0000   1.0000   1.0000
     1.0000   1.0000   1.0000   1.0000   1.0000   1.0000   1.0000   1.0000
     1.0000   1.0000   1.0000   1.0000   1.0000   1.0000   1.0000   1.0000
     1.0000   1.0000   1.0000   1.0000   1.0000   1.0000   1.0000   1.0000
     1.0000   1.0000   1.0000   1.0000   1.0000   1.0000   1.0000   1.0000
     1.0000   1.0000   1.0000   1.0000   1.0000   1.0000   1.0000   1.0000
     1.0000   1.0000   1.0000   1.0000   1.0000   1.0000   1.0000   1.0000
     1.0000   1.0000   1.0000   1.0000   1.0000   1.0000   1.0000   1.0000
     1.0000   1.0000   1.0000   1.0000   1.0000   1.0000   1.0000   1.0000
     1.0000   1.0000   1.0000   1.0000   1.0000   1.0000   1.0000   1.0000
     1.0000   1.0000   1.0000   1.0000   1.0000   1.0000   1.0000   1.0000
     1.0000   1.0000   1.0000   1.0000   1.0000   1.0000   1.0000   1.0000
     1.0000   1.0000   1.0000   1.0000   1.0000   1.0000   1.0000   1.0000
     1.0000   1.0000   1.0000   1.0000   1.0000   1.0000   1.0000   1.0000
     1.0000   1.0000   1.0000   1.0000   1.0000   1.0000   1.0000   1.0000
     1.0000   1.0000   1.0000   1.0000   1.0000   1.0000   1.0000   1.0000
     1.0000   1.0000   1.0000   1.0000   1.0000   1.0000   1.0000   1.0000
     1.0000   1.0000   1.0000   1.0000   1.0000   1.0000   1.0000   1.0000
     1.0000   1.0000   1.0000   1.0000   1.0000   1.0000   1.0000   1.0000
     1.0000   1.0000   1.0000   1.0000   1.0000   1.0000   1.0000   1.0000
     1.0000   1.0000   1.0000   1.0000   1.0000   1.0000   1.0000   1.0000
     1.0000   1.0000   1.0000   1.0000   1.0000   1.0000   1.0000   1.0000
     1.0000   1.0000   1.0000   1.0000   1.0000   1.0000   1.0000   1.0000
     1.0000   1.0000   1.0000   1.0000   1.0000   1.0000   1.0000   1.0000
     1.0000   1.0000   1.0000   1.0000   1.0000   1.0000   1.0000   1.0000
     1.0000   1.0000   1.0000   1.0000   1.0000   1.0000   1.0000   1.0000
     1.0000   1.0000   1.0000   1.0000   1.0000   1.0000   1.0000   1.0000
     1.0000   1.0000   1.0000   1.0000   1.0000   1.0000   1.0000   1.0000
     1.0000   1.0000   1.0000   1.0000   1.0000   1.0000   1.0000   1.0000
     1.0000   1.0000   1.0000   1.0000   1.0000   1.0000   1.0000   1.0000
     1.0000   1.0000   1.0000   1.0000   1.0000   1.0000   1.0000   1.0000
     1.0000   1.0000   1.0000   1.0000   1.0000   1.0000   1.0000   1.0000
     1.0000   1.0000   1.0000   1.0000   1.0000   1.0000   1.0000   1.0000
     1.0000   1.0000   1.0000   1.0000   1.0000   1.0000   1.0000   1.0000
     1.0000   1.0000   1.0000   1.0000   1.0000   1.0000   1.0000   1.0000
     1.0000   1.0000   1.0000   1.0000   1.0000   1.0000   1.0000   1.0000
     1.0000   1.0000   1.0000   1.0000   1.0000   1.0000   1.0000   1.0000
     1.0000   1.0000   1.0000   1.0000   1.0000   1.0000   1.0000   1.0000
     1.0000   1.0000   1.0000   1.0000   1.0000   1.0000   1.0000   1.0000
     1.0000   1.0000   1.0000   1.0000   1.0000   1.0000   1.0000   1.0000
     1.0000   1.0000   1.0000   1.0000   1.0000   1.0000   1.0000   1.0000
     1.0000   1.0000   1.0000   1.0000   1.0000   1.0000   1.0000   1.0000
     1.0000   1.0000   1.0000   1.0000   1.0000   1.0000   1.0000   1.0000
     1.0000   1.0000   1.0000   1.0000   1.0000   1.0000   1.0000   1.0000
     1.0000   1.0000   1.0000   1.0000   1.0000   1.0000   1.0000   1.0000
     1.0000   1.0000   1.0000   1.0000   1.0000   1.0000   1.0000   1.0000
     1.0000   1.0000   1.0000   1.0000   1.0000   1.0000   1.0000   1.0000
     1.0000   1.0000   1.0000   1.0000   1.0000   1.0000   1.0000   1.0000
     1.0000   1.0000   1.0000   1.0000   1.0000   1.0000   1.0000   1.0000
     1.0000   1.0000   1.0000   1.0000   1.0000   1.0000   1.0000   1.0000
     1.0000   1.0000   1.0000   1.0000   1.0000   1.0000   1.0000   1.0000
     1.0000   1.0000   1.0000   1.0000   1.0000   1.0000   1.0000   1.0000
     1.0000   1.0000   1.0000   1.0000   1.0000   1.0000   1.0000   1.0000
     1.0000   1.0000   1.0000   1.0000   1.0000   1.0000   1.0000   1.0000
     1.0000   1.0000   1.0000   1.0000   1.0000   1.0000   1.0000   1.0000
     1.0000   1.0000   1.0000   1.0000   1.0000   1.0000   1.0000   1.0000
     1.0000   1.0000   1.0000   1.0000   1.0000   1.0000   1.0000   1.0000
     1.0000   1.0000   1.0000   1.0000   1.0000   1.0000   1.0000   1.0000
     1.0000   1.0000   1.0000   1.0000   1.0000   1.0000   1.0000   1.0000
     1.0000   1.0000   1.0000   1.0000   1.0000   1.0000   1.0000   1.0000
     1.0000   1.0000   1.0000   1.0000   1.0000   1.0000   1.0000   1.0000
     1.0000   1.0000   1.0000   1.0000   1.0000   1.0000   1.0000   1.0000
     1.0000   1.0000   1.0000   1.0000   1.0000   1.0000   1.0000   1.0000
     1.0000   1.0000   1.0000   1.0000   1.0000   1.0000   1.0000   1.0000
     1.0000   1.0000   1.0000   1.0000   1.0000   1.0000   0.0000   0.0000
     0.0000   0.0000   0.0000   0.0000   0.0000   0.0000   0.0000   0.0000

     highest occupied, lowest unoccupied level (ev):    15.1386   16.5721

!    total energy              =   -5829.10349235 Ry
     estimated scf accuracy    <          1.7E-11 Ry

     The total energy is the sum of the following terms:
     one-electron contribution =    2012.68817142 Ry
     hartree contribution      =     504.82893306 Ry
     xc contribution           =   -1820.27898317 Ry
     ewald contribution        =   -6526.34161366 Ry

     total magnetization       =     2.00 Bohr mag/cell
     absolute magnetization    =     2.27 Bohr mag/cell

     convergence has been achieved in  20 iterations

     Forces acting on atoms (cartesian axes, Ry/au):

     atom    1 type  1   force =    -0.00000009   -0.00000009   -0.00000009
     atom    2 type  1   force =     0.00000195    0.00000195   -0.00001632
     atom    3 type  1   force =    -0.00000370   -0.00000370    0.00000116
     atom    4 type  1   force =     0.00000460    0.00000460    0.00001725
     atom    5 type  1   force =     0.00000195   -0.00001632    0.00000195
     atom    6 type  1   force =    -0.00000292   -0.00001382   -0.00001382
     atom    7 type  1   force =     0.00000179   -0.00000671   -0.00000881
     atom    8 type  1   force =     0.00000691   -0.00000785    0.00000897
     atom    9 type  1   force =    -0.00000370    0.00000116   -0.00000370
     atom   10 type  1   force =     0.00000179   -0.00000881   -0.00000671
     atom   11 type  1   force =     0.00000173   -0.00000617   -0.00000617
     atom   12 type  1   force =    -0.00000533    0.00000328    0.00000487
     atom   13 type  1   force =     0.00000460    0.00001725    0.00000460
     atom   14 type  1   force =     0.00000691    0.00000897   -0.00000785
     atom   15 type  1   force =    -0.00000533    0.00000487    0.00000328
     atom   16 type  1   force =    -0.00000895    0.00002046    0.00002046
     atom   17 type  1   force =    -0.00001632    0.00000195    0.00000195
     atom   18 type  1   force =    -0.00001382   -0.00000292   -0.00001382
     atom   19 type  1   force =    -0.00000671    0.00000179   -0.00000881
     atom   20 type  1   force =    -0.00000785    0.00000691    0.00000897
     atom   21 type  1   force =    -0.00001382   -0.00001382   -0.00000292
     atom   22 type  1   force =     0.00000347    0.00000347    0.00000347
     atom   23 type  1   force =     0.00001341    0.00001341    0.00000157
     atom   24 type  1   force =    -0.00001034   -0.00001034    0.00000361
     atom   25 type  1   force =    -0.00000671   -0.00000881    0.00000179
     atom   26 type  1   force =     0.00001341    0.00000157    0.00001341
     atom   27 type  1   force =     0.00000675    0.00000268    0.00000268
     atom   28 type  1   force =     0.00000750    0.00000054   -0.00000597
     atom   29 type  1   force =    -0.00000785    0.00000897    0.00000691
     atom   30 type  1   force =    -0.00001034    0.00000361   -0.00001034
     atom   31 type  1   force =     0.00000750   -0.00000597    0.00000054
     atom   32 type  1   force =     0.00000995    0.00000122    0.00000122
     atom   33 type  1   force =     0.00000116   -0.00000370   -0.00000370
     atom   34 type  1   force =    -0.00000881    0.00000179   -0.00000671
     atom   35 type  1   force =    -0.00000617    0.00000173   -0.00000617
     atom   36 type  1   force =     0.00000328   -0.00000533    0.00000487
     atom   37 type  1   force =    -0.00000881   -0.00000671    0.00000179
     atom   38 type  1   force =     0.00000157    0.00001341    0.00001341
     atom   39 type  1   force =     0.00000268    0.00000675    0.00000268
     atom   40 type  1   force =     0.00000054    0.00000750   -0.00000597
     atom   41 type  1   force =    -0.00000617   -0.00000617    0.00000173
     atom   42 type  1   force =     0.00000268    0.00000268    0.00000675
     atom   43 type  1   force =    -0.00000184   -0.00000184   -0.00001169
     atom   44 type  1   force =     0.00000328    0.00000487   -0.00000533
     atom   45 type  1   force =     0.00000054   -0.00000597    0.00000750
     atom   46 type  1   force =    -0.00000184   -0.00001169   -0.00000184
     atom   47 type  1   force =     0.00002796   -0.00000063   -0.00000063
     atom   48 type  1   force =     0.00001725    0.00000460    0.00000460
     atom   49 type  1   force =     0.00000897    0.00000691   -0.00000785
     atom   50 type  1   force =     0.00000487   -0.00000533    0.00000328
     atom   51 type  1   force =     0.00002046   -0.00000895    0.00002046
     atom   52 type  1   force =     0.00000897   -0.00000785    0.00000691
     atom   53 type  1   force =     0.00000361   -0.00001034   -0.00001034
     atom   54 type  1   force =    -0.00000597    0.00000750    0.00000054
     atom   55 type  1   force =     0.00000122    0.00000995    0.00000122
     atom   56 type  1   force =     0.00000487    0.00000328   -0.00000533
     atom   57 type  1   force =    -0.00000597    0.00000054    0.00000750
     atom   58 type  1   force =    -0.00001169   -0.00000184   -0.00000184
     atom   59 type  1   force =    -0.00000063    0.00002796   -0.00000063
     atom   60 type  1   force =     0.00002046    0.00002046   -0.00000895
     atom   61 type  1   force =     0.00000122    0.00000122    0.00000995
     atom   62 type  1   force =    -0.00000063   -0.00000063    0.00002796
     atom   63 type  1   force =     0.00000526    0.00000526    0.00000526
     atom   64 type  1   force =    -0.00000598   -0.00000035   -0.00000035
     atom   65 type  1   force =    -0.00000015   -0.00000729   -0.00001401
     atom   66 type  1   force =    -0.00000552    0.00000109    0.00000747
     atom   67 type  1   force =     0.00001213   -0.00000881    0.00000802
     atom   68 type  1   force =    -0.00000015   -0.00001401   -0.00000729
     atom   69 type  1   force =     0.00000212   -0.00001231   -0.00001231
     atom   70 type  1   force =     0.00000808   -0.00000677   -0.00000570
     atom   71 type  1   force =    -0.00000211   -0.00000771    0.00000172
     atom   72 type  1   force =    -0.00000552    0.00000747    0.00000109
     atom   73 type  1   force =     0.00000808   -0.00000570   -0.00000677
     atom   74 type  1   force =    -0.00001654    0.00000845    0.00000845
     atom   75 type  1   force =     0.00000117    0.00001628    0.00000606
     atom   76 type  1   force =     0.00001213    0.00000802   -0.00000881
     atom   77 type  1   force =    -0.00000211    0.00000172   -0.00000771
     atom   78 type  1   force =     0.00000117    0.00000606    0.00001628
     atom   79 type  1   force =    -0.00001125    0.00000454    0.00000454
     atom   80 type  1   force =    -0.00002312   -0.00000725   -0.00000725
     atom   81 type  1   force =    -0.00000884    0.00001038   -0.00001102
     atom   82 type  1   force =    -0.00001113    0.00000555   -0.00001613
     atom   83 type  1   force =    -0.00000303    0.00000254   -0.00000602
     atom   84 type  1   force =    -0.00000884   -0.00001102    0.00001038
     atom   85 type  1   force =    -0.00000101   -0.00000068   -0.00000068
     atom   86 type  1   force =     0.00000972    0.00000200   -0.00000132
     atom   87 type  1   force =    -0.00001546    0.00000234   -0.00000020
     atom   88 type  1   force =    -0.00001113   -0.00001613    0.00000555
     atom   89 type  1   force =     0.00000972   -0.00000132    0.00000200
     atom   90 type  1   force =     0.00000108    0.00001239    0.00001239
     atom   91 type  1   force =     0.00000185    0.00001012   -0.00001028
     atom   92 type  1   force =    -0.00000303   -0.00000602    0.00000254
     atom   93 type  1   force =    -0.00001546   -0.00000020    0.00000234
     atom   94 type  1   force =     0.00000185   -0.00001028    0.00001012
     atom   95 type  1   force =    -0.00002956    0.00001464    0.00001464
     atom   96 type  1   force =    -0.00001668   -0.00000094   -0.00000094
     atom   97 type  1   force =    -0.00000620    0.00002868    0.00000106
     atom   98 type  1   force =     0.00001404    0.00002066    0.00000131
     atom   99 type  1   force =     0.00001613    0.00000498   -0.00000266
     atom  100 type  1   force =    -0.00000620    0.00000106    0.00002868
     atom  101 type  1   force =    -0.00001938   -0.00001545   -0.00001545
     atom  102 type  1   force =    -0.00000224   -0.00000609   -0.00000656
     atom  103 type  1   force =    -0.00000914   -0.00000664   -0.00002236
     atom  104 type  1   force =     0.00001404    0.00000131    0.00002066
     atom  105 type  1   force =    -0.00000224   -0.00000656   -0.00000609
     atom  106 type  1   force =     0.00000153    0.00002091    0.00002091
     atom  107 type  1   force =    -0.00000205   -0.00000802   -0.00002088
     atom  108 type  1   force =     0.00001613   -0.00000266    0.00000498
     atom  109 type  1   force =    -0.00000914   -0.00002236   -0.00000664
     atom  110 type  1   force =    -0.00000205   -0.00002088   -0.00000802
     atom  111 type  1   force =    -0.00000122   -0.00000384   -0.00000384
     atom  112 type  1   force =     0.00000052    0.00000199    0.00000199
     atom  113 type  1   force =     0.00000309    0.00000366    0.00001383
     atom  114 type  1   force =     0.00000979    0.00000114    0.00001864
     atom  115 type  1   force =     0.00002727   -0.00000176    0.00001013
     atom  116 type  1   force =     0.00000309    0.00001383    0.00000366
     atom  117 type  1   force =    -0.00000788   -0.00000845   -0.00000845
     atom  118 type  1   force =     0.00000389    0.00000603   -0.00000771
     atom  119 type  1   force =     0.00000154   -0.00000091   -0.00001415
     atom  120 type  1   force =     0.00000979    0.00001864    0.00000114
     atom  121 type  1   force =     0.00000389   -0.00000771    0.00000603
     atom  122 type  1   force =    -0.00000254    0.00000487    0.00000487
     atom  123 type  1   force =     0.00000733   -0.00000233   -0.00000675
     atom  124 type  1   force =     0.00002727    0.00001013   -0.00000176
     atom  125 type  1   force =     0.00000154   -0.00001415   -0.00000091
     atom  126 type  1   force =     0.00000733   -0.00000675   -0.00000233
     atom  127 type  1   force =     0.00000666    0.00000063    0.00000063
     atom  128 type  1   force =    -0.00000035   -0.00000598   -0.00000035
     atom  129 type  1   force =    -0.00000729   -0.00000015   -0.00001401
     atom  130 type  1   force =     0.00000109   -0.00000552    0.00000747
     atom  131 type  1   force =    -0.00000881    0.00001213    0.00000802
     atom  132 type  1   force =    -0.00000725   -0.00002312   -0.00000725
     atom  133 type  1   force =     0.00001038   -0.00000884   -0.00001102
     atom  134 type  1   force =     0.00000555   -0.00001113   -0.00001613
     atom  135 type  1   force =     0.00000254   -0.00000303   -0.00000602
     atom  136 type  1   force =    -0.00000094   -0.00001668   -0.00000094
     atom  137 type  1   force =     0.00002868   -0.00000620    0.00000106
     atom  138 type  1   force =     0.00002066    0.00001404    0.00000131
     atom  139 type  1   force =     0.00000498    0.00001613   -0.00000266
     atom  140 type  1   force =     0.00000199    0.00000052    0.00000199
     atom  141 type  1   force =     0.00000366    0.00000309    0.00001383
     atom  142 type  1   force =     0.00000114    0.00000979    0.00001864
     atom  143 type  1   force =    -0.00000176    0.00002727    0.00001013
     atom  144 type  1   force =    -0.00001401   -0.00000015   -0.00000729
     atom  145 type  1   force =    -0.00001231    0.00000212   -0.00001231
     atom  146 type  1   force =    -0.00000677    0.00000808   -0.00000570
     atom  147 type  1   force =    -0.00000771   -0.00000211    0.00000172
     atom  148 type  1   force =    -0.00001102   -0.00000884    0.00001038
     atom  149 type  1   force =    -0.00000068   -0.00000101   -0.00000068
     atom  150 type  1   force =     0.00000200    0.00000972   -0.00000132
     atom  151 type  1   force =     0.00000234   -0.00001546   -0.00000020
     atom  152 type  1   force =     0.00000106   -0.00000620    0.00002868
     atom  153 type  1   force =    -0.00001545   -0.00001938   -0.00001545
     atom  154 type  1   force =    -0.00000609   -0.00000224   -0.00000656
     atom  155 type  1   force =    -0.00000664   -0.00000914   -0.00002236
     atom  156 type  1   force =     0.00001383    0.00000309    0.00000366
     atom  157 type  1   force =    -0.00000845   -0.00000788   -0.00000845
     atom  158 type  1   force =     0.00000603    0.00000389   -0.00000771
     atom  159 type  1   force =    -0.00000091    0.00000154   -0.00001415
     atom  160 type  1   force =     0.00000747   -0.00000552    0.00000109
     atom  161 type  1   force =    -0.00000570    0.00000808   -0.00000677
     atom  162 type  1   force =     0.00000845   -0.00001654    0.00000845
     atom  163 type  1   force =     0.00001628    0.00000117    0.00000606
     atom  164 type  1   force =    -0.00001613   -0.00001113    0.00000555
     atom  165 type  1   force =    -0.00000132    0.00000972    0.00000200
     atom  166 type  1   force =     0.00001239    0.00000108    0.00001239
     atom  167 type  1   force =     0.00001012    0.00000185   -0.00001028
     atom  168 type  1   force =     0.00000131    0.00001404    0.00002066
     atom  169 type  1   force =    -0.00000656   -0.00000224   -0.00000609
     atom  170 type  1   force =     0.00002091    0.00000153    0.00002091
     atom  171 type  1   force =    -0.00000802   -0.00000205   -0.00002088
     atom  172 type  1   force =     0.00001864    0.00000979    0.00000114
     atom  173 type  1   force =    -0.00000771    0.00000389    0.00000603
     atom  174 type  1   force =     0.00000487   -0.00000254    0.00000487
     atom  175 type  1   force =    -0.00000233    0.00000733   -0.00000675
     atom  176 type  1   force =     0.00000802    0.00001213   -0.00000881
     atom  177 type  1   force =     0.00000172   -0.00000211   -0.00000771
     atom  178 type  1   force =     0.00000606    0.00000117    0.00001628
     atom  179 type  1   force =     0.00000454   -0.00001125    0.00000454
     atom  180 type  1   force =    -0.00000602   -0.00000303    0.00000254
     atom  181 type  1   force =    -0.00000020   -0.00001546    0.00000234
     atom  182 type  1   force =    -0.00001028    0.00000185    0.00001012
     atom  183 type  1   force =     0.00001464   -0.00002956    0.00001464
     atom  184 type  1   force =    -0.00000266    0.00001613    0.00000498
     atom  185 type  1   force =    -0.00002236   -0.00000914   -0.00000664
     atom  186 type  1   force =    -0.00002088   -0.00000205   -0.00000802
     atom  187 type  1   force =    -0.00000384   -0.00000122   -0.00000384
     atom  188 type  1   force =     0.00001013    0.00002727   -0.00000176
     atom  189 type  1   force =    -0.00001415    0.00000154   -0.00000091
     atom  190 type  1   force =    -0.00000675    0.00000733   -0.00000233
     atom  191 type  1   force =     0.00000063    0.00000666    0.00000063
     atom  192 type  1   force =    -0.00000035   -0.00000035   -0.00000598
     atom  193 type  1   force =    -0.00000725   -0.00000725   -0.00002312
     atom  194 type  1   force =    -0.00000094   -0.00000094   -0.00001668
     atom  195 type  1   force =     0.00000199    0.00000199    0.00000052
     atom  196 type  1   force =    -0.00000729   -0.00001401   -0.00000015
     atom  197 type  1   force =     0.00001038   -0.00001102   -0.00000884
     atom  198 type  1   force =     0.00002868    0.00000106   -0.00000620
     atom  199 type  1   force =     0.00000366    0.00001383    0.00000309
     atom  200 type  1   force =     0.00000109    0.00000747   -0.00000552
     atom  201 type  1   force =     0.00000555   -0.00001613   -0.00001113
     atom  202 type  1   force =     0.00002066    0.00000131    0.00001404
     atom  203 type  1   force =     0.00000114    0.00001864    0.00000979
     atom  204 type  1   force =    -0.00000881    0.00000802    0.00001213
     atom  205 type  1   force =     0.00000254   -0.00000602   -0.00000303
     atom  206 type  1   force =     0.00000498   -0.00000266    0.00001613
     atom  207 type  1   force =    -0.00000176    0.00001013    0.00002727
     atom  208 type  1   force =    -0.00001401   -0.00000729   -0.00000015
     atom  209 type  1   force =    -0.00001102    0.00001038   -0.00000884
     atom  210 type  1   force =     0.00000106    0.00002868   -0.00000620
     atom  211 type  1   force =     0.00001383    0.00000366    0.00000309
     atom  212 type  1   force =    -0.00001231   -0.00001231    0.00000212
     atom  213 type  1   force =    -0.00000068   -0.00000068   -0.00000101
     atom  214 type  1   force =    -0.00001545   -0.00001545   -0.00001938
     atom  215 type  1   force =    -0.00000845   -0.00000845   -0.00000788
     atom  216 type  1   force =    -0.00000677   -0.00000570    0.00000808
     atom  217 type  1   force =     0.00000200   -0.00000132    0.00000972
     atom  218 type  1   force =    -0.00000609   -0.00000656   -0.00000224
     atom  219 type  1   force =     0.00000603   -0.00000771    0.00000389
     atom  220 type  1   force =    -0.00000771    0.00000172   -0.00000211
     atom  221 type  1   force =     0.00000234   -0.00000020   -0.00001546
     atom  222 type  1   force =    -0.00000664   -0.00002236   -0.00000914
     atom  223 type  1   force =    -0.00000091   -0.00001415    0.00000154
     atom  224 type  1   force =     0.00000747    0.00000109   -0.00000552
     atom  225 type  1   force =    -0.00001613    0.00000555   -0.00001113
     atom  226 type  1   force =     0.00000131    0.00002066    0.00001404
     atom  227 type  1   force =     0.00001864    0.00000114    0.00000979
     atom  228 type  1   force =    -0.00000570   -0.00000677    0.00000808
     atom  229 type  1   force =    -0.00000132    0.00000200    0.00000972
     atom  230 type  1   force =    -0.00000656   -0.00000609   -0.00000224
     atom  231 type  1   force =    -0.00000771    0.00000603    0.00000389
     atom  232 type  1   force =     0.00000845    0.00000845   -0.00001654
     atom  233 type  1   force =     0.00001239    0.00001239    0.00000108
     atom  234 type  1   force =     0.00002091    0.00002091    0.00000153
     atom  235 type  1   force =     0.00000487    0.00000487   -0.00000254
     atom  236 type  1   force =     0.00001628    0.00000606    0.00000117
     atom  237 type  1   force =     0.00001012   -0.00001028    0.00000185
     atom  238 type  1   force =    -0.00000802   -0.00002088   -0.00000205
     atom  239 type  1   force =    -0.00000233   -0.00000675    0.00000733
     atom  240 type  1   force =     0.00000802   -0.00000881    0.00001213
     atom  241 type  1   force =    -0.00000602    0.00000254   -0.00000303
     atom  242 type  1   force =    -0.00000266    0.00000498    0.00001613
     atom  243 type  1   force =     0.00001013   -0.00000176    0.00002727
     atom  244 type  1   force =     0.00000172   -0.00000771   -0.00000211
     atom  245 type  1   force =    -0.00000020    0.00000234   -0.00001546
     atom  246 type  1   force =    -0.00002236   -0.00000664   -0.00000914
     atom  247 type  1   force =    -0.00001415   -0.00000091    0.00000154
     atom  248 type  1   force =     0.00000606    0.00001628    0.00000117
     atom  249 type  1   force =    -0.00001028    0.00001012    0.00000185
     atom  250 type  1   force =    -0.00002088   -0.00000802   -0.00000205
     atom  251 type  1   force =    -0.00000675   -0.00000233    0.00000733
     atom  252 type  1   force =     0.00000454    0.00000454   -0.00001125
     atom  253 type  1   force =     0.00001464    0.00001464   -0.00002956
     atom  254 type  1   force =    -0.00000384   -0.00000384   -0.00000122
     atom  255 type  1   force =     0.00000063    0.00000063    0.00000666
     atom  256 type  1   force =    -0.00001673   -0.00001233   -0.00001673
     atom  257 type  1   force =    -0.00001146    0.00000121   -0.00001542
     atom  258 type  1   force =    -0.00000703    0.00000385   -0.00000483
     atom  259 type  1   force =    -0.00000668    0.00000543   -0.00000135
     atom  260 type  1   force =    -0.00000519   -0.00001785   -0.00000519
     atom  261 type  1   force =     0.00001904   -0.00000020   -0.00000596
     atom  262 type  1   force =    -0.00000446   -0.00000207   -0.00000207
     atom  263 type  1   force =    -0.00001207   -0.00000425   -0.00000373
     atom  264 type  1   force =     0.00000306   -0.00002769    0.00000306
     atom  265 type  1   force =     0.00001595   -0.00000023    0.00000836
     atom  266 type  1   force =     0.00001039    0.00001672    0.00000975
     atom  267 type  1   force =     0.00000434    0.00000897   -0.00000739
     atom  268 type  1   force =    -0.00000409   -0.00000152   -0.00000409
     atom  269 type  1   force =     0.00000024   -0.00000226    0.00002095
     atom  270 type  1   force =     0.00000265    0.00000129    0.00002110
     atom  271 type  1   force =    -0.00001917    0.00001919    0.00002114
     atom  272 type  1   force =    -0.00001542    0.00000121   -0.00001146
     atom  273 type  1   force =    -0.00000779    0.00001799   -0.00000779
     atom  274 type  1   force =     0.00001208    0.00000995   -0.00000172
     atom  275 type  1   force =     0.00000476    0.00000095   -0.00000204
     atom  276 type  1   force =    -0.00000596   -0.00000020    0.00001904
     atom  277 type  1   force =    -0.00001654   -0.00002925   -0.00001654
     atom  278 type  1   force =    -0.00000127   -0.00000119    0.00000323
     atom  279 type  1   force =    -0.00000488   -0.00000754   -0.00000763
     atom  280 type  1   force =     0.00000836   -0.00000023    0.00001595
     atom  281 type  1   force =    -0.00000843    0.00001305    0.00002491
     atom  282 type  1   force =    -0.00000974   -0.00000865   -0.00001235
     atom  283 type  1   force =     0.00002095   -0.00000226    0.00000024
     atom  284 type  1   force =    -0.00000494   -0.00002214   -0.00000494
     atom  285 type  1   force =     0.00001451   -0.00001846   -0.00000550
     atom  286 type  1   force =    -0.00000513    0.00000342   -0.00000830
     atom  287 type  1   force =    -0.00000483    0.00000385   -0.00000703
     atom  288 type  1   force =    -0.00000172    0.00000995    0.00001208
     atom  289 type  1   force =     0.00001623   -0.00001071    0.00001623
     atom  290 type  1   force =     0.00001625    0.00000265    0.00000485
     atom  291 type  1   force =    -0.00000207   -0.00000207   -0.00000446
     atom  292 type  1   force =     0.00000323   -0.00000119   -0.00000127
     atom  293 type  1   force =    -0.00000159    0.00002183   -0.00000159
     atom  294 type  1   force =     0.00000562   -0.00000262   -0.00000205
     atom  295 type  1   force =     0.00000975    0.00001672    0.00001039
     atom  296 type  1   force =     0.00002491    0.00001305   -0.00000843
     atom  297 type  1   force =     0.00001353    0.00002070    0.00001353
     atom  298 type  1   force =     0.00000011   -0.00000533   -0.00001684
     atom  299 type  1   force =     0.00002110    0.00000129    0.00000265
     atom  300 type  1   force =    -0.00000550   -0.00001846    0.00001451
     atom  301 type  1   force =    -0.00000001    0.00000138   -0.00000001
     atom  302 type  1   force =     0.00000780    0.00000886   -0.00000493
     atom  303 type  1   force =    -0.00000135    0.00000543   -0.00000668
     atom  304 type  1   force =    -0.00000204    0.00000095    0.00000476
     atom  305 type  1   force =     0.00000485    0.00000265    0.00001625
     atom  306 type  1   force =     0.00000753   -0.00001258    0.00000753
     atom  307 type  1   force =    -0.00000373   -0.00000425   -0.00001207
     atom  308 type  1   force =    -0.00000763   -0.00000754   -0.00000488
     atom  309 type  1   force =    -0.00000205   -0.00000262    0.00000562
     atom  310 type  1   force =     0.00000829   -0.00001570    0.00000829
     atom  311 type  1   force =    -0.00000739    0.00000897    0.00000434
     atom  312 type  1   force =    -0.00001235   -0.00000865   -0.00000974
     atom  313 type  1   force =    -0.00001684   -0.00000533    0.00000011
     atom  314 type  1   force =    -0.00000061    0.00000291   -0.00000061
     atom  315 type  1   force =     0.00002114    0.00001919   -0.00001917
     atom  316 type  1   force =    -0.00000830    0.00000342   -0.00000513
     atom  317 type  1   force =    -0.00000493    0.00000886    0.00000780
     atom  318 type  1   force =    -0.00000113    0.00000366   -0.00000113
     atom  319 type  1   force =    -0.00000386   -0.00000386   -0.00000386
     atom  320 type  1   force =    -0.00000653   -0.00000653   -0.00001687
     atom  321 type  1   force =    -0.00000311   -0.00000311   -0.00000397
     atom  322 type  1   force =     0.00000481    0.00000481    0.00000823
     atom  323 type  1   force =    -0.00000653   -0.00001687   -0.00000653
     atom  324 type  1   force =     0.00000414   -0.00001403   -0.00001403
     atom  325 type  1   force =     0.00001680   -0.00000666   -0.00001592
     atom  326 type  1   force =     0.00000602    0.00000454    0.00000196
     atom  327 type  1   force =    -0.00000311   -0.00000397   -0.00000311
     atom  328 type  1   force =     0.00001680   -0.00001592   -0.00000666
     atom  329 type  1   force =     0.00000570    0.00000752    0.00000752
     atom  330 type  1   force =     0.00000237    0.00001644    0.00000671
     atom  331 type  1   force =     0.00000481    0.00000823    0.00000481
     atom  332 type  1   force =     0.00000602    0.00000196    0.00000454
     atom  333 type  1   force =     0.00000237    0.00000671    0.00001644
     atom  334 type  1   force =    -0.00000791    0.00001972    0.00001972
     atom  335 type  1   force =    -0.00001687   -0.00000653   -0.00000653
     atom  336 type  1   force =    -0.00001403    0.00000414   -0.00001403
     atom  337 type  1   force =    -0.00000666    0.00001680   -0.00001592
     atom  338 type  1   force =     0.00000454    0.00000602    0.00000196
     atom  339 type  1   force =    -0.00001403   -0.00001403    0.00000414
     atom  340 type  1   force =     0.00000812    0.00000812    0.00000812
     atom  341 type  1   force =    -0.00000000   -0.00000000   -0.00000570
     atom  342 type  1   force =    -0.00000993   -0.00000993    0.00000661
     atom  343 type  1   force =    -0.00000666   -0.00001592    0.00001680
     atom  344 type  1   force =    -0.00000000   -0.00000570   -0.00000000
     atom  345 type  1   force =    -0.00002410    0.00001280    0.00001280
     atom  346 type  1   force =     0.00000084   -0.00000043   -0.00001013
     atom  347 type  1   force =     0.00000454    0.00000196    0.00000602
     atom  348 type  1   force =    -0.00000993    0.00000661   -0.00000993
     atom  349 type  1   force =     0.00000084   -0.00001013   -0.00000043
     atom  350 type  1   force =    -0.00001848    0.00000410    0.00000410
     atom  351 type  1   force =    -0.00000397   -0.00000311   -0.00000311
     atom  352 type  1   force =    -0.00001592    0.00001680   -0.00000666
     atom  353 type  1   force =     0.00000752    0.00000570    0.00000752
     atom  354 type  1   force =     0.00001644    0.00000237    0.00000671
     atom  355 type  1   force =    -0.00001592   -0.00000666    0.00001680
     atom  356 type  1   force =    -0.00000570   -0.00000000   -0.00000000
     atom  357 type  1   force =     0.00001280   -0.00002410    0.00001280
     atom  358 type  1   force =    -0.00000043    0.00000084   -0.00001013
     atom  359 type  1   force =     0.00000752    0.00000752    0.00000570
     atom  360 type  1   force =     0.00001280    0.00001280   -0.00002410
     atom  361 type  1   force =    -0.00000803   -0.00000803   -0.00001775
     atom  362 type  1   force =     0.00001644    0.00000671    0.00000237
     atom  363 type  1   force =    -0.00000043   -0.00001013    0.00000084
     atom  364 type  1   force =    -0.00000803   -0.00001775   -0.00000803
     atom  365 type  1   force =    -0.00000419    0.00000215    0.00000215
     atom  366 type  1   force =     0.00000823    0.00000481    0.00000481
     atom  367 type  1   force =     0.00000196    0.00000602    0.00000454
     atom  368 type  1   force =     0.00000671    0.00000237    0.00001644
     atom  369 type  1   force =     0.00001972   -0.00000791    0.00001972
     atom  370 type  1   force =     0.00000196    0.00000454    0.00000602
     atom  371 type  1   force =     0.00000661   -0.00000993   -0.00000993
     atom  372 type  1   force =    -0.00001013    0.00000084   -0.00000043
     atom  373 type  1   force =     0.00000410   -0.00001848    0.00000410
     atom  374 type  1   force =     0.00000671    0.00001644    0.00000237
     atom  375 type  1   force =    -0.00001013   -0.00000043    0.00000084
     atom  376 type  1   force =    -0.00001775   -0.00000803   -0.00000803
     atom  377 type  1   force =     0.00000215   -0.00000419    0.00000215
     atom  378 type  1   force =     0.00001972    0.00001972   -0.00000791
     atom  379 type  1   force =     0.00000410    0.00000410   -0.00001848
     atom  380 type  1   force =     0.00000215    0.00000215   -0.00000419
     atom  381 type  1   force =     0.00000758    0.00000758    0.00000758
     atom  382 type  1   force =    -0.00001233   -0.00001673   -0.00001673
     atom  383 type  1   force =     0.00000121   -0.00001146   -0.00001542
     atom  384 type  1   force =     0.00000385   -0.00000703   -0.00000483
     atom  385 type  1   force =     0.00000543   -0.00000668   -0.00000135
     atom  386 type  1   force =     0.00000121   -0.00001542   -0.00001146
     atom  387 type  1   force =     0.00001799   -0.00000779   -0.00000779
     atom  388 type  1   force =     0.00000995    0.00001208   -0.00000172
     atom  389 type  1   force =     0.00000095    0.00000476   -0.00000204
     atom  390 type  1   force =     0.00000385   -0.00000483   -0.00000703
     atom  391 type  1   force =     0.00000995   -0.00000172    0.00001208
     atom  392 type  1   force =    -0.00001071    0.00001623    0.00001623
     atom  393 type  1   force =     0.00000265    0.00001625    0.00000485
     atom  394 type  1   force =     0.00000543   -0.00000135   -0.00000668
     atom  395 type  1   force =     0.00000095   -0.00000204    0.00000476
     atom  396 type  1   force =     0.00000265    0.00000485    0.00001625
     atom  397 type  1   force =    -0.00001258    0.00000753    0.00000753
     atom  398 type  1   force =    -0.00001785   -0.00000519   -0.00000519
     atom  399 type  1   force =    -0.00000020    0.00001904   -0.00000596
     atom  400 type  1   force =    -0.00000207   -0.00000446   -0.00000207
     atom  401 type  1   force =    -0.00000425   -0.00001207   -0.00000373
     atom  402 type  1   force =    -0.00000020   -0.00000596    0.00001904
     atom  403 type  1   force =    -0.00002925   -0.00001654   -0.00001654
     atom  404 type  1   force =    -0.00000119   -0.00000127    0.00000323
     atom  405 type  1   force =    -0.00000754   -0.00000488   -0.00000763
     atom  406 type  1   force =    -0.00000207   -0.00000207   -0.00000446
     atom  407 type  1   force =    -0.00000119    0.00000323   -0.00000127
     atom  408 type  1   force =     0.00002183   -0.00000159   -0.00000159
     atom  409 type  1   force =    -0.00000262    0.00000562   -0.00000205
     atom  410 type  1   force =    -0.00000425   -0.00000373   -0.00001207
     atom  411 type  1   force =    -0.00000754   -0.00000763   -0.00000488
     atom  412 type  1   force =    -0.00000262   -0.00000205    0.00000562
     atom  413 type  1   force =    -0.00001570    0.00000829    0.00000829
     atom  414 type  1   force =    -0.00002769    0.00000306    0.00000306
     atom  415 type  1   force =    -0.00000023    0.00001595    0.00000836
     atom  416 type  1   force =     0.00001672    0.00001039    0.00000975
     atom  417 type  1   force =     0.00000897    0.00000434   -0.00000739
     atom  418 type  1   force =    -0.00000023    0.00000836    0.00001595
     atom  419 type  1   force =     0.00001305   -0.00000843    0.00002491
     atom  420 type  1   force =    -0.00000865   -0.00000974   -0.00001235
     atom  421 type  1   force =     0.00001672    0.00000975    0.00001039
     atom  422 type  1   force =     0.00001305    0.00002491   -0.00000843
     atom  423 type  1   force =     0.00002070    0.00001353    0.00001353
     atom  424 type  1   force =    -0.00000533    0.00000011   -0.00001684
     atom  425 type  1   force =     0.00000897   -0.00000739    0.00000434
     atom  426 type  1   force =    -0.00000865   -0.00001235   -0.00000974
     atom  427 type  1   force =    -0.00000533   -0.00001684    0.00000011
     atom  428 type  1   force =     0.00000291   -0.00000061   -0.00000061
     atom  429 type  1   force =    -0.00000152   -0.00000409   -0.00000409
     atom  430 type  1   force =    -0.00000226    0.00000024    0.00002095
     atom  431 type  1   force =     0.00000129    0.00000265    0.00002110
     atom  432 type  1   force =     0.00001919   -0.00001917    0.00002114
     atom  433 type  1   force =    -0.00000226    0.00002095    0.00000024
     atom  434 type  1   force =    -0.00002214   -0.00000494   -0.00000494
     atom  435 type  1   force =    -0.00001846    0.00001451   -0.00000550
     atom  436 type  1   force =     0.00000342   -0.00000513   -0.00000830
     atom  437 type  1   force =     0.00000129    0.00002110    0.00000265
     atom  438 type  1   force =    -0.00001846   -0.00000550    0.00001451
     atom  439 type  1   force =     0.00000138   -0.00000001   -0.00000001
     atom  440 type  1   force =     0.00000886    0.00000780   -0.00000493
     atom  441 type  1   force =     0.00001919    0.00002114   -0.00001917
     atom  442 type  1   force =     0.00000342   -0.00000830   -0.00000513
     atom  443 type  1   force =     0.00000886   -0.00000493    0.00000780
     atom  444 type  1   force =     0.00000366   -0.00000113   -0.00000113
     atom  445 type  1   force =    -0.00001673   -0.00001673   -0.00001233
     atom  446 type  1   force =    -0.00000519   -0.00000519   -0.00001785
     atom  447 type  1   force =     0.00000306    0.00000306   -0.00002769
     atom  448 type  1   force =    -0.00000409   -0.00000409   -0.00000152
     atom  449 type  1   force =    -0.00001146   -0.00001542    0.00000121
     atom  450 type  1   force =     0.00001904   -0.00000596   -0.00000020
     atom  451 type  1   force =     0.00001595    0.00000836   -0.00000023
     atom  452 type  1   force =     0.00000024    0.00002095   -0.00000226
     atom  453 type  1   force =    -0.00000703   -0.00000483    0.00000385
     atom  454 type  1   force =    -0.00000446   -0.00000207   -0.00000207
     atom  455 type  1   force =     0.00001039    0.00000975    0.00001672
     atom  456 type  1   force =     0.00000265    0.00002110    0.00000129
     atom  457 type  1   force =    -0.00000668   -0.00000135    0.00000543
     atom  458 type  1   force =    -0.00001207   -0.00000373   -0.00000425
     atom  459 type  1   force =     0.00000434   -0.00000739    0.00000897
     atom  460 type  1   force =    -0.00001917    0.00002114    0.00001919
     atom  461 type  1   force =    -0.00001542   -0.00001146    0.00000121
     atom  462 type  1   force =    -0.00000596    0.00001904   -0.00000020
     atom  463 type  1   force =     0.00000836    0.00001595   -0.00000023
     atom  464 type  1   force =     0.00002095    0.00000024   -0.00000226
     atom  465 type  1   force =    -0.00000779   -0.00000779    0.00001799
     atom  466 type  1   force =    -0.00001654   -0.00001654   -0.00002925
     atom  467 type  1   force =    -0.00000494   -0.00000494   -0.00002214
     atom  468 type  1   force =     0.00001208   -0.00000172    0.00000995
     atom  469 type  1   force =    -0.00000127    0.00000323   -0.00000119
     atom  470 type  1   force =    -0.00000843    0.00002491    0.00001305
     atom  471 type  1   force =     0.00001451   -0.00000550   -0.00001846
     atom  472 type  1   force =     0.00000476   -0.00000204    0.00000095
     atom  473 type  1   force =    -0.00000488   -0.00000763   -0.00000754
     atom  474 type  1   force =    -0.00000974   -0.00001235   -0.00000865
     atom  475 type  1   force =    -0.00000513   -0.00000830    0.00000342
     atom  476 type  1   force =    -0.00000483   -0.00000703    0.00000385
     atom  477 type  1   force =    -0.00000207   -0.00000446   -0.00000207
     atom  478 type  1   force =     0.00000975    0.00001039    0.00001672
     atom  479 type  1   force =     0.00002110    0.00000265    0.00000129
     atom  480 type  1   force =    -0.00000172    0.00001208    0.00000995
     atom  481 type  1   force =     0.00000323   -0.00000127   -0.00000119
     atom  482 type  1   force =     0.00002491   -0.00000843    0.00001305
     atom  483 type  1   force =    -0.00000550    0.00001451   -0.00001846
     atom  484 type  1   force =     0.00001623    0.00001623   -0.00001071
     atom  485 type  1   force =    -0.00000159   -0.00000159    0.00002183
     atom  486 type  1   force =     0.00001353    0.00001353    0.00002070
     atom  487 type  1   force =    -0.00000001   -0.00000001    0.00000138
     atom  488 type  1   force =     0.00001625    0.00000485    0.00000265
     atom  489 type  1   force =     0.00000562   -0.00000205   -0.00000262
     atom  490 type  1   force =     0.00000011   -0.00001684   -0.00000533
     atom  491 type  1   force =     0.00000780   -0.00000493    0.00000886
     atom  492 type  1   force =    -0.00000135   -0.00000668    0.00000543
     atom  493 type  1   force =    -0.00000373   -0.00001207   -0.00000425
     atom  494 type  1   force =    -0.00000739    0.00000434    0.00000897
     atom  495 type  1   force =     0.00002114   -0.00001917    0.00001919
     atom  496 type  1   force =    -0.00000204    0.00000476    0.00000095
     atom  497 type  1   force =    -0.00000763   -0.00000488   -0.00000754
     atom  498 type  1   force =    -0.00001235   -0.00000974   -0.00000865
     atom  499 type  1   force =    -0.00000830   -0.00000513    0.00000342
     atom  500 type  1   force =     0.00000485    0.00001625    0.00000265
     atom  501 type  1   force =    -0.00000205    0.00000562   -0.00000262
     atom  502 type  1   force =    -0.00001684    0.00000011   -0.00000533
     atom  503 type  1   force =    -0.00000493    0.00000780    0.00000886
     atom  504 type  1   force =     0.00000753    0.00000753   -0.00001258
     atom  505 type  1   force =     0.00000829    0.00000829   -0.00001570
     atom  506 type  1   force =    -0.00000061   -0.00000061    0.00000291
     atom  507 type  1   force =    -0.00000113   -0.00000113    0.00000366
     atom  508 type  1   force =    -0.00002601   -0.00001360   -0.00001360
     atom  509 type  1   force =    -0.00001360   -0.00001360   -0.00002601
     atom  510 type  1   force =    -0.00001360   -0.00002601   -0.00001360
     atom  511 type  2   force =    -0.00003502   -0.00003502   -0.00003502
     The non-local contrib.  to forces
     atom    1 type  1   force =    -0.00075455   -0.00075455   -0.00075455
     atom    2 type  1   force =    -0.00084706   -0.00084706   -0.00218718
     atom    3 type  1   force =    -0.00084714   -0.00084714   -0.00050738
     atom    4 type  1   force =    -0.00074564   -0.00074564    0.00087898
     atom    5 type  1   force =    -0.00084706   -0.00218718   -0.00084706
     atom    6 type  1   force =    -0.00110169   -0.00393709   -0.00393709
     atom    7 type  1   force =    -0.00091839   -0.00459287   -0.00051775
     atom    8 type  1   force =    -0.00078764   -0.00231476    0.00242929
     atom    9 type  1   force =    -0.00084714   -0.00050738   -0.00084714
     atom   10 type  1   force =    -0.00091839   -0.00051775   -0.00459287
     atom   11 type  1   force =    -0.00224558    0.00071783    0.00071783
     atom   12 type  1   force =    -0.00187608    0.00082987    0.00443138
     atom   13 type  1   force =    -0.00074564    0.00087898   -0.00074564
     atom   14 type  1   force =    -0.00078764    0.00242929   -0.00231476
     atom   15 type  1   force =    -0.00187608    0.00443138    0.00082987
     atom   16 type  1   force =    -0.00182190    0.00248778    0.00248778
     atom   17 type  1   force =    -0.00218718   -0.00084706   -0.00084706
     atom   18 type  1   force =    -0.00393709   -0.00110169   -0.00393709
     atom   19 type  1   force =    -0.00459287   -0.00091839   -0.00051775
     atom   20 type  1   force =    -0.00231476   -0.00078764    0.00242929
     atom   21 type  1   force =    -0.00393709   -0.00393709   -0.00110169
     atom   22 type  1   force =    -0.01174806   -0.01174806   -0.01174806
     atom   23 type  1   force =    -0.02090833   -0.02090833   -0.02004178
     atom   24 type  1   force =    -0.00550225   -0.00550225    0.00670109
     atom   25 type  1   force =    -0.00459287   -0.00051775   -0.00091839
     atom   26 type  1   force =    -0.02090833   -0.02004178   -0.02090833
     atom   27 type  1   force =    -0.03872069    0.00431973    0.00431973
     atom   28 type  1   force =    -0.01722263    0.01931997    0.02196879
     atom   29 type  1   force =    -0.00231476    0.00242929   -0.00078764
     atom   30 type  1   force =    -0.00550225    0.00670109   -0.00550225
     atom   31 type  1   force =    -0.01722263    0.02196879    0.01931997
     atom   32 type  1   force =    -0.00616063    0.00693860    0.00693860
     atom   33 type  1   force =    -0.00050738   -0.00084714   -0.00084714
     atom   34 type  1   force =    -0.00051775   -0.00091839   -0.00459287
     atom   35 type  1   force =     0.00071783   -0.00224558    0.00071783
     atom   36 type  1   force =     0.00082987   -0.00187608    0.00443138
     atom   37 type  1   force =    -0.00051775   -0.00459287   -0.00091839
     atom   38 type  1   force =    -0.02004178   -0.02090833   -0.02090833
     atom   39 type  1   force =     0.00431973   -0.03872069    0.00431973
     atom   40 type  1   force =     0.01931997   -0.01722263    0.02196879
     atom   41 type  1   force =     0.00071783    0.00071783   -0.00224558
     atom   42 type  1   force =     0.00431973    0.00431973   -0.03872069
     atom   43 type  1   force =     0.00405583    0.00405583    0.02365318
     atom   44 type  1   force =     0.00082987    0.00443138   -0.00187608
     atom   45 type  1   force =     0.01931997    0.02196879   -0.01722263
     atom   46 type  1   force =     0.00405583    0.02365318    0.00405583
     atom   47 type  1   force =    -0.00787459    0.00927927    0.00927927
     atom   48 type  1   force =     0.00087898   -0.00074564   -0.00074564
     atom   49 type  1   force =     0.00242929   -0.00078764   -0.00231476
     atom   50 type  1   force =     0.00443138   -0.00187608    0.00082987
     atom   51 type  1   force =     0.00248778   -0.00182190    0.00248778
     atom   52 type  1   force =     0.00242929   -0.00231476   -0.00078764
     atom   53 type  1   force =     0.00670109   -0.00550225   -0.00550225
     atom   54 type  1   force =     0.02196879   -0.01722263    0.01931997
     atom   55 type  1   force =     0.00693860   -0.00616063    0.00693860
     atom   56 type  1   force =     0.00443138    0.00082987   -0.00187608
     atom   57 type  1   force =     0.02196879    0.01931997   -0.01722263
     atom   58 type  1   force =     0.02365318    0.00405583    0.00405583
     atom   59 type  1   force =     0.00927927   -0.00787459    0.00927927
     atom   60 type  1   force =     0.00248778    0.00248778   -0.00182190
     atom   61 type  1   force =     0.00693860    0.00693860   -0.00616063
     atom   62 type  1   force =     0.00927927    0.00927927   -0.00787459
     atom   63 type  1   force =     0.00272606    0.00272606    0.00272606
     atom   64 type  1   force =    -0.00100187   -0.00227805   -0.00227805
     atom   65 type  1   force =    -0.00082587   -0.00360054   -0.00218707
     atom   66 type  1   force =    -0.00058784   -0.00289378    0.00020990
     atom   67 type  1   force =    -0.00059333   -0.00182888    0.00073080
     atom   68 type  1   force =    -0.00082587   -0.00218707   -0.00360054
     atom   69 type  1   force =    -0.00126387   -0.00331651   -0.00331651
     atom   70 type  1   force =    -0.00161801   -0.00198503    0.00310741
     atom   71 type  1   force =    -0.00106178   -0.00098317    0.00210615
     atom   72 type  1   force =    -0.00058784    0.00020990   -0.00289378
     atom   73 type  1   force =    -0.00161801    0.00310741   -0.00198503
     atom   74 type  1   force =    -0.00244513    0.00357927    0.00357927
     atom   75 type  1   force =    -0.00130935    0.00104157    0.00210690
     atom   76 type  1   force =    -0.00059333    0.00073080   -0.00182888
     atom   77 type  1   force =    -0.00106178    0.00210615   -0.00098317
     atom   78 type  1   force =    -0.00130935    0.00210690    0.00104157
     atom   79 type  1   force =    -0.00103231    0.00051008    0.00051008
     atom   80 type  1   force =    -0.00443213   -0.00430885   -0.00430885
     atom   81 type  1   force =    -0.00901660   -0.00904658   -0.00697808
     atom   82 type  1   force =    -0.00432485   -0.00727573    0.00119329
     atom   83 type  1   force =    -0.00241990   -0.00292333    0.00196122
     atom   84 type  1   force =    -0.00901660   -0.00697808   -0.00904658
     atom   85 type  1   force =    -0.03082608   -0.02220182   -0.02220182
     atom   86 type  1   force =    -0.02866043   -0.00380074    0.01027804
     atom   87 type  1   force =    -0.00450648   -0.00070149    0.00695260
     atom   88 type  1   force =    -0.00432485    0.00119329   -0.00727573
     atom   89 type  1   force =    -0.02866043    0.01027804   -0.00380074
     atom   90 type  1   force =    -0.02520870    0.02368880    0.02368880
     atom   91 type  1   force =    -0.00543618    0.00249064    0.00573759
     atom   92 type  1   force =    -0.00241990    0.00196122   -0.00292333
     atom   93 type  1   force =    -0.00450648    0.00695260   -0.00070149
     atom   94 type  1   force =    -0.00543618    0.00573759    0.00249064
     atom   95 type  1   force =    -0.00228452    0.00181570    0.00181570
     atom   96 type  1   force =    -0.00521113   -0.00572249   -0.00572249
     atom   97 type  1   force =    -0.00175013   -0.01339260   -0.00510176
     atom   98 type  1   force =     0.00382601   -0.01288485    0.00723841
     atom   99 type  1   force =     0.00383755   -0.00512339    0.00490428
     atom  100 type  1   force =    -0.00175013   -0.00510176   -0.01339260
     atom  101 type  1   force =    -0.06056360   -0.07651459   -0.07651459
     atom  102 type  1   force =     0.06683243   -0.06094669    0.09481578
     atom  103 type  1   force =     0.00228600   -0.00427849    0.00984280
     atom  104 type  1   force =     0.00382601    0.00723841   -0.01288485
     atom  105 type  1   force =     0.06683243    0.09481578   -0.06094669
     atom  106 type  1   force =     0.12788086   -0.11967446   -0.11967446
     atom  107 type  1   force =    -0.00034474    0.00500630    0.00663677
     atom  108 type  1   force =     0.00383755    0.00490428   -0.00512339
     atom  109 type  1   force =     0.00228600    0.00984280   -0.00427849
     atom  110 type  1   force =    -0.00034474    0.00663677    0.00500630
     atom  111 type  1   force =    -0.00290847    0.00282550    0.00282550
     atom  112 type  1   force =     0.00181214   -0.00263617   -0.00263617
     atom  113 type  1   force =     0.00546764   -0.00726280   -0.00010661
     atom  114 type  1   force =     0.00808059   -0.00766714    0.00603161
     atom  115 type  1   force =     0.00214460   -0.00298083    0.00207612
     atom  116 type  1   force =     0.00546764   -0.00010661   -0.00726280
     atom  117 type  1   force =     0.03237962   -0.00364761   -0.00364761
     atom  118 type  1   force =     0.01745190   -0.00471162    0.00353392
     atom  119 type  1   force =     0.00517525   -0.00185477    0.00410104
     atom  120 type  1   force =     0.00808059    0.00603161   -0.00766714
     atom  121 type  1   force =     0.01745190    0.00353392   -0.00471162
     atom  122 type  1   force =     0.01152567    0.00209229    0.00209229
     atom  123 type  1   force =     0.00297032    0.00017507    0.00277747
     atom  124 type  1   force =     0.00214460    0.00207612   -0.00298083
     atom  125 type  1   force =     0.00517525    0.00410104   -0.00185477
     atom  126 type  1   force =     0.00297032    0.00277747    0.00017507
     atom  127 type  1   force =     0.00111337    0.00077838    0.00077838
     atom  128 type  1   force =    -0.00227805   -0.00100187   -0.00227805
     atom  129 type  1   force =    -0.00360054   -0.00082587   -0.00218707
     atom  130 type  1   force =    -0.00289378   -0.00058784    0.00020990
     atom  131 type  1   force =    -0.00182888   -0.00059333    0.00073080
     atom  132 type  1   force =    -0.00430885   -0.00443213   -0.00430885
     atom  133 type  1   force =    -0.00904658   -0.00901660   -0.00697808
     atom  134 type  1   force =    -0.00727573   -0.00432485    0.00119329
     atom  135 type  1   force =    -0.00292333   -0.00241990    0.00196122
     atom  136 type  1   force =    -0.00572249   -0.00521113   -0.00572249
     atom  137 type  1   force =    -0.01339260   -0.00175013   -0.00510176
     atom  138 type  1   force =    -0.01288485    0.00382601    0.00723841
     atom  139 type  1   force =    -0.00512339    0.00383755    0.00490428
     atom  140 type  1   force =    -0.00263617    0.00181214   -0.00263617
     atom  141 type  1   force =    -0.00726280    0.00546764   -0.00010661
     atom  142 type  1   force =    -0.00766714    0.00808059    0.00603161
     atom  143 type  1   force =    -0.00298083    0.00214460    0.00207612
     atom  144 type  1   force =    -0.00218707   -0.00082587   -0.00360054
     atom  145 type  1   force =    -0.00331651   -0.00126387   -0.00331651
     atom  146 type  1   force =    -0.00198503   -0.00161801    0.00310741
     atom  147 type  1   force =    -0.00098317   -0.00106178    0.00210615
     atom  148 type  1   force =    -0.00697808   -0.00901660   -0.00904658
     atom  149 type  1   force =    -0.02220182   -0.03082608   -0.02220182
     atom  150 type  1   force =    -0.00380074   -0.02866043    0.01027804
     atom  151 type  1   force =    -0.00070149   -0.00450648    0.00695260
     atom  152 type  1   force =    -0.00510176   -0.00175013   -0.01339260
     atom  153 type  1   force =    -0.07651459   -0.06056360   -0.07651459
     atom  154 type  1   force =    -0.06094669    0.06683243    0.09481578
     atom  155 type  1   force =    -0.00427849    0.00228600    0.00984280
     atom  156 type  1   force =    -0.00010661    0.00546764   -0.00726280
     atom  157 type  1   force =    -0.00364761    0.03237962   -0.00364761
     atom  158 type  1   force =    -0.00471162    0.01745190    0.00353392
     atom  159 type  1   force =    -0.00185477    0.00517525    0.00410104
     atom  160 type  1   force =     0.00020990   -0.00058784   -0.00289378
     atom  161 type  1   force =     0.00310741   -0.00161801   -0.00198503
     atom  162 type  1   force =     0.00357927   -0.00244513    0.00357927
     atom  163 type  1   force =     0.00104157   -0.00130935    0.00210690
     atom  164 type  1   force =     0.00119329   -0.00432485   -0.00727573
     atom  165 type  1   force =     0.01027804   -0.02866043   -0.00380074
     atom  166 type  1   force =     0.02368880   -0.02520870    0.02368880
     atom  167 type  1   force =     0.00249064   -0.00543618    0.00573759
     atom  168 type  1   force =     0.00723841    0.00382601   -0.01288485
     atom  169 type  1   force =     0.09481578    0.06683243   -0.06094669
     atom  170 type  1   force =    -0.11967446    0.12788086   -0.11967446
     atom  171 type  1   force =     0.00500630   -0.00034474    0.00663677
     atom  172 type  1   force =     0.00603161    0.00808059   -0.00766714
     atom  173 type  1   force =     0.00353392    0.01745190   -0.00471162
     atom  174 type  1   force =     0.00209229    0.01152567    0.00209229
     atom  175 type  1   force =     0.00017507    0.00297032    0.00277747
     atom  176 type  1   force =     0.00073080   -0.00059333   -0.00182888
     atom  177 type  1   force =     0.00210615   -0.00106178   -0.00098317
     atom  178 type  1   force =     0.00210690   -0.00130935    0.00104157
     atom  179 type  1   force =     0.00051008   -0.00103231    0.00051008
     atom  180 type  1   force =     0.00196122   -0.00241990   -0.00292333
     atom  181 type  1   force =     0.00695260   -0.00450648   -0.00070149
     atom  182 type  1   force =     0.00573759   -0.00543618    0.00249064
     atom  183 type  1   force =     0.00181570   -0.00228452    0.00181570
     atom  184 type  1   force =     0.00490428    0.00383755   -0.00512339
     atom  185 type  1   force =     0.00984280    0.00228600   -0.00427849
     atom  186 type  1   force =     0.00663677   -0.00034474    0.00500630
     atom  187 type  1   force =     0.00282550   -0.00290847    0.00282550
     atom  188 type  1   force =     0.00207612    0.00214460   -0.00298083
     atom  189 type  1   force =     0.00410104    0.00517525   -0.00185477
     atom  190 type  1   force =     0.00277747    0.00297032    0.00017507
     atom  191 type  1   force =     0.00077838    0.00111337    0.00077838
     atom  192 type  1   force =    -0.00227805   -0.00227805   -0.00100187
     atom  193 type  1   force =    -0.00430885   -0.00430885   -0.00443213
     atom  194 type  1   force =    -0.00572249   -0.00572249   -0.00521113
     atom  195 type  1   force =    -0.00263617   -0.00263617    0.00181214
     atom  196 type  1   force =    -0.00360054   -0.00218707   -0.00082587
     atom  197 type  1   force =    -0.00904658   -0.00697808   -0.00901660
     atom  198 type  1   force =    -0.01339260   -0.00510176   -0.00175013
     atom  199 type  1   force =    -0.00726280   -0.00010661    0.00546764
     atom  200 type  1   force =    -0.00289378    0.00020990   -0.00058784
     atom  201 type  1   force =    -0.00727573    0.00119329   -0.00432485
     atom  202 type  1   force =    -0.01288485    0.00723841    0.00382601
     atom  203 type  1   force =    -0.00766714    0.00603161    0.00808059
     atom  204 type  1   force =    -0.00182888    0.00073080   -0.00059333
     atom  205 type  1   force =    -0.00292333    0.00196122   -0.00241990
     atom  206 type  1   force =    -0.00512339    0.00490428    0.00383755
     atom  207 type  1   force =    -0.00298083    0.00207612    0.00214460
     atom  208 type  1   force =    -0.00218707   -0.00360054   -0.00082587
     atom  209 type  1   force =    -0.00697808   -0.00904658   -0.00901660
     atom  210 type  1   force =    -0.00510176   -0.01339260   -0.00175013
     atom  211 type  1   force =    -0.00010661   -0.00726280    0.00546764
     atom  212 type  1   force =    -0.00331651   -0.00331651   -0.00126387
     atom  213 type  1   force =    -0.02220182   -0.02220182   -0.03082608
     atom  214 type  1   force =    -0.07651459   -0.07651459   -0.06056360
     atom  215 type  1   force =    -0.00364761   -0.00364761    0.03237962
     atom  216 type  1   force =    -0.00198503    0.00310741   -0.00161801
     atom  217 type  1   force =    -0.00380074    0.01027804   -0.02866043
     atom  218 type  1   force =    -0.06094669    0.09481578    0.06683243
     atom  219 type  1   force =    -0.00471162    0.00353392    0.01745190
     atom  220 type  1   force =    -0.00098317    0.00210615   -0.00106178
     atom  221 type  1   force =    -0.00070149    0.00695260   -0.00450648
     atom  222 type  1   force =    -0.00427849    0.00984280    0.00228600
     atom  223 type  1   force =    -0.00185477    0.00410104    0.00517525
     atom  224 type  1   force =     0.00020990   -0.00289378   -0.00058784
     atom  225 type  1   force =     0.00119329   -0.00727573   -0.00432485
     atom  226 type  1   force =     0.00723841   -0.01288485    0.00382601
     atom  227 type  1   force =     0.00603161   -0.00766714    0.00808059
     atom  228 type  1   force =     0.00310741   -0.00198503   -0.00161801
     atom  229 type  1   force =     0.01027804   -0.00380074   -0.02866043
     atom  230 type  1   force =     0.09481578   -0.06094669    0.06683243
     atom  231 type  1   force =     0.00353392   -0.00471162    0.01745190
     atom  232 type  1   force =     0.00357927    0.00357927   -0.00244513
     atom  233 type  1   force =     0.02368880    0.02368880   -0.02520870
     atom  234 type  1   force =    -0.11967446   -0.11967446    0.12788086
     atom  235 type  1   force =     0.00209229    0.00209229    0.01152567
     atom  236 type  1   force =     0.00104157    0.00210690   -0.00130935
     atom  237 type  1   force =     0.00249064    0.00573759   -0.00543618
     atom  238 type  1   force =     0.00500630    0.00663677   -0.00034474
     atom  239 type  1   force =     0.00017507    0.00277747    0.00297032
     atom  240 type  1   force =     0.00073080   -0.00182888   -0.00059333
     atom  241 type  1   force =     0.00196122   -0.00292333   -0.00241990
     atom  242 type  1   force =     0.00490428   -0.00512339    0.00383755
     atom  243 type  1   force =     0.00207612   -0.00298083    0.00214460
     atom  244 type  1   force =     0.00210615   -0.00098317   -0.00106178
     atom  245 type  1   force =     0.00695260   -0.00070149   -0.00450648
     atom  246 type  1   force =     0.00984280   -0.00427849    0.00228600
     atom  247 type  1   force =     0.00410104   -0.00185477    0.00517525
     atom  248 type  1   force =     0.00210690    0.00104157   -0.00130935
     atom  249 type  1   force =     0.00573759    0.00249064   -0.00543618
     atom  250 type  1   force =     0.00663677    0.00500630   -0.00034474
     atom  251 type  1   force =     0.00277747    0.00017507    0.00297032
     atom  252 type  1   force =     0.00051008    0.00051008   -0.00103231
     atom  253 type  1   force =     0.00181570    0.00181570   -0.00228452
     atom  254 type  1   force =     0.00282550    0.00282550   -0.00290847
     atom  255 type  1   force =     0.00077838    0.00077838    0.00111337
     atom  256 type  1   force =    -0.00243863   -0.00136468   -0.00243863
     atom  257 type  1   force =    -0.00394742   -0.00380696    0.00118404
     atom  258 type  1   force =    -0.00488619   -0.00378174    0.00527732
     atom  259 type  1   force =    -0.00232372   -0.00148640    0.00136498
     atom  260 type  1   force =    -0.00513529   -0.00204209   -0.00513529
     atom  261 type  1   force =    -0.01664422   -0.00693371    0.00209463
     atom  262 type  1   force =    -0.01430439   -0.01222784    0.01243870
     atom  263 type  1   force =    -0.00424921   -0.00329989    0.00228652
     atom  264 type  1   force =    -0.01025396    0.01215891   -0.01025396
     atom  265 type  1   force =    -0.02398150    0.00728454   -0.00592849
     atom  266 type  1   force =    -0.01464920    0.00093375    0.00700724
     atom  267 type  1   force =    -0.00335802    0.00339522    0.00129533
     atom  268 type  1   force =    -0.00523092    0.00537756   -0.00523092
     atom  269 type  1   force =    -0.00860084    0.00804944   -0.00797640
     atom  270 type  1   force =    -0.00400276    0.00456813    0.00433799
     atom  271 type  1   force =    -0.00260315    0.00310641    0.00072297
     atom  272 type  1   force =     0.00118404   -0.00380696   -0.00394742
     atom  273 type  1   force =    -0.00041317   -0.00810758   -0.00041317
     atom  274 type  1   force =    -0.00238985   -0.00640195    0.00523139
     atom  275 type  1   force =    -0.00169396   -0.00249203    0.00109746
     atom  276 type  1   force =     0.00209463   -0.00693371   -0.01664422
     atom  277 type  1   force =    -0.00186506   -0.06883225   -0.00186506
     atom  278 type  1   force =    -0.04811027   -0.03461425    0.03551064
     atom  279 type  1   force =    -0.00058283   -0.00311358    0.00253861
     atom  280 type  1   force =    -0.00592849    0.00728454   -0.02398150
     atom  281 type  1   force =     0.01661680    0.03995024    0.04535021
     atom  282 type  1   force =     0.00003083    0.00287485    0.00222548
     atom  283 type  1   force =    -0.00797640    0.00804944   -0.00860084
     atom  284 type  1   force =     0.00101323    0.01510851    0.00101323
     atom  285 type  1   force =    -0.00000671    0.00795017    0.00586447
     atom  286 type  1   force =    -0.00047824    0.00294992    0.00061940
     atom  287 type  1   force =     0.00527732   -0.00378174   -0.00488619
     atom  288 type  1   force =     0.00523139   -0.00640195   -0.00238985
     atom  289 type  1   force =     0.00320918   -0.00440941    0.00320918
     atom  290 type  1   force =     0.00385715   -0.00188488    0.00079400
     atom  291 type  1   force =     0.01243870   -0.01222784   -0.01430439
     atom  292 type  1   force =     0.03551064   -0.03461425   -0.04811027
     atom  293 type  1   force =     0.01224040   -0.00416405    0.01224040
     atom  294 type  1   force =     0.00414579   -0.00255374    0.00119406
     atom  295 type  1   force =     0.00700724    0.00093375   -0.01464920
     atom  296 type  1   force =     0.04535021    0.03995024    0.01661680
     atom  297 type  1   force =     0.03201111    0.04988845    0.03201111
     atom  298 type  1   force =     0.00405540    0.00264681    0.00088268
     atom  299 type  1   force =     0.00433799    0.00456813   -0.00400276
     atom  300 type  1   force =     0.00586447    0.00795017   -0.00000671
     atom  301 type  1   force =     0.00902929    0.00760290    0.00902929
     atom  302 type  1   force =     0.00424503    0.00351503    0.00099134
     atom  303 type  1   force =     0.00136498   -0.00148640   -0.00232372
     atom  304 type  1   force =     0.00109746   -0.00249203   -0.00169396
     atom  305 type  1   force =     0.00079400   -0.00188488    0.00385715
     atom  306 type  1   force =     0.00095574   -0.00096944    0.00095574
     atom  307 type  1   force =     0.00228652   -0.00329989   -0.00424921
     atom  308 type  1   force =     0.00253861   -0.00311358   -0.00058283
     atom  309 type  1   force =     0.00119406   -0.00255374    0.00414579
     atom  310 type  1   force =     0.00086283   -0.00220545    0.00086283
     atom  311 type  1   force =     0.00129533    0.00339522   -0.00335802
     atom  312 type  1   force =     0.00222548    0.00287485    0.00003083
     atom  313 type  1   force =     0.00088268    0.00264681    0.00405540
     atom  314 type  1   force =     0.00061837    0.00362764    0.00061837
     atom  315 type  1   force =     0.00072297    0.00310641   -0.00260315
     atom  316 type  1   force =     0.00061940    0.00294992   -0.00047824
     atom  317 type  1   force =     0.00099134    0.00351503    0.00424503
     atom  318 type  1   force =     0.00098539    0.00283554    0.00098539
     atom  319 type  1   force =    -0.00083604   -0.00083604   -0.00083604
     atom  320 type  1   force =    -0.00167819   -0.00167819   -0.00185394
     atom  321 type  1   force =    -0.00264193   -0.00264193    0.00514073
     atom  322 type  1   force =    -0.00162070   -0.00162070    0.00308160
     atom  323 type  1   force =    -0.00167819   -0.00185394   -0.00167819
     atom  324 type  1   force =    -0.00432328   -0.00218547   -0.00218547
     atom  325 type  1   force =    -0.00642499   -0.00480376    0.00417906
     atom  326 type  1   force =    -0.00364506   -0.00384734    0.00449346
     atom  327 type  1   force =    -0.00264193    0.00514073   -0.00264193
     atom  328 type  1   force =    -0.00642499    0.00417906   -0.00480376
     atom  329 type  1   force =    -0.00804570    0.00197677    0.00197677
     atom  330 type  1   force =    -0.00387866    0.00138940    0.00333513
     atom  331 type  1   force =    -0.00162070    0.00308160   -0.00162070
     atom  332 type  1   force =    -0.00364506    0.00449346   -0.00384734
     atom  333 type  1   force =    -0.00387866    0.00333513    0.00138940
     atom  334 type  1   force =    -0.00157814    0.00298156    0.00298156
     atom  335 type  1   force =    -0.00185394   -0.00167819   -0.00167819
     atom  336 type  1   force =    -0.00218547   -0.00432328   -0.00218547
     atom  337 type  1   force =    -0.00480376   -0.00642499    0.00417906
     atom  338 type  1   force =    -0.00384734   -0.00364506    0.00449346
     atom  339 type  1   force =    -0.00218547   -0.00218547   -0.00432328
     atom  340 type  1   force =    -0.01112693   -0.01112693   -0.01112693
     atom  341 type  1   force =    -0.03854428   -0.03854428    0.05629524
     atom  342 type  1   force =    -0.01063603   -0.01063603    0.01267412
     atom  343 type  1   force =    -0.00480376    0.00417906   -0.00642499
     atom  344 type  1   force =    -0.03854428    0.05629524   -0.03854428
     atom  345 type  1   force =    -0.06618806    0.00531029    0.00531029
     atom  346 type  1   force =    -0.00148430    0.00822694    0.00991398
     atom  347 type  1   force =    -0.00384734    0.00449346   -0.00364506
     atom  348 type  1   force =    -0.01063603    0.01267412   -0.01063603
     atom  349 type  1   force =    -0.00148430    0.00991398    0.00822694
     atom  350 type  1   force =    -0.00193489    0.00411696    0.00411696
     atom  351 type  1   force =     0.00514073   -0.00264193   -0.00264193
     atom  352 type  1   force =     0.00417906   -0.00642499   -0.00480376
     atom  353 type  1   force =     0.00197677   -0.00804570    0.00197677
     atom  354 type  1   force =     0.00138940   -0.00387866    0.00333513
     atom  355 type  1   force =     0.00417906   -0.00480376   -0.00642499
     atom  356 type  1   force =     0.05629524   -0.03854428   -0.03854428
     atom  357 type  1   force =     0.00531029   -0.06618806    0.00531029
     atom  358 type  1   force =     0.00822694   -0.00148430    0.00991398
     atom  359 type  1   force =     0.00197677    0.00197677   -0.00804570
     atom  360 type  1   force =     0.00531029    0.00531029   -0.06618806
     atom  361 type  1   force =     0.00590068    0.00590068    0.01136199
     atom  362 type  1   force =     0.00138940    0.00333513   -0.00387866
     atom  363 type  1   force =     0.00822694    0.00991398   -0.00148430
     atom  364 type  1   force =     0.00590068    0.01136199    0.00590068
     atom  365 type  1   force =     0.00819762    0.00498686    0.00498686
     atom  366 type  1   force =     0.00308160   -0.00162070   -0.00162070
     atom  367 type  1   force =     0.00449346   -0.00364506   -0.00384734
     atom  368 type  1   force =     0.00333513   -0.00387866    0.00138940
     atom  369 type  1   force =     0.00298156   -0.00157814    0.00298156
     atom  370 type  1   force =     0.00449346   -0.00384734   -0.00364506
     atom  371 type  1   force =     0.01267412   -0.01063603   -0.01063603
     atom  372 type  1   force =     0.00991398   -0.00148430    0.00822694
     atom  373 type  1   force =     0.00411696   -0.00193489    0.00411696
     atom  374 type  1   force =     0.00333513    0.00138940   -0.00387866
     atom  375 type  1   force =     0.00991398    0.00822694   -0.00148430
     atom  376 type  1   force =     0.01136199    0.00590068    0.00590068
     atom  377 type  1   force =     0.00498686    0.00819762    0.00498686
     atom  378 type  1   force =     0.00298156    0.00298156   -0.00157814
     atom  379 type  1   force =     0.00411696    0.00411696   -0.00193489
     atom  380 type  1   force =     0.00498686    0.00498686    0.00819762
     atom  381 type  1   force =     0.00396178    0.00396178    0.00396178
     atom  382 type  1   force =    -0.00136468   -0.00243863   -0.00243863
     atom  383 type  1   force =    -0.00380696   -0.00394742    0.00118404
     atom  384 type  1   force =    -0.00378174   -0.00488619    0.00527732
     atom  385 type  1   force =    -0.00148640   -0.00232372    0.00136498
     atom  386 type  1   force =    -0.00380696    0.00118404   -0.00394742
     atom  387 type  1   force =    -0.00810758   -0.00041317   -0.00041317
     atom  388 type  1   force =    -0.00640195   -0.00238985    0.00523139
     atom  389 type  1   force =    -0.00249203   -0.00169396    0.00109746
     atom  390 type  1   force =    -0.00378174    0.00527732   -0.00488619
     atom  391 type  1   force =    -0.00640195    0.00523139   -0.00238985
     atom  392 type  1   force =    -0.00440941    0.00320918    0.00320918
     atom  393 type  1   force =    -0.00188488    0.00385715    0.00079400
     atom  394 type  1   force =    -0.00148640    0.00136498   -0.00232372
     atom  395 type  1   force =    -0.00249203    0.00109746   -0.00169396
     atom  396 type  1   force =    -0.00188488    0.00079400    0.00385715
     atom  397 type  1   force =    -0.00096944    0.00095574    0.00095574
     atom  398 type  1   force =    -0.00204209   -0.00513529   -0.00513529
     atom  399 type  1   force =    -0.00693371   -0.01664422    0.00209463
     atom  400 type  1   force =    -0.01222784   -0.01430439    0.01243870
     atom  401 type  1   force =    -0.00329989   -0.00424921    0.00228652
     atom  402 type  1   force =    -0.00693371    0.00209463   -0.01664422
     atom  403 type  1   force =    -0.06883225   -0.00186506   -0.00186506
     atom  404 type  1   force =    -0.03461425   -0.04811027    0.03551064
     atom  405 type  1   force =    -0.00311358   -0.00058283    0.00253861
     atom  406 type  1   force =    -0.01222784    0.01243870   -0.01430439
     atom  407 type  1   force =    -0.03461425    0.03551064   -0.04811027
     atom  408 type  1   force =    -0.00416405    0.01224040    0.01224040
     atom  409 type  1   force =    -0.00255374    0.00414579    0.00119406
     atom  410 type  1   force =    -0.00329989    0.00228652   -0.00424921
     atom  411 type  1   force =    -0.00311358    0.00253861   -0.00058283
     atom  412 type  1   force =    -0.00255374    0.00119406    0.00414579
     atom  413 type  1   force =    -0.00220545    0.00086283    0.00086283
     atom  414 type  1   force =     0.01215891   -0.01025396   -0.01025396
     atom  415 type  1   force =     0.00728454   -0.02398150   -0.00592849
     atom  416 type  1   force =     0.00093375   -0.01464920    0.00700724
     atom  417 type  1   force =     0.00339522   -0.00335802    0.00129533
     atom  418 type  1   force =     0.00728454   -0.00592849   -0.02398150
     atom  419 type  1   force =     0.03995024    0.01661680    0.04535021
     atom  420 type  1   force =     0.00287485    0.00003083    0.00222548
     atom  421 type  1   force =     0.00093375    0.00700724   -0.01464920
     atom  422 type  1   force =     0.03995024    0.04535021    0.01661680
     atom  423 type  1   force =     0.04988845    0.03201111    0.03201111
     atom  424 type  1   force =     0.00264681    0.00405540    0.00088268
     atom  425 type  1   force =     0.00339522    0.00129533   -0.00335802
     atom  426 type  1   force =     0.00287485    0.00222548    0.00003083
     atom  427 type  1   force =     0.00264681    0.00088268    0.00405540
     atom  428 type  1   force =     0.00362764    0.00061837    0.00061837
     atom  429 type  1   force =     0.00537756   -0.00523092   -0.00523092
     atom  430 type  1   force =     0.00804944   -0.00860084   -0.00797640
     atom  431 type  1   force =     0.00456813   -0.00400276    0.00433799
     atom  432 type  1   force =     0.00310641   -0.00260315    0.00072297
     atom  433 type  1   force =     0.00804944   -0.00797640   -0.00860084
     atom  434 type  1   force =     0.01510851    0.00101323    0.00101323
     atom  435 type  1   force =     0.00795017   -0.00000671    0.00586447
     atom  436 type  1   force =     0.00294992   -0.00047824    0.00061940
     atom  437 type  1   force =     0.00456813    0.00433799   -0.00400276
     atom  438 type  1   force =     0.00795017    0.00586447   -0.00000671
     atom  439 type  1   force =     0.00760290    0.00902929    0.00902929
     atom  440 type  1   force =     0.00351503    0.00424503    0.00099134
     atom  441 type  1   force =     0.00310641    0.00072297   -0.00260315
     atom  442 type  1   force =     0.00294992    0.00061940   -0.00047824
     atom  443 type  1   force =     0.00351503    0.00099134    0.00424503
     atom  444 type  1   force =     0.00283554    0.00098539    0.00098539
     atom  445 type  1   force =    -0.00243863   -0.00243863   -0.00136468
     atom  446 type  1   force =    -0.00513529   -0.00513529   -0.00204209
     atom  447 type  1   force =    -0.01025396   -0.01025396    0.01215891
     atom  448 type  1   force =    -0.00523092   -0.00523092    0.00537756
     atom  449 type  1   force =    -0.00394742    0.00118404   -0.00380696
     atom  450 type  1   force =    -0.01664422    0.00209463   -0.00693371
     atom  451 type  1   force =    -0.02398150   -0.00592849    0.00728454
     atom  452 type  1   force =    -0.00860084   -0.00797640    0.00804944
     atom  453 type  1   force =    -0.00488619    0.00527732   -0.00378174
     atom  454 type  1   force =    -0.01430439    0.01243870   -0.01222784
     atom  455 type  1   force =    -0.01464920    0.00700724    0.00093375
     atom  456 type  1   force =    -0.00400276    0.00433799    0.00456813
     atom  457 type  1   force =    -0.00232372    0.00136498   -0.00148640
     atom  458 type  1   force =    -0.00424921    0.00228652   -0.00329989
     atom  459 type  1   force =    -0.00335802    0.00129533    0.00339522
     atom  460 type  1   force =    -0.00260315    0.00072297    0.00310641
     atom  461 type  1   force =     0.00118404   -0.00394742   -0.00380696
     atom  462 type  1   force =     0.00209463   -0.01664422   -0.00693371
     atom  463 type  1   force =    -0.00592849   -0.02398150    0.00728454
     atom  464 type  1   force =    -0.00797640   -0.00860084    0.00804944
     atom  465 type  1   force =    -0.00041317   -0.00041317   -0.00810758
     atom  466 type  1   force =    -0.00186506   -0.00186506   -0.06883225
     atom  467 type  1   force =     0.00101323    0.00101323    0.01510851
     atom  468 type  1   force =    -0.00238985    0.00523139   -0.00640195
     atom  469 type  1   force =    -0.04811027    0.03551064   -0.03461425
     atom  470 type  1   force =     0.01661680    0.04535021    0.03995024
     atom  471 type  1   force =    -0.00000671    0.00586447    0.00795017
     atom  472 type  1   force =    -0.00169396    0.00109746   -0.00249203
     atom  473 type  1   force =    -0.00058283    0.00253861   -0.00311358
     atom  474 type  1   force =     0.00003083    0.00222548    0.00287485
     atom  475 type  1   force =    -0.00047824    0.00061940    0.00294992
     atom  476 type  1   force =     0.00527732   -0.00488619   -0.00378174
     atom  477 type  1   force =     0.01243870   -0.01430439   -0.01222784
     atom  478 type  1   force =     0.00700724   -0.01464920    0.00093375
     atom  479 type  1   force =     0.00433799   -0.00400276    0.00456813
     atom  480 type  1   force =     0.00523139   -0.00238985   -0.00640195
     atom  481 type  1   force =     0.03551064   -0.04811027   -0.03461425
     atom  482 type  1   force =     0.04535021    0.01661680    0.03995024
     atom  483 type  1   force =     0.00586447   -0.00000671    0.00795017
     atom  484 type  1   force =     0.00320918    0.00320918   -0.00440941
     atom  485 type  1   force =     0.01224040    0.01224040   -0.00416405
     atom  486 type  1   force =     0.03201111    0.03201111    0.04988845
     atom  487 type  1   force =     0.00902929    0.00902929    0.00760290
     atom  488 type  1   force =     0.00385715    0.00079400   -0.00188488
     atom  489 type  1   force =     0.00414579    0.00119406   -0.00255374
     atom  490 type  1   force =     0.00405540    0.00088268    0.00264681
     atom  491 type  1   force =     0.00424503    0.00099134    0.00351503
     atom  492 type  1   force =     0.00136498   -0.00232372   -0.00148640
     atom  493 type  1   force =     0.00228652   -0.00424921   -0.00329989
     atom  494 type  1   force =     0.00129533   -0.00335802    0.00339522
     atom  495 type  1   force =     0.00072297   -0.00260315    0.00310641
     atom  496 type  1   force =     0.00109746   -0.00169396   -0.00249203
     atom  497 type  1   force =     0.00253861   -0.00058283   -0.00311358
     atom  498 type  1   force =     0.00222548    0.00003083    0.00287485
     atom  499 type  1   force =     0.00061940   -0.00047824    0.00294992
     atom  500 type  1   force =     0.00079400    0.00385715   -0.00188488
     atom  501 type  1   force =     0.00119406    0.00414579   -0.00255374
     atom  502 type  1   force =     0.00088268    0.00405540    0.00264681
     atom  503 type  1   force =     0.00099134    0.00424503    0.00351503
     atom  504 type  1   force =     0.00095574    0.00095574   -0.00096944
     atom  505 type  1   force =     0.00086283    0.00086283   -0.00220545
     atom  506 type  1   force =     0.00061837    0.00061837    0.00362764
     atom  507 type  1   force =     0.00098539    0.00098539    0.00283554
     atom  508 type  1   force =     0.24550152   -0.21976883   -0.21976883
     atom  509 type  1   force =    -0.21976883   -0.21976883    0.24550152
     atom  510 type  1   force =    -0.21976883    0.24550152   -0.21976883
     atom  511 type  2   force =     0.76527793    0.76527793    0.76527793
     The ionic contribution  to forces
     atom    1 type  1   force =     0.00125703    0.00125472    0.00125474
     atom    2 type  1   force =    -0.00099520   -0.00099986    0.01559659
     atom    3 type  1   force =     0.01146888    0.01146389   -0.01691009
     atom    4 type  1   force =     0.01240118    0.01239739   -0.02995652
     atom    5 type  1   force =    -0.00099606    0.01559648   -0.00099868
     atom    6 type  1   force =     0.00092784    0.03118331    0.03118179
     atom    7 type  1   force =     0.00062219    0.05521154   -0.00515171
     atom    8 type  1   force =    -0.00176069    0.03424531   -0.04333643
     atom    9 type  1   force =     0.01146884   -0.01690917    0.01146570
     atom   10 type  1   force =     0.00062330   -0.00515021    0.05521054
     atom   11 type  1   force =     0.02714764   -0.01388746   -0.01389016
     atom   12 type  1   force =     0.03574482   -0.02287047   -0.05134078
     atom   13 type  1   force =     0.01240238   -0.02995822    0.01239908
     atom   14 type  1   force =    -0.00175907   -0.04333911    0.03424578
     atom   15 type  1   force =     0.03574584   -0.05134163   -0.02287186
     atom   16 type  1   force =     0.04444939   -0.03535484   -0.03535467
     atom   17 type  1   force =     0.01559687   -0.00100009   -0.00099853
     atom   18 type  1   force =     0.03118369    0.00092309    0.03118303
     atom   19 type  1   force =     0.05521116    0.00061637   -0.00515170
     atom   20 type  1   force =     0.03424537   -0.00176540   -0.04333839
     atom   21 type  1   force =     0.03118197    0.03118271    0.00092601
     atom   22 type  1   force =     0.08372591    0.08372661    0.08372633
     atom   23 type  1   force =     0.14949900    0.14949971   -0.05280298
     atom   24 type  1   force =     0.07817360    0.07817449   -0.07487072
     atom   25 type  1   force =     0.05520923   -0.00515006    0.00062057
     atom   26 type  1   force =     0.14949874   -0.05280072    0.14949995
     atom   27 type  1   force =     0.50350868    0.00816446    0.00816094
     atom   28 type  1   force =     0.15384936    0.03370809   -0.15035220
     atom   29 type  1   force =     0.03424554   -0.04333863   -0.00176244
     atom   30 type  1   force =     0.07817512   -0.07487216    0.07817598
     atom   31 type  1   force =     0.15385063   -0.15035214    0.03370547
     atom   32 type  1   force =     0.08914992   -0.10412343   -0.10412466
     atom   33 type  1   force =    -0.01691250    0.01146497    0.01146610
     atom   34 type  1   force =    -0.00515417    0.00061754    0.05521034
     atom   35 type  1   force =    -0.01389216    0.02714126   -0.01388918
     atom   36 type  1   force =    -0.02287463    0.03574034   -0.05134155
     atom   37 type  1   force =    -0.00515398    0.05520944    0.00062017
     atom   38 type  1   force =    -0.05280470    0.14949859    0.14949873
     atom   39 type  1   force =     0.00815819    0.50350896    0.00816035
     atom   40 type  1   force =     0.03370279    0.15384958   -0.15035147
     atom   41 type  1   force =    -0.01389181   -0.01388801    0.02714582
     atom   42 type  1   force =     0.00815848    0.00816342    0.50350966
     atom   43 type  1   force =    -0.13397978   -0.13397258   -0.27711178
     atom   44 type  1   force =    -0.02287525   -0.05133997    0.03574278
     atom   45 type  1   force =     0.03370237   -0.15035125    0.15385136
     atom   46 type  1   force =    -0.13398004   -0.27711131   -0.13397626
     atom   47 type  1   force =    -0.15596347   -0.06642520   -0.06642796
     atom   48 type  1   force =    -0.02995698    0.01239899    0.01239854
     atom   49 type  1   force =    -0.04333830   -0.00176342    0.03424514
     atom   50 type  1   force =    -0.05134217    0.03574002   -0.02287193
     atom   51 type  1   force =    -0.03535453    0.04444552   -0.03535426
     atom   52 type  1   force =    -0.04333676    0.03424527   -0.00176266
     atom   53 type  1   force =    -0.07487114    0.07817518    0.07817354
     atom   54 type  1   force =    -0.15035181    0.15385092    0.03370435
     atom   55 type  1   force =    -0.10412251    0.08914949   -0.10412285
     atom   56 type  1   force =    -0.05133959   -0.02287116    0.03574259
     atom   57 type  1   force =    -0.15035107    0.03370668    0.15385068
     atom   58 type  1   force =    -0.27711041   -0.13397321   -0.13397728
     atom   59 type  1   force =    -0.06642483   -0.15595876   -0.06642628
     atom   60 type  1   force =    -0.03535359   -0.03535429    0.04444642
     atom   61 type  1   force =    -0.10412374   -0.10412392    0.08915084
     atom   62 type  1   force =    -0.06642717   -0.06642677   -0.15596016
     atom   63 type  1   force =    -0.02711194   -0.02711222   -0.02711328
     atom   64 type  1   force =    -0.00181617    0.01579414    0.01579387
     atom   65 type  1   force =     0.00085935    0.03383009    0.00627894
     atom   66 type  1   force =     0.00002509    0.04517513   -0.02962117
     atom   67 type  1   force =    -0.00036903    0.02170717   -0.02235002
     atom   68 type  1   force =     0.00085932    0.00628089    0.03383071
     atom   69 type  1   force =     0.00808909    0.03071188    0.03070924
     atom   70 type  1   force =     0.01046112    0.02072481   -0.04191536
     atom   71 type  1   force =     0.00801846    0.00117564   -0.02952233
     atom   72 type  1   force =     0.00002695   -0.02962281    0.04517696
     atom   73 type  1   force =     0.01046283   -0.04191542    0.02072312
     atom   74 type  1   force =     0.05554231   -0.04672197   -0.04672336
     atom   75 type  1   force =     0.03422951   -0.03134170   -0.01756726
     atom   76 type  1   force =    -0.00036748   -0.02235179    0.02170785
     atom   77 type  1   force =     0.00801992   -0.02952489    0.00117550
     atom   78 type  1   force =     0.03422899   -0.01756880   -0.03134126
     atom   79 type  1   force =     0.01725541   -0.01528769   -0.01528741
     atom   80 type  1   force =     0.02599102    0.02990807    0.02990929
     atom   81 type  1   force =     0.06443807    0.06921225    0.02242761
     atom   82 type  1   force =     0.07126262    0.07104909   -0.03372256
     atom   83 type  1   force =     0.02542050    0.03003184   -0.03157932
     atom   84 type  1   force =     0.06443655    0.02243026    0.06921516
     atom   85 type  1   force =     0.27426721    0.13921227    0.13920903
     atom   86 type  1   force =     0.25993433    0.14801470   -0.12175948
     atom   87 type  1   force =     0.06620223    0.03093265   -0.06517836
     atom   88 type  1   force =     0.07126206   -0.03372193    0.07105256
     atom   89 type  1   force =     0.25993573   -0.12175748    0.14801204
     atom   90 type  1   force =     0.27883728   -0.15074182   -0.15074490
     atom   91 type  1   force =     0.07316248   -0.05785135   -0.07998249
     atom   92 type  1   force =     0.02542189   -0.03158103    0.03003411
     atom   93 type  1   force =     0.06620482   -0.06518100    0.03093178
     atom   94 type  1   force =     0.07316391   -0.07998443   -0.05785340
     atom   95 type  1   force =     0.02839050   -0.03644769   -0.03644698
     atom   96 type  1   force =    -0.02560005    0.03961278    0.03961436
     atom   97 type  1   force =    -0.00677973    0.13759312    0.06732874
     atom   98 type  1   force =     0.00177353    0.15300664   -0.06549257
     atom   99 type  1   force =     0.00373882    0.05648874   -0.03814387
     atom  100 type  1   force =    -0.00677964    0.06733033    0.13759593
     atom  101 type  1   force =    -0.32591988    0.80199959    0.80199746
     atom  102 type  1   force =     0.23887949    0.75114478   -0.79805249
     atom  103 type  1   force =    -0.00492075    0.03194609   -0.10802293
     atom  104 type  1   force =     0.00177259   -0.06549090    0.15301078
     atom  105 type  1   force =     0.23888106   -0.79804891    0.75114286
     atom  106 type  1   force =    -1.30996428   -0.30726039   -0.30726480
     atom  107 type  1   force =    -0.06758221   -0.07527007   -0.05161006
     atom  108 type  1   force =     0.00373824   -0.03814457    0.05649161
     atom  109 type  1   force =    -0.00492159   -0.10802542    0.03194627
     atom  110 type  1   force =    -0.06758259   -0.05161059   -0.07527282
     atom  111 type  1   force =    -0.05266334   -0.01026333   -0.01026365
     atom  112 type  1   force =    -0.03450482    0.03196682    0.03196672
     atom  113 type  1   force =    -0.06584919    0.07737859    0.03116870
     atom  114 type  1   force =    -0.06946402    0.10073734   -0.04290210
     atom  115 type  1   force =    -0.04519777    0.05167623   -0.03585647
     atom  116 type  1   force =    -0.06584769    0.03117007    0.07737978
     atom  117 type  1   force =    -0.24197607    0.11907931    0.11907608
     atom  118 type  1   force =    -0.26661317    0.07857179   -0.20213340
     atom  119 type  1   force =    -0.07212531   -0.00205078   -0.05712897
     atom  120 type  1   force =    -0.06946288   -0.04290217    0.10073930
     atom  121 type  1   force =    -0.26661352   -0.20213201    0.07857039
     atom  122 type  1   force =     0.03087789   -0.10836452   -0.10836639
     atom  123 type  1   force =    -0.03983107   -0.05719768    0.00768730
     atom  124 type  1   force =    -0.04519849   -0.03585706    0.05167761
     atom  125 type  1   force =    -0.07212796   -0.05713072   -0.00205070
     atom  126 type  1   force =    -0.03983293    0.00768650   -0.05719848
     atom  127 type  1   force =    -0.02599395   -0.00192265   -0.00192370
     atom  128 type  1   force =     0.01579653   -0.00181990    0.01579478
     atom  129 type  1   force =     0.03383403    0.00085399    0.00627951
     atom  130 type  1   force =     0.04517854    0.00002063   -0.02962188
     atom  131 type  1   force =     0.02170857   -0.00037189   -0.02235091
     atom  132 type  1   force =     0.02991011    0.02599110    0.02990839
     atom  133 type  1   force =     0.06921589    0.06443834    0.02242810
     atom  134 type  1   force =     0.07105202    0.07126350   -0.03372216
     atom  135 type  1   force =     0.03003339    0.02542129   -0.03157907
     atom  136 type  1   force =     0.03961590   -0.02559628    0.03961474
     atom  137 type  1   force =     0.13759783   -0.00677462    0.06732931
     atom  138 type  1   force =     0.15301090    0.00177817   -0.06549265
     atom  139 type  1   force =     0.05649127    0.00374293   -0.03814406
     atom  140 type  1   force =     0.03197002   -0.03450655    0.03196831
     atom  141 type  1   force =     0.07738345   -0.06584946    0.03116974
     atom  142 type  1   force =     0.10074109   -0.06946430   -0.04290305
     atom  143 type  1   force =     0.05167953   -0.04519900   -0.03585714
     atom  144 type  1   force =     0.00627846    0.00085491    0.03383164
     atom  145 type  1   force =     0.03070819    0.00808293    0.03070998
     atom  146 type  1   force =     0.02072142    0.01045557   -0.04191610
     atom  147 type  1   force =     0.00117337    0.00801431   -0.02952353
     atom  148 type  1   force =     0.02242677    0.06443701    0.06921461
     atom  149 type  1   force =     0.13920721    0.27426690    0.13920910
     atom  150 type  1   force =     0.14800976    0.25993525   -0.12175998
     atom  151 type  1   force =     0.03092946    0.06620287   -0.06517781
     atom  152 type  1   force =     0.06732711   -0.00677514    0.13759665
     atom  153 type  1   force =     0.80199423   -0.32591705    0.80199695
     atom  154 type  1   force =     0.75113889    0.23888827   -0.79805126
     atom  155 type  1   force =     0.03194269   -0.00491574   -0.10802347
     atom  156 type  1   force =     0.03116726   -0.06584867    0.07738142
     atom  157 type  1   force =     0.11907476   -0.24197698    0.11907794
     atom  158 type  1   force =     0.07856735   -0.26661303   -0.20213451
     atom  159 type  1   force =    -0.00205386   -0.07212677   -0.05712993
     atom  160 type  1   force =    -0.02962463    0.00002268    0.04517599
     atom  161 type  1   force =    -0.04191794    0.01045656    0.02072300
     atom  162 type  1   force =    -0.04672586    0.05553695   -0.04672312
     atom  163 type  1   force =    -0.03134337    0.03422588   -0.01756751
     atom  164 type  1   force =    -0.03372395    0.07126247    0.07105066
     atom  165 type  1   force =    -0.12176118    0.25993485    0.14801092
     atom  166 type  1   force =    -0.15074534    0.27883680   -0.15074400
     atom  167 type  1   force =    -0.05785326    0.07316201   -0.07998170
     atom  168 type  1   force =    -0.06549370    0.00177673    0.15300990
     atom  169 type  1   force =    -0.79805210    0.23888665    0.75114213
     atom  170 type  1   force =    -0.30726629   -1.30995560   -0.30726590
     atom  171 type  1   force =    -0.07527247   -0.06757762   -0.05160898
     atom  172 type  1   force =    -0.04290479   -0.06946362    0.10073982
     atom  173 type  1   force =    -0.20213584   -0.26661384    0.07857077
     atom  174 type  1   force =    -0.10836867    0.03087851   -0.10836707
     atom  175 type  1   force =    -0.05720032   -0.03983148    0.00768704
     atom  176 type  1   force =    -0.02234868   -0.00037090    0.02170680
     atom  177 type  1   force =    -0.02952118    0.00801420    0.00117501
     atom  178 type  1   force =    -0.01756610    0.03422429   -0.03134087
     atom  179 type  1   force =    -0.01528520    0.01725271   -0.01528720
     atom  180 type  1   force =    -0.03157788    0.02542132    0.03003231
     atom  181 type  1   force =    -0.06517697    0.06620463    0.03093106
     atom  182 type  1   force =    -0.07998082    0.07316347   -0.05785161
     atom  183 type  1   force =    -0.03644366    0.02839023   -0.03644517
     atom  184 type  1   force =    -0.03814141    0.00374226    0.05649059
     atom  185 type  1   force =    -0.10802116   -0.00491627    0.03194580
     atom  186 type  1   force =    -0.05160744   -0.06757744   -0.07527176
     atom  187 type  1   force =    -0.01026023   -0.05265981   -0.01026300
     atom  188 type  1   force =    -0.03585420   -0.04519878    0.05167781
     atom  189 type  1   force =    -0.05712801   -0.07212802   -0.00205091
     atom  190 type  1   force =     0.00768954   -0.03983259   -0.05719825
     atom  191 type  1   force =    -0.00192038   -0.02599471   -0.00192361
     atom  192 type  1   force =     0.01579539    0.01579428   -0.00181817
     atom  193 type  1   force =     0.02991114    0.02990795    0.02598991
     atom  194 type  1   force =     0.03961630    0.03961269   -0.02559790
     atom  195 type  1   force =     0.03196818    0.03196577   -0.03450408
     atom  196 type  1   force =     0.03383180    0.00628087    0.00085674
     atom  197 type  1   force =     0.06921589    0.02243053    0.06443721
     atom  198 type  1   force =     0.13759704    0.06733229   -0.00677767
     atom  199 type  1   force =     0.07738059    0.03117097   -0.06584819
     atom  200 type  1   force =     0.04517834   -0.02962251    0.00002366
     atom  201 type  1   force =     0.07105411   -0.03372260    0.07126279
     atom  202 type  1   force =     0.15301201   -0.06549095    0.00177478
     atom  203 type  1   force =     0.10074051   -0.04290140   -0.06946435
     atom  204 type  1   force =     0.02170955   -0.02235206   -0.00037109
     atom  205 type  1   force =     0.03003648   -0.03158144    0.02542195
     atom  206 type  1   force =     0.05649355   -0.03814650    0.00374135
     atom  207 type  1   force =     0.05167959   -0.03585832   -0.04519886
     atom  208 type  1   force =     0.00627815    0.03382946    0.00085711
     atom  209 type  1   force =     0.02242695    0.06921251    0.06443738
     atom  210 type  1   force =     0.06732774    0.13759295   -0.00677764
     atom  211 type  1   force =     0.03116735    0.07737729   -0.06584823
     atom  212 type  1   force =     0.03070697    0.03071041    0.00808741
     atom  213 type  1   force =     0.13920668    0.13921147    0.27426754
     atom  214 type  1   force =     0.80199550    0.80200023   -0.32591846
     atom  215 type  1   force =     0.11907369    0.11907913   -0.24197668
     atom  216 type  1   force =     0.02072023   -0.04191425    0.01046014
     atom  217 type  1   force =     0.14800892   -0.12175757    0.25993699
     atom  218 type  1   force =     0.75113960   -0.79804846    0.23888463
     atom  219 type  1   force =     0.07856705   -0.20213092   -0.26661443
     atom  220 type  1   force =     0.00117329   -0.02952392    0.00801630
     atom  221 type  1   force =     0.03092978   -0.06518016    0.06620492
     atom  222 type  1   force =     0.03194377   -0.10802571   -0.00491826
     atom  223 type  1   force =    -0.00205344   -0.05713058   -0.07212848
     atom  224 type  1   force =    -0.02962389    0.04517520    0.00002307
     atom  225 type  1   force =    -0.03372483    0.07105002    0.07126156
     atom  226 type  1   force =    -0.06549422    0.15300745    0.00177484
     atom  227 type  1   force =    -0.04290381    0.10073648   -0.06946353
     atom  228 type  1   force =    -0.04191622    0.02072346    0.01045973
     atom  229 type  1   force =    -0.12176026    0.14801317    0.25993485
     atom  230 type  1   force =    -0.79805349    0.75114487    0.23888100
     atom  231 type  1   force =    -0.20213394    0.07857112   -0.26661404
     atom  232 type  1   force =    -0.04672461   -0.04672210    0.05553957
     atom  233 type  1   force =    -0.15074578   -0.15074248    0.27883822
     atom  234 type  1   force =    -0.30726655   -0.30726171   -1.30996089
     atom  235 type  1   force =    -0.10836753   -0.10836383    0.03087664
     atom  236 type  1   force =    -0.03134409   -0.01756670    0.03422632
     atom  237 type  1   force =    -0.05785532   -0.07998331    0.07316415
     atom  238 type  1   force =    -0.07527486   -0.05161090   -0.06757863
     atom  239 type  1   force =    -0.05720083    0.00768745   -0.03983360
     atom  240 type  1   force =    -0.02234870    0.02170724   -0.00037128
     atom  241 type  1   force =    -0.03157810    0.03003259    0.02542008
     atom  242 type  1   force =    -0.03814307    0.05648975    0.00374126
     atom  243 type  1   force =    -0.03585514    0.05167600   -0.04519721
     atom  244 type  1   force =    -0.02952058    0.00117530    0.00801590
     atom  245 type  1   force =    -0.06517673    0.03093293    0.06620303
     atom  246 type  1   force =    -0.10802148    0.03194780   -0.00491827
     atom  247 type  1   force =    -0.05712739   -0.00205021   -0.07212676
     atom  248 type  1   force =    -0.01756422   -0.03134158    0.03422639
     atom  249 type  1   force =    -0.07997968   -0.05785214    0.07316359
     atom  250 type  1   force =    -0.05160760   -0.07527120   -0.06757918
     atom  251 type  1   force =     0.00768997   -0.05719771   -0.03983252
     atom  252 type  1   force =    -0.01528495   -0.01528704    0.01725223
     atom  253 type  1   force =    -0.03644403   -0.03644716    0.02839065
     atom  254 type  1   force =    -0.01026155   -0.01026471   -0.05265986
     atom  255 type  1   force =    -0.00192121   -0.00192372   -0.02599482
     atom  256 type  1   force =     0.03101078    0.02055650    0.03101022
     atom  257 type  1   force =     0.05868631    0.03039909    0.01444175
     atom  258 type  1   force =     0.03958025    0.02056586   -0.01799358
     atom  259 type  1   force =     0.02276375    0.01588341   -0.00666821
     atom  260 type  1   force =     0.07124224    0.04628536    0.07124178
     atom  261 type  1   force =     0.17998715    0.12998746    0.01874122
     atom  262 type  1   force =     0.10411420    0.07535345   -0.07037796
     atom  263 type  1   force =     0.04330244    0.02891985   -0.02141728
     atom  264 type  1   force =     0.07165264    0.00704687    0.07165338
     atom  265 type  1   force =     0.25468202   -0.06961367    0.07907792
     atom  266 type  1   force =     0.18568522   -0.01139907   -0.12455474
     atom  267 type  1   force =     0.06351499    0.00858305   -0.04062883
     atom  268 type  1   force =     0.04301116   -0.03820831    0.04301089
     atom  269 type  1   force =     0.08586111   -0.08436117    0.02011367
     atom  270 type  1   force =     0.06960396   -0.06529465   -0.03927742
     atom  271 type  1   force =     0.02883700   -0.02230991   -0.01235925
     atom  272 type  1   force =     0.01444009    0.03039940    0.05868484
     atom  273 type  1   force =     0.02130399    0.07416389    0.02130581
     atom  274 type  1   force =     0.01348212    0.06351509   -0.06136260
     atom  275 type  1   force =     0.00182681    0.02786355   -0.01624280
     atom  276 type  1   force =     0.01873940    0.12998597    0.17998638
     atom  277 type  1   force =     0.22173054    0.82634653    0.22173319
     atom  278 type  1   force =     0.17584996    0.27544276   -0.30403745
     atom  279 type  1   force =     0.02780959    0.05546685   -0.05214134
     atom  280 type  1   force =     0.07907499   -0.06961407    0.25468189
     atom  281 type  1   force =    -0.13916903   -0.24578042   -0.76114465
     atom  282 type  1   force =    -0.01124257   -0.03617623   -0.04909270
     atom  283 type  1   force =     0.02011030   -0.08435952    0.08586006
     atom  284 type  1   force =     0.03300688   -0.24529549    0.03300975
     atom  285 type  1   force =    -0.09079690   -0.12751313   -0.12754786
     atom  286 type  1   force =    -0.01967409   -0.04868304   -0.01259349
     atom  287 type  1   force =    -0.01799541    0.02056749    0.03957857
     atom  288 type  1   force =    -0.06136452    0.06351622    0.01348384
     atom  289 type  1   force =    -0.04122975    0.07561524   -0.04122800
     atom  290 type  1   force =    -0.00459499    0.03653830   -0.00561089
     atom  291 type  1   force =    -0.07037885    0.07535205    0.10411412
     atom  292 type  1   force =    -0.30403765    0.27544330    0.17585252
     atom  293 type  1   force =    -0.16805043    0.08684870   -0.16805052
     atom  294 type  1   force =    -0.04641380    0.02175477   -0.03589518
     atom  295 type  1   force =    -0.12455496   -0.01140013    0.18568546
     atom  296 type  1   force =    -0.76114462   -0.24578076   -0.13916596
     atom  297 type  1   force =     0.02962322   -0.23511786    0.02962248
     atom  298 type  1   force =    -0.05782599   -0.04529722    0.00785617
     atom  299 type  1   force =    -0.03927843   -0.06529374    0.06960324
     atom  300 type  1   force =    -0.12754845   -0.12751404   -0.09079397
     atom  301 type  1   force =    -0.02117429    0.01446124   -0.02117395
     atom  302 type  1   force =    -0.00813638   -0.00936742    0.02950842
     atom  303 type  1   force =    -0.00666600    0.01588416    0.02276191
     atom  304 type  1   force =    -0.01624084    0.02786326    0.00182828
     atom  305 type  1   force =    -0.00560887    0.03653830   -0.00459329
     atom  306 type  1   force =     0.00246758    0.02062362    0.00246558
     atom  307 type  1   force =    -0.02141494    0.02891980    0.04330225
     atom  308 type  1   force =    -0.05213954    0.05546877    0.02781152
     atom  309 type  1   force =    -0.03589361    0.02175660   -0.04641349
     atom  310 type  1   force =    -0.01191419    0.00892059   -0.01191650
     atom  311 type  1   force =    -0.04062613    0.00858225    0.06351522
     atom  312 type  1   force =    -0.04908974   -0.03617706   -0.01123943
     atom  313 type  1   force =     0.00785909   -0.04529676   -0.05782548
     atom  314 type  1   force =     0.00501409    0.00180887    0.00501089
     atom  315 type  1   force =    -0.01235603   -0.02231011    0.02883648
     atom  316 type  1   force =    -0.01259080   -0.04868427   -0.01967060
     atom  317 type  1   force =     0.02951104   -0.00936847   -0.00813555
     atom  318 type  1   force =     0.01544733    0.00127917    0.01544422
     atom  319 type  1   force =     0.01429968    0.01429824    0.01429762
     atom  320 type  1   force =     0.02010674    0.02010259    0.01838770
     atom  321 type  1   force =     0.02073815    0.02073330    0.01644376
     atom  322 type  1   force =     0.01965016    0.01964711   -0.01128344
     atom  323 type  1   force =     0.02010572    0.01838904    0.02010396
     atom  324 type  1   force =     0.03985851    0.04842865    0.04842605
     atom  325 type  1   force =     0.04625573    0.05580015   -0.01891141
     atom  326 type  1   force =     0.02632104    0.02131583   -0.03850537
     atom  327 type  1   force =     0.02073828    0.01644469    0.02073614
     atom  328 type  1   force =     0.04625690   -0.01890985    0.05579853
     atom  329 type  1   force =     0.09447301   -0.03048980   -0.03049216
     atom  330 type  1   force =     0.05955324   -0.00660433   -0.05094200
     atom  331 type  1   force =     0.01965088   -0.01128479    0.01964802
     atom  332 type  1   force =     0.02632368   -0.03850794    0.02131582
     atom  333 type  1   force =     0.05955463   -0.05094394   -0.00660582
     atom  334 type  1   force =     0.04308154   -0.01363941   -0.01363911
     atom  335 type  1   force =     0.01838800    0.02010280    0.02010471
     atom  336 type  1   force =     0.04842609    0.03985367    0.04842662
     atom  337 type  1   force =     0.05579799    0.04625055   -0.01891145
     atom  338 type  1   force =     0.02131490    0.02631772   -0.03850621
     atom  339 type  1   force =     0.04842527    0.04842750    0.03985647
     atom  340 type  1   force =     0.17377148    0.17377500    0.17377270
     atom  341 type  1   force =     0.27491439    0.27491658   -0.13534129
     atom  342 type  1   force =     0.07506607    0.07506874   -0.10864789
     atom  343 type  1   force =     0.05579605   -0.01890911    0.04625457
     atom  344 type  1   force =     0.27491321   -0.13533736    0.27491535
     atom  345 type  1   force =     0.73754265   -0.21378988   -0.21379511
     atom  346 type  1   force =     0.09965675    0.00508443   -0.19359917
     atom  347 type  1   force =     0.02131430   -0.03850720    0.02632056
     atom  348 type  1   force =     0.07506706   -0.10864970    0.07506866
     atom  349 type  1   force =     0.09965798   -0.19360001    0.00508135
     atom  350 type  1   force =     0.00980288   -0.06311845   -0.06311925
     atom  351 type  1   force =     0.01644154    0.02073399    0.02073588
     atom  352 type  1   force =    -0.01891436    0.04625150    0.05579805
     atom  353 type  1   force =    -0.03049432    0.09446634   -0.03049116
     atom  354 type  1   force =    -0.00660684    0.05954893   -0.05094205
     atom  355 type  1   force =    -0.01891285    0.05579804    0.04625441
     atom  356 type  1   force =    -0.13534267    0.27491540    0.27491495
     atom  357 type  1   force =    -0.21379505    0.73754401   -0.21379372
     atom  358 type  1   force =     0.00508101    0.09965820   -0.19359809
     atom  359 type  1   force =    -0.03049450   -0.03049062    0.09447045
     atom  360 type  1   force =    -0.21379707   -0.21379094    0.73754439
     atom  361 type  1   force =    -0.13839602   -0.13839148   -0.11271152
     atom  362 type  1   force =    -0.00660888   -0.05094200    0.05955156
     atom  363 type  1   force =     0.00507851   -0.19359902    0.09965950
     atom  364 type  1   force =    -0.13839635   -0.11271152   -0.13839392
     atom  365 type  1   force =    -0.02919672   -0.01812497   -0.01812615
     atom  366 type  1   force =    -0.01128288    0.01964777    0.01964756
     atom  367 type  1   force =    -0.03850590    0.02631862    0.02131406
     atom  368 type  1   force =    -0.05094160    0.05954942   -0.00660445
     atom  369 type  1   force =    -0.01363704    0.04307758   -0.01363780
     atom  370 type  1   force =    -0.03850458    0.02131470    0.02631932
     atom  371 type  1   force =    -0.10864718    0.07506910    0.07506729
     atom  372 type  1   force =    -0.19359748    0.09965973    0.00508282
     atom  373 type  1   force =    -0.06311605    0.00980482   -0.06311733
     atom  374 type  1   force =    -0.05094052   -0.00660511    0.05955127
     atom  375 type  1   force =    -0.19359754    0.00508340    0.09965908
     atom  376 type  1   force =    -0.11270918   -0.13839201   -0.13839361
     atom  377 type  1   force =    -0.01812340   -0.02919327   -0.01812588
     atom  378 type  1   force =    -0.01363753   -0.01363878    0.04307867
     atom  379 type  1   force =    -0.06311774   -0.06311909    0.00980482
     atom  380 type  1   force =    -0.01812487   -0.01812609   -0.02919391
     atom  381 type  1   force =     0.00639886    0.00639757    0.00639700
     atom  382 type  1   force =     0.02055937    0.03100982    0.03100899
     atom  383 type  1   force =     0.03040412    0.05868495    0.01444139
     atom  384 type  1   force =     0.02057017    0.03957885   -0.01799307
     atom  385 type  1   force =     0.01588554    0.02276338   -0.00666769
     atom  386 type  1   force =     0.03040422    0.01444413    0.05868507
     atom  387 type  1   force =     0.07416994    0.02130926    0.02130578
     atom  388 type  1   force =     0.06352040    0.01348610   -0.06136263
     atom  389 type  1   force =     0.02786676    0.00182969   -0.01624282
     atom  390 type  1   force =     0.02057229   -0.01799451    0.03957962
     atom  391 type  1   force =     0.06352247   -0.06136297    0.01348377
     atom  392 type  1   force =     0.07561992   -0.04122855   -0.04122945
     atom  393 type  1   force =     0.03654183   -0.00459433   -0.00561115
     atom  394 type  1   force =     0.01588718   -0.00666918    0.02276370
     atom  395 type  1   force =     0.02786831   -0.01624594    0.00182829
     atom  396 type  1   force =     0.03654199   -0.00561294   -0.00459432
     atom  397 type  1   force =     0.02062601    0.00246494    0.00246511
     atom  398 type  1   force =     0.04628246    0.07124056    0.07124166
     atom  399 type  1   force =     0.12998460    0.17998568    0.01874126
     atom  400 type  1   force =     0.07535101    0.10411241   -0.07037813
     atom  401 type  1   force =     0.02891781    0.04330185   -0.02141718
     atom  402 type  1   force =     0.12998285    0.01874441    0.17998753
     atom  403 type  1   force =     0.82634409    0.22173691    0.22173123
     atom  404 type  1   force =     0.27544088    0.17585450   -0.30403766
     atom  405 type  1   force =     0.05546479    0.02781364   -0.05214158
     atom  406 type  1   force =     0.07535042   -0.07037784    0.10411570
     atom  407 type  1   force =     0.27544146   -0.30403631    0.17585078
     atom  408 type  1   force =     0.08684681   -0.16804989   -0.16805254
     atom  409 type  1   force =     0.02175320   -0.04641318   -0.03589538
     atom  410 type  1   force =     0.02891864   -0.02142016    0.04330416
     atom  411 type  1   force =     0.05546680   -0.05214556    0.02781143
     atom  412 type  1   force =     0.02175480   -0.03589827   -0.04641502
     atom  413 type  1   force =     0.00891981   -0.01191781   -0.01191635
     atom  414 type  1   force =     0.00704254    0.07165068    0.07165238
     atom  415 type  1   force =    -0.06961812    0.25467913    0.07907868
     atom  416 type  1   force =    -0.01140240    0.18568234   -0.12455382
     atom  417 type  1   force =     0.00858024    0.06351373   -0.04062872
     atom  418 type  1   force =    -0.06961926    0.07908087    0.25468178
     atom  419 type  1   force =    -0.24578370   -0.13916402   -0.76114433
     atom  420 type  1   force =    -0.03618012   -0.01123808   -0.04909209
     atom  421 type  1   force =    -0.01140501   -0.12455278    0.18568573
     atom  422 type  1   force =    -0.24578562   -0.76114349   -0.13916547
     atom  423 type  1   force =    -0.23512233    0.02962503    0.02962199
     atom  424 type  1   force =    -0.04530074   -0.05782485    0.00785621
     atom  425 type  1   force =     0.00857788   -0.04063062    0.06351612
     atom  426 type  1   force =    -0.03618166   -0.04909547   -0.01123903
     atom  427 type  1   force =    -0.04530050    0.00785440   -0.05782633
     atom  428 type  1   force =     0.00180614    0.00501034    0.00501145
     atom  429 type  1   force =    -0.03820509    0.04300872    0.04300799
     atom  430 type  1   force =    -0.08435857    0.08585881    0.02011428
     atom  431 type  1   force =    -0.06529231    0.06960196   -0.03927571
     atom  432 type  1   force =    -0.02230721    0.02883552   -0.01235833
     atom  433 type  1   force =    -0.08435770    0.02011480    0.08585911
     atom  434 type  1   force =    -0.24529306    0.03301219    0.03301020
     atom  435 type  1   force =    -0.12751087   -0.09079303   -0.12754589
     atom  436 type  1   force =    -0.04868087   -0.01967061   -0.01259374
     atom  437 type  1   force =    -0.06529248   -0.03927673    0.06960318
     atom  438 type  1   force =    -0.12751267   -0.12754625   -0.09079425
     atom  439 type  1   force =     0.01446277   -0.02117237   -0.02117340
     atom  440 type  1   force =    -0.00936618   -0.00813516    0.02950825
     atom  441 type  1   force =    -0.02230866   -0.01235962    0.02883591
     atom  442 type  1   force =    -0.04868318   -0.01259569   -0.01967097
     atom  443 type  1   force =    -0.00936664    0.02950717   -0.00813525
     atom  444 type  1   force =     0.00128047    0.01544443    0.01544445
     atom  445 type  1   force =     0.03100964    0.03100965    0.02055763
     atom  446 type  1   force =     0.07124290    0.07124124    0.04628253
     atom  447 type  1   force =     0.07165352    0.07165175    0.00704427
     atom  448 type  1   force =     0.04300937    0.04300881   -0.03820550
     atom  449 type  1   force =     0.05868484    0.01444427    0.03040241
     atom  450 type  1   force =     0.17998742    0.01874521    0.12998484
     atom  451 type  1   force =     0.25468217    0.07908234   -0.06961776
     atom  452 type  1   force =     0.08585881    0.02011567   -0.08435866
     atom  453 type  1   force =     0.03957980   -0.01799414    0.02056960
     atom  454 type  1   force =     0.10411638   -0.07037824    0.07535282
     atom  455 type  1   force =     0.18568642   -0.12455293   -0.01140254
     atom  456 type  1   force =     0.06960294   -0.03927587   -0.06529424
     atom  457 type  1   force =     0.02276463   -0.00666925    0.01588491
     atom  458 type  1   force =     0.04330474   -0.02142063    0.02891958
     atom  459 type  1   force =     0.06351741   -0.04063264    0.00858125
     atom  460 type  1   force =     0.02883721   -0.01236071   -0.02230982
     atom  461 type  1   force =     0.01444001    0.05868345    0.03040183
     atom  462 type  1   force =     0.01873984    0.17998489    0.12998472
     atom  463 type  1   force =     0.07907695    0.25467904   -0.06961647
     atom  464 type  1   force =     0.02011218    0.08585724   -0.08435849
     atom  465 type  1   force =     0.02130339    0.02130803    0.07416815
     atom  466 type  1   force =     0.22172843    0.22173655    0.82634560
     atom  467 type  1   force =     0.03300725    0.03301215   -0.24529454
     atom  468 type  1   force =     0.01347974   -0.06136170    0.06351935
     atom  469 type  1   force =     0.17584704   -0.30403625    0.27544351
     atom  470 type  1   force =    -0.13916880   -0.76114301   -0.24578396
     atom  471 type  1   force =    -0.09079763   -0.12754537   -0.12751404
     atom  472 type  1   force =     0.00182635   -0.01624449    0.02786582
     atom  473 type  1   force =     0.02780905   -0.05214487    0.05546734
     atom  474 type  1   force =    -0.01124133   -0.04909577   -0.03617866
     atom  475 type  1   force =    -0.01967337   -0.01259517   -0.04868389
     atom  476 type  1   force =    -0.01799433    0.03957793    0.02056835
     atom  477 type  1   force =    -0.07037965    0.10411321    0.07535176
     atom  478 type  1   force =    -0.12455475    0.18568335   -0.01140051
     atom  479 type  1   force =    -0.03927671    0.06960082   -0.06529272
     atom  480 type  1   force =    -0.06136301    0.01348433    0.06351857
     atom  481 type  1   force =    -0.30403766    0.17585350    0.27544262
     atom  482 type  1   force =    -0.76114417   -0.13916409   -0.24578201
     atom  483 type  1   force =    -0.12754549   -0.09079349   -0.12751283
     atom  484 type  1   force =    -0.04123002   -0.04122850    0.07561749
     atom  485 type  1   force =    -0.16805253   -0.16805045    0.08684925
     atom  486 type  1   force =     0.02962219    0.02962436   -0.23512080
     atom  487 type  1   force =    -0.02117351   -0.02117237    0.01446028
     atom  488 type  1   force =    -0.00459604   -0.00561127    0.03653934
     atom  489 type  1   force =    -0.04641691   -0.03589742    0.02175563
     atom  490 type  1   force =    -0.05782787    0.00785370   -0.04529805
     atom  491 type  1   force =    -0.00813629    0.02950800   -0.00936775
     atom  492 type  1   force =    -0.00666564    0.02276284    0.01588357
     atom  493 type  1   force =    -0.02141496    0.04330303    0.02891752
     atom  494 type  1   force =    -0.04062732    0.06351521    0.00858223
     atom  495 type  1   force =    -0.01235628    0.02883597   -0.02230798
     atom  496 type  1   force =    -0.01624019    0.00182931    0.02786518
     atom  497 type  1   force =    -0.05213896    0.02781353    0.05546685
     atom  498 type  1   force =    -0.04909016   -0.01123722   -0.03617828
     atom  499 type  1   force =    -0.01259105   -0.01966978   -0.04868259
     atom  500 type  1   force =    -0.00560794   -0.00459466    0.03653902
     atom  501 type  1   force =    -0.03589260   -0.04641473    0.02175517
     atom  502 type  1   force =     0.00785937   -0.05782566   -0.04529776
     atom  503 type  1   force =     0.02951122   -0.00813520   -0.00936834
     atom  504 type  1   force =     0.00246763    0.00246577    0.02062323
     atom  505 type  1   force =    -0.01191394   -0.01191767    0.00892002
     atom  506 type  1   force =     0.00501305    0.00500888    0.00180912
     atom  507 type  1   force =     0.01544707    0.01544405    0.00127960
     atom  508 type  1   force =    -2.26018863    2.17630098    2.17630221
     atom  509 type  1   force =     2.17629955    2.17630103   -2.26018758
     atom  510 type  1   force =     2.17629812   -2.26018261    2.17630026
     atom  511 type  2   force =    -3.10158733   -3.10158469   -3.10158634
     The local contribution  to forces
     atom    1 type  1   force =    -0.00049480   -0.00049230   -0.00049242
     atom    2 type  1   force =     0.00185209    0.00185694   -0.01341759
     atom    3 type  1   force =    -0.01061791   -0.01061285    0.01742626
     atom    4 type  1   force =    -0.01164343   -0.01163951    0.02910227
     atom    5 type  1   force =     0.00185289   -0.01341742    0.00185565
     atom    6 type  1   force =     0.00017834   -0.02725229   -0.02725086
     atom    7 type  1   force =     0.00030556   -0.05061756    0.00566826
     atom    8 type  1   force =     0.00256323   -0.03193018    0.04092390
     atom    9 type  1   force =    -0.01061788    0.01742529   -0.01061466
     atom   10 type  1   force =     0.00030443    0.00566677   -0.05061666
     atom   11 type  1   force =    -0.02489255    0.01317120    0.01317400
     atom   12 type  1   force =    -0.03386635    0.02205158    0.04692217
     atom   13 type  1   force =    -0.01164459    0.02910389   -0.01164118
     atom   14 type  1   force =     0.00256160    0.04092651   -0.03193082
     atom   15 type  1   force =    -0.03386727    0.04692294    0.02205296
     atom   16 type  1   force =    -0.04262881    0.03289497    0.03289492
     atom   17 type  1   force =    -0.01341742    0.00185712    0.00185546
     atom   18 type  1   force =    -0.02725253    0.00018333   -0.02725218
     atom   19 type  1   force =    -0.05061709    0.00031159    0.00566820
     atom   20 type  1   force =    -0.03192996    0.00256807    0.04092602
     atom   21 type  1   force =    -0.02725092   -0.02725185    0.00018030
     atom   22 type  1   force =    -0.07196654   -0.07196743   -0.07196719
     atom   23 type  1   force =    -0.12856923   -0.12856985    0.07285427
     atom   24 type  1   force =    -0.07267361   -0.07267465    0.06818106
     atom   25 type  1   force =    -0.05061514    0.00566669    0.00030722
     atom   26 type  1   force =    -0.12856906    0.07285197   -0.12857021
     atom   27 type  1   force =    -0.46477319   -0.01247366   -0.01247013
     atom   28 type  1   force =    -0.13661148   -0.05302000    0.12838510
     atom   29 type  1   force =    -0.03193030    0.04092615    0.00256497
     atom   30 type  1   force =    -0.07267528    0.06818244   -0.07267623
     atom   31 type  1   force =    -0.13661275    0.12838490   -0.05301738
     atom   32 type  1   force =    -0.08297138    0.09719358    0.09719500
     atom   33 type  1   force =     0.01742865   -0.01061401   -0.01061511
     atom   34 type  1   force =     0.00567074    0.00031034   -0.05061658
     atom   35 type  1   force =     0.01317614   -0.02488604    0.01317301
     atom   36 type  1   force =     0.02205592   -0.03386181    0.04692318
     atom   37 type  1   force =     0.00567048   -0.05061560    0.00030762
     atom   38 type  1   force =     0.07285588   -0.12856907   -0.12856916
     atom   39 type  1   force =    -0.01246748   -0.46477361   -0.01246954
     atom   40 type  1   force =    -0.05301448   -0.13661189    0.12838450
     atom   41 type  1   force =     0.01317570    0.01317194   -0.02489086
     atom   42 type  1   force =    -0.01246782   -0.01247267   -0.46477443
     atom   43 type  1   force =     0.12992965    0.12992254    0.25345473
     atom   44 type  1   force =     0.02205649    0.04692137   -0.03386443
     atom   45 type  1   force =    -0.05301420    0.12838436   -0.13661375
     atom   46 type  1   force =     0.12992999    0.25345401    0.12992631
     atom   47 type  1   force =     0.16387418    0.05715323    0.05715629
     atom   48 type  1   force =     0.02910232   -0.01164117   -0.01164069
     atom   49 type  1   force =     0.04092555    0.00256597   -0.03193017
     atom   50 type  1   force =     0.04692334   -0.03386141    0.02205315
     atom   51 type  1   force =     0.03289457   -0.04262495    0.03289466
     atom   52 type  1   force =     0.04092422   -0.03193022    0.00256527
     atom   53 type  1   force =     0.06818151   -0.07267535   -0.07267378
     atom   54 type  1   force =     0.12838468   -0.13661307   -0.05301616
     atom   55 type  1   force =     0.09719259   -0.08297133    0.09719313
     atom   56 type  1   force =     0.04692088    0.02205237   -0.03386412
     atom   57 type  1   force =     0.12838410   -0.05301852   -0.13661297
     atom   58 type  1   force =     0.25345315    0.12992306    0.12992720
     atom   59 type  1   force =     0.05715269    0.16386930    0.05715451
     atom   60 type  1   force =     0.03289357    0.03289445   -0.04262595
     atom   61 type  1   force =     0.09719384    0.09719406   -0.08297276
     atom   62 type  1   force =     0.05715516    0.05715482    0.16387069
     atom   63 type  1   force =     0.02439873    0.02439926    0.02440054
     atom   64 type  1   force =     0.00281973   -0.01350836   -0.01350826
     atom   65 type  1   force =    -0.00002611   -0.03022933   -0.00409815
     atom   66 type  1   force =     0.00056484   -0.04227273    0.02942620
     atom   67 type  1   force =     0.00098249   -0.01987910    0.02163523
     atom   68 type  1   force =    -0.00002614   -0.00410010   -0.03023001
     atom   69 type  1   force =    -0.00681559   -0.02739990   -0.02739721
     atom   70 type  1   force =    -0.00882728   -0.01873853    0.03881010
     atom   71 type  1   force =    -0.00695097   -0.00019214    0.02742596
     atom   72 type  1   force =     0.00056305    0.02942788   -0.04227458
     atom   73 type  1   force =    -0.00882891    0.03881018   -0.01873689
     atom   74 type  1   force =    -0.05310588    0.04315883    0.04316037
     atom   75 type  1   force =    -0.03291151    0.03032377    0.01547424
     atom   76 type  1   force =     0.00098098    0.02163693   -0.01987996
     atom   77 type  1   force =    -0.00695238    0.02742840   -0.00019201
     atom   78 type  1   force =    -0.03291090    0.01547564    0.03032337
     atom   79 type  1   force =    -0.01622696    0.01478978    0.01478953
     atom   80 type  1   force =    -0.02157402   -0.02559893   -0.02560019
     atom   81 type  1   force =    -0.05542243   -0.06014770   -0.01545279
     atom   82 type  1   force =    -0.06694077   -0.06375968    0.03252102
     atom   83 type  1   force =    -0.02299535   -0.02709808    0.02961998
     atom   84 type  1   force =    -0.05542097   -0.01545549   -0.06015061
     atom   85 type  1   force =    -0.24343414   -0.11700301   -0.11699972
     atom   86 type  1   force =    -0.23125618   -0.14420406    0.11148802
     atom   87 type  1   force =    -0.06170341   -0.03022121    0.05823306
     atom   88 type  1   force =    -0.06694041    0.03252046   -0.06376333
     atom   89 type  1   force =    -0.23125771    0.11148598   -0.14420141
     atom   90 type  1   force =    -0.25361979    0.12707289    0.12707601
     atom   91 type  1   force =    -0.06771654    0.05537847    0.07424227
     atom   92 type  1   force =    -0.02299684    0.02962170   -0.02710047
     atom   93 type  1   force =    -0.06170604    0.05823572   -0.03022032
     atom   94 type  1   force =    -0.06771789    0.07424409    0.05538044
     atom   95 type  1   force =    -0.02612688    0.03465451    0.03465387
     atom   96 type  1   force =     0.03080216   -0.03388377   -0.03388529
     atom   97 type  1   force =     0.00853156   -0.12416396   -0.06221805
     atom   98 type  1   force =    -0.00557755   -0.14009324    0.05826346
     atom   99 type  1   force =    -0.00755271   -0.05135293    0.03324471
     atom  100 type  1   force =     0.00853147   -0.06221957   -0.12416692
     atom  101 type  1   force =     0.38647183   -0.72549241   -0.72549031
     atom  102 type  1   force =    -0.30570676   -0.69019634    0.70323764
     atom  103 type  1   force =     0.00263329   -0.02766648    0.09816549
     atom  104 type  1   force =    -0.00557669    0.05826165   -0.14009768
     atom  105 type  1   force =    -0.30570831    0.70323392   -0.69019445
     atom  106 type  1   force =     1.18209298    0.42696306    0.42696780
     atom  107 type  1   force =     0.06793286    0.07026368    0.04496043
     atom  108 type  1   force =    -0.00755208    0.03324544   -0.05135584
     atom  109 type  1   force =     0.00263408    0.09816810   -0.02766687
     atom  110 type  1   force =     0.06793328    0.04496090    0.07026656
     atom  111 type  1   force =     0.05557861    0.00744188    0.00744234
     atom  112 type  1   force =     0.03270079   -0.02932072   -0.02932060
     atom  113 type  1   force =     0.06039242   -0.07010420   -0.03104032
     atom  114 type  1   force =     0.06140068   -0.09306133    0.03689673
     atom  115 type  1   force =     0.04308770   -0.04868962    0.03379801
     atom  116 type  1   force =     0.06039108   -0.03104185   -0.07010550
     atom  117 type  1   force =     0.20959634   -0.11543256   -0.11542926
     atom  118 type  1   force =     0.24917289   -0.07384650    0.19859933
     atom  119 type  1   force =     0.06695949    0.00391278    0.05302183
     atom  120 type  1   force =     0.06139969    0.03689679   -0.09306338
     atom  121 type  1   force =     0.24917336    0.19859799   -0.07384518
     atom  122 type  1   force =    -0.04239848    0.10628503    0.10628691
     atom  123 type  1   force =     0.03687574    0.05702813   -0.01046363
     atom  124 type  1   force =     0.04308826    0.03379858   -0.04869096
     atom  125 type  1   force =     0.06696194    0.05302356    0.00391269
     atom  126 type  1   force =     0.03687765   -0.01046283    0.05702890
     atom  127 type  1   force =     0.02489444    0.00115244    0.00115356
     atom  128 type  1   force =    -0.01351092    0.00282367   -0.01350918
     atom  129 type  1   force =    -0.03023339   -0.00002068   -0.00409871
     atom  130 type  1   force =    -0.04227627    0.00056946    0.02942685
     atom  131 type  1   force =    -0.01988064    0.00098557    0.02163606
     atom  132 type  1   force =    -0.02560106   -0.02157423   -0.02559930
     atom  133 type  1   force =    -0.06015138   -0.05542272   -0.01545315
     atom  134 type  1   force =    -0.06376276   -0.06694173    0.03252061
     atom  135 type  1   force =    -0.02709970   -0.02299639    0.02961971
     atom  136 type  1   force =    -0.03388693    0.03079855   -0.03388558
     atom  137 type  1   force =    -0.12416869    0.00852640   -0.06221855
     atom  138 type  1   force =    -0.14009750   -0.00558243    0.05826341
     atom  139 type  1   force =    -0.05135555   -0.00755684    0.03324477
     atom  140 type  1   force =    -0.02932400    0.03270263   -0.02932218
     atom  141 type  1   force =    -0.07010920    0.06039274   -0.03104144
     atom  142 type  1   force =    -0.09306523    0.06140103    0.03689765
     atom  143 type  1   force =    -0.04869286    0.04308894    0.03379872
     atom  144 type  1   force =    -0.00409745   -0.00002159   -0.03023105
     atom  145 type  1   force =    -0.02739599   -0.00680928   -0.02739810
     atom  146 type  1   force =    -0.01873493   -0.00882157    0.03881096
     atom  147 type  1   force =    -0.00018947   -0.00694675    0.02742719
     atom  148 type  1   force =    -0.01545162   -0.05542170   -0.06015012
     atom  149 type  1   force =    -0.11699778   -0.24343386   -0.11699985
     atom  150 type  1   force =    -0.14419889   -0.23125712    0.11148853
     atom  151 type  1   force =    -0.03021766   -0.06170428    0.05823266
     atom  152 type  1   force =    -0.06221609    0.00852695   -0.12416763
     atom  153 type  1   force =    -0.72548689    0.38646920   -0.72548981
     atom  154 type  1   force =    -0.69019020   -0.30571567    0.70323640
     atom  155 type  1   force =    -0.02766275    0.00262831    0.09816605
     atom  156 type  1   force =    -0.03103873    0.06039212   -0.07010729
     atom  157 type  1   force =    -0.11542778    0.20959723   -0.11543125
     atom  158 type  1   force =    -0.07384179    0.24917266    0.19860049
     atom  159 type  1   force =     0.00391612    0.06696098    0.05302279
     atom  160 type  1   force =     0.02942956    0.00056730   -0.04227374
     atom  161 type  1   force =     0.03881265   -0.00882257   -0.01873671
     atom  162 type  1   force =     0.04316283   -0.05310045    0.04316018
     atom  163 type  1   force =     0.03032541   -0.03290792    0.01547463
     atom  164 type  1   force =     0.03252236   -0.06694093   -0.06376151
     atom  165 type  1   force =     0.11148960   -0.23125695   -0.14420033
     atom  166 type  1   force =     0.12707647   -0.25361941    0.12707525
     atom  167 type  1   force =     0.05538019   -0.06771631    0.07424141
     atom  168 type  1   force =     0.05826434   -0.00558089   -0.14009672
     atom  169 type  1   force =     0.70323699   -0.30571384   -0.69019367
     atom  170 type  1   force =     0.42696886    1.18208417    0.42696881
     atom  171 type  1   force =     0.07026589    0.06792829    0.04495936
     atom  172 type  1   force =     0.03689935    0.06140050   -0.09306401
     atom  173 type  1   force =     0.19860180    0.24917357   -0.07384550
     atom  174 type  1   force =     0.10628914   -0.04239894    0.10628777
     atom  175 type  1   force =     0.05703057    0.03687641   -0.01046339
     atom  176 type  1   force =     0.02163365    0.00098450   -0.01987890
     atom  177 type  1   force =     0.02742460   -0.00694658   -0.00019145
     atom  178 type  1   force =     0.01547294   -0.03290613    0.03032305
     atom  179 type  1   force =     0.01478718   -0.01622414    0.01478935
     atom  180 type  1   force =     0.02961846   -0.02299636   -0.02709850
     atom  181 type  1   force =     0.05823162   -0.06170577   -0.03021952
     atom  182 type  1   force =     0.07424043   -0.06771757    0.05537861
     atom  183 type  1   force =     0.03465046   -0.02612701    0.03465210
     atom  184 type  1   force =     0.03324211   -0.00755619   -0.05135468
     atom  185 type  1   force =     0.09816369    0.00262860   -0.02766627
     atom  186 type  1   force =     0.04495781    0.06792776    0.07026538
     atom  187 type  1   force =     0.00743871    0.05557493    0.00744162
     atom  188 type  1   force =     0.03379561    0.04308871   -0.04869111
     atom  189 type  1   force =     0.05302068    0.06696213    0.00391276
     atom  190 type  1   force =    -0.01046598    0.03687750    0.05702861
     atom  191 type  1   force =     0.00115005    0.02489538    0.00115346
     atom  192 type  1   force =    -0.01350979   -0.01350850    0.00282183
     atom  193 type  1   force =    -0.02560211   -0.02559876   -0.02157312
     atom  194 type  1   force =    -0.03388725   -0.03388346    0.03080009
     atom  195 type  1   force =    -0.02932198   -0.02931945    0.03270029
     atom  196 type  1   force =    -0.03023126   -0.00410013   -0.00002341
     atom  197 type  1   force =    -0.06015145   -0.01545563   -0.05542166
     atom  198 type  1   force =    -0.12416782   -0.06222153    0.00852950
     atom  199 type  1   force =    -0.07010630   -0.03104261    0.06039147
     atom  200 type  1   force =    -0.04227612    0.02942765    0.00056644
     atom  201 type  1   force =    -0.06376495    0.03252110   -0.06694119
     atom  202 type  1   force =    -0.14009858    0.05826170   -0.00557893
     atom  203 type  1   force =    -0.09306461    0.03689591    0.06140120
     atom  204 type  1   force =    -0.01988161    0.02163724    0.00098469
     atom  205 type  1   force =    -0.02710275    0.02962199   -0.02299714
     atom  206 type  1   force =    -0.05135781    0.03324716   -0.00755535
     atom  207 type  1   force =    -0.04869300    0.03379979    0.04308889
     atom  208 type  1   force =    -0.00409715   -0.03022889   -0.00002386
     atom  209 type  1   force =    -0.01545179   -0.06014807   -0.05542207
     atom  210 type  1   force =    -0.06221687   -0.12416367    0.00852939
     atom  211 type  1   force =    -0.03103875   -0.07010306    0.06039168
     atom  212 type  1   force =    -0.02739466   -0.02739841   -0.00681385
     atom  213 type  1   force =    -0.11699729   -0.11700231   -0.24343455
     atom  214 type  1   force =    -0.72548824   -0.72549315    0.38647060
     atom  215 type  1   force =    -0.11542666   -0.11543229    0.20959679
     atom  216 type  1   force =    -0.01873368    0.03880901   -0.00882630
     atom  217 type  1   force =    -0.14419817    0.11148613   -0.23125910
     atom  218 type  1   force =    -0.69019106    0.70323359   -0.30571174
     atom  219 type  1   force =    -0.07384148    0.19859681    0.24917436
     atom  220 type  1   force =    -0.00018948    0.02742754   -0.00694880
     atom  221 type  1   force =    -0.03021798    0.05823502   -0.06170631
     atom  222 type  1   force =    -0.02766401    0.09816826    0.00263074
     atom  223 type  1   force =     0.00391573    0.05302341    0.06696285
     atom  224 type  1   force =     0.02942880   -0.04227308    0.00056697
     atom  225 type  1   force =     0.03252317   -0.06376089   -0.06694000
     atom  226 type  1   force =     0.05826498   -0.14009407   -0.00557893
     atom  227 type  1   force =     0.03689837   -0.09306056    0.06140046
     atom  228 type  1   force =     0.03881086   -0.01873714   -0.00882582
     atom  229 type  1   force =     0.11148870   -0.14420268   -0.23125699
     atom  230 type  1   force =     0.70323857   -0.69019658   -0.30570796
     atom  231 type  1   force =     0.19859980   -0.07384580    0.24917385
     atom  232 type  1   force =     0.04316144    0.04315908   -0.05310341
     atom  233 type  1   force =     0.12707697    0.12707378   -0.25362103
     atom  234 type  1   force =     0.42696931    0.42696448    1.18208957
     atom  235 type  1   force =     0.10628788    0.10628444   -0.04239681
     atom  236 type  1   force =     0.03032607    0.01547365   -0.03290832
     atom  237 type  1   force =     0.05538225    0.07424312   -0.06771854
     atom  238 type  1   force =     0.07026848    0.04496132    0.06792922
     atom  239 type  1   force =     0.05703109   -0.01046391    0.03687878
     atom  240 type  1   force =     0.02163379   -0.01987919    0.00098482
     atom  241 type  1   force =     0.02961866   -0.02709863   -0.02299524
     atom  242 type  1   force =     0.03324370   -0.05135379   -0.00755514
     atom  243 type  1   force =     0.03379659   -0.04868926    0.04308732
     atom  244 type  1   force =     0.02742409   -0.00019187   -0.00694828
     atom  245 type  1   force =     0.05823144   -0.03022146   -0.06170433
     atom  246 type  1   force =     0.09816385   -0.02766832    0.00263076
     atom  247 type  1   force =     0.05302015    0.00391215    0.06696096
     atom  248 type  1   force =     0.01547099    0.03032367   -0.03290833
     atom  249 type  1   force =     0.07423935    0.05537914   -0.06771791
     atom  250 type  1   force =     0.04495793    0.07026475    0.06792962
     atom  251 type  1   force =    -0.01046647    0.05702804    0.03687760
     atom  252 type  1   force =     0.01478696    0.01478913   -0.01622373
     atom  253 type  1   force =     0.03465071    0.03465396   -0.02612745
     atom  254 type  1   force =     0.00744006    0.00744332    0.05557493
     atom  255 type  1   force =     0.00115099    0.00115357    0.02489571
     atom  256 type  1   force =    -0.02858105   -0.01919653   -0.02858068
     atom  257 type  1   force =    -0.05474272   -0.02658331   -0.01563352
     atom  258 type  1   force =    -0.03469313   -0.01677212    0.01271930
     atom  259 type  1   force =    -0.02043849   -0.01438345    0.00530978
     atom  260 type  1   force =    -0.06610457   -0.04425340   -0.06610417
     atom  261 type  1   force =    -0.16331605   -0.12304583   -0.02083379
     atom  262 type  1   force =    -0.08980627   -0.06311969    0.05794507
     atom  263 type  1   force =    -0.03905780   -0.02561659    0.01913473
     atom  264 type  1   force =    -0.06138789   -0.01922557   -0.06138851
     atom  265 type  1   force =    -0.23067658    0.06233681   -0.07313317
     atom  266 type  1   force =    -0.17101793    0.01048959    0.11756488
     atom  267 type  1   force =    -0.06014509   -0.01196179    0.03933372
     atom  268 type  1   force =    -0.03777630    0.03283698   -0.03777605
     atom  269 type  1   force =    -0.07725244    0.07631705   -0.01210861
     atom  270 type  1   force =    -0.06559095    0.06073523    0.03496814
     atom  271 type  1   force =    -0.02624492    0.01923034    0.01166536
     atom  272 type  1   force =    -0.01563175   -0.02658367   -0.05474149
     atom  273 type  1   force =    -0.02089061   -0.06603046   -0.02089258
     atom  274 type  1   force =    -0.01107220   -0.05709526    0.05613759
     atom  275 type  1   force =    -0.00012032   -0.02536310    0.01515099
     atom  276 type  1   force =    -0.02083198   -0.12304449   -0.16331532
     atom  277 type  1   force =    -0.21987398   -0.75753554   -0.21987662
     atom  278 type  1   force =    -0.12773339   -0.24082192    0.26853770
     atom  279 type  1   force =    -0.02722383   -0.05235309    0.04960270
     atom  280 type  1   force =    -0.07313011    0.06233709   -0.23067671
     atom  281 type  1   force =     0.12255161    0.20585060    0.71582710
     atom  282 type  1   force =     0.01121019    0.03330058    0.04686261
     atom  283 type  1   force =    -0.01210508    0.07631566   -0.07725149
     atom  284 type  1   force =    -0.03401743    0.23017251   -0.03402034
     atom  285 type  1   force =     0.09082623    0.11955263    0.12168591
     atom  286 type  1   force =     0.02015541    0.04574455    0.01197361
     atom  287 type  1   force =     0.01272084   -0.01677391   -0.03469168
     atom  288 type  1   force =     0.05613924   -0.05709637   -0.01107396
     atom  289 type  1   force =     0.03804416   -0.07120877    0.03804270
     atom  290 type  1   force =     0.00076119   -0.03464345    0.00482945
     atom  291 type  1   force =     0.05794602   -0.06311843   -0.08980636
     atom  292 type  1   force =     0.26853802   -0.24082256   -0.12773610
     atom  293 type  1   force =     0.15581592   -0.08265527    0.15581615
     atom  294 type  1   force =     0.04228141   -0.01919546    0.03470683
     atom  295 type  1   force =     0.11756508    0.01049094   -0.17101834
     atom  296 type  1   force =     0.71582685    0.20585089    0.12254845
     atom  297 type  1   force =    -0.06161298    0.18525819   -0.06161196
     atom  298 type  1   force =     0.05377842    0.04265299   -0.00874793
     atom  299 type  1   force =     0.03496899    0.06073445   -0.06559036
     atom  300 type  1   force =     0.12168630    0.11955352    0.09082306
     atom  301 type  1   force =     0.01215262   -0.02205502    0.01215285
     atom  302 type  1   force =     0.00390638    0.00586891   -0.03049711
     atom  303 type  1   force =     0.00530759   -0.01438417   -0.02043672
     atom  304 type  1   force =     0.01514900   -0.02536273   -0.00012181
     atom  305 type  1   force =     0.00482728   -0.03464326    0.00075974
     atom  306 type  1   force =    -0.00340786   -0.01965903   -0.00340582
     atom  307 type  1   force =     0.01913222   -0.02561637   -0.03905757
     atom  308 type  1   force =     0.04960072   -0.05235489   -0.02722592
     atom  309 type  1   force =     0.03470523   -0.01919725    0.04228109
     atom  310 type  1   force =     0.01106762   -0.00672255    0.01107007
     atom  311 type  1   force =     0.03933097   -0.01196102   -0.06014533
     atom  312 type  1   force =     0.04685964    0.03330136    0.01120677
     atom  313 type  1   force =    -0.00875075    0.04265224    0.05377816
     atom  314 type  1   force =    -0.00562548   -0.00542609   -0.00562217
     atom  315 type  1   force =     0.01166203    0.01923049   -0.02624455
     atom  316 type  1   force =     0.01197095    0.04574567    0.02015163
     atom  317 type  1   force =    -0.03049968    0.00586991    0.00390585
     atom  318 type  1   force =    -0.01642632   -0.00410354   -0.01642308
     atom  319 type  1   force =    -0.01345972   -0.01345809   -0.01345761
     atom  320 type  1   force =    -0.01842762   -0.01842333   -0.01654281
     atom  321 type  1   force =    -0.01809198   -0.01808696   -0.02158098
     atom  322 type  1   force =    -0.01801686   -0.01801360    0.00821787
     atom  323 type  1   force =    -0.01842664   -0.01654415   -0.01842480
     atom  324 type  1   force =    -0.03552369   -0.04624944   -0.04624686
     atom  325 type  1   force =    -0.03980606   -0.05099502    0.01472419
     atom  326 type  1   force =    -0.02266204   -0.01745578    0.03402184
     atom  327 type  1   force =    -0.01809208   -0.02158187   -0.01808980
     atom  328 type  1   force =    -0.03980728    0.01472264   -0.05099351
     atom  329 type  1   force =    -0.08641374    0.02852840    0.02853079
     atom  330 type  1   force =    -0.05566467    0.00523893    0.04762131
     atom  331 type  1   force =    -0.01801754    0.00821907   -0.01801459
     atom  332 type  1   force =    -0.02266459    0.03402435   -0.01745573
     atom  333 type  1   force =    -0.05566613    0.04762320    0.00524049
     atom  334 type  1   force =    -0.04150384    0.01068497    0.01068474
     atom  335 type  1   force =    -0.01654266   -0.01842363   -0.01842557
     atom  336 type  1   force =    -0.04624654   -0.03551873   -0.04624753
     atom  337 type  1   force =    -0.05099269   -0.03980074    0.01472429
     atom  338 type  1   force =    -0.01745460   -0.02265865    0.03402277
     atom  339 type  1   force =    -0.04624585   -0.04624845   -0.03552143
     atom  340 type  1   force =    -0.16262815   -0.16263190   -0.16262960
     atom  341 type  1   force =    -0.23636183   -0.23636416    0.07904829
     atom  342 type  1   force =    -0.06443201   -0.06443495    0.09598796
     atom  343 type  1   force =    -0.05099070    0.01472185   -0.03980501
     atom  344 type  1   force =    -0.23636075    0.07904415   -0.23636305
     atom  345 type  1   force =    -0.67137079    0.20850000    0.20850518
     atom  346 type  1   force =    -0.09816355   -0.01330422    0.18368279
     atom  347 type  1   force =    -0.01745390    0.03402371   -0.02266162
     atom  348 type  1   force =    -0.06443292    0.09598973   -0.06443476
     atom  349 type  1   force =    -0.09816488    0.18368354   -0.01330114
     atom  350 type  1   force =    -0.00787798    0.05901340    0.05901425
     atom  351 type  1   force =    -0.02157869   -0.01808775   -0.01808966
     atom  352 type  1   force =     0.01472720   -0.03980176   -0.05099315
     atom  353 type  1   force =     0.02853299   -0.08640702    0.02852974
     atom  354 type  1   force =     0.00524131   -0.05566035    0.04762149
     atom  355 type  1   force =     0.01472553   -0.05099295   -0.03980475
     atom  356 type  1   force =     0.07904957   -0.23636324   -0.23636274
     atom  357 type  1   force =     0.20850499   -0.67137237    0.20850376
     atom  358 type  1   force =    -0.01330093   -0.09816538    0.18368172
     atom  359 type  1   force =     0.02853304    0.02852929   -0.08641138
     atom  360 type  1   force =     0.20850706    0.20850105   -0.67137273
     atom  361 type  1   force =     0.13249522    0.13249068    0.10133990
     atom  362 type  1   force =     0.00524357    0.04762141   -0.05566310
     atom  363 type  1   force =    -0.01329839    0.18368273   -0.09816685
     atom  364 type  1   force =     0.13249540    0.10133968    0.13249315
     atom  365 type  1   force =     0.02100270    0.01314818    0.01314955
     atom  366 type  1   force =     0.00821705   -0.01801432   -0.01801412
     atom  367 type  1   force =     0.03402227   -0.02265949   -0.01745404
     atom  368 type  1   force =     0.04762077   -0.05566072    0.00523900
     atom  369 type  1   force =     0.01068249   -0.04149984    0.01068351
     atom  370 type  1   force =     0.03402108   -0.01745466   -0.02266020
     atom  371 type  1   force =     0.09598724   -0.06443525   -0.06443343
     atom  372 type  1   force =     0.18368094   -0.09816684   -0.01330276
     atom  373 type  1   force =     0.05901097   -0.00788023    0.05901225
     atom  374 type  1   force =     0.04761974    0.00523984   -0.05566269
     atom  375 type  1   force =     0.18368108   -0.01330330   -0.09816641
     atom  376 type  1   force =     0.10133734    0.13249098    0.13249266
     atom  377 type  1   force =     0.01314653    0.02099931    0.01314932
     atom  378 type  1   force =     0.01068300    0.01068435   -0.04150090
     atom  379 type  1   force =     0.05901260    0.05901395   -0.00788037
     atom  380 type  1   force =     0.01314798    0.01314935    0.02099992
     atom  381 type  1   force =    -0.01034583   -0.01034437   -0.01034354
     atom  382 type  1   force =    -0.01919954   -0.02858013   -0.02857944
     atom  383 type  1   force =    -0.02658850   -0.05474136   -0.01563323
     atom  384 type  1   force =    -0.01677656   -0.03469173    0.01271860
     atom  385 type  1   force =    -0.01438579   -0.02043818    0.00530931
     atom  386 type  1   force =    -0.02658861   -0.01563604   -0.05474154
     atom  387 type  1   force =    -0.06603666   -0.02089611   -0.02089257
     atom  388 type  1   force =    -0.05710067   -0.01107622    0.05613742
     atom  389 type  1   force =    -0.02536641   -0.00012334    0.01515108
     atom  390 type  1   force =    -0.01677869    0.01271995   -0.03469264
     atom  391 type  1   force =    -0.05710269    0.05613780   -0.01107389
     atom  392 type  1   force =    -0.07121361    0.03804318    0.03804421
     atom  393 type  1   force =    -0.03464688    0.00076063    0.00482973
     atom  394 type  1   force =    -0.01438735    0.00531081   -0.02043851
     atom  395 type  1   force =    -0.02536791    0.01515416   -0.00012183
     atom  396 type  1   force =    -0.03464717    0.00483141    0.00076074
     atom  397 type  1   force =    -0.01966163   -0.00340517   -0.00340535
     atom  398 type  1   force =    -0.04425019   -0.06610295   -0.06610406
     atom  399 type  1   force =    -0.12304281   -0.16331449   -0.02083382
     atom  400 type  1   force =    -0.06311708   -0.08980451    0.05794530
     atom  401 type  1   force =    -0.02561413   -0.03905724    0.01913456
     atom  402 type  1   force =    -0.12304110   -0.02083717   -0.16331642
     atom  403 type  1   force =    -0.75753295   -0.21988046   -0.21987476
     atom  404 type  1   force =    -0.24081974   -0.12773788    0.26853790
     atom  405 type  1   force =    -0.05235062   -0.02722803    0.04960292
     atom  406 type  1   force =    -0.06311651    0.05794495   -0.08980788
     atom  407 type  1   force =    -0.24082046    0.26853652   -0.12773406
     atom  408 type  1   force =    -0.08265306    0.15581549    0.15581824
     atom  409 type  1   force =    -0.01919365    0.04228085    0.03470704
     atom  410 type  1   force =    -0.02561485    0.01913759   -0.03905954
     atom  411 type  1   force =    -0.05235275    0.04960690   -0.02722577
     atom  412 type  1   force =    -0.01919529    0.03471005    0.04228282
     atom  413 type  1   force =    -0.00672130    0.01107139    0.01106985
     atom  414 type  1   force =    -0.01922125   -0.06138592   -0.06138764
     atom  415 type  1   force =     0.06234120   -0.23067376   -0.07313388
     atom  416 type  1   force =     0.01049291   -0.17101520    0.11756408
     atom  417 type  1   force =    -0.01195912   -0.06014395    0.03933356
     atom  418 type  1   force =     0.06234213   -0.07313606   -0.23067659
     atom  419 type  1   force =     0.20585379    0.12254652    0.71582673
     atom  420 type  1   force =     0.03330438    0.01120555    0.04686199
     atom  421 type  1   force =     0.01049564    0.11756306   -0.17101871
     atom  422 type  1   force =     0.20585579    0.71582570    0.12254798
     atom  423 type  1   force =     0.18526259   -0.06161473   -0.06161144
     atom  424 type  1   force =     0.04265640    0.05377748   -0.00874798
     atom  425 type  1   force =    -0.01195653    0.03933560   -0.06014639
     atom  426 type  1   force =     0.03330607    0.04686556    0.01120630
     atom  427 type  1   force =     0.04265600   -0.00874610    0.05377906
     atom  428 type  1   force =    -0.00542334   -0.00562165   -0.00562270
     atom  429 type  1   force =     0.03283385   -0.03777378   -0.03777317
     atom  430 type  1   force =     0.07631436   -0.07724996   -0.01210926
     atom  431 type  1   force =     0.06073276   -0.06558885    0.03496633
     atom  432 type  1   force =     0.01922769   -0.02624353    0.01166449
     atom  433 type  1   force =     0.07631370   -0.01210987   -0.07725041
     atom  434 type  1   force =     0.23016999   -0.03402297   -0.03402076
     atom  435 type  1   force =     0.11955026    0.09082212    0.12168377
     atom  436 type  1   force =     0.04574227    0.02015169    0.01197391
     atom  437 type  1   force =     0.06073302    0.03496730   -0.06559015
     atom  438 type  1   force =     0.11955206    0.12168409    0.09082338
     atom  439 type  1   force =    -0.02205663    0.01215096    0.01215221
     atom  440 type  1   force =     0.00586746    0.00390535   -0.03049693
     atom  441 type  1   force =     0.01922896    0.01166572   -0.02624401
     atom  442 type  1   force =     0.04574446    0.01197597    0.02015206
     atom  443 type  1   force =     0.00586794   -0.03049581    0.00390562
     atom  444 type  1   force =    -0.00410506   -0.01642334   -0.01642340
     atom  445 type  1   force =    -0.02857999   -0.02858003   -0.01919779
     atom  446 type  1   force =    -0.06610522   -0.06610355   -0.04425059
     atom  447 type  1   force =    -0.06138859   -0.06138669   -0.01922294
     atom  448 type  1   force =    -0.03777451   -0.03777399    0.03283433
     atom  449 type  1   force =    -0.05474134   -0.01563623   -0.02658666
     atom  450 type  1   force =    -0.16331632   -0.02083792   -0.12304331
     atom  451 type  1   force =    -0.23067665   -0.07313758    0.06234081
     atom  452 type  1   force =    -0.07725011   -0.01211070    0.07631457
     atom  453 type  1   force =    -0.03469283    0.01271961   -0.01677602
     atom  454 type  1   force =    -0.08980852    0.05794527   -0.06311909
     atom  455 type  1   force =    -0.17101914    0.11756299    0.01049307
     atom  456 type  1   force =    -0.06558983    0.03496647    0.06073491
     atom  457 type  1   force =    -0.02043935    0.00531089   -0.01438507
     atom  458 type  1   force =    -0.03905997    0.01913798   -0.02561612
     atom  459 type  1   force =    -0.06014750    0.03933754   -0.01195999
     atom  460 type  1   force =    -0.02624515    0.01166684    0.01923041
     atom  461 type  1   force =    -0.01563175   -0.05474005   -0.02658615
     atom  462 type  1   force =    -0.02083230   -0.16331379   -0.12304329
     atom  463 type  1   force =    -0.07313211   -0.23067354    0.06233956
     atom  464 type  1   force =    -0.01210710   -0.07724863    0.07631458
     atom  465 type  1   force =    -0.02088999   -0.02089474   -0.06603483
     atom  466 type  1   force =    -0.21987200   -0.21988011   -0.75753463
     atom  467 type  1   force =    -0.03401761   -0.03402263    0.23017162
     atom  468 type  1   force =    -0.01106964    0.05613652   -0.05709978
     atom  469 type  1   force =    -0.12773037    0.26853653   -0.24082274
     atom  470 type  1   force =     0.12255131    0.71582531    0.20585430
     atom  471 type  1   force =     0.09082709    0.12168332    0.11955363
     atom  472 type  1   force =    -0.00011970    0.01515279   -0.02536545
     atom  473 type  1   force =    -0.02722317    0.04960625   -0.05235364
     atom  474 type  1   force =     0.01120875    0.04686580    0.03330299
     atom  475 type  1   force =     0.02015455    0.01197538    0.04574548
     atom  476 type  1   force =     0.01271976   -0.03469099   -0.01677475
     atom  477 type  1   force =     0.05794674   -0.08980534   -0.06311807
     atom  478 type  1   force =     0.11756474   -0.17101607    0.01049115
     atom  479 type  1   force =     0.03496713   -0.06558785    0.06073331
     atom  480 type  1   force =     0.05613771   -0.01107439   -0.05709889
     atom  481 type  1   force =     0.26853797   -0.12773703   -0.24082184
     atom  482 type  1   force =     0.71582645    0.12254648    0.20585215
     atom  483 type  1   force =     0.12168328    0.09082272    0.11955231
     atom  484 type  1   force =     0.03804461    0.03804326   -0.07121119
     atom  485 type  1   force =     0.15581811    0.15581610   -0.08265603
     atom  486 type  1   force =    -0.06161203   -0.06161422    0.18526110
     atom  487 type  1   force =     0.01215189    0.01215099   -0.02205376
     atom  488 type  1   force =     0.00076224    0.00482983   -0.03464444
     atom  489 type  1   force =     0.04228449    0.03470918   -0.01919651
     atom  490 type  1   force =     0.05378023   -0.00874529    0.04265359
     atom  491 type  1   force =     0.00390618   -0.03049673    0.00586947
     atom  492 type  1   force =     0.00530723   -0.02043760   -0.01438370
     atom  493 type  1   force =     0.01913223   -0.03905817   -0.02561416
     atom  494 type  1   force =     0.03933211   -0.06014521   -0.01196099
     atom  495 type  1   force =     0.01166225   -0.02624398    0.01922859
     atom  496 type  1   force =     0.01514841   -0.00012301   -0.02536467
     atom  497 type  1   force =     0.04960020   -0.02722805   -0.05235303
     atom  498 type  1   force =     0.04686002    0.01120450    0.03330263
     atom  499 type  1   force =     0.01197119    0.02015079    0.04574405
     atom  500 type  1   force =     0.00482639    0.00076100   -0.03464395
     atom  501 type  1   force =     0.03470422    0.04228234   -0.01919596
     atom  502 type  1   force =    -0.00875110    0.05377821    0.04265336
     atom  503 type  1   force =    -0.03049996    0.00390527    0.00586993
     atom  504 type  1   force =    -0.00340792   -0.00340603   -0.01965873
     atom  505 type  1   force =     0.01106745    0.01107123   -0.00672197
     atom  506 type  1   force =    -0.00562431   -0.00562005   -0.00542635
     atom  507 type  1   force =    -0.01642607   -0.01642293   -0.00410386
     atom  508 type  1   force =     2.01466844   -1.95653802   -1.95653942
     atom  509 type  1   force =    -1.95653657   -1.95653814    2.01466788
     atom  510 type  1   force =    -1.95653503    2.01466264   -1.95653743
     atom  511 type  2   force =     2.33628174    2.33627866    2.33628105
     The core correction contribution to forces
     atom    1 type  1   force =     0.00000000    0.00000000    0.00000000
     atom    2 type  1   force =     0.00000000    0.00000000    0.00000000
     atom    3 type  1   force =     0.00000000    0.00000000    0.00000000
     atom    4 type  1   force =     0.00000000    0.00000000    0.00000000
     atom    5 type  1   force =     0.00000000    0.00000000    0.00000000
     atom    6 type  1   force =     0.00000000    0.00000000    0.00000000
     atom    7 type  1   force =     0.00000000    0.00000000    0.00000000
     atom    8 type  1   force =     0.00000000    0.00000000    0.00000000
     atom    9 type  1   force =     0.00000000    0.00000000    0.00000000
     atom   10 type  1   force =     0.00000000    0.00000000    0.00000000
     atom   11 type  1   force =     0.00000000    0.00000000    0.00000000
     atom   12 type  1   force =     0.00000000    0.00000000    0.00000000
     atom   13 type  1   force =     0.00000000    0.00000000    0.00000000
     atom   14 type  1   force =     0.00000000    0.00000000    0.00000000
     atom   15 type  1   force =     0.00000000    0.00000000    0.00000000
     atom   16 type  1   force =     0.00000000    0.00000000    0.00000000
     atom   17 type  1   force =     0.00000000    0.00000000    0.00000000
     atom   18 type  1   force =     0.00000000    0.00000000    0.00000000
     atom   19 type  1   force =     0.00000000    0.00000000    0.00000000
     atom   20 type  1   force =     0.00000000    0.00000000    0.00000000
     atom   21 type  1   force =     0.00000000    0.00000000    0.00000000
     atom   22 type  1   force =     0.00000000    0.00000000    0.00000000
     atom   23 type  1   force =     0.00000000    0.00000000    0.00000000
     atom   24 type  1   force =     0.00000000    0.00000000    0.00000000
     atom   25 type  1   force =     0.00000000    0.00000000    0.00000000
     atom   26 type  1   force =     0.00000000    0.00000000    0.00000000
     atom   27 type  1   force =     0.00000000    0.00000000    0.00000000
     atom   28 type  1   force =     0.00000000    0.00000000    0.00000000
     atom   29 type  1   force =     0.00000000    0.00000000    0.00000000
     atom   30 type  1   force =     0.00000000    0.00000000    0.00000000
     atom   31 type  1   force =     0.00000000    0.00000000    0.00000000
     atom   32 type  1   force =     0.00000000    0.00000000    0.00000000
     atom   33 type  1   force =     0.00000000    0.00000000    0.00000000
     atom   34 type  1   force =     0.00000000    0.00000000    0.00000000
     atom   35 type  1   force =     0.00000000    0.00000000    0.00000000
     atom   36 type  1   force =     0.00000000    0.00000000    0.00000000
     atom   37 type  1   force =     0.00000000    0.00000000    0.00000000
     atom   38 type  1   force =     0.00000000    0.00000000    0.00000000
     atom   39 type  1   force =     0.00000000    0.00000000    0.00000000
     atom   40 type  1   force =     0.00000000    0.00000000    0.00000000
     atom   41 type  1   force =     0.00000000    0.00000000    0.00000000
     atom   42 type  1   force =     0.00000000    0.00000000    0.00000000
     atom   43 type  1   force =     0.00000000    0.00000000    0.00000000
     atom   44 type  1   force =     0.00000000    0.00000000    0.00000000
     atom   45 type  1   force =     0.00000000    0.00000000    0.00000000
     atom   46 type  1   force =     0.00000000    0.00000000    0.00000000
     atom   47 type  1   force =     0.00000000    0.00000000    0.00000000
     atom   48 type  1   force =     0.00000000    0.00000000    0.00000000
     atom   49 type  1   force =     0.00000000    0.00000000    0.00000000
     atom   50 type  1   force =     0.00000000    0.00000000    0.00000000
     atom   51 type  1   force =     0.00000000    0.00000000    0.00000000
     atom   52 type  1   force =     0.00000000    0.00000000    0.00000000
     atom   53 type  1   force =     0.00000000    0.00000000    0.00000000
     atom   54 type  1   force =     0.00000000    0.00000000    0.00000000
     atom   55 type  1   force =     0.00000000    0.00000000    0.00000000
     atom   56 type  1   force =     0.00000000    0.00000000    0.00000000
     atom   57 type  1   force =     0.00000000    0.00000000    0.00000000
     atom   58 type  1   force =     0.00000000    0.00000000    0.00000000
     atom   59 type  1   force =     0.00000000    0.00000000    0.00000000
     atom   60 type  1   force =     0.00000000    0.00000000    0.00000000
     atom   61 type  1   force =     0.00000000    0.00000000    0.00000000
     atom   62 type  1   force =     0.00000000    0.00000000    0.00000000
     atom   63 type  1   force =     0.00000000    0.00000000    0.00000000
     atom   64 type  1   force =     0.00000000    0.00000000    0.00000000
     atom   65 type  1   force =     0.00000000    0.00000000    0.00000000
     atom   66 type  1   force =     0.00000000    0.00000000    0.00000000
     atom   67 type  1   force =     0.00000000    0.00000000    0.00000000
     atom   68 type  1   force =     0.00000000    0.00000000    0.00000000
     atom   69 type  1   force =     0.00000000    0.00000000    0.00000000
     atom   70 type  1   force =     0.00000000    0.00000000    0.00000000
     atom   71 type  1   force =     0.00000000    0.00000000    0.00000000
     atom   72 type  1   force =     0.00000000    0.00000000    0.00000000
     atom   73 type  1   force =     0.00000000    0.00000000    0.00000000
     atom   74 type  1   force =     0.00000000    0.00000000    0.00000000
     atom   75 type  1   force =     0.00000000    0.00000000    0.00000000
     atom   76 type  1   force =     0.00000000    0.00000000    0.00000000
     atom   77 type  1   force =     0.00000000    0.00000000    0.00000000
     atom   78 type  1   force =     0.00000000    0.00000000    0.00000000
     atom   79 type  1   force =     0.00000000    0.00000000    0.00000000
     atom   80 type  1   force =     0.00000000    0.00000000    0.00000000
     atom   81 type  1   force =     0.00000000    0.00000000    0.00000000
     atom   82 type  1   force =     0.00000000    0.00000000    0.00000000
     atom   83 type  1   force =     0.00000000    0.00000000    0.00000000
     atom   84 type  1   force =     0.00000000    0.00000000    0.00000000
     atom   85 type  1   force =     0.00000000    0.00000000    0.00000000
     atom   86 type  1   force =     0.00000000    0.00000000    0.00000000
     atom   87 type  1   force =     0.00000000    0.00000000    0.00000000
     atom   88 type  1   force =     0.00000000    0.00000000    0.00000000
     atom   89 type  1   force =     0.00000000    0.00000000    0.00000000
     atom   90 type  1   force =     0.00000000    0.00000000    0.00000000
     atom   91 type  1   force =     0.00000000    0.00000000    0.00000000
     atom   92 type  1   force =     0.00000000    0.00000000    0.00000000
     atom   93 type  1   force =     0.00000000    0.00000000    0.00000000
     atom   94 type  1   force =     0.00000000    0.00000000    0.00000000
     atom   95 type  1   force =     0.00000000    0.00000000    0.00000000
     atom   96 type  1   force =     0.00000000    0.00000000    0.00000000
     atom   97 type  1   force =     0.00000000    0.00000000    0.00000000
     atom   98 type  1   force =     0.00000000    0.00000000    0.00000000
     atom   99 type  1   force =     0.00000000    0.00000000    0.00000000
     atom  100 type  1   force =     0.00000000    0.00000000    0.00000000
     atom  101 type  1   force =     0.00000000    0.00000000    0.00000000
     atom  102 type  1   force =     0.00000000    0.00000000    0.00000000
     atom  103 type  1   force =     0.00000000    0.00000000    0.00000000
     atom  104 type  1   force =     0.00000000    0.00000000    0.00000000
     atom  105 type  1   force =     0.00000000    0.00000000    0.00000000
     atom  106 type  1   force =     0.00000000    0.00000000    0.00000000
     atom  107 type  1   force =     0.00000000    0.00000000    0.00000000
     atom  108 type  1   force =     0.00000000    0.00000000    0.00000000
     atom  109 type  1   force =     0.00000000    0.00000000    0.00000000
     atom  110 type  1   force =     0.00000000    0.00000000    0.00000000
     atom  111 type  1   force =     0.00000000    0.00000000    0.00000000
     atom  112 type  1   force =     0.00000000    0.00000000    0.00000000
     atom  113 type  1   force =     0.00000000    0.00000000    0.00000000
     atom  114 type  1   force =     0.00000000    0.00000000    0.00000000
     atom  115 type  1   force =     0.00000000    0.00000000    0.00000000
     atom  116 type  1   force =     0.00000000    0.00000000    0.00000000
     atom  117 type  1   force =     0.00000000    0.00000000    0.00000000
     atom  118 type  1   force =     0.00000000    0.00000000    0.00000000
     atom  119 type  1   force =     0.00000000    0.00000000    0.00000000
     atom  120 type  1   force =     0.00000000    0.00000000    0.00000000
     atom  121 type  1   force =     0.00000000    0.00000000    0.00000000
     atom  122 type  1   force =     0.00000000    0.00000000    0.00000000
     atom  123 type  1   force =     0.00000000    0.00000000    0.00000000
     atom  124 type  1   force =     0.00000000    0.00000000    0.00000000
     atom  125 type  1   force =     0.00000000    0.00000000    0.00000000
     atom  126 type  1   force =     0.00000000    0.00000000    0.00000000
     atom  127 type  1   force =     0.00000000    0.00000000    0.00000000
     atom  128 type  1   force =     0.00000000    0.00000000    0.00000000
     atom  129 type  1   force =     0.00000000    0.00000000    0.00000000
     atom  130 type  1   force =     0.00000000    0.00000000    0.00000000
     atom  131 type  1   force =     0.00000000    0.00000000    0.00000000
     atom  132 type  1   force =     0.00000000    0.00000000    0.00000000
     atom  133 type  1   force =     0.00000000    0.00000000    0.00000000
     atom  134 type  1   force =     0.00000000    0.00000000    0.00000000
     atom  135 type  1   force =     0.00000000    0.00000000    0.00000000
     atom  136 type  1   force =     0.00000000    0.00000000    0.00000000
     atom  137 type  1   force =     0.00000000    0.00000000    0.00000000
     atom  138 type  1   force =     0.00000000    0.00000000    0.00000000
     atom  139 type  1   force =     0.00000000    0.00000000    0.00000000
     atom  140 type  1   force =     0.00000000    0.00000000    0.00000000
     atom  141 type  1   force =     0.00000000    0.00000000    0.00000000
     atom  142 type  1   force =     0.00000000    0.00000000    0.00000000
     atom  143 type  1   force =     0.00000000    0.00000000    0.00000000
     atom  144 type  1   force =     0.00000000    0.00000000    0.00000000
     atom  145 type  1   force =     0.00000000    0.00000000    0.00000000
     atom  146 type  1   force =     0.00000000    0.00000000    0.00000000
     atom  147 type  1   force =     0.00000000    0.00000000    0.00000000
     atom  148 type  1   force =     0.00000000    0.00000000    0.00000000
     atom  149 type  1   force =     0.00000000    0.00000000    0.00000000
     atom  150 type  1   force =     0.00000000    0.00000000    0.00000000
     atom  151 type  1   force =     0.00000000    0.00000000    0.00000000
     atom  152 type  1   force =     0.00000000    0.00000000    0.00000000
     atom  153 type  1   force =     0.00000000    0.00000000    0.00000000
     atom  154 type  1   force =     0.00000000    0.00000000    0.00000000
     atom  155 type  1   force =     0.00000000    0.00000000    0.00000000
     atom  156 type  1   force =     0.00000000    0.00000000    0.00000000
     atom  157 type  1   force =     0.00000000    0.00000000    0.00000000
     atom  158 type  1   force =     0.00000000    0.00000000    0.00000000
     atom  159 type  1   force =     0.00000000    0.00000000    0.00000000
     atom  160 type  1   force =     0.00000000    0.00000000    0.00000000
     atom  161 type  1   force =     0.00000000    0.00000000    0.00000000
     atom  162 type  1   force =     0.00000000    0.00000000    0.00000000
     atom  163 type  1   force =     0.00000000    0.00000000    0.00000000
     atom  164 type  1   force =     0.00000000    0.00000000    0.00000000
     atom  165 type  1   force =     0.00000000    0.00000000    0.00000000
     atom  166 type  1   force =     0.00000000    0.00000000    0.00000000
     atom  167 type  1   force =     0.00000000    0.00000000    0.00000000
     atom  168 type  1   force =     0.00000000    0.00000000    0.00000000
     atom  169 type  1   force =     0.00000000    0.00000000    0.00000000
     atom  170 type  1   force =     0.00000000    0.00000000    0.00000000
     atom  171 type  1   force =     0.00000000    0.00000000    0.00000000
     atom  172 type  1   force =     0.00000000    0.00000000    0.00000000
     atom  173 type  1   force =     0.00000000    0.00000000    0.00000000
     atom  174 type  1   force =     0.00000000    0.00000000    0.00000000
     atom  175 type  1   force =     0.00000000    0.00000000    0.00000000
     atom  176 type  1   force =     0.00000000    0.00000000    0.00000000
     atom  177 type  1   force =     0.00000000    0.00000000    0.00000000
     atom  178 type  1   force =     0.00000000    0.00000000    0.00000000
     atom  179 type  1   force =     0.00000000    0.00000000    0.00000000
     atom  180 type  1   force =     0.00000000    0.00000000    0.00000000
     atom  181 type  1   force =     0.00000000    0.00000000    0.00000000
     atom  182 type  1   force =     0.00000000    0.00000000    0.00000000
     atom  183 type  1   force =     0.00000000    0.00000000    0.00000000
     atom  184 type  1   force =     0.00000000    0.00000000    0.00000000
     atom  185 type  1   force =     0.00000000    0.00000000    0.00000000
     atom  186 type  1   force =     0.00000000    0.00000000    0.00000000
     atom  187 type  1   force =     0.00000000    0.00000000    0.00000000
     atom  188 type  1   force =     0.00000000    0.00000000    0.00000000
     atom  189 type  1   force =     0.00000000    0.00000000    0.00000000
     atom  190 type  1   force =     0.00000000    0.00000000    0.00000000
     atom  191 type  1   force =     0.00000000    0.00000000    0.00000000
     atom  192 type  1   force =     0.00000000    0.00000000    0.00000000
     atom  193 type  1   force =     0.00000000    0.00000000    0.00000000
     atom  194 type  1   force =     0.00000000    0.00000000    0.00000000
     atom  195 type  1   force =     0.00000000    0.00000000    0.00000000
     atom  196 type  1   force =     0.00000000    0.00000000    0.00000000
     atom  197 type  1   force =     0.00000000    0.00000000    0.00000000
     atom  198 type  1   force =     0.00000000    0.00000000    0.00000000
     atom  199 type  1   force =     0.00000000    0.00000000    0.00000000
     atom  200 type  1   force =     0.00000000    0.00000000    0.00000000
     atom  201 type  1   force =     0.00000000    0.00000000    0.00000000
     atom  202 type  1   force =     0.00000000    0.00000000    0.00000000
     atom  203 type  1   force =     0.00000000    0.00000000    0.00000000
     atom  204 type  1   force =     0.00000000    0.00000000    0.00000000
     atom  205 type  1   force =     0.00000000    0.00000000    0.00000000
     atom  206 type  1   force =     0.00000000    0.00000000    0.00000000
     atom  207 type  1   force =     0.00000000    0.00000000    0.00000000
     atom  208 type  1   force =     0.00000000    0.00000000    0.00000000
     atom  209 type  1   force =     0.00000000    0.00000000    0.00000000
     atom  210 type  1   force =     0.00000000    0.00000000    0.00000000
     atom  211 type  1   force =     0.00000000    0.00000000    0.00000000
     atom  212 type  1   force =     0.00000000    0.00000000    0.00000000
     atom  213 type  1   force =     0.00000000    0.00000000    0.00000000
     atom  214 type  1   force =     0.00000000    0.00000000    0.00000000
     atom  215 type  1   force =     0.00000000    0.00000000    0.00000000
     atom  216 type  1   force =     0.00000000    0.00000000    0.00000000
     atom  217 type  1   force =     0.00000000    0.00000000    0.00000000
     atom  218 type  1   force =     0.00000000    0.00000000    0.00000000
     atom  219 type  1   force =     0.00000000    0.00000000    0.00000000
     atom  220 type  1   force =     0.00000000    0.00000000    0.00000000
     atom  221 type  1   force =     0.00000000    0.00000000    0.00000000
     atom  222 type  1   force =     0.00000000    0.00000000    0.00000000
     atom  223 type  1   force =     0.00000000    0.00000000    0.00000000
     atom  224 type  1   force =     0.00000000    0.00000000    0.00000000
     atom  225 type  1   force =     0.00000000    0.00000000    0.00000000
     atom  226 type  1   force =     0.00000000    0.00000000    0.00000000
     atom  227 type  1   force =     0.00000000    0.00000000    0.00000000
     atom  228 type  1   force =     0.00000000    0.00000000    0.00000000
     atom  229 type  1   force =     0.00000000    0.00000000    0.00000000
     atom  230 type  1   force =     0.00000000    0.00000000    0.00000000
     atom  231 type  1   force =     0.00000000    0.00000000    0.00000000
     atom  232 type  1   force =     0.00000000    0.00000000    0.00000000
     atom  233 type  1   force =     0.00000000    0.00000000    0.00000000
     atom  234 type  1   force =     0.00000000    0.00000000    0.00000000
     atom  235 type  1   force =     0.00000000    0.00000000    0.00000000
     atom  236 type  1   force =     0.00000000    0.00000000    0.00000000
     atom  237 type  1   force =     0.00000000    0.00000000    0.00000000
     atom  238 type  1   force =     0.00000000    0.00000000    0.00000000
     atom  239 type  1   force =     0.00000000    0.00000000    0.00000000
     atom  240 type  1   force =     0.00000000    0.00000000    0.00000000
     atom  241 type  1   force =     0.00000000    0.00000000    0.00000000
     atom  242 type  1   force =     0.00000000    0.00000000    0.00000000
     atom  243 type  1   force =     0.00000000    0.00000000    0.00000000
     atom  244 type  1   force =     0.00000000    0.00000000    0.00000000
     atom  245 type  1   force =     0.00000000    0.00000000    0.00000000
     atom  246 type  1   force =     0.00000000    0.00000000    0.00000000
     atom  247 type  1   force =     0.00000000    0.00000000    0.00000000
     atom  248 type  1   force =     0.00000000    0.00000000    0.00000000
     atom  249 type  1   force =     0.00000000    0.00000000    0.00000000
     atom  250 type  1   force =     0.00000000    0.00000000    0.00000000
     atom  251 type  1   force =     0.00000000    0.00000000    0.00000000
     atom  252 type  1   force =     0.00000000    0.00000000    0.00000000
     atom  253 type  1   force =     0.00000000    0.00000000    0.00000000
     atom  254 type  1   force =     0.00000000    0.00000000    0.00000000
     atom  255 type  1   force =     0.00000000    0.00000000    0.00000000
     atom  256 type  1   force =     0.00000000    0.00000000    0.00000000
     atom  257 type  1   force =     0.00000000    0.00000000    0.00000000
     atom  258 type  1   force =     0.00000000    0.00000000    0.00000000
     atom  259 type  1   force =     0.00000000    0.00000000    0.00000000
     atom  260 type  1   force =     0.00000000    0.00000000    0.00000000
     atom  261 type  1   force =     0.00000000    0.00000000    0.00000000
     atom  262 type  1   force =     0.00000000    0.00000000    0.00000000
     atom  263 type  1   force =     0.00000000    0.00000000    0.00000000
     atom  264 type  1   force =     0.00000000    0.00000000    0.00000000
     atom  265 type  1   force =     0.00000000    0.00000000    0.00000000
     atom  266 type  1   force =     0.00000000    0.00000000    0.00000000
     atom  267 type  1   force =     0.00000000    0.00000000    0.00000000
     atom  268 type  1   force =     0.00000000    0.00000000    0.00000000
     atom  269 type  1   force =     0.00000000    0.00000000    0.00000000
     atom  270 type  1   force =     0.00000000    0.00000000    0.00000000
     atom  271 type  1   force =     0.00000000    0.00000000    0.00000000
     atom  272 type  1   force =     0.00000000    0.00000000    0.00000000
     atom  273 type  1   force =     0.00000000    0.00000000    0.00000000
     atom  274 type  1   force =     0.00000000    0.00000000    0.00000000
     atom  275 type  1   force =     0.00000000    0.00000000    0.00000000
     atom  276 type  1   force =     0.00000000    0.00000000    0.00000000
     atom  277 type  1   force =     0.00000000    0.00000000    0.00000000
     atom  278 type  1   force =     0.00000000    0.00000000    0.00000000
     atom  279 type  1   force =     0.00000000    0.00000000    0.00000000
     atom  280 type  1   force =     0.00000000    0.00000000    0.00000000
     atom  281 type  1   force =     0.00000000    0.00000000    0.00000000
     atom  282 type  1   force =     0.00000000    0.00000000    0.00000000
     atom  283 type  1   force =     0.00000000    0.00000000    0.00000000
     atom  284 type  1   force =     0.00000000    0.00000000    0.00000000
     atom  285 type  1   force =     0.00000000    0.00000000    0.00000000
     atom  286 type  1   force =     0.00000000    0.00000000    0.00000000
     atom  287 type  1   force =     0.00000000    0.00000000    0.00000000
     atom  288 type  1   force =     0.00000000    0.00000000    0.00000000
     atom  289 type  1   force =     0.00000000    0.00000000    0.00000000
     atom  290 type  1   force =     0.00000000    0.00000000    0.00000000
     atom  291 type  1   force =     0.00000000    0.00000000    0.00000000
     atom  292 type  1   force =     0.00000000    0.00000000    0.00000000
     atom  293 type  1   force =     0.00000000    0.00000000    0.00000000
     atom  294 type  1   force =     0.00000000    0.00000000    0.00000000
     atom  295 type  1   force =     0.00000000    0.00000000    0.00000000
     atom  296 type  1   force =     0.00000000    0.00000000    0.00000000
     atom  297 type  1   force =     0.00000000    0.00000000    0.00000000
     atom  298 type  1   force =     0.00000000    0.00000000    0.00000000
     atom  299 type  1   force =     0.00000000    0.00000000    0.00000000
     atom  300 type  1   force =     0.00000000    0.00000000    0.00000000
     atom  301 type  1   force =     0.00000000    0.00000000    0.00000000
     atom  302 type  1   force =     0.00000000    0.00000000    0.00000000
     atom  303 type  1   force =     0.00000000    0.00000000    0.00000000
     atom  304 type  1   force =     0.00000000    0.00000000    0.00000000
     atom  305 type  1   force =     0.00000000    0.00000000    0.00000000
     atom  306 type  1   force =     0.00000000    0.00000000    0.00000000
     atom  307 type  1   force =     0.00000000    0.00000000    0.00000000
     atom  308 type  1   force =     0.00000000    0.00000000    0.00000000
     atom  309 type  1   force =     0.00000000    0.00000000    0.00000000
     atom  310 type  1   force =     0.00000000    0.00000000    0.00000000
     atom  311 type  1   force =     0.00000000    0.00000000    0.00000000
     atom  312 type  1   force =     0.00000000    0.00000000    0.00000000
     atom  313 type  1   force =     0.00000000    0.00000000    0.00000000
     atom  314 type  1   force =     0.00000000    0.00000000    0.00000000
     atom  315 type  1   force =     0.00000000    0.00000000    0.00000000
     atom  316 type  1   force =     0.00000000    0.00000000    0.00000000
     atom  317 type  1   force =     0.00000000    0.00000000    0.00000000
     atom  318 type  1   force =     0.00000000    0.00000000    0.00000000
     atom  319 type  1   force =     0.00000000    0.00000000    0.00000000
     atom  320 type  1   force =     0.00000000    0.00000000    0.00000000
     atom  321 type  1   force =     0.00000000    0.00000000    0.00000000
     atom  322 type  1   force =     0.00000000    0.00000000    0.00000000
     atom  323 type  1   force =     0.00000000    0.00000000    0.00000000
     atom  324 type  1   force =     0.00000000    0.00000000    0.00000000
     atom  325 type  1   force =     0.00000000    0.00000000    0.00000000
     atom  326 type  1   force =     0.00000000    0.00000000    0.00000000
     atom  327 type  1   force =     0.00000000    0.00000000    0.00000000
     atom  328 type  1   force =     0.00000000    0.00000000    0.00000000
     atom  329 type  1   force =     0.00000000    0.00000000    0.00000000
     atom  330 type  1   force =     0.00000000    0.00000000    0.00000000
     atom  331 type  1   force =     0.00000000    0.00000000    0.00000000
     atom  332 type  1   force =     0.00000000    0.00000000    0.00000000
     atom  333 type  1   force =     0.00000000    0.00000000    0.00000000
     atom  334 type  1   force =     0.00000000    0.00000000    0.00000000
     atom  335 type  1   force =     0.00000000    0.00000000    0.00000000
     atom  336 type  1   force =     0.00000000    0.00000000    0.00000000
     atom  337 type  1   force =     0.00000000    0.00000000    0.00000000
     atom  338 type  1   force =     0.00000000    0.00000000    0.00000000
     atom  339 type  1   force =     0.00000000    0.00000000    0.00000000
     atom  340 type  1   force =     0.00000000    0.00000000    0.00000000
     atom  341 type  1   force =     0.00000000    0.00000000    0.00000000
     atom  342 type  1   force =     0.00000000    0.00000000    0.00000000
     atom  343 type  1   force =     0.00000000    0.00000000    0.00000000
     atom  344 type  1   force =     0.00000000    0.00000000    0.00000000
     atom  345 type  1   force =     0.00000000    0.00000000    0.00000000
     atom  346 type  1   force =     0.00000000    0.00000000    0.00000000
     atom  347 type  1   force =     0.00000000    0.00000000    0.00000000
     atom  348 type  1   force =     0.00000000    0.00000000    0.00000000
     atom  349 type  1   force =     0.00000000    0.00000000    0.00000000
     atom  350 type  1   force =     0.00000000    0.00000000    0.00000000
     atom  351 type  1   force =     0.00000000    0.00000000    0.00000000
     atom  352 type  1   force =     0.00000000    0.00000000    0.00000000
     atom  353 type  1   force =     0.00000000    0.00000000    0.00000000
     atom  354 type  1   force =     0.00000000    0.00000000    0.00000000
     atom  355 type  1   force =     0.00000000    0.00000000    0.00000000
     atom  356 type  1   force =     0.00000000    0.00000000    0.00000000
     atom  357 type  1   force =     0.00000000    0.00000000    0.00000000
     atom  358 type  1   force =     0.00000000    0.00000000    0.00000000
     atom  359 type  1   force =     0.00000000    0.00000000    0.00000000
     atom  360 type  1   force =     0.00000000    0.00000000    0.00000000
     atom  361 type  1   force =     0.00000000    0.00000000    0.00000000
     atom  362 type  1   force =     0.00000000    0.00000000    0.00000000
     atom  363 type  1   force =     0.00000000    0.00000000    0.00000000
     atom  364 type  1   force =     0.00000000    0.00000000    0.00000000
     atom  365 type  1   force =     0.00000000    0.00000000    0.00000000
     atom  366 type  1   force =     0.00000000    0.00000000    0.00000000
     atom  367 type  1   force =     0.00000000    0.00000000    0.00000000
     atom  368 type  1   force =     0.00000000    0.00000000    0.00000000
     atom  369 type  1   force =     0.00000000    0.00000000    0.00000000
     atom  370 type  1   force =     0.00000000    0.00000000    0.00000000
     atom  371 type  1   force =     0.00000000    0.00000000    0.00000000
     atom  372 type  1   force =     0.00000000    0.00000000    0.00000000
     atom  373 type  1   force =     0.00000000    0.00000000    0.00000000
     atom  374 type  1   force =     0.00000000    0.00000000    0.00000000
     atom  375 type  1   force =     0.00000000    0.00000000    0.00000000
     atom  376 type  1   force =     0.00000000    0.00000000    0.00000000
     atom  377 type  1   force =     0.00000000    0.00000000    0.00000000
     atom  378 type  1   force =     0.00000000    0.00000000    0.00000000
     atom  379 type  1   force =     0.00000000    0.00000000    0.00000000
     atom  380 type  1   force =     0.00000000    0.00000000    0.00000000
     atom  381 type  1   force =     0.00000000    0.00000000    0.00000000
     atom  382 type  1   force =     0.00000000    0.00000000    0.00000000
     atom  383 type  1   force =     0.00000000    0.00000000    0.00000000
     atom  384 type  1   force =     0.00000000    0.00000000    0.00000000
     atom  385 type  1   force =     0.00000000    0.00000000    0.00000000
     atom  386 type  1   force =     0.00000000    0.00000000    0.00000000
     atom  387 type  1   force =     0.00000000    0.00000000    0.00000000
     atom  388 type  1   force =     0.00000000    0.00000000    0.00000000
     atom  389 type  1   force =     0.00000000    0.00000000    0.00000000
     atom  390 type  1   force =     0.00000000    0.00000000    0.00000000
     atom  391 type  1   force =     0.00000000    0.00000000    0.00000000
     atom  392 type  1   force =     0.00000000    0.00000000    0.00000000
     atom  393 type  1   force =     0.00000000    0.00000000    0.00000000
     atom  394 type  1   force =     0.00000000    0.00000000    0.00000000
     atom  395 type  1   force =     0.00000000    0.00000000    0.00000000
     atom  396 type  1   force =     0.00000000    0.00000000    0.00000000
     atom  397 type  1   force =     0.00000000    0.00000000    0.00000000
     atom  398 type  1   force =     0.00000000    0.00000000    0.00000000
     atom  399 type  1   force =     0.00000000    0.00000000    0.00000000
     atom  400 type  1   force =     0.00000000    0.00000000    0.00000000
     atom  401 type  1   force =     0.00000000    0.00000000    0.00000000
     atom  402 type  1   force =     0.00000000    0.00000000    0.00000000
     atom  403 type  1   force =     0.00000000    0.00000000    0.00000000
     atom  404 type  1   force =     0.00000000    0.00000000    0.00000000
     atom  405 type  1   force =     0.00000000    0.00000000    0.00000000
     atom  406 type  1   force =     0.00000000    0.00000000    0.00000000
     atom  407 type  1   force =     0.00000000    0.00000000    0.00000000
     atom  408 type  1   force =     0.00000000    0.00000000    0.00000000
     atom  409 type  1   force =     0.00000000    0.00000000    0.00000000
     atom  410 type  1   force =     0.00000000    0.00000000    0.00000000
     atom  411 type  1   force =     0.00000000    0.00000000    0.00000000
     atom  412 type  1   force =     0.00000000    0.00000000    0.00000000
     atom  413 type  1   force =     0.00000000    0.00000000    0.00000000
     atom  414 type  1   force =     0.00000000    0.00000000    0.00000000
     atom  415 type  1   force =     0.00000000    0.00000000    0.00000000
     atom  416 type  1   force =     0.00000000    0.00000000    0.00000000
     atom  417 type  1   force =     0.00000000    0.00000000    0.00000000
     atom  418 type  1   force =     0.00000000    0.00000000    0.00000000
     atom  419 type  1   force =     0.00000000    0.00000000    0.00000000
     atom  420 type  1   force =     0.00000000    0.00000000    0.00000000
     atom  421 type  1   force =     0.00000000    0.00000000    0.00000000
     atom  422 type  1   force =     0.00000000    0.00000000    0.00000000
     atom  423 type  1   force =     0.00000000    0.00000000    0.00000000
     atom  424 type  1   force =     0.00000000    0.00000000    0.00000000
     atom  425 type  1   force =     0.00000000    0.00000000    0.00000000
     atom  426 type  1   force =     0.00000000    0.00000000    0.00000000
     atom  427 type  1   force =     0.00000000    0.00000000    0.00000000
     atom  428 type  1   force =     0.00000000    0.00000000    0.00000000
     atom  429 type  1   force =     0.00000000    0.00000000    0.00000000
     atom  430 type  1   force =     0.00000000    0.00000000    0.00000000
     atom  431 type  1   force =     0.00000000    0.00000000    0.00000000
     atom  432 type  1   force =     0.00000000    0.00000000    0.00000000
     atom  433 type  1   force =     0.00000000    0.00000000    0.00000000
     atom  434 type  1   force =     0.00000000    0.00000000    0.00000000
     atom  435 type  1   force =     0.00000000    0.00000000    0.00000000
     atom  436 type  1   force =     0.00000000    0.00000000    0.00000000
     atom  437 type  1   force =     0.00000000    0.00000000    0.00000000
     atom  438 type  1   force =     0.00000000    0.00000000    0.00000000
     atom  439 type  1   force =     0.00000000    0.00000000    0.00000000
     atom  440 type  1   force =     0.00000000    0.00000000    0.00000000
     atom  441 type  1   force =     0.00000000    0.00000000    0.00000000
     atom  442 type  1   force =     0.00000000    0.00000000    0.00000000
     atom  443 type  1   force =     0.00000000    0.00000000    0.00000000
     atom  444 type  1   force =     0.00000000    0.00000000    0.00000000
     atom  445 type  1   force =     0.00000000    0.00000000    0.00000000
     atom  446 type  1   force =     0.00000000    0.00000000    0.00000000
     atom  447 type  1   force =     0.00000000    0.00000000    0.00000000
     atom  448 type  1   force =     0.00000000    0.00000000    0.00000000
     atom  449 type  1   force =     0.00000000    0.00000000    0.00000000
     atom  450 type  1   force =     0.00000000    0.00000000    0.00000000
     atom  451 type  1   force =     0.00000000    0.00000000    0.00000000
     atom  452 type  1   force =     0.00000000    0.00000000    0.00000000
     atom  453 type  1   force =     0.00000000    0.00000000    0.00000000
     atom  454 type  1   force =     0.00000000    0.00000000    0.00000000
     atom  455 type  1   force =     0.00000000    0.00000000    0.00000000
     atom  456 type  1   force =     0.00000000    0.00000000    0.00000000
     atom  457 type  1   force =     0.00000000    0.00000000    0.00000000
     atom  458 type  1   force =     0.00000000    0.00000000    0.00000000
     atom  459 type  1   force =     0.00000000    0.00000000    0.00000000
     atom  460 type  1   force =     0.00000000    0.00000000    0.00000000
     atom  461 type  1   force =     0.00000000    0.00000000    0.00000000
     atom  462 type  1   force =     0.00000000    0.00000000    0.00000000
     atom  463 type  1   force =     0.00000000    0.00000000    0.00000000
     atom  464 type  1   force =     0.00000000    0.00000000    0.00000000
     atom  465 type  1   force =     0.00000000    0.00000000    0.00000000
     atom  466 type  1   force =     0.00000000    0.00000000    0.00000000
     atom  467 type  1   force =     0.00000000    0.00000000    0.00000000
     atom  468 type  1   force =     0.00000000    0.00000000    0.00000000
     atom  469 type  1   force =     0.00000000    0.00000000    0.00000000
     atom  470 type  1   force =     0.00000000    0.00000000    0.00000000
     atom  471 type  1   force =     0.00000000    0.00000000    0.00000000
     atom  472 type  1   force =     0.00000000    0.00000000    0.00000000
     atom  473 type  1   force =     0.00000000    0.00000000    0.00000000
     atom  474 type  1   force =     0.00000000    0.00000000    0.00000000
     atom  475 type  1   force =     0.00000000    0.00000000    0.00000000
     atom  476 type  1   force =     0.00000000    0.00000000    0.00000000
     atom  477 type  1   force =     0.00000000    0.00000000    0.00000000
     atom  478 type  1   force =     0.00000000    0.00000000    0.00000000
     atom  479 type  1   force =     0.00000000    0.00000000    0.00000000
     atom  480 type  1   force =     0.00000000    0.00000000    0.00000000
     atom  481 type  1   force =     0.00000000    0.00000000    0.00000000
     atom  482 type  1   force =     0.00000000    0.00000000    0.00000000
     atom  483 type  1   force =     0.00000000    0.00000000    0.00000000
     atom  484 type  1   force =     0.00000000    0.00000000    0.00000000
     atom  485 type  1   force =     0.00000000    0.00000000    0.00000000
     atom  486 type  1   force =     0.00000000    0.00000000    0.00000000
     atom  487 type  1   force =     0.00000000    0.00000000    0.00000000
     atom  488 type  1   force =     0.00000000    0.00000000    0.00000000
     atom  489 type  1   force =     0.00000000    0.00000000    0.00000000
     atom  490 type  1   force =     0.00000000    0.00000000    0.00000000
     atom  491 type  1   force =     0.00000000    0.00000000    0.00000000
     atom  492 type  1   force =     0.00000000    0.00000000    0.00000000
     atom  493 type  1   force =     0.00000000    0.00000000    0.00000000
     atom  494 type  1   force =     0.00000000    0.00000000    0.00000000
     atom  495 type  1   force =     0.00000000    0.00000000    0.00000000
     atom  496 type  1   force =     0.00000000    0.00000000    0.00000000
     atom  497 type  1   force =     0.00000000    0.00000000    0.00000000
     atom  498 type  1   force =     0.00000000    0.00000000    0.00000000
     atom  499 type  1   force =     0.00000000    0.00000000    0.00000000
     atom  500 type  1   force =     0.00000000    0.00000000    0.00000000
     atom  501 type  1   force =     0.00000000    0.00000000    0.00000000
     atom  502 type  1   force =     0.00000000    0.00000000    0.00000000
     atom  503 type  1   force =     0.00000000    0.00000000    0.00000000
     atom  504 type  1   force =     0.00000000    0.00000000    0.00000000
     atom  505 type  1   force =     0.00000000    0.00000000    0.00000000
     atom  506 type  1   force =     0.00000000    0.00000000    0.00000000
     atom  507 type  1   force =     0.00000000    0.00000000    0.00000000
     atom  508 type  1   force =     0.00000000    0.00000000    0.00000000
     atom  509 type  1   force =     0.00000000    0.00000000    0.00000000
     atom  510 type  1   force =     0.00000000    0.00000000    0.00000000
     atom  511 type  2   force =     0.00000000    0.00000000    0.00000000
     The Hubbard contrib.    to forces
     atom    1 type  1   force =     0.00000000    0.00000000    0.00000000
     atom    2 type  1   force =     0.00000000    0.00000000    0.00000000
     atom    3 type  1   force =     0.00000000    0.00000000    0.00000000
     atom    4 type  1   force =     0.00000000    0.00000000    0.00000000
     atom    5 type  1   force =     0.00000000    0.00000000    0.00000000
     atom    6 type  1   force =     0.00000000    0.00000000    0.00000000
     atom    7 type  1   force =     0.00000000    0.00000000    0.00000000
     atom    8 type  1   force =     0.00000000    0.00000000    0.00000000
     atom    9 type  1   force =     0.00000000    0.00000000    0.00000000
     atom   10 type  1   force =     0.00000000    0.00000000    0.00000000
     atom   11 type  1   force =     0.00000000    0.00000000    0.00000000
     atom   12 type  1   force =     0.00000000    0.00000000    0.00000000
     atom   13 type  1   force =     0.00000000    0.00000000    0.00000000
     atom   14 type  1   force =     0.00000000    0.00000000    0.00000000
     atom   15 type  1   force =     0.00000000    0.00000000    0.00000000
     atom   16 type  1   force =     0.00000000    0.00000000    0.00000000
     atom   17 type  1   force =     0.00000000    0.00000000    0.00000000
     atom   18 type  1   force =     0.00000000    0.00000000    0.00000000
     atom   19 type  1   force =     0.00000000    0.00000000    0.00000000
     atom   20 type  1   force =     0.00000000    0.00000000    0.00000000
     atom   21 type  1   force =     0.00000000    0.00000000    0.00000000
     atom   22 type  1   force =     0.00000000    0.00000000    0.00000000
     atom   23 type  1   force =     0.00000000    0.00000000    0.00000000
     atom   24 type  1   force =     0.00000000    0.00000000    0.00000000
     atom   25 type  1   force =     0.00000000    0.00000000    0.00000000
     atom   26 type  1   force =     0.00000000    0.00000000    0.00000000
     atom   27 type  1   force =     0.00000000    0.00000000    0.00000000
     atom   28 type  1   force =     0.00000000    0.00000000    0.00000000
     atom   29 type  1   force =     0.00000000    0.00000000    0.00000000
     atom   30 type  1   force =     0.00000000    0.00000000    0.00000000
     atom   31 type  1   force =     0.00000000    0.00000000    0.00000000
     atom   32 type  1   force =     0.00000000    0.00000000    0.00000000
     atom   33 type  1   force =     0.00000000    0.00000000    0.00000000
     atom   34 type  1   force =     0.00000000    0.00000000    0.00000000
     atom   35 type  1   force =     0.00000000    0.00000000    0.00000000
     atom   36 type  1   force =     0.00000000    0.00000000    0.00000000
     atom   37 type  1   force =     0.00000000    0.00000000    0.00000000
     atom   38 type  1   force =     0.00000000    0.00000000    0.00000000
     atom   39 type  1   force =     0.00000000    0.00000000    0.00000000
     atom   40 type  1   force =     0.00000000    0.00000000    0.00000000
     atom   41 type  1   force =     0.00000000    0.00000000    0.00000000
     atom   42 type  1   force =     0.00000000    0.00000000    0.00000000
     atom   43 type  1   force =     0.00000000    0.00000000    0.00000000
     atom   44 type  1   force =     0.00000000    0.00000000    0.00000000
     atom   45 type  1   force =     0.00000000    0.00000000    0.00000000
     atom   46 type  1   force =     0.00000000    0.00000000    0.00000000
     atom   47 type  1   force =     0.00000000    0.00000000    0.00000000
     atom   48 type  1   force =     0.00000000    0.00000000    0.00000000
     atom   49 type  1   force =     0.00000000    0.00000000    0.00000000
     atom   50 type  1   force =     0.00000000    0.00000000    0.00000000
     atom   51 type  1   force =     0.00000000    0.00000000    0.00000000
     atom   52 type  1   force =     0.00000000    0.00000000    0.00000000
     atom   53 type  1   force =     0.00000000    0.00000000    0.00000000
     atom   54 type  1   force =     0.00000000    0.00000000    0.00000000
     atom   55 type  1   force =     0.00000000    0.00000000    0.00000000
     atom   56 type  1   force =     0.00000000    0.00000000    0.00000000
     atom   57 type  1   force =     0.00000000    0.00000000    0.00000000
     atom   58 type  1   force =     0.00000000    0.00000000    0.00000000
     atom   59 type  1   force =     0.00000000    0.00000000    0.00000000
     atom   60 type  1   force =     0.00000000    0.00000000    0.00000000
     atom   61 type  1   force =     0.00000000    0.00000000    0.00000000
     atom   62 type  1   force =     0.00000000    0.00000000    0.00000000
     atom   63 type  1   force =     0.00000000    0.00000000    0.00000000
     atom   64 type  1   force =     0.00000000    0.00000000    0.00000000
     atom   65 type  1   force =     0.00000000    0.00000000    0.00000000
     atom   66 type  1   force =     0.00000000    0.00000000    0.00000000
     atom   67 type  1   force =     0.00000000    0.00000000    0.00000000
     atom   68 type  1   force =     0.00000000    0.00000000    0.00000000
     atom   69 type  1   force =     0.00000000    0.00000000    0.00000000
     atom   70 type  1   force =     0.00000000    0.00000000    0.00000000
     atom   71 type  1   force =     0.00000000    0.00000000    0.00000000
     atom   72 type  1   force =     0.00000000    0.00000000    0.00000000
     atom   73 type  1   force =     0.00000000    0.00000000    0.00000000
     atom   74 type  1   force =     0.00000000    0.00000000    0.00000000
     atom   75 type  1   force =     0.00000000    0.00000000    0.00000000
     atom   76 type  1   force =     0.00000000    0.00000000    0.00000000
     atom   77 type  1   force =     0.00000000    0.00000000    0.00000000
     atom   78 type  1   force =     0.00000000    0.00000000    0.00000000
     atom   79 type  1   force =     0.00000000    0.00000000    0.00000000
     atom   80 type  1   force =     0.00000000    0.00000000    0.00000000
     atom   81 type  1   force =     0.00000000    0.00000000    0.00000000
     atom   82 type  1   force =     0.00000000    0.00000000    0.00000000
     atom   83 type  1   force =     0.00000000    0.00000000    0.00000000
     atom   84 type  1   force =     0.00000000    0.00000000    0.00000000
     atom   85 type  1   force =     0.00000000    0.00000000    0.00000000
     atom   86 type  1   force =     0.00000000    0.00000000    0.00000000
     atom   87 type  1   force =     0.00000000    0.00000000    0.00000000
     atom   88 type  1   force =     0.00000000    0.00000000    0.00000000
     atom   89 type  1   force =     0.00000000    0.00000000    0.00000000
     atom   90 type  1   force =     0.00000000    0.00000000    0.00000000
     atom   91 type  1   force =     0.00000000    0.00000000    0.00000000
     atom   92 type  1   force =     0.00000000    0.00000000    0.00000000
     atom   93 type  1   force =     0.00000000    0.00000000    0.00000000
     atom   94 type  1   force =     0.00000000    0.00000000    0.00000000
     atom   95 type  1   force =     0.00000000    0.00000000    0.00000000
     atom   96 type  1   force =     0.00000000    0.00000000    0.00000000
     atom   97 type  1   force =     0.00000000    0.00000000    0.00000000
     atom   98 type  1   force =     0.00000000    0.00000000    0.00000000
     atom   99 type  1   force =     0.00000000    0.00000000    0.00000000
     atom  100 type  1   force =     0.00000000    0.00000000    0.00000000
     atom  101 type  1   force =     0.00000000    0.00000000    0.00000000
     atom  102 type  1   force =     0.00000000    0.00000000    0.00000000
     atom  103 type  1   force =     0.00000000    0.00000000    0.00000000
     atom  104 type  1   force =     0.00000000    0.00000000    0.00000000
     atom  105 type  1   force =     0.00000000    0.00000000    0.00000000
     atom  106 type  1   force =     0.00000000    0.00000000    0.00000000
     atom  107 type  1   force =     0.00000000    0.00000000    0.00000000
     atom  108 type  1   force =     0.00000000    0.00000000    0.00000000
     atom  109 type  1   force =     0.00000000    0.00000000    0.00000000
     atom  110 type  1   force =     0.00000000    0.00000000    0.00000000
     atom  111 type  1   force =     0.00000000    0.00000000    0.00000000
     atom  112 type  1   force =     0.00000000    0.00000000    0.00000000
     atom  113 type  1   force =     0.00000000    0.00000000    0.00000000
     atom  114 type  1   force =     0.00000000    0.00000000    0.00000000
     atom  115 type  1   force =     0.00000000    0.00000000    0.00000000
     atom  116 type  1   force =     0.00000000    0.00000000    0.00000000
     atom  117 type  1   force =     0.00000000    0.00000000    0.00000000
     atom  118 type  1   force =     0.00000000    0.00000000    0.00000000
     atom  119 type  1   force =     0.00000000    0.00000000    0.00000000
     atom  120 type  1   force =     0.00000000    0.00000000    0.00000000
     atom  121 type  1   force =     0.00000000    0.00000000    0.00000000
     atom  122 type  1   force =     0.00000000    0.00000000    0.00000000
     atom  123 type  1   force =     0.00000000    0.00000000    0.00000000
     atom  124 type  1   force =     0.00000000    0.00000000    0.00000000
     atom  125 type  1   force =     0.00000000    0.00000000    0.00000000
     atom  126 type  1   force =     0.00000000    0.00000000    0.00000000
     atom  127 type  1   force =     0.00000000    0.00000000    0.00000000
     atom  128 type  1   force =     0.00000000    0.00000000    0.00000000
     atom  129 type  1   force =     0.00000000    0.00000000    0.00000000
     atom  130 type  1   force =     0.00000000    0.00000000    0.00000000
     atom  131 type  1   force =     0.00000000    0.00000000    0.00000000
     atom  132 type  1   force =     0.00000000    0.00000000    0.00000000
     atom  133 type  1   force =     0.00000000    0.00000000    0.00000000
     atom  134 type  1   force =     0.00000000    0.00000000    0.00000000
     atom  135 type  1   force =     0.00000000    0.00000000    0.00000000
     atom  136 type  1   force =     0.00000000    0.00000000    0.00000000
     atom  137 type  1   force =     0.00000000    0.00000000    0.00000000
     atom  138 type  1   force =     0.00000000    0.00000000    0.00000000
     atom  139 type  1   force =     0.00000000    0.00000000    0.00000000
     atom  140 type  1   force =     0.00000000    0.00000000    0.00000000
     atom  141 type  1   force =     0.00000000    0.00000000    0.00000000
     atom  142 type  1   force =     0.00000000    0.00000000    0.00000000
     atom  143 type  1   force =     0.00000000    0.00000000    0.00000000
     atom  144 type  1   force =     0.00000000    0.00000000    0.00000000
     atom  145 type  1   force =     0.00000000    0.00000000    0.00000000
     atom  146 type  1   force =     0.00000000    0.00000000    0.00000000
     atom  147 type  1   force =     0.00000000    0.00000000    0.00000000
     atom  148 type  1   force =     0.00000000    0.00000000    0.00000000
     atom  149 type  1   force =     0.00000000    0.00000000    0.00000000
     atom  150 type  1   force =     0.00000000    0.00000000    0.00000000
     atom  151 type  1   force =     0.00000000    0.00000000    0.00000000
     atom  152 type  1   force =     0.00000000    0.00000000    0.00000000
     atom  153 type  1   force =     0.00000000    0.00000000    0.00000000
     atom  154 type  1   force =     0.00000000    0.00000000    0.00000000
     atom  155 type  1   force =     0.00000000    0.00000000    0.00000000
     atom  156 type  1   force =     0.00000000    0.00000000    0.00000000
     atom  157 type  1   force =     0.00000000    0.00000000    0.00000000
     atom  158 type  1   force =     0.00000000    0.00000000    0.00000000
     atom  159 type  1   force =     0.00000000    0.00000000    0.00000000
     atom  160 type  1   force =     0.00000000    0.00000000    0.00000000
     atom  161 type  1   force =     0.00000000    0.00000000    0.00000000
     atom  162 type  1   force =     0.00000000    0.00000000    0.00000000
     atom  163 type  1   force =     0.00000000    0.00000000    0.00000000
     atom  164 type  1   force =     0.00000000    0.00000000    0.00000000
     atom  165 type  1   force =     0.00000000    0.00000000    0.00000000
     atom  166 type  1   force =     0.00000000    0.00000000    0.00000000
     atom  167 type  1   force =     0.00000000    0.00000000    0.00000000
     atom  168 type  1   force =     0.00000000    0.00000000    0.00000000
     atom  169 type  1   force =     0.00000000    0.00000000    0.00000000
     atom  170 type  1   force =     0.00000000    0.00000000    0.00000000
     atom  171 type  1   force =     0.00000000    0.00000000    0.00000000
     atom  172 type  1   force =     0.00000000    0.00000000    0.00000000
     atom  173 type  1   force =     0.00000000    0.00000000    0.00000000
     atom  174 type  1   force =     0.00000000    0.00000000    0.00000000
     atom  175 type  1   force =     0.00000000    0.00000000    0.00000000
     atom  176 type  1   force =     0.00000000    0.00000000    0.00000000
     atom  177 type  1   force =     0.00000000    0.00000000    0.00000000
     atom  178 type  1   force =     0.00000000    0.00000000    0.00000000
     atom  179 type  1   force =     0.00000000    0.00000000    0.00000000
     atom  180 type  1   force =     0.00000000    0.00000000    0.00000000
     atom  181 type  1   force =     0.00000000    0.00000000    0.00000000
     atom  182 type  1   force =     0.00000000    0.00000000    0.00000000
     atom  183 type  1   force =     0.00000000    0.00000000    0.00000000
     atom  184 type  1   force =     0.00000000    0.00000000    0.00000000
     atom  185 type  1   force =     0.00000000    0.00000000    0.00000000
     atom  186 type  1   force =     0.00000000    0.00000000    0.00000000
     atom  187 type  1   force =     0.00000000    0.00000000    0.00000000
     atom  188 type  1   force =     0.00000000    0.00000000    0.00000000
     atom  189 type  1   force =     0.00000000    0.00000000    0.00000000
     atom  190 type  1   force =     0.00000000    0.00000000    0.00000000
     atom  191 type  1   force =     0.00000000    0.00000000    0.00000000
     atom  192 type  1   force =     0.00000000    0.00000000    0.00000000
     atom  193 type  1   force =     0.00000000    0.00000000    0.00000000
     atom  194 type  1   force =     0.00000000    0.00000000    0.00000000
     atom  195 type  1   force =     0.00000000    0.00000000    0.00000000
     atom  196 type  1   force =     0.00000000    0.00000000    0.00000000
     atom  197 type  1   force =     0.00000000    0.00000000    0.00000000
     atom  198 type  1   force =     0.00000000    0.00000000    0.00000000
     atom  199 type  1   force =     0.00000000    0.00000000    0.00000000
     atom  200 type  1   force =     0.00000000    0.00000000    0.00000000
     atom  201 type  1   force =     0.00000000    0.00000000    0.00000000
     atom  202 type  1   force =     0.00000000    0.00000000    0.00000000
     atom  203 type  1   force =     0.00000000    0.00000000    0.00000000
     atom  204 type  1   force =     0.00000000    0.00000000    0.00000000
     atom  205 type  1   force =     0.00000000    0.00000000    0.00000000
     atom  206 type  1   force =     0.00000000    0.00000000    0.00000000
     atom  207 type  1   force =     0.00000000    0.00000000    0.00000000
     atom  208 type  1   force =     0.00000000    0.00000000    0.00000000
     atom  209 type  1   force =     0.00000000    0.00000000    0.00000000
     atom  210 type  1   force =     0.00000000    0.00000000    0.00000000
     atom  211 type  1   force =     0.00000000    0.00000000    0.00000000
     atom  212 type  1   force =     0.00000000    0.00000000    0.00000000
     atom  213 type  1   force =     0.00000000    0.00000000    0.00000000
     atom  214 type  1   force =     0.00000000    0.00000000    0.00000000
     atom  215 type  1   force =     0.00000000    0.00000000    0.00000000
     atom  216 type  1   force =     0.00000000    0.00000000    0.00000000
     atom  217 type  1   force =     0.00000000    0.00000000    0.00000000
     atom  218 type  1   force =     0.00000000    0.00000000    0.00000000
     atom  219 type  1   force =     0.00000000    0.00000000    0.00000000
     atom  220 type  1   force =     0.00000000    0.00000000    0.00000000
     atom  221 type  1   force =     0.00000000    0.00000000    0.00000000
     atom  222 type  1   force =     0.00000000    0.00000000    0.00000000
     atom  223 type  1   force =     0.00000000    0.00000000    0.00000000
     atom  224 type  1   force =     0.00000000    0.00000000    0.00000000
     atom  225 type  1   force =     0.00000000    0.00000000    0.00000000
     atom  226 type  1   force =     0.00000000    0.00000000    0.00000000
     atom  227 type  1   force =     0.00000000    0.00000000    0.00000000
     atom  228 type  1   force =     0.00000000    0.00000000    0.00000000
     atom  229 type  1   force =     0.00000000    0.00000000    0.00000000
     atom  230 type  1   force =     0.00000000    0.00000000    0.00000000
     atom  231 type  1   force =     0.00000000    0.00000000    0.00000000
     atom  232 type  1   force =     0.00000000    0.00000000    0.00000000
     atom  233 type  1   force =     0.00000000    0.00000000    0.00000000
     atom  234 type  1   force =     0.00000000    0.00000000    0.00000000
     atom  235 type  1   force =     0.00000000    0.00000000    0.00000000
     atom  236 type  1   force =     0.00000000    0.00000000    0.00000000
     atom  237 type  1   force =     0.00000000    0.00000000    0.00000000
     atom  238 type  1   force =     0.00000000    0.00000000    0.00000000
     atom  239 type  1   force =     0.00000000    0.00000000    0.00000000
     atom  240 type  1   force =     0.00000000    0.00000000    0.00000000
     atom  241 type  1   force =     0.00000000    0.00000000    0.00000000
     atom  242 type  1   force =     0.00000000    0.00000000    0.00000000
     atom  243 type  1   force =     0.00000000    0.00000000    0.00000000
     atom  244 type  1   force =     0.00000000    0.00000000    0.00000000
     atom  245 type  1   force =     0.00000000    0.00000000    0.00000000
     atom  246 type  1   force =     0.00000000    0.00000000    0.00000000
     atom  247 type  1   force =     0.00000000    0.00000000    0.00000000
     atom  248 type  1   force =     0.00000000    0.00000000    0.00000000
     atom  249 type  1   force =     0.00000000    0.00000000    0.00000000
     atom  250 type  1   force =     0.00000000    0.00000000    0.00000000
     atom  251 type  1   force =     0.00000000    0.00000000    0.00000000
     atom  252 type  1   force =     0.00000000    0.00000000    0.00000000
     atom  253 type  1   force =     0.00000000    0.00000000    0.00000000
     atom  254 type  1   force =     0.00000000    0.00000000    0.00000000
     atom  255 type  1   force =     0.00000000    0.00000000    0.00000000
     atom  256 type  1   force =     0.00000000    0.00000000    0.00000000
     atom  257 type  1   force =     0.00000000    0.00000000    0.00000000
     atom  258 type  1   force =     0.00000000    0.00000000    0.00000000
     atom  259 type  1   force =     0.00000000    0.00000000    0.00000000
     atom  260 type  1   force =     0.00000000    0.00000000    0.00000000
     atom  261 type  1   force =     0.00000000    0.00000000    0.00000000
     atom  262 type  1   force =     0.00000000    0.00000000    0.00000000
     atom  263 type  1   force =     0.00000000    0.00000000    0.00000000
     atom  264 type  1   force =     0.00000000    0.00000000    0.00000000
     atom  265 type  1   force =     0.00000000    0.00000000    0.00000000
     atom  266 type  1   force =     0.00000000    0.00000000    0.00000000
     atom  267 type  1   force =     0.00000000    0.00000000    0.00000000
     atom  268 type  1   force =     0.00000000    0.00000000    0.00000000
     atom  269 type  1   force =     0.00000000    0.00000000    0.00000000
     atom  270 type  1   force =     0.00000000    0.00000000    0.00000000
     atom  271 type  1   force =     0.00000000    0.00000000    0.00000000
     atom  272 type  1   force =     0.00000000    0.00000000    0.00000000
     atom  273 type  1   force =     0.00000000    0.00000000    0.00000000
     atom  274 type  1   force =     0.00000000    0.00000000    0.00000000
     atom  275 type  1   force =     0.00000000    0.00000000    0.00000000
     atom  276 type  1   force =     0.00000000    0.00000000    0.00000000
     atom  277 type  1   force =     0.00000000    0.00000000    0.00000000
     atom  278 type  1   force =     0.00000000    0.00000000    0.00000000
     atom  279 type  1   force =     0.00000000    0.00000000    0.00000000
     atom  280 type  1   force =     0.00000000    0.00000000    0.00000000
     atom  281 type  1   force =     0.00000000    0.00000000    0.00000000
     atom  282 type  1   force =     0.00000000    0.00000000    0.00000000
     atom  283 type  1   force =     0.00000000    0.00000000    0.00000000
     atom  284 type  1   force =     0.00000000    0.00000000    0.00000000
     atom  285 type  1   force =     0.00000000    0.00000000    0.00000000
     atom  286 type  1   force =     0.00000000    0.00000000    0.00000000
     atom  287 type  1   force =     0.00000000    0.00000000    0.00000000
     atom  288 type  1   force =     0.00000000    0.00000000    0.00000000
     atom  289 type  1   force =     0.00000000    0.00000000    0.00000000
     atom  290 type  1   force =     0.00000000    0.00000000    0.00000000
     atom  291 type  1   force =     0.00000000    0.00000000    0.00000000
     atom  292 type  1   force =     0.00000000    0.00000000    0.00000000
     atom  293 type  1   force =     0.00000000    0.00000000    0.00000000
     atom  294 type  1   force =     0.00000000    0.00000000    0.00000000
     atom  295 type  1   force =     0.00000000    0.00000000    0.00000000
     atom  296 type  1   force =     0.00000000    0.00000000    0.00000000
     atom  297 type  1   force =     0.00000000    0.00000000    0.00000000
     atom  298 type  1   force =     0.00000000    0.00000000    0.00000000
     atom  299 type  1   force =     0.00000000    0.00000000    0.00000000
     atom  300 type  1   force =     0.00000000    0.00000000    0.00000000
     atom  301 type  1   force =     0.00000000    0.00000000    0.00000000
     atom  302 type  1   force =     0.00000000    0.00000000    0.00000000
     atom  303 type  1   force =     0.00000000    0.00000000    0.00000000
     atom  304 type  1   force =     0.00000000    0.00000000    0.00000000
     atom  305 type  1   force =     0.00000000    0.00000000    0.00000000
     atom  306 type  1   force =     0.00000000    0.00000000    0.00000000
     atom  307 type  1   force =     0.00000000    0.00000000    0.00000000
     atom  308 type  1   force =     0.00000000    0.00000000    0.00000000
     atom  309 type  1   force =     0.00000000    0.00000000    0.00000000
     atom  310 type  1   force =     0.00000000    0.00000000    0.00000000
     atom  311 type  1   force =     0.00000000    0.00000000    0.00000000
     atom  312 type  1   force =     0.00000000    0.00000000    0.00000000
     atom  313 type  1   force =     0.00000000    0.00000000    0.00000000
     atom  314 type  1   force =     0.00000000    0.00000000    0.00000000
     atom  315 type  1   force =     0.00000000    0.00000000    0.00000000
     atom  316 type  1   force =     0.00000000    0.00000000    0.00000000
     atom  317 type  1   force =     0.00000000    0.00000000    0.00000000
     atom  318 type  1   force =     0.00000000    0.00000000    0.00000000
     atom  319 type  1   force =     0.00000000    0.00000000    0.00000000
     atom  320 type  1   force =     0.00000000    0.00000000    0.00000000
     atom  321 type  1   force =     0.00000000    0.00000000    0.00000000
     atom  322 type  1   force =     0.00000000    0.00000000    0.00000000
     atom  323 type  1   force =     0.00000000    0.00000000    0.00000000
     atom  324 type  1   force =     0.00000000    0.00000000    0.00000000
     atom  325 type  1   force =     0.00000000    0.00000000    0.00000000
     atom  326 type  1   force =     0.00000000    0.00000000    0.00000000
     atom  327 type  1   force =     0.00000000    0.00000000    0.00000000
     atom  328 type  1   force =     0.00000000    0.00000000    0.00000000
     atom  329 type  1   force =     0.00000000    0.00000000    0.00000000
     atom  330 type  1   force =     0.00000000    0.00000000    0.00000000
     atom  331 type  1   force =     0.00000000    0.00000000    0.00000000
     atom  332 type  1   force =     0.00000000    0.00000000    0.00000000
     atom  333 type  1   force =     0.00000000    0.00000000    0.00000000
     atom  334 type  1   force =     0.00000000    0.00000000    0.00000000
     atom  335 type  1   force =     0.00000000    0.00000000    0.00000000
     atom  336 type  1   force =     0.00000000    0.00000000    0.00000000
     atom  337 type  1   force =     0.00000000    0.00000000    0.00000000
     atom  338 type  1   force =     0.00000000    0.00000000    0.00000000
     atom  339 type  1   force =     0.00000000    0.00000000    0.00000000
     atom  340 type  1   force =     0.00000000    0.00000000    0.00000000
     atom  341 type  1   force =     0.00000000    0.00000000    0.00000000
     atom  342 type  1   force =     0.00000000    0.00000000    0.00000000
     atom  343 type  1   force =     0.00000000    0.00000000    0.00000000
     atom  344 type  1   force =     0.00000000    0.00000000    0.00000000
     atom  345 type  1   force =     0.00000000    0.00000000    0.00000000
     atom  346 type  1   force =     0.00000000    0.00000000    0.00000000
     atom  347 type  1   force =     0.00000000    0.00000000    0.00000000
     atom  348 type  1   force =     0.00000000    0.00000000    0.00000000
     atom  349 type  1   force =     0.00000000    0.00000000    0.00000000
     atom  350 type  1   force =     0.00000000    0.00000000    0.00000000
     atom  351 type  1   force =     0.00000000    0.00000000    0.00000000
     atom  352 type  1   force =     0.00000000    0.00000000    0.00000000
     atom  353 type  1   force =     0.00000000    0.00000000    0.00000000
     atom  354 type  1   force =     0.00000000    0.00000000    0.00000000
     atom  355 type  1   force =     0.00000000    0.00000000    0.00000000
     atom  356 type  1   force =     0.00000000    0.00000000    0.00000000
     atom  357 type  1   force =     0.00000000    0.00000000    0.00000000
     atom  358 type  1   force =     0.00000000    0.00000000    0.00000000
     atom  359 type  1   force =     0.00000000    0.00000000    0.00000000
     atom  360 type  1   force =     0.00000000    0.00000000    0.00000000
     atom  361 type  1   force =     0.00000000    0.00000000    0.00000000
     atom  362 type  1   force =     0.00000000    0.00000000    0.00000000
     atom  363 type  1   force =     0.00000000    0.00000000    0.00000000
     atom  364 type  1   force =     0.00000000    0.00000000    0.00000000
     atom  365 type  1   force =     0.00000000    0.00000000    0.00000000
     atom  366 type  1   force =     0.00000000    0.00000000    0.00000000
     atom  367 type  1   force =     0.00000000    0.00000000    0.00000000
     atom  368 type  1   force =     0.00000000    0.00000000    0.00000000
     atom  369 type  1   force =     0.00000000    0.00000000    0.00000000
     atom  370 type  1   force =     0.00000000    0.00000000    0.00000000
     atom  371 type  1   force =     0.00000000    0.00000000    0.00000000
     atom  372 type  1   force =     0.00000000    0.00000000    0.00000000
     atom  373 type  1   force =     0.00000000    0.00000000    0.00000000
     atom  374 type  1   force =     0.00000000    0.00000000    0.00000000
     atom  375 type  1   force =     0.00000000    0.00000000    0.00000000
     atom  376 type  1   force =     0.00000000    0.00000000    0.00000000
     atom  377 type  1   force =     0.00000000    0.00000000    0.00000000
     atom  378 type  1   force =     0.00000000    0.00000000    0.00000000
     atom  379 type  1   force =     0.00000000    0.00000000    0.00000000
     atom  380 type  1   force =     0.00000000    0.00000000    0.00000000
     atom  381 type  1   force =     0.00000000    0.00000000    0.00000000
     atom  382 type  1   force =     0.00000000    0.00000000    0.00000000
     atom  383 type  1   force =     0.00000000    0.00000000    0.00000000
     atom  384 type  1   force =     0.00000000    0.00000000    0.00000000
     atom  385 type  1   force =     0.00000000    0.00000000    0.00000000
     atom  386 type  1   force =     0.00000000    0.00000000    0.00000000
     atom  387 type  1   force =     0.00000000    0.00000000    0.00000000
     atom  388 type  1   force =     0.00000000    0.00000000    0.00000000
     atom  389 type  1   force =     0.00000000    0.00000000    0.00000000
     atom  390 type  1   force =     0.00000000    0.00000000    0.00000000
     atom  391 type  1   force =     0.00000000    0.00000000    0.00000000
     atom  392 type  1   force =     0.00000000    0.00000000    0.00000000
     atom  393 type  1   force =     0.00000000    0.00000000    0.00000000
     atom  394 type  1   force =     0.00000000    0.00000000    0.00000000
     atom  395 type  1   force =     0.00000000    0.00000000    0.00000000
     atom  396 type  1   force =     0.00000000    0.00000000    0.00000000
     atom  397 type  1   force =     0.00000000    0.00000000    0.00000000
     atom  398 type  1   force =     0.00000000    0.00000000    0.00000000
     atom  399 type  1   force =     0.00000000    0.00000000    0.00000000
     atom  400 type  1   force =     0.00000000    0.00000000    0.00000000
     atom  401 type  1   force =     0.00000000    0.00000000    0.00000000
     atom  402 type  1   force =     0.00000000    0.00000000    0.00000000
     atom  403 type  1   force =     0.00000000    0.00000000    0.00000000
     atom  404 type  1   force =     0.00000000    0.00000000    0.00000000
     atom  405 type  1   force =     0.00000000    0.00000000    0.00000000
     atom  406 type  1   force =     0.00000000    0.00000000    0.00000000
     atom  407 type  1   force =     0.00000000    0.00000000    0.00000000
     atom  408 type  1   force =     0.00000000    0.00000000    0.00000000
     atom  409 type  1   force =     0.00000000    0.00000000    0.00000000
     atom  410 type  1   force =     0.00000000    0.00000000    0.00000000
     atom  411 type  1   force =     0.00000000    0.00000000    0.00000000
     atom  412 type  1   force =     0.00000000    0.00000000    0.00000000
     atom  413 type  1   force =     0.00000000    0.00000000    0.00000000
     atom  414 type  1   force =     0.00000000    0.00000000    0.00000000
     atom  415 type  1   force =     0.00000000    0.00000000    0.00000000
     atom  416 type  1   force =     0.00000000    0.00000000    0.00000000
     atom  417 type  1   force =     0.00000000    0.00000000    0.00000000
     atom  418 type  1   force =     0.00000000    0.00000000    0.00000000
     atom  419 type  1   force =     0.00000000    0.00000000    0.00000000
     atom  420 type  1   force =     0.00000000    0.00000000    0.00000000
     atom  421 type  1   force =     0.00000000    0.00000000    0.00000000
     atom  422 type  1   force =     0.00000000    0.00000000    0.00000000
     atom  423 type  1   force =     0.00000000    0.00000000    0.00000000
     atom  424 type  1   force =     0.00000000    0.00000000    0.00000000
     atom  425 type  1   force =     0.00000000    0.00000000    0.00000000
     atom  426 type  1   force =     0.00000000    0.00000000    0.00000000
     atom  427 type  1   force =     0.00000000    0.00000000    0.00000000
     atom  428 type  1   force =     0.00000000    0.00000000    0.00000000
     atom  429 type  1   force =     0.00000000    0.00000000    0.00000000
     atom  430 type  1   force =     0.00000000    0.00000000    0.00000000
     atom  431 type  1   force =     0.00000000    0.00000000    0.00000000
     atom  432 type  1   force =     0.00000000    0.00000000    0.00000000
     atom  433 type  1   force =     0.00000000    0.00000000    0.00000000
     atom  434 type  1   force =     0.00000000    0.00000000    0.00000000
     atom  435 type  1   force =     0.00000000    0.00000000    0.00000000
     atom  436 type  1   force =     0.00000000    0.00000000    0.00000000
     atom  437 type  1   force =     0.00000000    0.00000000    0.00000000
     atom  438 type  1   force =     0.00000000    0.00000000    0.00000000
     atom  439 type  1   force =     0.00000000    0.00000000    0.00000000
     atom  440 type  1   force =     0.00000000    0.00000000    0.00000000
     atom  441 type  1   force =     0.00000000    0.00000000    0.00000000
     atom  442 type  1   force =     0.00000000    0.00000000    0.00000000
     atom  443 type  1   force =     0.00000000    0.00000000    0.00000000
     atom  444 type  1   force =     0.00000000    0.00000000    0.00000000
     atom  445 type  1   force =     0.00000000    0.00000000    0.00000000
     atom  446 type  1   force =     0.00000000    0.00000000    0.00000000
     atom  447 type  1   force =     0.00000000    0.00000000    0.00000000
     atom  448 type  1   force =     0.00000000    0.00000000    0.00000000
     atom  449 type  1   force =     0.00000000    0.00000000    0.00000000
     atom  450 type  1   force =     0.00000000    0.00000000    0.00000000
     atom  451 type  1   force =     0.00000000    0.00000000    0.00000000
     atom  452 type  1   force =     0.00000000    0.00000000    0.00000000
     atom  453 type  1   force =     0.00000000    0.00000000    0.00000000
     atom  454 type  1   force =     0.00000000    0.00000000    0.00000000
     atom  455 type  1   force =     0.00000000    0.00000000    0.00000000
     atom  456 type  1   force =     0.00000000    0.00000000    0.00000000
     atom  457 type  1   force =     0.00000000    0.00000000    0.00000000
     atom  458 type  1   force =     0.00000000    0.00000000    0.00000000
     atom  459 type  1   force =     0.00000000    0.00000000    0.00000000
     atom  460 type  1   force =     0.00000000    0.00000000    0.00000000
     atom  461 type  1   force =     0.00000000    0.00000000    0.00000000
     atom  462 type  1   force =     0.00000000    0.00000000    0.00000000
     atom  463 type  1   force =     0.00000000    0.00000000    0.00000000
     atom  464 type  1   force =     0.00000000    0.00000000    0.00000000
     atom  465 type  1   force =     0.00000000    0.00000000    0.00000000
     atom  466 type  1   force =     0.00000000    0.00000000    0.00000000
     atom  467 type  1   force =     0.00000000    0.00000000    0.00000000
     atom  468 type  1   force =     0.00000000    0.00000000    0.00000000
     atom  469 type  1   force =     0.00000000    0.00000000    0.00000000
     atom  470 type  1   force =     0.00000000    0.00000000    0.00000000
     atom  471 type  1   force =     0.00000000    0.00000000    0.00000000
     atom  472 type  1   force =     0.00000000    0.00000000    0.00000000
     atom  473 type  1   force =     0.00000000    0.00000000    0.00000000
     atom  474 type  1   force =     0.00000000    0.00000000    0.00000000
     atom  475 type  1   force =     0.00000000    0.00000000    0.00000000
     atom  476 type  1   force =     0.00000000    0.00000000    0.00000000
     atom  477 type  1   force =     0.00000000    0.00000000    0.00000000
     atom  478 type  1   force =     0.00000000    0.00000000    0.00000000
     atom  479 type  1   force =     0.00000000    0.00000000    0.00000000
     atom  480 type  1   force =     0.00000000    0.00000000    0.00000000
     atom  481 type  1   force =     0.00000000    0.00000000    0.00000000
     atom  482 type  1   force =     0.00000000    0.00000000    0.00000000
     atom  483 type  1   force =     0.00000000    0.00000000    0.00000000
     atom  484 type  1   force =     0.00000000    0.00000000    0.00000000
     atom  485 type  1   force =     0.00000000    0.00000000    0.00000000
     atom  486 type  1   force =     0.00000000    0.00000000    0.00000000
     atom  487 type  1   force =     0.00000000    0.00000000    0.00000000
     atom  488 type  1   force =     0.00000000    0.00000000    0.00000000
     atom  489 type  1   force =     0.00000000    0.00000000    0.00000000
     atom  490 type  1   force =     0.00000000    0.00000000    0.00000000
     atom  491 type  1   force =     0.00000000    0.00000000    0.00000000
     atom  492 type  1   force =     0.00000000    0.00000000    0.00000000
     atom  493 type  1   force =     0.00000000    0.00000000    0.00000000
     atom  494 type  1   force =     0.00000000    0.00000000    0.00000000
     atom  495 type  1   force =     0.00000000    0.00000000    0.00000000
     atom  496 type  1   force =     0.00000000    0.00000000    0.00000000
     atom  497 type  1   force =     0.00000000    0.00000000    0.00000000
     atom  498 type  1   force =     0.00000000    0.00000000    0.00000000
     atom  499 type  1   force =     0.00000000    0.00000000    0.00000000
     atom  500 type  1   force =     0.00000000    0.00000000    0.00000000
     atom  501 type  1   force =     0.00000000    0.00000000    0.00000000
     atom  502 type  1   force =     0.00000000    0.00000000    0.00000000
     atom  503 type  1   force =     0.00000000    0.00000000    0.00000000
     atom  504 type  1   force =     0.00000000    0.00000000    0.00000000
     atom  505 type  1   force =     0.00000000    0.00000000    0.00000000
     atom  506 type  1   force =     0.00000000    0.00000000    0.00000000
     atom  507 type  1   force =     0.00000000    0.00000000    0.00000000
     atom  508 type  1   force =     0.00000000    0.00000000    0.00000000
     atom  509 type  1   force =     0.00000000    0.00000000    0.00000000
     atom  510 type  1   force =     0.00000000    0.00000000    0.00000000
     atom  511 type  2   force =     0.00000000    0.00000000    0.00000000
     The SCF correction term to forces
     atom    1 type  1   force =     0.00000001   -0.00000020   -0.00000011
     atom    2 type  1   force =    -0.00000014   -0.00000026   -0.00000040
     atom    3 type  1   force =     0.00000023    0.00000013    0.00000015
     atom    4 type  1   force =     0.00000031    0.00000011    0.00000029
     atom    5 type  1   force =    -0.00000009   -0.00000045   -0.00000018
     atom    6 type  1   force =     0.00000038   -0.00000004    0.00000009
     atom    7 type  1   force =     0.00000023   -0.00000012    0.00000018
     atom    8 type  1   force =    -0.00000019   -0.00000047   -0.00000005
     atom    9 type  1   force =     0.00000025    0.00000021    0.00000017
     atom   10 type  1   force =     0.00000022    0.00000016   -0.00000000
     atom   11 type  1   force =     0.00000001    0.00000007   -0.00000009
     atom   12 type  1   force =     0.00000008    0.00000004   -0.00000009
     atom   13 type  1   force =     0.00000020    0.00000039    0.00000007
     atom   14 type  1   force =    -0.00000020    0.00000013   -0.00000032
     atom   15 type  1   force =    -0.00000010   -0.00000004    0.00000003
     atom   16 type  1   force =     0.00000016    0.00000030    0.00000025
     atom   17 type  1   force =    -0.00000079   -0.00000024   -0.00000016
     atom   18 type  1   force =    -0.00000014    0.00000010    0.00000013
     atom   19 type  1   force =    -0.00000010   -0.00000003    0.00000019
     atom   20 type  1   force =    -0.00000070   -0.00000038   -0.00000017
     atom   21 type  1   force =     0.00000002    0.00000022    0.00000025
     atom   22 type  1   force =     0.00000001    0.00000007    0.00000010
     atom   23 type  1   force =    -0.00000020   -0.00000033   -0.00000017
     atom   24 type  1   force =    -0.00000021   -0.00000017   -0.00000000
     atom   25 type  1   force =    -0.00000014    0.00000008    0.00000011
     atom   26 type  1   force =    -0.00000009   -0.00000015   -0.00000028
     atom   27 type  1   force =    -0.00000015    0.00000005   -0.00000008
     atom   28 type  1   force =     0.00000005    0.00000026    0.00000019
     atom   29 type  1   force =    -0.00000053   -0.00000000   -0.00000022
     atom   30 type  1   force =    -0.00000011    0.00000003   -0.00000015
     atom   31 type  1   force =     0.00000012    0.00000024    0.00000022
     atom   32 type  1   force =    -0.00000007    0.00000023    0.00000007
     atom   33 type  1   force =     0.00000011    0.00000025    0.00000025
     atom   34 type  1   force =     0.00000008    0.00000007    0.00000019
     atom   35 type  1   force =    -0.00000019   -0.00000017   -0.00000007
     atom   36 type  1   force =    -0.00000002   -0.00000001   -0.00000036
     atom   37 type  1   force =     0.00000020    0.00000009    0.00000012
     atom   38 type  1   force =    -0.00000007   -0.00000006   -0.00000016
     atom   39 type  1   force =    -0.00000003   -0.00000020   -0.00000011
     atom   40 type  1   force =     0.00000010    0.00000014    0.00000007
     atom   41 type  1   force =    -0.00000013   -0.00000020    0.00000011
     atom   42 type  1   force =    -0.00000001   -0.00000001   -0.00000008
     atom   43 type  1   force =     0.00000010    0.00000019    0.00000005
     atom   44 type  1   force =    -0.00000010   -0.00000018    0.00000018
     atom   45 type  1   force =     0.00000012   -0.00000002    0.00000026
     atom   46 type  1   force =     0.00000013    0.00000019    0.00000006
     atom   47 type  1   force =    -0.00000039   -0.00000018   -0.00000046
     atom   48 type  1   force =     0.00000068    0.00000020    0.00000015
     atom   49 type  1   force =     0.00000018   -0.00000025   -0.00000028
     atom   50 type  1   force =     0.00000005   -0.00000013    0.00000002
     atom   51 type  1   force =     0.00000042    0.00000011    0.00000009
     atom   52 type  1   force =    -0.00000011   -0.00000039   -0.00000031
     atom   53 type  1   force =    -0.00000018   -0.00000016   -0.00000013
     atom   54 type  1   force =    -0.00000002    0.00000005    0.00000014
     atom   55 type  1   force =     0.00000025    0.00000011    0.00000023
     atom   56 type  1   force =    -0.00000006   -0.00000008    0.00000007
     atom   57 type  1   force =    -0.00000013    0.00000018    0.00000016
     atom   58 type  1   force =     0.00000005    0.00000033    0.00000012
     atom   59 type  1   force =    -0.00000010   -0.00000023   -0.00000026
     atom   60 type  1   force =     0.00000044    0.00000025    0.00000027
     atom   61 type  1   force =     0.00000020    0.00000024    0.00000024
     atom   62 type  1   force =    -0.00000017   -0.00000016   -0.00000022
     atom   63 type  1   force =     0.00000017   -0.00000005   -0.00000031
     atom   64 type  1   force =     0.00000008   -0.00000032   -0.00000017
     atom   65 type  1   force =     0.00000026    0.00000020    0.00000002
     atom   66 type  1   force =     0.00000016    0.00000017    0.00000038
     atom   67 type  1   force =    -0.00000022   -0.00000025   -0.00000024
     atom   68 type  1   force =     0.00000033    0.00000009    0.00000029
     atom   69 type  1   force =     0.00000030    0.00000001   -0.00000006
     atom   70 type  1   force =     0.00000004   -0.00000026   -0.00000002
     atom   71 type  1   force =    -0.00000004   -0.00000027   -0.00000023
     atom   72 type  1   force =     0.00000009    0.00000031    0.00000020
     atom   73 type  1   force =    -0.00000010   -0.00000008   -0.00000021
     atom   74 type  1   force =    -0.00000007    0.00000005   -0.00000004
     atom   75 type  1   force =     0.00000030    0.00000041   -0.00000001
     atom   76 type  1   force =    -0.00000028   -0.00000010   -0.00000008
     atom   77 type  1   force =    -0.00000015   -0.00000018   -0.00000036
     atom   78 type  1   force =     0.00000020    0.00000008    0.00000039
     atom   79 type  1   force =     0.00000042    0.00000013    0.00000012
     atom   80 type  1   force =    -0.00000025    0.00000018    0.00000030
     atom   81 type  1   force =    -0.00000007    0.00000010   -0.00000007
     atom   82 type  1   force =    -0.00000031   -0.00000039   -0.00000008
     atom   83 type  1   force =    -0.00000050   -0.00000016   -0.00000013
     atom   84 type  1   force =     0.00000003    0.00000007    0.00000014
     atom   85 type  1   force =    -0.00000015   -0.00000029   -0.00000049
     atom   86 type  1   force =    -0.00000017   -0.00000009   -0.00000004
     atom   87 type  1   force =     0.00000004    0.00000014    0.00000028
     atom   88 type  1   force =    -0.00000013   -0.00000016   -0.00000021
     atom   89 type  1   force =    -0.00000000   -0.00000009   -0.00000018
     atom   90 type  1   force =     0.00000013    0.00000031    0.00000030
     atom   91 type  1   force =    -0.00000017    0.00000014    0.00000017
     atom   92 type  1   force =    -0.00000043   -0.00000013   -0.00000006
     atom   93 type  1   force =     0.00000006    0.00000028    0.00000007
     atom   94 type  1   force =    -0.00000018    0.00000021    0.00000020
     atom   95 type  1   force =    -0.00000087   -0.00000013   -0.00000022
     atom   96 type  1   force =     0.00000010    0.00000030    0.00000024
     atom   97 type  1   force =    -0.00000016   -0.00000015   -0.00000014
     atom   98 type  1   force =    -0.00000015   -0.00000018   -0.00000017
     atom   99 type  1   force =     0.00000026    0.00000036    0.00000001
     atom  100 type  1   force =    -0.00000014   -0.00000019   -0.00000002
     atom  101 type  1   force =     0.00000001   -0.00000019   -0.00000035
     atom  102 type  1   force =     0.00000039   -0.00000012    0.00000033
     atom  103 type  1   force =     0.00000008   -0.00000002    0.00000007
     atom  104 type  1   force =    -0.00000013   -0.00000009    0.00000011
     atom  105 type  1   force =     0.00000030    0.00000043   -0.00000011
     atom  106 type  1   force =    -0.00000023    0.00000047    0.00000025
     atom  107 type  1   force =    -0.00000019   -0.00000013   -0.00000026
     atom  108 type  1   force =     0.00000013   -0.00000007    0.00000036
     atom  109 type  1   force =     0.00000012   -0.00000007    0.00000024
     atom  110 type  1   force =    -0.00000018   -0.00000020   -0.00000029
     atom  111 type  1   force =    -0.00000022   -0.00000015   -0.00000023
     atom  112 type  1   force =     0.00000010   -0.00000019   -0.00000027
     atom  113 type  1   force =    -0.00000003   -0.00000018   -0.00000021
     atom  114 type  1   force =     0.00000026   -0.00000001    0.00000023
     atom  115 type  1   force =     0.00000051    0.00000020    0.00000024
     atom  116 type  1   force =    -0.00000025   -0.00000002   -0.00000010
     atom  117 type  1   force =    -0.00000017    0.00000026    0.00000005
     atom  118 type  1   force =    -0.00000004    0.00000016    0.00000029
     atom  119 type  1   force =    -0.00000014   -0.00000038   -0.00000019
     atom  120 type  1   force =     0.00000009    0.00000011    0.00000008
     atom  121 type  1   force =    -0.00000008    0.00000017    0.00000017
     atom  122 type  1   force =     0.00000013   -0.00000012   -0.00000019
     atom  123 type  1   force =     0.00000005   -0.00000008   -0.00000009
     atom  124 type  1   force =     0.00000065    0.00000023    0.00000017
     atom  125 type  1   force =    -0.00000001   -0.00000028   -0.00000030
     atom  126 type  1   force =     0.00000003   -0.00000009   -0.00000002
     atom  127 type  1   force =     0.00000057    0.00000020    0.00000014
     atom  128 type  1   force =    -0.00000010   -0.00000007   -0.00000017
     atom  129 type  1   force =     0.00000046    0.00000016   -0.00000002
     atom  130 type  1   force =     0.00000049   -0.00000002    0.00000036
     atom  131 type  1   force =    -0.00000005   -0.00000047   -0.00000022
     atom  132 type  1   force =     0.00000035   -0.00000007    0.00000028
     atom  133 type  1   force =     0.00000029   -0.00000015   -0.00000017
     atom  134 type  1   force =    -0.00000016   -0.00000028   -0.00000004
     atom  135 type  1   force =    -0.00000000   -0.00000024   -0.00000013
     atom  136 type  1   force =     0.00000041   -0.00000004    0.00000009
     atom  137 type  1   force =     0.00000001   -0.00000007   -0.00000019
     atom  138 type  1   force =    -0.00000005    0.00000002   -0.00000005
     atom  139 type  1   force =     0.00000045    0.00000028    0.00000015
     atom  140 type  1   force =    -0.00000005    0.00000014   -0.00000024
     atom  141 type  1   force =     0.00000001    0.00000000   -0.00000017
     atom  142 type  1   force =     0.00000029    0.00000026    0.00000027
     atom  143 type  1   force =     0.00000024    0.00000047    0.00000021
     atom  144 type  1   force =    -0.00000024    0.00000007    0.00000043
     atom  145 type  1   force =    -0.00000024    0.00000006    0.00000008
     atom  146 type  1   force =    -0.00000040   -0.00000016   -0.00000020
     atom  147 type  1   force =    -0.00000059   -0.00000014   -0.00000029
     atom  148 type  1   force =    -0.00000028    0.00000019    0.00000021
     atom  149 type  1   force =    -0.00000047   -0.00000019   -0.00000041
     atom  150 type  1   force =    -0.00000027   -0.00000024   -0.00000005
     atom  151 type  1   force =    -0.00000013    0.00000021    0.00000011
     atom  152 type  1   force =    -0.00000047   -0.00000014   -0.00000001
     atom  153 type  1   force =    -0.00000035   -0.00000001   -0.00000033
     atom  154 type  1   force =    -0.00000024    0.00000049    0.00000031
     atom  155 type  1   force =    -0.00000036    0.00000005    0.00000007
     atom  156 type  1   force =    -0.00000034   -0.00000019    0.00000003
     atom  157 type  1   force =     0.00000005    0.00000010    0.00000015
     atom  158 type  1   force =    -0.00000009    0.00000008    0.00000018
     atom  159 type  1   force =    -0.00000066   -0.00000015   -0.00000025
     atom  160 type  1   force =     0.00000032    0.00000011    0.00000038
     atom  161 type  1   force =    -0.00000016   -0.00000017   -0.00000022
     atom  162 type  1   force =    -0.00000004   -0.00000014   -0.00000003
     atom  163 type  1   force =     0.00000043    0.00000033   -0.00000014
     atom  164 type  1   force =    -0.00000011   -0.00000013   -0.00000018
     atom  165 type  1   force =    -0.00000016    0.00000002   -0.00000017
     atom  166 type  1   force =     0.00000016    0.00000017    0.00000020
     atom  167 type  1   force =     0.00000032    0.00000008    0.00000026
     atom  168 type  1   force =    -0.00000001   -0.00000008    0.00000005
     atom  169 type  1   force =     0.00000037    0.00000025   -0.00000013
     atom  170 type  1   force =     0.00000045   -0.00000010    0.00000024
     atom  171 type  1   force =    -0.00000000   -0.00000024   -0.00000024
     atom  172 type  1   force =     0.00000016    0.00000003    0.00000018
     atom  173 type  1   force =     0.00000009    0.00000000    0.00000017
     atom  174 type  1   force =    -0.00000013   -0.00000001   -0.00000033
     atom  175 type  1   force =     0.00000008   -0.00000015   -0.00000007
     atom  176 type  1   force =    -0.00000004   -0.00000035   -0.00000010
     atom  177 type  1   force =    -0.00000012   -0.00000021   -0.00000033
     atom  178 type  1   force =     0.00000005    0.00000008    0.00000040
     atom  179 type  1   force =     0.00000022    0.00000023    0.00000011
     atom  180 type  1   force =    -0.00000007   -0.00000032   -0.00000020
     atom  181 type  1   force =     0.00000028   -0.00000010    0.00000004
     atom  182 type  1   force =     0.00000027   -0.00000013    0.00000034
     atom  183 type  1   force =    -0.00000015   -0.00000054   -0.00000016
     atom  184 type  1   force =     0.00000007    0.00000027    0.00000016
     atom  185 type  1   force =     0.00000004    0.00000033    0.00000009
     atom  186 type  1   force =    -0.00000027    0.00000011   -0.00000012
     atom  187 type  1   force =    -0.00000009   -0.00000012   -0.00000015
     atom  188 type  1   force =     0.00000036    0.00000050    0.00000007
     atom  189 type  1   force =    -0.00000018   -0.00000001   -0.00000026
     atom  190 type  1   force =    -0.00000006   -0.00000011    0.00000000
     atom  191 type  1   force =     0.00000036    0.00000037    0.00000015
     atom  192 type  1   force =    -0.00000009   -0.00000034   -0.00000001
     atom  193 type  1   force =     0.00000035    0.00000012   -0.00000004
     atom  194 type  1   force =     0.00000031    0.00000004    0.00000002
     atom  195 type  1   force =    -0.00000018   -0.00000039   -0.00000007
     atom  196 type  1   force =     0.00000055    0.00000015    0.00000020
     atom  197 type  1   force =     0.00000037   -0.00000006   -0.00000004
     atom  198 type  1   force =    -0.00000010   -0.00000011   -0.00000007
     atom  199 type  1   force =    -0.00000001   -0.00000009   -0.00000005
     atom  200 type  1   force =     0.00000045    0.00000022   -0.00000004
     atom  201 type  1   force =    -0.00000006   -0.00000011   -0.00000016
     atom  202 type  1   force =    -0.00000004   -0.00000010   -0.00000003
     atom  203 type  1   force =     0.00000024    0.00000026    0.00000019
     atom  204 type  1   force =    -0.00000003   -0.00000010   -0.00000041
     atom  205 type  1   force =    -0.00000003   -0.00000002   -0.00000024
     atom  206 type  1   force =     0.00000046    0.00000021    0.00000032
     atom  207 type  1   force =     0.00000033    0.00000034    0.00000037
     atom  208 type  1   force =    -0.00000019    0.00000038    0.00000022
     atom  209 type  1   force =    -0.00000031    0.00000022    0.00000016
     atom  210 type  1   force =    -0.00000028   -0.00000026   -0.00000011
     atom  211 type  1   force =    -0.00000029   -0.00000004   -0.00000025
     atom  212 type  1   force =    -0.00000035   -0.00000002    0.00000019
     atom  213 type  1   force =    -0.00000047   -0.00000024   -0.00000024
     atom  214 type  1   force =    -0.00000036   -0.00000018   -0.00000026
     atom  215 type  1   force =    -0.00000008    0.00000007    0.00000023
     atom  216 type  1   force =    -0.00000058   -0.00000008    0.00000005
     atom  217 type  1   force =    -0.00000025   -0.00000010   -0.00000005
     atom  218 type  1   force =    -0.00000010    0.00000039    0.00000022
     atom  219 type  1   force =    -0.00000019    0.00000024   -0.00000012
     atom  220 type  1   force =    -0.00000060   -0.00000030   -0.00000002
     atom  221 type  1   force =    -0.00000021    0.00000012    0.00000016
     atom  222 type  1   force =    -0.00000007    0.00000008    0.00000012
     atom  223 type  1   force =    -0.00000062   -0.00000027   -0.00000034
     atom  224 type  1   force =     0.00000038    0.00000050    0.00000005
     atom  225 type  1   force =    -0.00000011   -0.00000010   -0.00000010
     atom  226 type  1   force =    -0.00000016   -0.00000012   -0.00000004
     atom  227 type  1   force =     0.00000024    0.00000009    0.00000009
     atom  228 type  1   force =     0.00000002   -0.00000033   -0.00000006
     atom  229 type  1   force =    -0.00000012    0.00000000   -0.00000001
     atom  230 type  1   force =     0.00000029    0.00000004    0.00000010
     atom  231 type  1   force =     0.00000027    0.00000006    0.00000006
     atom  232 type  1   force =     0.00000008   -0.00000007    0.00000018
     atom  233 type  1   force =     0.00000009    0.00000007    0.00000026
     atom  234 type  1   force =     0.00000037    0.00000039   -0.00000028
     atom  235 type  1   force =    -0.00000009   -0.00000019   -0.00000027
     atom  236 type  1   force =     0.00000042   -0.00000009    0.00000031
     atom  237 type  1   force =     0.00000019    0.00000004    0.00000021
     atom  238 type  1   force =    -0.00000024   -0.00000034   -0.00000013
     atom  239 type  1   force =     0.00000009    0.00000004   -0.00000040
     atom  240 type  1   force =    -0.00000015   -0.00000023   -0.00000031
     atom  241 type  1   force =    -0.00000003   -0.00000032   -0.00000020
     atom  242 type  1   force =     0.00000018    0.00000011    0.00000024
     atom  243 type  1   force =     0.00000030    0.00000005    0.00000034
     atom  244 type  1   force =    -0.00000022   -0.00000020   -0.00000016
     atom  245 type  1   force =     0.00000020    0.00000014    0.00000005
     atom  246 type  1   force =     0.00000014    0.00000016    0.00000017
     atom  247 type  1   force =    -0.00000019   -0.00000035   -0.00000006
     atom  248 type  1   force =     0.00000014    0.00000038    0.00000023
     atom  249 type  1   force =     0.00000021    0.00000022    0.00000009
     atom  250 type  1   force =    -0.00000024   -0.00000010   -0.00000003
     atom  251 type  1   force =    -0.00000000    0.00000007   -0.00000029
     atom  252 type  1   force =     0.00000022    0.00000013    0.00000030
     atom  253 type  1   force =     0.00000001   -0.00000003   -0.00000046
     atom  254 type  1   force =    -0.00000011   -0.00000019   -0.00000007
     atom  255 type  1   force =     0.00000024    0.00000017    0.00000017
     atom  256 type  1   force =    -0.00000001    0.00000012    0.00000010
     atom  257 type  1   force =     0.00000027    0.00000014    0.00000012
     atom  258 type  1   force =    -0.00000016   -0.00000043   -0.00000002
     atom  259 type  1   force =    -0.00000046   -0.00000041   -0.00000014
     atom  260 type  1   force =     0.00000025    0.00000004    0.00000021
     atom  261 type  1   force =    -0.00000002   -0.00000033   -0.00000031
     atom  262 type  1   force =    -0.00000015   -0.00000024   -0.00000000
     atom  263 type  1   force =     0.00000030    0.00000011    0.00000011
     atom  264 type  1   force =     0.00000012   -0.00000020   -0.00000018
     atom  265 type  1   force =    -0.00000011   -0.00000011   -0.00000022
     atom  266 type  1   force =     0.00000015    0.00000023    0.00000018
     atom  267 type  1   force =     0.00000031    0.00000019    0.00000018
     atom  268 type  1   force =    -0.00000013    0.00000000   -0.00000028
     atom  269 type  1   force =     0.00000023    0.00000023    0.00000010
     atom  270 type  1   force =     0.00000020    0.00000042    0.00000022
     atom  271 type  1   force =    -0.00000028    0.00000011   -0.00000019
     atom  272 type  1   force =     0.00000001    0.00000023    0.00000033
     atom  273 type  1   force =    -0.00000022   -0.00000011   -0.00000009
     atom  274 type  1   force =    -0.00000031   -0.00000021   -0.00000036
     atom  275 type  1   force =    -0.00000002    0.00000029    0.00000009
     atom  276 type  1   force =    -0.00000022   -0.00000020   -0.00000004
     atom  277 type  1   force =    -0.00000023   -0.00000020   -0.00000036
     atom  278 type  1   force =     0.00000016   -0.00000012    0.00000023
     atom  279 type  1   force =    -0.00000009    0.00000008    0.00000024
     atom  280 type  1   force =    -0.00000028    0.00000002   -0.00000008
     atom  281 type  1   force =    -0.00000006    0.00000050    0.00000004
     atom  282 type  1   force =    -0.00000038   -0.00000007    0.00000008
     atom  283 type  1   force =    -0.00000004   -0.00000006    0.00000025
     atom  284 type  1   force =     0.00000016    0.00000011    0.00000018
     atom  285 type  1   force =    -0.00000036   -0.00000028   -0.00000026
     atom  286 type  1   force =    -0.00000046   -0.00000024   -0.00000008
     atom  287 type  1   force =     0.00000019   -0.00000022    0.00000000
     atom  288 type  1   force =    -0.00000010   -0.00000018   -0.00000026
     atom  289 type  1   force =     0.00000031   -0.00000002    0.00000010
     atom  290 type  1   force =     0.00000064    0.00000044    0.00000005
     atom  291 type  1   force =    -0.00000026   -0.00000007   -0.00000015
     atom  292 type  1   force =    -0.00000012    0.00000011    0.00000014
     atom  293 type  1   force =     0.00000021    0.00000020    0.00000021
     atom  294 type  1   force =    -0.00000005   -0.00000036    0.00000000
     atom  295 type  1   force =     0.00000005   -0.00000001    0.00000020
     atom  296 type  1   force =     0.00000010    0.00000041   -0.00000003
     atom  297 type  1   force =     0.00000004   -0.00000021   -0.00000029
     atom  298 type  1   force =     0.00000003   -0.00000012    0.00000007
     atom  299 type  1   force =     0.00000029    0.00000023    0.00000024
     atom  300 type  1   force =    -0.00000014   -0.00000041   -0.00000017
     atom  301 type  1   force =     0.00000007    0.00000001   -0.00000038
     atom  302 type  1   force =     0.00000053    0.00000012    0.00000022
     atom  303 type  1   force =    -0.00000016   -0.00000040   -0.00000039
     atom  304 type  1   force =     0.00000007    0.00000020   -0.00000001
     atom  305 type  1   force =     0.00000018    0.00000022    0.00000044
     atom  306 type  1   force =    -0.00000014    0.00000002   -0.00000017
     atom  307 type  1   force =     0.00000028   -0.00000003    0.00000019
     atom  308 type  1   force =     0.00000029   -0.00000009    0.00000008
     atom  309 type  1   force =     0.00000005   -0.00000049    0.00000002
     atom  310 type  1   force =    -0.00000022   -0.00000056   -0.00000034
     atom  311 type  1   force =     0.00000023    0.00000023    0.00000019
     atom  312 type  1   force =    -0.00000003   -0.00000002   -0.00000015
     atom  313 type  1   force =    -0.00000007    0.00000017   -0.00000012
     atom  314 type  1   force =     0.00000015    0.00000026    0.00000008
     atom  315 type  1   force =    -0.00000005    0.00000017   -0.00000021
     atom  316 type  1   force =    -0.00000013   -0.00000009   -0.00000015
     atom  317 type  1   force =     0.00000011    0.00000013    0.00000030
     atom  318 type  1   force =     0.00000026    0.00000023    0.00000017
     atom  319 type  1   force =     0.00000003   -0.00000022   -0.00000010
     atom  320 type  1   force =     0.00000038    0.00000017   -0.00000007
     atom  321 type  1   force =     0.00000048    0.00000020    0.00000038
     atom  322 type  1   force =     0.00000001   -0.00000025   -0.00000003
     atom  323 type  1   force =     0.00000039   -0.00000010    0.00000021
     atom  324 type  1   force =     0.00000039   -0.00000006   -0.00000006
     atom  325 type  1   force =    -0.00000008   -0.00000024    0.00000005
     atom  326 type  1   force =    -0.00000013   -0.00000043   -0.00000019
     atom  327 type  1   force =     0.00000041    0.00000020    0.00000023
     atom  328 type  1   force =    -0.00000004   -0.00000007   -0.00000018
     atom  329 type  1   force =    -0.00000010   -0.00000004   -0.00000007
     atom  330 type  1   force =     0.00000027    0.00000021    0.00000005
     atom  331 type  1   force =    -0.00000005    0.00000011   -0.00000020
     atom  332 type  1   force =    -0.00000017   -0.00000010   -0.00000043
     atom  333 type  1   force =     0.00000029    0.00000010    0.00000022
     atom  334 type  1   force =     0.00000037    0.00000037    0.00000030
     atom  335 type  1   force =    -0.00000047    0.00000022    0.00000025
     atom  336 type  1   force =    -0.00000023    0.00000020    0.00000012
     atom  337 type  1   force =    -0.00000040   -0.00000031    0.00000003
     atom  338 type  1   force =    -0.00000071   -0.00000028   -0.00000030
     atom  339 type  1   force =    -0.00000016    0.00000017    0.00000017
     atom  340 type  1   force =    -0.00000045   -0.00000032   -0.00000031
     atom  341 type  1   force =    -0.00000042   -0.00000033   -0.00000010
     atom  342 type  1   force =    -0.00000024    0.00000004    0.00000028
     atom  343 type  1   force =    -0.00000047   -0.00000002   -0.00000007
     atom  344 type  1   force =    -0.00000032   -0.00000001   -0.00000037
     atom  345 type  1   force =    -0.00000008    0.00000024    0.00000018
     atom  346 type  1   force =    -0.00000027    0.00000025    0.00000013
     atom  347 type  1   force =    -0.00000068   -0.00000024   -0.00000011
     atom  348 type  1   force =    -0.00000018    0.00000021   -0.00000002
     atom  349 type  1   force =    -0.00000014    0.00000021    0.00000029
     atom  350 type  1   force =    -0.00000071   -0.00000004   -0.00000014
     atom  351 type  1   force =     0.00000018    0.00000037    0.00000032
     atom  352 type  1   force =    -0.00000004   -0.00000014   -0.00000007
     atom  353 type  1   force =    -0.00000022   -0.00000019   -0.00000007
     atom  354 type  1   force =     0.00000021    0.00000018   -0.00000007
     atom  355 type  1   force =     0.00000007   -0.00000018   -0.00000015
     atom  356 type  1   force =    -0.00000011   -0.00000013   -0.00000029
     atom  357 type  1   force =     0.00000032    0.00000007    0.00000016
     atom  358 type  1   force =     0.00000028    0.00000008    0.00000006
     atom  359 type  1   force =    -0.00000007   -0.00000014    0.00000011
     atom  360 type  1   force =     0.00000032    0.00000020    0.00000002
     atom  361 type  1   force =    -0.00000008   -0.00000012   -0.00000025
     atom  362 type  1   force =     0.00000012   -0.00000008    0.00000033
     atom  363 type  1   force =     0.00000022   -0.00000010    0.00000021
     atom  364 type  1   force =    -0.00000010   -0.00000018   -0.00000020
     atom  365 type  1   force =    -0.00000011   -0.00000016   -0.00000037
     atom  366 type  1   force =     0.00000024   -0.00000017   -0.00000017
     atom  367 type  1   force =    -0.00000009   -0.00000033   -0.00000038
     atom  368 type  1   force =     0.00000016    0.00000010    0.00000024
     atom  369 type  1   force =     0.00000039    0.00000022    0.00000020
     atom  370 type  1   force =    -0.00000025   -0.00000037   -0.00000031
     atom  371 type  1   force =     0.00000013    0.00000000   -0.00000004
     atom  372 type  1   force =     0.00000009    0.00000003    0.00000036
     atom  373 type  1   force =    -0.00000004   -0.00000044   -0.00000001
     atom  374 type  1   force =     0.00000008    0.00000010    0.00000019
     atom  375 type  1   force =     0.00000002    0.00000023    0.00000018
     atom  376 type  1   force =    -0.00000019    0.00000009    0.00000002
     atom  377 type  1   force =    -0.00000008   -0.00000007   -0.00000032
     atom  378 type  1   force =     0.00000050    0.00000036    0.00000021
     atom  379 type  1   force =     0.00000002    0.00000006   -0.00000029
     atom  380 type  1   force =    -0.00000014   -0.00000016    0.00000002
     atom  381 type  1   force =     0.00000052    0.00000032    0.00000015
     atom  382 type  1   force =     0.00000036   -0.00000004    0.00000007
     atom  383 type  1   force =     0.00000034    0.00000003    0.00000007
     atom  384 type  1   force =    -0.00000021   -0.00000025    0.00000014
     atom  385 type  1   force =    -0.00000014   -0.00000042   -0.00000019
     atom  386 type  1   force =     0.00000039    0.00000020    0.00000019
     atom  387 type  1   force =     0.00000008    0.00000006   -0.00000013
     atom  388 type  1   force =    -0.00000003   -0.00000014   -0.00000008
     atom  389 type  1   force =     0.00000043    0.00000011    0.00000004
     atom  390 type  1   force =    -0.00000018    0.00000016   -0.00000011
     atom  391 type  1   force =    -0.00000008   -0.00000009   -0.00000019
     atom  392 type  1   force =     0.00000013    0.00000022    0.00000014
     atom  393 type  1   force =     0.00000035    0.00000055    0.00000007
     atom  394 type  1   force =    -0.00000016   -0.00000022   -0.00000038
     atom  395 type  1   force =     0.00000039    0.00000003    0.00000003
     atom  396 type  1   force =     0.00000052    0.00000014    0.00000046
     atom  397 type  1   force =     0.00000026   -0.00000024   -0.00000023
     atom  398 type  1   force =    -0.00000023    0.00000022    0.00000030
     atom  399 type  1   force =    -0.00000044   -0.00000023   -0.00000030
     atom  400 type  1   force =    -0.00000040   -0.00000026   -0.00000013
     atom  401 type  1   force =    -0.00000027    0.00000028    0.00000017
     atom  402 type  1   force =    -0.00000044   -0.00000007   -0.00000015
     atom  403 type  1   force =    -0.00000034   -0.00000008   -0.00000024
     atom  404 type  1   force =    -0.00000021    0.00000025    0.00000018
     atom  405 type  1   force =    -0.00000037    0.00000003    0.00000026
     atom  406 type  1   force =    -0.00000029   -0.00000012   -0.00000016
     atom  407 type  1   force =    -0.00000004    0.00000015    0.00000007
     atom  408 type  1   force =    -0.00000004    0.00000026    0.00000012
     atom  409 type  1   force =    -0.00000063   -0.00000008   -0.00000001
     atom  410 type  1   force =    -0.00000033   -0.00000000    0.00000028
     atom  411 type  1   force =    -0.00000022    0.00000016    0.00000012
     atom  412 type  1   force =    -0.00000067   -0.00000011   -0.00000023
     atom  413 type  1   force =    -0.00000097   -0.00000037   -0.00000028
     atom  414 type  1   force =    -0.00000014    0.00000003   -0.00000002
     atom  415 type  1   force =    -0.00000014   -0.00000018   -0.00000025
     atom  416 type  1   force =     0.00000010    0.00000014    0.00000006
     atom  417 type  1   force =     0.00000034    0.00000033    0.00000020
     atom  418 type  1   force =     0.00000005   -0.00000011   -0.00000002
     atom  419 type  1   force =     0.00000048    0.00000005    0.00000014
     atom  420 type  1   force =    -0.00000002   -0.00000027    0.00000008
     atom  421 type  1   force =     0.00000001    0.00000007    0.00000028
     atom  422 type  1   force =     0.00000041    0.00000028    0.00000000
     atom  423 type  1   force =    -0.00000032   -0.00000009   -0.00000038
     atom  424 type  1   force =    -0.00000004   -0.00000013    0.00000005
     atom  425 type  1   force =     0.00000021    0.00000006    0.00000035
     atom  426 type  1   force =    -0.00000015   -0.00000018   -0.00000012
     atom  427 type  1   force =    -0.00000002   -0.00000007   -0.00000027
     atom  428 type  1   force =     0.00000019    0.00000012    0.00000005
     atom  429 type  1   force =    -0.00000007   -0.00000040   -0.00000026
     atom  430 type  1   force =     0.00000016   -0.00000005    0.00000006
     atom  431 type  1   force =     0.00000038    0.00000006    0.00000028
     atom  432 type  1   force =     0.00000005   -0.00000026   -0.00000017
     atom  433 type  1   force =    -0.00000001    0.00000022    0.00000009
     atom  434 type  1   force =     0.00000007    0.00000041    0.00000011
     atom  435 type  1   force =    -0.00000032   -0.00000006   -0.00000008
     atom  436 type  1   force =    -0.00000016   -0.00000018   -0.00000008
     atom  437 type  1   force =     0.00000035    0.00000028    0.00000013
     atom  438 type  1   force =    -0.00000035   -0.00000006   -0.00000012
     atom  439 type  1   force =     0.00000007   -0.00000011   -0.00000030
     atom  440 type  1   force =     0.00000035    0.00000039    0.00000021
     atom  441 type  1   force =     0.00000025   -0.00000015   -0.00000017
     atom  442 type  1   force =    -0.00000002   -0.00000021   -0.00000021
     atom  443 type  1   force =     0.00000020    0.00000007    0.00000022
     atom  444 type  1   force =     0.00000048    0.00000012    0.00000022
     atom  445 type  1   force =     0.00000005    0.00000001    0.00000023
     atom  446 type  1   force =     0.00000025    0.00000009    0.00000003
     atom  447 type  1   force =    -0.00000005   -0.00000031   -0.00000009
     atom  448 type  1   force =    -0.00000026   -0.00000027   -0.00000011
     atom  449 type  1   force =     0.00000032    0.00000024    0.00000015
     atom  450 type  1   force =     0.00000000   -0.00000012   -0.00000033
     atom  451 type  1   force =    -0.00000013   -0.00000003   -0.00000006
     atom  452 type  1   force =     0.00000021    0.00000008    0.00000025
     atom  453 type  1   force =     0.00000003    0.00000010   -0.00000025
     atom  454 type  1   force =    -0.00000002   -0.00000003   -0.00000021
     atom  455 type  1   force =     0.00000016    0.00000027    0.00000024
     atom  456 type  1   force =     0.00000015    0.00000031    0.00000027
     atom  457 type  1   force =    -0.00000041   -0.00000021   -0.00000027
     atom  458 type  1   force =     0.00000024    0.00000015   -0.00000003
     atom  459 type  1   force =     0.00000030    0.00000015    0.00000036
     atom  460 type  1   force =    -0.00000033   -0.00000022   -0.00000005
     atom  461 type  1   force =     0.00000007    0.00000028    0.00000023
     atom  462 type  1   force =    -0.00000028   -0.00000007   -0.00000019
     atom  463 type  1   force =    -0.00000023   -0.00000036   -0.00000005
     atom  464 type  1   force =    -0.00000001    0.00000022   -0.00000000
     atom  465 type  1   force =    -0.00000031   -0.00000012   -0.00000001
     atom  466 type  1   force =    -0.00000016   -0.00000013   -0.00000027
     atom  467 type  1   force =    -0.00000003    0.00000006    0.00000016
     atom  468 type  1   force =    -0.00000039   -0.00000018    0.00000008
     atom  469 type  1   force =     0.00000016    0.00000013   -0.00000006
     atom  470 type  1   force =     0.00000007    0.00000023    0.00000030
     atom  471 type  1   force =    -0.00000041   -0.00000006   -0.00000039
     atom  472 type  1   force =    -0.00000009   -0.00000004    0.00000033
     atom  473 type  1   force =    -0.00000009    0.00000012    0.00000011
     atom  474 type  1   force =    -0.00000029   -0.00000006   -0.00000007
     atom  475 type  1   force =    -0.00000035   -0.00000015   -0.00000036
     atom  476 type  1   force =     0.00000013   -0.00000002   -0.00000030
     atom  477 type  1   force =    -0.00000016   -0.00000020   -0.00000019
     atom  478 type  1   force =     0.00000015    0.00000010    0.00000017
     atom  479 type  1   force =     0.00000041    0.00000018    0.00000033
     atom  480 type  1   force =    -0.00000014   -0.00000017   -0.00000005
     atom  481 type  1   force =    -0.00000011    0.00000034   -0.00000002
     atom  482 type  1   force =     0.00000009    0.00000016    0.00000030
     atom  483 type  1   force =    -0.00000002   -0.00000026   -0.00000031
     atom  484 type  1   force =     0.00000019    0.00000007    0.00000019
     atom  485 type  1   force =     0.00000007    0.00000014    0.00000038
     atom  486 type  1   force =    -0.00000005   -0.00000008   -0.00000031
     atom  487 type  1   force =     0.00000005   -0.00000012   -0.00000023
     atom  488 type  1   force =     0.00000066    0.00000005    0.00000036
     atom  489 type  1   force =     0.00000001   -0.00000010   -0.00000027
     atom  490 type  1   force =     0.00000000   -0.00000023    0.00000010
     atom  491 type  1   force =     0.00000050    0.00000023   -0.00000009
     atom  492 type  1   force =    -0.00000012   -0.00000050   -0.00000033
     atom  493 type  1   force =     0.00000027    0.00000002    0.00000002
     atom  494 type  1   force =     0.00000021    0.00000007    0.00000032
     atom  495 type  1   force =    -0.00000007   -0.00000024   -0.00000005
     atom  496 type  1   force =     0.00000007    0.00000018    0.00000021
     atom  497 type  1   force =     0.00000026    0.00000026   -0.00000006
     atom  498 type  1   force =     0.00000004   -0.00000001   -0.00000005
     atom  499 type  1   force =    -0.00000002   -0.00000015   -0.00000015
     atom  500 type  1   force =     0.00000018    0.00000052    0.00000022
     atom  501 type  1   force =     0.00000002    0.00000002   -0.00000032
     atom  502 type  1   force =    -0.00000008   -0.00000002    0.00000012
     atom  503 type  1   force =     0.00000025    0.00000042    0.00000005
     atom  504 type  1   force =    -0.00000014   -0.00000023    0.00000011
     atom  505 type  1   force =    -0.00000027   -0.00000033   -0.00000053
     atom  506 type  1   force =     0.00000001   -0.00000005    0.00000031
     atom  507 type  1   force =     0.00000025    0.00000009    0.00000017
     atom  508 type  1   force =     0.00000029    0.00000013   -0.00000001
     atom  509 type  1   force =     0.00000002    0.00000020   -0.00000001
     atom  510 type  1   force =     0.00000001    0.00000024    0.00000004
     atom  511 type  2   force =     0.00000051    0.00000054    0.00000030

     Total force =     0.000406     Total SCF correction =     0.000009

     Writing all to output data dir ./pwscf.save/ :
     XML data file, charge density, pseudopotentials