
     Program PWSCF v.7.5 starts on  4Dec2025 at 23:26:23 

     This program is part of the open-source Quantum ESPRESSO suite
     for quantum simulation of materials; please cite
         "P. Giannozzi et al., J. Phys.:Condens. Matter 21 395502 (2009);
         "P. Giannozzi et al., J. Phys.:Condens. Matter 29 465901 (2017);
         "P. Giannozzi et al., J. Chem. Phys. 152 154105 (2020);
          URL http://www.quantum-espresso.org", 
     in publications or presentations arising from this work. More details at
     http://www.quantum-espresso.org/quote

     Parallel version (MPI), running on    96 processors

     MPI processes distributed on     2 nodes
     173417 MiB available memory on the printing compute node when the environment starts
 
     Reading input from pw.in

     Current dimensions of program PWSCF are:
     Max number of different atomic species (ntypx) = 10
     Max number of k-points (npk) =  40000
     Max angular momentum in pseudopotentials (lmaxx) =  4

     gamma-point specific algorithms are used
 
     K-points division:     npool     =       2
     R & G space division:  proc/nbgrp/npool/nimage =      48
     Subspace diagonalization in iterative solution of the eigenvalue problem:
     one sub-group per band group will be used
     scalapack distributed-memory algorithm (size of sub-group:  6*  6 procs)

 
     Parallelization info
     --------------------
     sticks:   dense  smooth     PW     G-vecs:    dense   smooth      PW
     Min         384     384     96                39496    39496    4936
     Max         386     386     98                39521    39521    4949
     Sum       18505   18505   4637              1896521  1896521  237129
 
     Using Slab Decomposition
 


     bravais-lattice index     =            0
     lattice parameter (alat)  =      26.9702  a.u.
     unit-cell volume          =   19617.8366 (a.u.)^3
     number of atoms/cell      =          511
     number of atomic types    =            2
     number of electrons       =      2046.00 (up:1024.00, down:1022.00)
     number of Kohn-Sham states=         1032
     kinetic-energy cutoff     =      80.0000  Ry
     charge density cutoff     =     320.0000  Ry
     scf convergence threshold =      1.0E-10
     mixing beta               =       0.7000
     number of iterations used =            8  plain     mixing
     Exchange-correlation= PBE
                           (   1   4   3   4   0   0   0)

     celldm(1)=  26.970171  celldm(2)=   0.000000  celldm(3)=   0.000000
     celldm(4)=   0.000000  celldm(5)=   0.000000  celldm(6)=   0.000000

     crystal axes: (cart. coord. in units of alat)
               a(1) = (   1.000000   0.000000   0.000000 )  
               a(2) = (   0.000000   1.000000   0.000000 )  
               a(3) = (   0.000000   0.000000   1.000000 )  

     reciprocal axes: (cart. coord. in units 2 pi/alat)
               b(1) = (  1.000000  0.000000  0.000000 )  
               b(2) = (  0.000000  1.000000  0.000000 )  
               b(3) = (  0.000000  0.000000  1.000000 )  


     PseudoPot. # 1 for C  read from file:
     ./C_ONCV_PBE-1.2.upf
     MD5 check sum: d60b57d9bdca4133f5fde4b584ee909d
     Pseudo is Norm-conserving, Zval =  4.0
     Generated using ONCVPSP code by D. R. Hamann
     Using radial grid of  602 points,  4 beta functions with: 
                l(1) =   0
                l(2) =   0
                l(3) =   1
                l(4) =   1

     PseudoPot. # 2 for N  read from file:
     ./N_ONCV_PBE-1.2.upf
     MD5 check sum: 5312fdf34e96954e02a33bdc911c617a
     Pseudo is Norm-conserving, Zval =  5.0
     Generated using ONCVPSP code by D. R. Hamann
     Using radial grid of  602 points,  4 beta functions with: 
                l(1) =   0
                l(2) =   0
                l(3) =   1
                l(4) =   1

     atomic species   valence    mass     pseudopotential
     C                 4.00    12.01100     C ( 1.00)
     N                 5.00    14.00670     N ( 1.00)

     Starting magnetic structure 
     atomic species   magnetization
     C               0.000
     N               0.000

     No symmetry found


                                    s                        frac. trans.

      isym =  1     identity                                     

 cryst.   s( 1) = (     1          0          0      )
                  (     0          1          0      )
                  (     0          0          1      )

 cart.    s( 1) = (  1.0000000  0.0000000  0.0000000 )
                  (  0.0000000  1.0000000  0.0000000 )
                  (  0.0000000  0.0000000  1.0000000 )


   Cartesian axes

     site n.     atom                  positions (alat units)
         1        C      tau(   1) = (  -0.0000114  -0.0000070   0.0000051  )
         2        C      tau(   2) = (  -0.0000522  -0.0000188   0.2500146  )
         3        C      tau(   3) = (  -0.0000680  -0.0000247   0.5000076  )
         4        C      tau(   4) = (   0.0000267   0.0000041   0.7499957  )
         5        C      tau(   5) = (  -0.0000527   0.2500026  -0.0000060  )
         6        C      tau(   6) = (  -0.0000475   0.2499961   0.2500086  )
         7        C      tau(   7) = (  -0.0000906   0.2500416   0.5000106  )
         8        C      tau(   8) = (  -0.0001008   0.2500134   0.7499883  )
         9        C      tau(   9) = (  -0.0000681   0.4999953  -0.0000103  )
        10        C      tau(  10) = (  -0.0000909   0.4999974   0.2500556  )
        11        C      tau(  11) = (  -0.0000001   0.4999940   0.5000080  )
        12        C      tau(  12) = (   0.0000427   0.4999936   0.7499665  )
        13        C      tau(  13) = (   0.0000270   0.7499836   0.0000180  )
        14        C      tau(  14) = (  -0.0001004   0.7499747   0.2500275  )
        15        C      tau(  15) = (   0.0000426   0.7499526   0.5000069  )
        16        C      tau(  16) = (   0.0001599   0.7499905   0.7500039  )
        17        C      tau(  17) = (   0.2499822  -0.0000498  -0.0000345  )
        18        C      tau(  18) = (   0.2499355  -0.0000042   0.2499634  )
        19        C      tau(  19) = (   0.2500032  -0.0001003   0.4999863  )
        20        C      tau(  20) = (   0.2500088  -0.0001483   0.7499761  )
        21        C      tau(  21) = (   0.2499344   0.2499479   0.0000119  )
        22        C      tau(  22) = (   0.2500406   0.2500815   0.2500970  )
        23        C      tau(  23) = (   0.2495338   0.2494886   0.5001357  )
        24        C      tau(  24) = (   0.2499631   0.2499125   0.7500111  )
        25        C      tau(  25) = (   0.2500034   0.4999718  -0.0000842  )
        26        C      tau(  26) = (   0.2495339   0.5001186   0.2495052  )
        27        C      tau(  27) = (   0.2505932   0.4998480   0.4998658  )
        28        C      tau(  28) = (   0.2498165   0.4997302   0.7502020  )
        29        C      tau(  29) = (   0.2500099   0.7499604  -0.0001290  )
        30        C      tau(  30) = (   0.2499650   0.7499927   0.2499319  )
        31        C      tau(  31) = (   0.2498164   0.7501847   0.4997474  )
        32        C      tau(  32) = (   0.2503392   0.7496958   0.7497136  )
        33        C      tau(  33) = (   0.4999798  -0.0000274  -0.0000122  )
        34        C      tau(  34) = (   0.4999644  -0.0000454   0.2500197  )
        35        C      tau(  35) = (   0.4999878  -0.0000327   0.5000084  )
        36        C      tau(  36) = (   0.5000074  -0.0000243   0.7500012  )
        37        C      tau(  37) = (   0.4999640   0.2500058  -0.0000313  )
        38        C      tau(  38) = (   0.4999434   0.2496396   0.2496545  )
        39        C      tau(  39) = (   0.4998390   0.2502560   0.4999733  )
        40        C      tau(  40) = (   0.4997965   0.2495222   0.7504554  )
        41        C      tau(  41) = (   0.4999882   0.4999948  -0.0000185  )
        42        C      tau(  42) = (   0.4998398   0.4999560   0.2502730  )
        43        C      tau(  43) = (   0.5000843   0.4999897   0.7496626  )
        44        C      tau(  44) = (   0.5000082   0.7499864  -0.0000078  )
        45        C      tau(  45) = (   0.4997978   0.7504401   0.2495379  )
        46        C      tau(  46) = (   0.5000849   0.7496471   0.5000055  )
        47        C      tau(  47) = (   0.5002273   0.7502315   0.7502465  )
        48        C      tau(  48) = (   0.7499886   0.0000332   0.0000452  )
        49        C      tau(  49) = (   0.7499579  -0.0000480   0.2500432  )
        50        C      tau(  50) = (   0.7499736   0.0000347   0.5000308  )
        51        C      tau(  51) = (   0.7500295   0.0001140   0.7500441  )
        52        C      tau(  52) = (   0.7499577   0.2500316  -0.0000360  )
        53        C      tau(  53) = (   0.7499170   0.2500057   0.2500180  )
        54        C      tau(  54) = (   0.7500542   0.2498571   0.4999458  )
        55        C      tau(  55) = (   0.7497705   0.2502648   0.7498359  )
        56        C      tau(  56) = (   0.7499736   0.5000192   0.0000472  )
        57        C      tau(  57) = (   0.7500538   0.4999309   0.2498728  )
        58        C      tau(  58) = (   0.7495518   0.5000947   0.5001107  )
        59        C      tau(  59) = (   0.7502725   0.5002101   0.7503300  )
        60        C      tau(  60) = (   0.7500297   0.7500321   0.0001266  )
        61        C      tau(  61) = (   0.7497695   0.7498212   0.2502799  )
        62        C      tau(  62) = (   0.7502721   0.7503160   0.5002240  )
        63        C      tau(  63) = (   0.7501956   0.7501860   0.7501985  )
        64        C      tau(  64) = (  -0.0000381   0.1249960   0.1250079  )
        65        C      tau(  65) = (  -0.0000573   0.1249928   0.3750031  )
        66        C      tau(  66) = (  -0.0001030   0.1250274   0.6250108  )
        67        C      tau(  67) = (  -0.0000396   0.1250087   0.8749893  )
        68        C      tau(  68) = (  -0.0000577   0.3749909   0.1250060  )
        69        C      tau(  69) = (  -0.0000716   0.3750244   0.3750380  )
        70        C      tau(  70) = (  -0.0000403   0.3750208   0.6249805  )
        71        C      tau(  71) = (  -0.0000712   0.3749968   0.8749822  )
        72        C      tau(  72) = (  -0.0001027   0.6249979   0.1250421  )
        73        C      tau(  73) = (  -0.0000405   0.6249668   0.3750348  )
        74        C      tau(  74) = (   0.0001017   0.6249679   0.6249818  )
        75        C      tau(  75) = (   0.0000946   0.6249986   0.8749968  )
        76        C      tau(  76) = (  -0.0000391   0.8749768   0.1250217  )
        77        C      tau(  77) = (  -0.0000706   0.8749684   0.3750096  )
        78        C      tau(  78) = (   0.0000944   0.8749827   0.6250110  )
        79        C      tau(  79) = (   0.0000750   0.8749896   0.8750022  )
        80        C      tau(  80) = (   0.2499590   0.1250002   0.1250149  )
        81        C      tau(  81) = (   0.2499723   0.1249477   0.3750124  )
        82        C      tau(  82) = (   0.2498834   0.1248133   0.6250331  )
        83        C      tau(  83) = (   0.2499624   0.1249205   0.8749985  )
        84        C      tau(  84) = (   0.2499725   0.3749976   0.1249627  )
        85        C      tau(  85) = (   0.2503411   0.3752192   0.3752359  )
        86        C      tau(  86) = (   0.2499723   0.3748262   0.6250001  )
        87        C      tau(  87) = (   0.2499128   0.3749101   0.8750596  )
        88        C      tau(  88) = (   0.2498850   0.6250158   0.1248326  )
        89        C      tau(  89) = (   0.2499733   0.6249813   0.3748452  )
        90        C      tau(  90) = (   0.2506762   0.6244805   0.6244977  )
        91        C      tau(  91) = (   0.2502594   0.6249012   0.8747339  )
        92        C      tau(  92) = (   0.2499640   0.8749822   0.1249384  )
        93        C      tau(  93) = (   0.2499143   0.8750417   0.3749274  )
        94        C      tau(  94) = (   0.2502595   0.8747156   0.6249171  )
        95        C      tau(  95) = (   0.2500617   0.8748713   0.8748881  )
        96        C      tau(  96) = (   0.4999746   0.1248645   0.1248781  )
        97        C      tau(  97) = (   0.4999429   0.1250003   0.3750136  )
        98        C      tau(  98) = (   0.4999254   0.1250103   0.6249806  )
        99        C      tau(  99) = (   0.4999321   0.1248168   0.8751659  )
       100        C      tau( 100) = (   0.4999431   0.3749995   0.1250145  )
       101        C      tau( 101) = (   0.5000696   0.3752783   0.3752956  )
       102        C      tau( 102) = (   0.4988389   0.3752587   0.6244840  )
       103        C      tau( 103) = (   0.4999736   0.3750604   0.8748892  )
       104        C      tau( 104) = (   0.4999272   0.6249643   0.1250273  )
       105        C      tau( 105) = (   0.4988397   0.6244684   0.3752745  )
       106        C      tau( 106) = (   0.5024360   0.6245005   0.6245159  )
       107        C      tau( 107) = (   0.5000901   0.6249762   0.8749602  )
       108        C      tau( 108) = (   0.4999330   0.8751501   0.1248333  )
       109        C      tau( 109) = (   0.4999744   0.8748746   0.3750753  )
       110        C      tau( 110) = (   0.5000899   0.8749451   0.6249903  )
       111        C      tau( 111) = (   0.5000625   0.8750583   0.8750732  )
       112        C      tau( 112) = (   0.7499616   0.1250002   0.1250117  )
       113        C      tau( 113) = (   0.7499729   0.1249641   0.3750052  )
       114        C      tau( 114) = (   0.7498790   0.1251116   0.6249789  )
       115        C      tau( 115) = (   0.7499457   0.1251153   0.8749567  )
       116        C      tau( 116) = (   0.7499726   0.3749932   0.1249769  )
       117        C      tau( 117) = (   0.7498953   0.3749892   0.3750038  )
       118        C      tau( 118) = (   0.7491873   0.3756879   0.6248636  )
       119        C      tau( 119) = (   0.7499035   0.3750827   0.8749345  )
       120        C      tau( 120) = (   0.7498790   0.6249658   0.1251255  )
       121        C      tau( 121) = (   0.7491878   0.6248481   0.3757036  )
       122        C      tau( 122) = (   0.7504086   0.6253204   0.6253350  )
       123        C      tau( 123) = (   0.7501506   0.6251128   0.8752078  )
       124        C      tau( 124) = (   0.7499457   0.8749441   0.1251280  )
       125        C      tau( 125) = (   0.7499032   0.8749216   0.3750953  )
       126        C      tau( 126) = (   0.7501502   0.8751951   0.6251246  )
       127        C      tau( 127) = (   0.7500713   0.8750928   0.8751047  )
       128        C      tau( 128) = (   0.1249646  -0.0000151   0.1249895  )
       129        C      tau( 129) = (   0.1249294  -0.0000229   0.3749844  )
       130        C      tau( 130) = (   0.1250154  -0.0001173   0.6249970  )
       131        C      tau( 131) = (   0.1250114  -0.0000583   0.8749727  )
       132        C      tau( 132) = (   0.1249689   0.2500003   0.1250275  )
       133        C      tau( 133) = (   0.1249702   0.2500341   0.3750252  )
       134        C      tau( 134) = (   0.1248778   0.2498921   0.6250199  )
       135        C      tau( 135) = (   0.1249428   0.2499635   0.8749925  )
       136        C      tau( 136) = (   0.1247827   0.5000224   0.1248112  )
       137        C      tau( 137) = (   0.1250725   0.4999892   0.3750093  )
       138        C      tau( 138) = (   0.1251734   0.4998966   0.6248892  )
       139        C      tau( 139) = (   0.1249092   0.4999228   0.8750627  )
       140        C      tau( 140) = (   0.1249612   0.7499804   0.1249620  )
       141        C      tau( 141) = (   0.1249326   0.7500127   0.3749481  )
       142        C      tau( 142) = (   0.1251998   0.7498071   0.6248934  )
       143        C      tau( 143) = (   0.1251423   0.7499110   0.8748820  )
       144        C      tau( 144) = (   0.3749525  -0.0000063   0.1249511  )
       145        C      tau( 145) = (   0.3749802  -0.0000609   0.3749987  )
       146        C      tau( 146) = (   0.3750125  -0.0000950   0.6249829  )
       147        C      tau( 147) = (   0.3749899  -0.0001084   0.8749835  )
       148        C      tau( 148) = (   0.3749500   0.2500050   0.1249785  )
       149        C      tau( 149) = (   0.3750941   0.2501575   0.3752104  )
       150        C      tau( 150) = (   0.3748812   0.2497469   0.6251087  )
       151        C      tau( 151) = (   0.3749327   0.2498541   0.8751062  )
       152        C      tau( 152) = (   0.3749605   0.4999997   0.1249821  )
       153        C      tau( 153) = (   0.3755488   0.5007603   0.3752572  )
       154        C      tau( 154) = (   0.3760985   0.4987437   0.6239388  )
       155        C      tau( 155) = (   0.3751139   0.4999334   0.8748356  )
       156        C      tau( 156) = (   0.3749422   0.7500779   0.1248386  )
       157        C      tau( 157) = (   0.3749476   0.7501112   0.3748041  )
       158        C      tau( 158) = (   0.3757525   0.7491889   0.6246988  )
       159        C      tau( 159) = (   0.3751020   0.7498589   0.8748455  )
       160        C      tau( 160) = (   0.6249843  -0.0000432   0.1250470  )
       161        C      tau( 161) = (   0.6249615  -0.0000241   0.3750351  )
       162        C      tau( 162) = (   0.6249993   0.0000458   0.6250186  )
       163        C      tau( 163) = (   0.6250170   0.0000583   0.8750404  )
       164        C      tau( 164) = (   0.6249550   0.2499475   0.1249358  )
       165        C      tau( 165) = (   0.6248793   0.2499170   0.3749546  )
       166        C      tau( 166) = (   0.6245839   0.2503489   0.6247410  )
       167        C      tau( 167) = (   0.6249483   0.2502027   0.8748489  )
       168        C      tau( 168) = (   0.6249011   0.4999748   0.1250743  )
       169        C      tau( 169) = (   0.6238485   0.4994482   0.3757107  )
       170        C      tau( 170) = (   0.6245231   0.5024387   0.6246922  )
       171        C      tau( 171) = (   0.6250074   0.5000652   0.8750007  )
       172        C      tau( 172) = (   0.6249358   0.7499304   0.1250822  )
       173        C      tau( 173) = (   0.6247619   0.7493405   0.3756595  )
       174        C      tau( 174) = (   0.6253091   0.7504453   0.6253087  )
       175        C      tau( 175) = (   0.6251192   0.7501384   0.8751934  )
       176        C      tau( 176) = (   0.8749628  -0.0000149   0.1250360  )
       177        C      tau( 177) = (   0.8749484  -0.0000256   0.3750238  )
       178        C      tau( 178) = (   0.8750137   0.0000746   0.6250290  )
       179        C      tau( 179) = (   0.8750103   0.0000598   0.8750223  )
       180        C      tau( 180) = (   0.8749465   0.2500046   0.1250042  )
       181        C      tau( 181) = (   0.8749588   0.2499843   0.3750063  )
       182        C      tau( 182) = (   0.8747373   0.2502515   0.6249858  )
       183        C      tau( 183) = (   0.8749088   0.2500597   0.8749501  )
       184        C      tau( 184) = (   0.8749964   0.4999787   0.1249886  )
       185        C      tau( 185) = (   0.8747849   0.5000053   0.3751423  )
       186        C      tau( 186) = (   0.8749482   0.5000790   0.6250183  )
       187        C      tau( 187) = (   0.8750827   0.5000610   0.8750962  )
       188        C      tau( 188) = (   0.8749141   0.7499616   0.1251297  )
       189        C      tau( 189) = (   0.8748702   0.7499079   0.3751013  )
       190        C      tau( 190) = (   0.8752043   0.7501344   0.6251173  )
       191        C      tau( 191) = (   0.8751106   0.7500552   0.8750963  )
       192        C      tau( 192) = (   0.1249639   0.1249759  -0.0000015  )
       193        C      tau( 193) = (   0.1249692   0.1250135   0.2500135  )
       194        C      tau( 194) = (   0.1247820   0.1247948   0.5000373  )
       195        C      tau( 195) = (   0.1249599   0.1249455   0.7499949  )
       196        C      tau( 196) = (   0.1249286   0.3749706  -0.0000078  )
       197        C      tau( 197) = (   0.1249702   0.3750108   0.2500489  )
       198        C      tau( 198) = (   0.1250726   0.3749937   0.5000048  )
       199        C      tau( 199) = (   0.1249313   0.3749319   0.7500291  )
       200        C      tau( 200) = (   0.1250161   0.6249830  -0.0001002  )
       201        C      tau( 201) = (   0.1248791   0.6250041   0.2499089  )
       202        C      tau( 202) = (   0.1251733   0.6248729   0.4999128  )
       203        C      tau( 203) = (   0.1251998   0.6248776   0.7498239  )
       204        C      tau( 204) = (   0.1250119   0.8749591  -0.0000434  )
       205        C      tau( 205) = (   0.1249443   0.8749775   0.2499786  )
       206        C      tau( 206) = (   0.1249101   0.8750461   0.4999379  )
       207        C      tau( 207) = (   0.1251421   0.8748655   0.7499255  )
       208        C      tau( 208) = (   0.3749518   0.1249347   0.0000099  )
       209        C      tau( 209) = (   0.3749501   0.1249641   0.2500192  )
       210        C      tau( 210) = (   0.3749594   0.1249658   0.5000159  )
       211        C      tau( 211) = (   0.3749407   0.1248190   0.7500959  )
       212        C      tau( 212) = (   0.3749799   0.3749843  -0.0000461  )
       213        C      tau( 213) = (   0.3750943   0.3751932   0.2501745  )
       214        C      tau( 214) = (   0.3755481   0.3752405   0.5007771  )
       215        C      tau( 215) = (   0.3749465   0.3747869   0.7501278  )
       216        C      tau( 216) = (   0.3750134   0.6249677  -0.0000775  )
       217        C      tau( 217) = (   0.3748825   0.6250911   0.2497647  )
       218        C      tau( 218) = (   0.3760989   0.6239228   0.4987601  )
       219        C      tau( 219) = (   0.3757526   0.6246823   0.7492056  )
       220        C      tau( 220) = (   0.3749906   0.8749670  -0.0000900  )
       221        C      tau( 221) = (   0.3749340   0.8750886   0.2498722  )
       222        C      tau( 222) = (   0.3751141   0.8748198   0.4999491  )
       223        C      tau( 223) = (   0.3751018   0.8748276   0.7498749  )
       224        C      tau( 224) = (   0.6249841   0.1250343  -0.0000305  )
       225        C      tau( 225) = (   0.6249552   0.1249231   0.2499599  )
       226        C      tau( 226) = (   0.6249006   0.1250603   0.4999885  )
       227        C      tau( 227) = (   0.6249349   0.1250670   0.7499450  )
       228        C      tau( 228) = (   0.6249614   0.3750227  -0.0000113  )
       229        C      tau( 229) = (   0.6248795   0.3749400   0.2499317  )
       230        C      tau( 230) = (   0.6238473   0.3756948   0.4994644  )
       231        C      tau( 231) = (   0.6247612   0.3756447   0.7493551  )
       232        C      tau( 232) = (   0.6249997   0.6250060   0.0000593  )
       233        C      tau( 233) = (   0.6245845   0.6247242   0.2503658  )
       234        C      tau( 234) = (   0.6245237   0.6246774   0.5024535  )
       235        C      tau( 235) = (   0.6253094   0.6252941   0.7504604  )
       236        C      tau( 236) = (   0.6250171   0.8750271   0.0000721  )
       237        C      tau( 237) = (   0.6249486   0.8748356   0.2502165  )
       238        C      tau( 238) = (   0.6250073   0.8749873   0.5000783  )
       239        C      tau( 239) = (   0.6251190   0.8751801   0.7501510  )
       240        C      tau( 240) = (   0.8749627   0.1250245  -0.0000031  )
       241        C      tau( 241) = (   0.8749468   0.1249925   0.2500159  )
       242        C      tau( 242) = (   0.8749971   0.1249751   0.4999908  )
       243        C      tau( 243) = (   0.8749144   0.1251161   0.7499742  )
       244        C      tau( 244) = (   0.8749482   0.3750126  -0.0000132  )
       245        C      tau( 245) = (   0.8749586   0.3749936   0.2499974  )
       246        C      tau( 246) = (   0.8747851   0.3751272   0.5000199  )
       247        C      tau( 247) = (   0.8748710   0.3750875   0.7499217  )
       248        C      tau( 248) = (   0.8750139   0.6250175   0.0000875  )
       249        C      tau( 249) = (   0.8747363   0.6249716   0.2502667  )
       250        C      tau( 250) = (   0.8749479   0.6250044   0.5000931  )
       251        C      tau( 251) = (   0.8752045   0.6251049   0.7501472  )
       252        C      tau( 252) = (   0.8750104   0.8750106   0.0000719  )
       253        C      tau( 253) = (   0.8749087   0.8749372   0.2500721  )
       254        C      tau( 254) = (   0.8750824   0.8750834   0.5000727  )
       255        C      tau( 255) = (   0.8751104   0.8750841   0.7500668  )
       256        C      tau( 256) = (   0.1874538   0.0625039   0.1874965  )
       257        C      tau( 257) = (   0.1874268   0.0624118   0.4374956  )
       258        C      tau( 258) = (   0.1874678   0.0623632   0.6874989  )
       259        C      tau( 259) = (   0.1874795   0.0624502   0.9374858  )
       260        C      tau( 260) = (   0.1874836   0.3125083   0.1875319  )
       261        C      tau( 261) = (   0.1875278   0.3124607   0.4375190  )
       262        C      tau( 262) = (   0.1874204   0.3124287   0.6874982  )
       263        C      tau( 263) = (   0.1874285   0.3124540   0.9375261  )
       264        C      tau( 264) = (   0.1871575   0.5624485   0.1871539  )
       265        C      tau( 265) = (   0.1876940   0.5623961   0.4374518  )
       266        C      tau( 266) = (   0.1877685   0.5623323   0.6873286  )
       267        C      tau( 267) = (   0.1875724   0.5624442   0.9373697  )
       268        C      tau( 268) = (   0.1874635   0.8124786   0.1874607  )
       269        C      tau( 269) = (   0.1873052   0.8126713   0.4374912  )
       270        C      tau( 270) = (   0.1877262   0.8122721   0.6873687  )
       271        C      tau( 271) = (   0.1875492   0.8124300   0.9374010  )
       272        C      tau( 272) = (   0.4374514   0.0624491   0.1874751  )
       273        C      tau( 273) = (   0.4374509   0.0624603   0.4375002  )
       274        C      tau( 274) = (   0.4374811   0.0624369   0.6875061  )
       275        C      tau( 275) = (   0.4374944   0.0623759   0.9375621  )
       276        C      tau( 276) = (   0.4374028   0.3124805   0.1874773  )
       277        C      tau( 277) = (   0.4375014   0.3127748   0.4377430  )
       278        C      tau( 278) = (   0.4376872   0.3116044   0.6883685  )
       279        C      tau( 279) = (   0.4374715   0.3124806   0.9374602  )
       280        C      tau( 280) = (   0.4374306   0.5624765   0.1874975  )
       281        C      tau( 281) = (   0.4385595   0.5617147   0.6863413  )
       282        C      tau( 282) = (   0.4375248   0.5624754   0.9374343  )
       283        C      tau( 283) = (   0.4375083   0.8128148   0.1871589  )
       284        C      tau( 284) = (   0.4375258   0.8123605   0.4374695  )
       285        C      tau( 285) = (   0.4377039   0.8122933   0.6874007  )
       286        C      tau( 286) = (   0.4375396   0.8124494   0.9374376  )
       287        C      tau( 287) = (   0.6874674   0.0624554   0.1875186  )
       288        C      tau( 288) = (   0.6874460   0.0625151   0.4375308  )
       289        C      tau( 289) = (   0.6874830   0.0625686   0.6875222  )
       290        C      tau( 290) = (   0.6874831   0.0625677   0.9375011  )
       291        C      tau( 291) = (   0.6874322   0.3124949   0.1874480  )
       292        C      tau( 292) = (   0.6878290   0.3120565   0.4376601  )
       293        C      tau( 293) = (   0.6871069   0.3128682   0.6872445  )
       294        C      tau( 294) = (   0.6874530   0.3125583   0.9374546  )
       295        C      tau( 295) = (   0.6873474   0.5624893   0.1876269  )
       296        C      tau( 296) = (   0.6862897   0.5619546   0.4385622  )
       297        C      tau( 297) = (   0.6881958   0.5628415   0.6882712  )
       298        C      tau( 298) = (   0.6875277   0.5625434   0.9375682  )
       299        C      tau( 299) = (   0.6874000   0.8123829   0.1876722  )
       300        C      tau( 300) = (   0.6874469   0.8123947   0.4376694  )
       301        C      tau( 301) = (   0.6877201   0.8128073   0.6877219  )
       302        C      tau( 302) = (   0.6875698   0.8125876   0.9376434  )
       303        C      tau( 303) = (   0.9374552   0.0624914   0.1875203  )
       304        C      tau( 304) = (   0.9374669   0.0624724   0.4375261  )
       305        C      tau( 305) = (   0.9374616   0.0625622   0.6875028  )
       306        C      tau( 306) = (   0.9374850   0.0625244   0.9375092  )
       307        C      tau( 307) = (   0.9374547   0.3124961   0.1875063  )
       308        C      tau( 308) = (   0.9373817   0.3125467   0.4375275  )
       309        C      tau( 309) = (   0.9373901   0.3125768   0.6874720  )
       310        C      tau( 310) = (   0.9374297   0.3125227   0.9374751  )
       311        C      tau( 311) = (   0.9373556   0.5624774   0.1876186  )
       312        C      tau( 312) = (   0.9374310   0.5624978   0.4375526  )
       313        C      tau( 313) = (   0.9375647   0.5625353   0.6875222  )
       314        C      tau( 314) = (   0.9375396   0.5625121   0.9375452  )
       315        C      tau( 315) = (   0.9374245   0.8124671   0.1875606  )
       316        C      tau( 316) = (   0.9374672   0.8124590   0.4375548  )
       317        C      tau( 317) = (   0.9376614   0.8125622   0.6875629  )
       318        C      tau( 318) = (   0.9375620   0.8125184   0.9375556  )
       319        C      tau( 319) = (   0.0624693   0.0624892   0.0625019  )
       320        C      tau( 320) = (   0.0624517   0.0624994   0.3125073  )
       321        C      tau( 321) = (   0.0623764   0.0623906   0.5624863  )
       322        C      tau( 322) = (   0.0624920   0.0624798   0.8124919  )
       323        C      tau( 323) = (   0.0624512   0.3124946   0.0625133  )
       324        C      tau( 324) = (   0.0624345   0.3124922   0.3125060  )
       325        C      tau( 325) = (   0.0624702   0.3124979   0.5624858  )
       326        C      tau( 326) = (   0.0624188   0.3124870   0.8124911  )
       327        C      tau( 327) = (   0.0623770   0.5624726   0.0624067  )
       328        C      tau( 328) = (   0.0624702   0.5624715   0.3125128  )
       329        C      tau( 329) = (   0.0626049   0.5624509   0.5624660  )
       330        C      tau( 330) = (   0.0625778   0.5624684   0.8124503  )
       331        C      tau( 331) = (   0.0624929   0.8124788   0.0624943  )
       332        C      tau( 332) = (   0.0624200   0.8124763   0.3125015  )
       333        C      tau( 333) = (   0.0625780   0.8124350   0.5624826  )
       334        C      tau( 334) = (   0.0626332   0.8124466   0.8124609  )
       335        C      tau( 335) = (   0.3124623   0.0624791   0.0624948  )
       336        C      tau( 336) = (   0.3124379   0.0624431   0.3124825  )
       337        C      tau( 337) = (   0.3124691   0.0624058   0.5624934  )
       338        C      tau( 338) = (   0.3124768   0.0623557   0.8125099  )
       339        C      tau( 339) = (   0.3124376   0.3124680   0.0624578  )
       340        C      tau( 340) = (   0.3125853   0.3126246   0.3126418  )
       341        C      tau( 341) = (   0.3118052   0.3116516   0.5622891  )
       342        C      tau( 342) = (   0.3124519   0.3123929   0.8126234  )
       343        C      tau( 343) = (   0.3124703   0.5624777   0.0624231  )
       344        C      tau( 344) = (   0.3118057   0.5622716   0.3116686  )
       345        C      tau( 345) = (   0.3135042   0.5618806   0.5618972  )
       346        C      tau( 346) = (   0.3128221   0.5622982   0.8121248  )
       347        C      tau( 347) = (   0.3124785   0.8124926   0.0623755  )
       348        C      tau( 348) = (   0.3124535   0.8126053   0.3124114  )
       349        C      tau( 349) = (   0.3128223   0.8121074   0.5623148  )
       350        C      tau( 350) = (   0.3126240   0.8123151   0.8123325  )
       351        C      tau( 351) = (   0.5624653   0.0624382   0.0624514  )
       352        C      tau( 352) = (   0.5624444   0.0624705   0.3125157  )
       353        C      tau( 353) = (   0.5624649   0.0625142   0.5625164  )
       354        C      tau( 354) = (   0.5624879   0.0624926   0.8125303  )
       355        C      tau( 355) = (   0.5624443   0.3125028   0.0624836  )
       356        C      tau( 356) = (   0.5621967   0.3118528   0.3118683  )
       357        C      tau( 357) = (   0.5619482   0.3129329   0.5623461  )
       358        C      tau( 358) = (   0.5623570   0.3126991   0.8122650  )
       359        C      tau( 359) = (   0.5624658   0.5625026   0.0625285  )
       360        C      tau( 360) = (   0.5619490   0.5623290   0.3129498  )
       361        C      tau( 361) = (   0.5625845   0.5625368   0.8125241  )
       362        C      tau( 362) = (   0.5624889   0.8125154   0.0625085  )
       363        C      tau( 363) = (   0.5623579   0.8122505   0.3127138  )
       364        C      tau( 364) = (   0.5625848   0.8125096   0.5625512  )
       365        C      tau( 365) = (   0.5626207   0.8126975   0.8127110  )
       366        C      tau( 366) = (   0.8124722   0.0625146   0.0625261  )
       367        C      tau( 367) = (   0.8124549   0.0624670   0.3125256  )
       368        C      tau( 368) = (   0.8124622   0.0625575   0.5625219  )
       369        C      tau( 369) = (   0.8124791   0.0626088   0.8125053  )
       370        C      tau( 370) = (   0.8124546   0.3125143   0.0624791  )
       371        C      tau( 371) = (   0.8124625   0.3125057   0.3125188  )
       372        C      tau( 372) = (   0.8120844   0.3128359   0.5624335  )
       373        C      tau( 373) = (   0.8123703   0.3126011   0.8124156  )
       374        C      tau( 374) = (   0.8124622   0.5625101   0.0625705  )
       375        C      tau( 375) = (   0.8120839   0.5624182   0.3128519  )
       376        C      tau( 376) = (   0.8124619   0.5625917   0.5626062  )
       377        C      tau( 377) = (   0.8127298   0.5626120   0.8127437  )
       378        C      tau( 378) = (   0.8124792   0.8124933   0.0626214  )
       379        C      tau( 379) = (   0.8123697   0.8124020   0.3126145  )
       380        C      tau( 380) = (   0.8127295   0.8127309   0.5626241  )
       381        C      tau( 381) = (   0.8126411   0.8126237   0.8126355  )
       382        C      tau( 382) = (   0.0624624   0.1875001   0.1875130  )
       383        C      tau( 383) = (   0.0624129   0.1874772   0.4375064  )
       384        C      tau( 384) = (   0.0624027   0.1874785   0.6875004  )
       385        C      tau( 385) = (   0.0624552   0.1874910   0.9374948  )
       386        C      tau( 386) = (   0.0624128   0.4374928   0.1874917  )
       387        C      tau( 387) = (   0.0625129   0.4374862   0.4375008  )
       388        C      tau( 388) = (   0.0625418   0.4374851   0.6874567  )
       389        C      tau( 389) = (   0.0624008   0.4375009   0.9375281  )
       390        C      tau( 390) = (   0.0624038   0.6874862   0.1874941  )
       391        C      tau( 391) = (   0.0625420   0.6874419   0.4374998  )
       392        C      tau( 392) = (   0.0626476   0.6874394   0.6874546  )
       393        C      tau( 393) = (   0.0625754   0.6874708   0.9374457  )
       394        C      tau( 394) = (   0.0624563   0.9374813   0.1875043  )
       395        C      tau( 395) = (   0.0624017   0.9375129   0.4375145  )
       396        C      tau( 396) = (   0.0625751   0.9374300   0.6874840  )
       397        C      tau( 397) = (   0.0625216   0.9374775   0.9374907  )
       398        C      tau( 398) = (   0.3124590   0.1875146   0.1875291  )
       399        C      tau( 399) = (   0.3123935   0.1874231   0.4375238  )
       400        C      tau( 400) = (   0.3124410   0.1872856   0.6875455  )
       401        C      tau( 401) = (   0.3124437   0.1874175   0.9375473  )
       402        C      tau( 402) = (   0.3123943   0.4375070   0.1874393  )
       403        C      tau( 403) = (   0.3132024   0.4377118   0.4377286  )
       404        C      tau( 404) = (   0.3120691   0.4375459   0.6880514  )
       405        C      tau( 405) = (   0.3125009   0.4374664   0.9374224  )
       406        C      tau( 406) = (   0.3124428   0.6875270   0.1873054  )
       407        C      tau( 407) = (   0.3120695   0.6880348   0.4375631  )
       408        C      tau( 408) = (   0.3129954   0.6870545   0.6870718  )
       409        C      tau( 409) = (   0.3125688   0.6874298   0.9373624  )
       410        C      tau( 410) = (   0.3124454   0.9375300   0.1874353  )
       411        C      tau( 411) = (   0.3125015   0.9374067   0.4374815  )
       412        C      tau( 412) = (   0.3125684   0.9373439   0.6874452  )
       413        C      tau( 413) = (   0.3125065   0.9374129   0.9374298  )
       414        C      tau( 414) = (   0.5624091   0.1872676   0.1872809  )
       415        C      tau( 415) = (   0.5623611   0.1875408   0.4375380  )
       416        C      tau( 416) = (   0.5623790   0.1875266   0.6875232  )
       417        C      tau( 417) = (   0.5624549   0.1875424   0.9374522  )
       418        C      tau( 418) = (   0.5623617   0.4375230   0.1875555  )
       419        C      tau( 419) = (   0.5618055   0.4383330   0.6864961  )
       420        C      tau( 420) = (   0.5624886   0.4375124   0.9374713  )
       421        C      tau( 421) = (   0.5623808   0.6875065   0.1875438  )
       422        C      tau( 422) = (   0.5618066   0.6864814   0.4383482  )
       423        C      tau( 423) = (   0.5628715   0.6881597   0.6881752  )
       424        C      tau( 424) = (   0.5625448   0.6875206   0.9375399  )
       425        C      tau( 425) = (   0.5624556   0.9374384   0.1875564  )
       426        C      tau( 426) = (   0.5624889   0.9374579   0.4375257  )
       427        C      tau( 427) = (   0.5625445   0.9375256   0.6875337  )
       428        C      tau( 428) = (   0.5625154   0.9375369   0.9375509  )
       429        C      tau( 429) = (   0.8124414   0.1875061   0.1875176  )
       430        C      tau( 430) = (   0.8125660   0.1873924   0.4375417  )
       431        C      tau( 431) = (   0.8123285   0.1876801   0.6874489  )
       432        C      tau( 432) = (   0.8124478   0.1875542   0.9374704  )
       433        C      tau( 433) = (   0.8125653   0.4375287   0.1874065  )
       434        C      tau( 434) = (   0.8122506   0.4375624   0.4375777  )
       435        C      tau( 435) = (   0.8123187   0.4376975   0.6874820  )
       436        C      tau( 436) = (   0.8124650   0.4375447   0.9375004  )
       437        C      tau( 437) = (   0.8123278   0.6874353   0.1876946  )
       438        C      tau( 438) = (   0.8123180   0.6874676   0.4377122  )
       439        C      tau( 439) = (   0.8128133   0.6877114   0.6877244  )
       440        C      tau( 440) = (   0.8125903   0.6875664   0.9376490  )
       441        C      tau( 441) = (   0.8124479   0.9374582   0.1875661  )
       442        C      tau( 442) = (   0.8124649   0.9374880   0.4375562  )
       443        C      tau( 443) = (   0.8125900   0.9376366   0.6875779  )
       444        C      tau( 444) = (   0.8125267   0.9375572   0.9375689  )
       445        C      tau( 445) = (   0.1874532   0.1874823   0.0625187  )
       446        C      tau( 446) = (   0.1874834   0.1875171   0.3125227  )
       447        C      tau( 447) = (   0.1871568   0.1871364   0.5624654  )
       448        C      tau( 448) = (   0.1874615   0.1874430   0.8124950  )
       449        C      tau( 449) = (   0.1874270   0.4374813   0.0624271  )
       450        C      tau( 450) = (   0.1875277   0.4375025   0.3124769  )
       451        C      tau( 451) = (   0.1876941   0.4374341   0.5624138  )
       452        C      tau( 452) = (   0.1873045   0.4374742   0.8126888  )
       453        C      tau( 453) = (   0.1874693   0.6874832   0.0623821  )
       454        C      tau( 454) = (   0.1874221   0.6874802   0.3124472  )
       455        C      tau( 455) = (   0.1877684   0.6873111   0.5623496  )
       456        C      tau( 456) = (   0.1877261   0.6873523   0.8122901  )
       457        C      tau( 457) = (   0.1874806   0.9374710   0.0624658  )
       458        C      tau( 458) = (   0.1874302   0.9375096   0.3124698  )
       459        C      tau( 459) = (   0.1875726   0.9373528   0.5624588  )
       460        C      tau( 460) = (   0.1875487   0.9373837   0.8124452  )
       461        C      tau( 461) = (   0.4374511   0.1874610   0.0624633  )
       462        C      tau( 462) = (   0.4374025   0.1874624   0.3124954  )
       463        C      tau( 463) = (   0.4374290   0.1874800   0.5624941  )
       464        C      tau( 464) = (   0.4375069   0.1871423   0.8128307  )
       465        C      tau( 465) = (   0.4374513   0.4374859   0.0624748  )
       466        C      tau( 466) = (   0.4375018   0.4377254   0.3127923  )
       467        C      tau( 467) = (   0.4375248   0.4374530   0.8123763  )
       468        C      tau( 468) = (   0.4374827   0.6874898   0.0624550  )
       469        C      tau( 469) = (   0.4376885   0.6883526   0.3116207  )
       470        C      tau( 470) = (   0.4385598   0.6863255   0.5617307  )
       471        C      tau( 471) = (   0.4377038   0.6873852   0.8123098  )
       472        C      tau( 472) = (   0.4374954   0.9375455   0.0623934  )
       473        C      tau( 473) = (   0.4374725   0.9374450   0.3124960  )
       474        C      tau( 474) = (   0.4375246   0.9374190   0.5624897  )
       475        C      tau( 475) = (   0.4375391   0.9374205   0.8124646  )
       476        C      tau( 476) = (   0.6874673   0.1875068   0.0624674  )
       477        C      tau( 477) = (   0.6874323   0.1874351   0.3125076  )
       478        C      tau( 478) = (   0.6873468   0.1876121   0.5625039  )
       479        C      tau( 479) = (   0.6873999   0.1876581   0.8123966  )
       480        C      tau( 480) = (   0.6874461   0.4375186   0.0625277  )
       481        C      tau( 481) = (   0.6878294   0.4376449   0.3120714  )
       482        C      tau( 482) = (   0.6862889   0.4385467   0.5619700  )
       483        C      tau( 483) = (   0.6874470   0.4376558   0.8124083  )
       484        C      tau( 484) = (   0.6874835   0.6875094   0.0625822  )
       485        C      tau( 485) = (   0.6871070   0.6872285   0.3128845  )
       486        C      tau( 486) = (   0.6881958   0.6882562   0.5628566  )
       487        C      tau( 487) = (   0.6877203   0.6877092   0.8128207  )
       488        C      tau( 488) = (   0.6874832   0.9374887   0.0625802  )
       489        C      tau( 489) = (   0.6874532   0.9374421   0.3125706  )
       490        C      tau( 490) = (   0.6875275   0.9375555   0.5625554  )
       491        C      tau( 491) = (   0.6875697   0.9376307   0.8125998  )
       492        C      tau( 492) = (   0.9374549   0.1875088   0.0625033  )
       493        C      tau( 493) = (   0.9374550   0.1874938   0.3125080  )
       494        C      tau( 494) = (   0.9373562   0.1876044   0.5624902  )
       495        C      tau( 495) = (   0.9374242   0.1875476   0.8124798  )
       496        C      tau( 496) = (   0.9374665   0.4375145   0.0624857  )
       497        C      tau( 497) = (   0.9373815   0.4375142   0.3125604  )
       498        C      tau( 498) = (   0.9374311   0.4375387   0.5625115  )
       499        C      tau( 499) = (   0.9374674   0.4375421   0.8124724  )
       500        C      tau( 500) = (   0.9374618   0.6874908   0.0625759  )
       501        C      tau( 501) = (   0.9373895   0.6874585   0.3125907  )
       502        C      tau( 502) = (   0.9375647   0.6875088   0.5625485  )
       503        C      tau( 503) = (   0.9376615   0.6875506   0.8125753  )
       504        C      tau( 504) = (   0.9374853   0.9374974   0.0625363  )
       505        C      tau( 505) = (   0.9374302   0.9374622   0.3125346  )
       506        C      tau( 506) = (   0.9375394   0.9375318   0.5625238  )
       507        C      tau( 507) = (   0.9375618   0.9375430   0.8125302  )
       508        C      tau( 508) = (   0.5667489   0.4322377   0.4322532  )
       509        C      tau( 509) = (   0.4329064   0.4317109   0.5673041  )
       510        C      tau( 510) = (   0.4329069   0.5672887   0.4317265  )
       511        N      tau( 511) = (   0.5673849   0.5672839   0.5672986  )

   Crystallographic axes

     site n.     atom                  positions (cryst. coord.)
         1        C      tau(   1) = ( -0.0000114 -0.0000070  0.0000051  )
         2        C      tau(   2) = ( -0.0000522 -0.0000188  0.2500146  )
         3        C      tau(   3) = ( -0.0000680 -0.0000247  0.5000076  )
         4        C      tau(   4) = (  0.0000267  0.0000041  0.7499957  )
         5        C      tau(   5) = ( -0.0000527  0.2500026 -0.0000060  )
         6        C      tau(   6) = ( -0.0000475  0.2499961  0.2500086  )
         7        C      tau(   7) = ( -0.0000906  0.2500416  0.5000106  )
         8        C      tau(   8) = ( -0.0001008  0.2500134  0.7499883  )
         9        C      tau(   9) = ( -0.0000681  0.4999953 -0.0000103  )
        10        C      tau(  10) = ( -0.0000909  0.4999974  0.2500556  )
        11        C      tau(  11) = ( -0.0000001  0.4999940  0.5000080  )
        12        C      tau(  12) = (  0.0000427  0.4999936  0.7499665  )
        13        C      tau(  13) = (  0.0000270  0.7499836  0.0000180  )
        14        C      tau(  14) = ( -0.0001004  0.7499747  0.2500275  )
        15        C      tau(  15) = (  0.0000426  0.7499526  0.5000069  )
        16        C      tau(  16) = (  0.0001599  0.7499905  0.7500039  )
        17        C      tau(  17) = (  0.2499822 -0.0000498 -0.0000345  )
        18        C      tau(  18) = (  0.2499355 -0.0000042  0.2499634  )
        19        C      tau(  19) = (  0.2500032 -0.0001003  0.4999863  )
        20        C      tau(  20) = (  0.2500088 -0.0001483  0.7499761  )
        21        C      tau(  21) = (  0.2499344  0.2499479  0.0000119  )
        22        C      tau(  22) = (  0.2500406  0.2500815  0.2500970  )
        23        C      tau(  23) = (  0.2495338  0.2494886  0.5001357  )
        24        C      tau(  24) = (  0.2499631  0.2499125  0.7500111  )
        25        C      tau(  25) = (  0.2500034  0.4999718 -0.0000842  )
        26        C      tau(  26) = (  0.2495339  0.5001186  0.2495052  )
        27        C      tau(  27) = (  0.2505932  0.4998480  0.4998658  )
        28        C      tau(  28) = (  0.2498165  0.4997302  0.7502020  )
        29        C      tau(  29) = (  0.2500099  0.7499604 -0.0001290  )
        30        C      tau(  30) = (  0.2499650  0.7499927  0.2499319  )
        31        C      tau(  31) = (  0.2498164  0.7501847  0.4997474  )
        32        C      tau(  32) = (  0.2503392  0.7496958  0.7497136  )
        33        C      tau(  33) = (  0.4999798 -0.0000274 -0.0000122  )
        34        C      tau(  34) = (  0.4999644 -0.0000454  0.2500197  )
        35        C      tau(  35) = (  0.4999878 -0.0000327  0.5000084  )
        36        C      tau(  36) = (  0.5000074 -0.0000243  0.7500012  )
        37        C      tau(  37) = (  0.4999640  0.2500058 -0.0000313  )
        38        C      tau(  38) = (  0.4999434  0.2496396  0.2496545  )
        39        C      tau(  39) = (  0.4998390  0.2502560  0.4999733  )
        40        C      tau(  40) = (  0.4997965  0.2495222  0.7504554  )
        41        C      tau(  41) = (  0.4999882  0.4999948 -0.0000185  )
        42        C      tau(  42) = (  0.4998398  0.4999560  0.2502730  )
        43        C      tau(  43) = (  0.5000843  0.4999897  0.7496626  )
        44        C      tau(  44) = (  0.5000082  0.7499864 -0.0000078  )
        45        C      tau(  45) = (  0.4997978  0.7504401  0.2495379  )
        46        C      tau(  46) = (  0.5000849  0.7496471  0.5000055  )
        47        C      tau(  47) = (  0.5002273  0.7502315  0.7502465  )
        48        C      tau(  48) = (  0.7499886  0.0000332  0.0000452  )
        49        C      tau(  49) = (  0.7499579 -0.0000480  0.2500432  )
        50        C      tau(  50) = (  0.7499736  0.0000347  0.5000308  )
        51        C      tau(  51) = (  0.7500295  0.0001140  0.7500441  )
        52        C      tau(  52) = (  0.7499577  0.2500316 -0.0000360  )
        53        C      tau(  53) = (  0.7499170  0.2500057  0.2500180  )
        54        C      tau(  54) = (  0.7500542  0.2498571  0.4999458  )
        55        C      tau(  55) = (  0.7497705  0.2502648  0.7498359  )
        56        C      tau(  56) = (  0.7499736  0.5000192  0.0000472  )
        57        C      tau(  57) = (  0.7500538  0.4999309  0.2498728  )
        58        C      tau(  58) = (  0.7495518  0.5000947  0.5001107  )
        59        C      tau(  59) = (  0.7502725  0.5002101  0.7503300  )
        60        C      tau(  60) = (  0.7500297  0.7500321  0.0001266  )
        61        C      tau(  61) = (  0.7497695  0.7498212  0.2502799  )
        62        C      tau(  62) = (  0.7502721  0.7503160  0.5002240  )
        63        C      tau(  63) = (  0.7501956  0.7501860  0.7501985  )
        64        C      tau(  64) = ( -0.0000381  0.1249960  0.1250079  )
        65        C      tau(  65) = ( -0.0000573  0.1249928  0.3750031  )
        66        C      tau(  66) = ( -0.0001030  0.1250274  0.6250108  )
        67        C      tau(  67) = ( -0.0000396  0.1250087  0.8749893  )
        68        C      tau(  68) = ( -0.0000577  0.3749909  0.1250060  )
        69        C      tau(  69) = ( -0.0000716  0.3750244  0.3750380  )
        70        C      tau(  70) = ( -0.0000403  0.3750208  0.6249805  )
        71        C      tau(  71) = ( -0.0000712  0.3749968  0.8749822  )
        72        C      tau(  72) = ( -0.0001027  0.6249979  0.1250421  )
        73        C      tau(  73) = ( -0.0000405  0.6249668  0.3750348  )
        74        C      tau(  74) = (  0.0001017  0.6249679  0.6249818  )
        75        C      tau(  75) = (  0.0000946  0.6249986  0.8749968  )
        76        C      tau(  76) = ( -0.0000391  0.8749768  0.1250217  )
        77        C      tau(  77) = ( -0.0000706  0.8749684  0.3750096  )
        78        C      tau(  78) = (  0.0000944  0.8749827  0.6250110  )
        79        C      tau(  79) = (  0.0000750  0.8749896  0.8750022  )
        80        C      tau(  80) = (  0.2499590  0.1250002  0.1250149  )
        81        C      tau(  81) = (  0.2499723  0.1249477  0.3750124  )
        82        C      tau(  82) = (  0.2498834  0.1248133  0.6250331  )
        83        C      tau(  83) = (  0.2499624  0.1249205  0.8749985  )
        84        C      tau(  84) = (  0.2499725  0.3749976  0.1249627  )
        85        C      tau(  85) = (  0.2503411  0.3752192  0.3752359  )
        86        C      tau(  86) = (  0.2499723  0.3748262  0.6250001  )
        87        C      tau(  87) = (  0.2499128  0.3749101  0.8750596  )
        88        C      tau(  88) = (  0.2498850  0.6250158  0.1248326  )
        89        C      tau(  89) = (  0.2499733  0.6249813  0.3748452  )
        90        C      tau(  90) = (  0.2506762  0.6244805  0.6244977  )
        91        C      tau(  91) = (  0.2502594  0.6249012  0.8747339  )
        92        C      tau(  92) = (  0.2499640  0.8749822  0.1249384  )
        93        C      tau(  93) = (  0.2499143  0.8750417  0.3749274  )
        94        C      tau(  94) = (  0.2502595  0.8747156  0.6249171  )
        95        C      tau(  95) = (  0.2500617  0.8748713  0.8748881  )
        96        C      tau(  96) = (  0.4999746  0.1248645  0.1248781  )
        97        C      tau(  97) = (  0.4999429  0.1250003  0.3750136  )
        98        C      tau(  98) = (  0.4999254  0.1250103  0.6249806  )
        99        C      tau(  99) = (  0.4999321  0.1248168  0.8751659  )
       100        C      tau( 100) = (  0.4999431  0.3749995  0.1250145  )
       101        C      tau( 101) = (  0.5000696  0.3752783  0.3752956  )
       102        C      tau( 102) = (  0.4988389  0.3752587  0.6244840  )
       103        C      tau( 103) = (  0.4999736  0.3750604  0.8748892  )
       104        C      tau( 104) = (  0.4999272  0.6249643  0.1250273  )
       105        C      tau( 105) = (  0.4988397  0.6244684  0.3752745  )
       106        C      tau( 106) = (  0.5024360  0.6245005  0.6245159  )
       107        C      tau( 107) = (  0.5000901  0.6249762  0.8749602  )
       108        C      tau( 108) = (  0.4999330  0.8751501  0.1248333  )
       109        C      tau( 109) = (  0.4999744  0.8748746  0.3750753  )
       110        C      tau( 110) = (  0.5000899  0.8749451  0.6249903  )
       111        C      tau( 111) = (  0.5000625  0.8750583  0.8750732  )
       112        C      tau( 112) = (  0.7499616  0.1250002  0.1250117  )
       113        C      tau( 113) = (  0.7499729  0.1249641  0.3750052  )
       114        C      tau( 114) = (  0.7498790  0.1251116  0.6249789  )
       115        C      tau( 115) = (  0.7499457  0.1251153  0.8749567  )
       116        C      tau( 116) = (  0.7499726  0.3749932  0.1249769  )
       117        C      tau( 117) = (  0.7498953  0.3749892  0.3750038  )
       118        C      tau( 118) = (  0.7491873  0.3756879  0.6248636  )
       119        C      tau( 119) = (  0.7499035  0.3750827  0.8749345  )
       120        C      tau( 120) = (  0.7498790  0.6249658  0.1251255  )
       121        C      tau( 121) = (  0.7491878  0.6248481  0.3757036  )
       122        C      tau( 122) = (  0.7504086  0.6253204  0.6253350  )
       123        C      tau( 123) = (  0.7501506  0.6251128  0.8752078  )
       124        C      tau( 124) = (  0.7499457  0.8749441  0.1251280  )
       125        C      tau( 125) = (  0.7499032  0.8749216  0.3750953  )
       126        C      tau( 126) = (  0.7501502  0.8751951  0.6251246  )
       127        C      tau( 127) = (  0.7500713  0.8750928  0.8751047  )
       128        C      tau( 128) = (  0.1249646 -0.0000151  0.1249895  )
       129        C      tau( 129) = (  0.1249294 -0.0000229  0.3749844  )
       130        C      tau( 130) = (  0.1250154 -0.0001173  0.6249970  )
       131        C      tau( 131) = (  0.1250114 -0.0000583  0.8749727  )
       132        C      tau( 132) = (  0.1249689  0.2500003  0.1250275  )
       133        C      tau( 133) = (  0.1249702  0.2500341  0.3750252  )
       134        C      tau( 134) = (  0.1248778  0.2498921  0.6250199  )
       135        C      tau( 135) = (  0.1249428  0.2499635  0.8749925  )
       136        C      tau( 136) = (  0.1247827  0.5000224  0.1248112  )
       137        C      tau( 137) = (  0.1250725  0.4999892  0.3750093  )
       138        C      tau( 138) = (  0.1251734  0.4998966  0.6248892  )
       139        C      tau( 139) = (  0.1249092  0.4999228  0.8750627  )
       140        C      tau( 140) = (  0.1249612  0.7499804  0.1249620  )
       141        C      tau( 141) = (  0.1249326  0.7500127  0.3749481  )
       142        C      tau( 142) = (  0.1251998  0.7498071  0.6248934  )
       143        C      tau( 143) = (  0.1251423  0.7499110  0.8748820  )
       144        C      tau( 144) = (  0.3749525 -0.0000063  0.1249511  )
       145        C      tau( 145) = (  0.3749802 -0.0000609  0.3749987  )
       146        C      tau( 146) = (  0.3750125 -0.0000950  0.6249829  )
       147        C      tau( 147) = (  0.3749899 -0.0001084  0.8749835  )
       148        C      tau( 148) = (  0.3749500  0.2500050  0.1249785  )
       149        C      tau( 149) = (  0.3750941  0.2501575  0.3752104  )
       150        C      tau( 150) = (  0.3748812  0.2497469  0.6251087  )
       151        C      tau( 151) = (  0.3749327  0.2498541  0.8751062  )
       152        C      tau( 152) = (  0.3749605  0.4999997  0.1249821  )
       153        C      tau( 153) = (  0.3755488  0.5007603  0.3752572  )
       154        C      tau( 154) = (  0.3760985  0.4987437  0.6239388  )
       155        C      tau( 155) = (  0.3751139  0.4999334  0.8748356  )
       156        C      tau( 156) = (  0.3749422  0.7500779  0.1248386  )
       157        C      tau( 157) = (  0.3749476  0.7501112  0.3748041  )
       158        C      tau( 158) = (  0.3757525  0.7491889  0.6246988  )
       159        C      tau( 159) = (  0.3751020  0.7498589  0.8748455  )
       160        C      tau( 160) = (  0.6249843 -0.0000432  0.1250470  )
       161        C      tau( 161) = (  0.6249615 -0.0000241  0.3750351  )
       162        C      tau( 162) = (  0.6249993  0.0000458  0.6250186  )
       163        C      tau( 163) = (  0.6250170  0.0000583  0.8750404  )
       164        C      tau( 164) = (  0.6249550  0.2499475  0.1249358  )
       165        C      tau( 165) = (  0.6248793  0.2499170  0.3749546  )
       166        C      tau( 166) = (  0.6245839  0.2503489  0.6247410  )
       167        C      tau( 167) = (  0.6249483  0.2502027  0.8748489  )
       168        C      tau( 168) = (  0.6249011  0.4999748  0.1250743  )
       169        C      tau( 169) = (  0.6238485  0.4994482  0.3757107  )
       170        C      tau( 170) = (  0.6245231  0.5024387  0.6246922  )
       171        C      tau( 171) = (  0.6250074  0.5000652  0.8750007  )
       172        C      tau( 172) = (  0.6249358  0.7499304  0.1250822  )
       173        C      tau( 173) = (  0.6247619  0.7493405  0.3756595  )
       174        C      tau( 174) = (  0.6253091  0.7504453  0.6253087  )
       175        C      tau( 175) = (  0.6251192  0.7501384  0.8751934  )
       176        C      tau( 176) = (  0.8749628 -0.0000149  0.1250360  )
       177        C      tau( 177) = (  0.8749484 -0.0000256  0.3750238  )
       178        C      tau( 178) = (  0.8750137  0.0000746  0.6250290  )
       179        C      tau( 179) = (  0.8750103  0.0000598  0.8750223  )
       180        C      tau( 180) = (  0.8749465  0.2500046  0.1250042  )
       181        C      tau( 181) = (  0.8749588  0.2499843  0.3750063  )
       182        C      tau( 182) = (  0.8747373  0.2502515  0.6249858  )
       183        C      tau( 183) = (  0.8749088  0.2500597  0.8749501  )
       184        C      tau( 184) = (  0.8749964  0.4999787  0.1249886  )
       185        C      tau( 185) = (  0.8747849  0.5000053  0.3751423  )
       186        C      tau( 186) = (  0.8749482  0.5000790  0.6250183  )
       187        C      tau( 187) = (  0.8750827  0.5000610  0.8750962  )
       188        C      tau( 188) = (  0.8749141  0.7499616  0.1251297  )
       189        C      tau( 189) = (  0.8748702  0.7499079  0.3751013  )
       190        C      tau( 190) = (  0.8752043  0.7501344  0.6251173  )
       191        C      tau( 191) = (  0.8751106  0.7500552  0.8750963  )
       192        C      tau( 192) = (  0.1249639  0.1249759 -0.0000015  )
       193        C      tau( 193) = (  0.1249692  0.1250135  0.2500135  )
       194        C      tau( 194) = (  0.1247820  0.1247948  0.5000373  )
       195        C      tau( 195) = (  0.1249599  0.1249455  0.7499949  )
       196        C      tau( 196) = (  0.1249286  0.3749706 -0.0000078  )
       197        C      tau( 197) = (  0.1249702  0.3750108  0.2500489  )
       198        C      tau( 198) = (  0.1250726  0.3749937  0.5000048  )
       199        C      tau( 199) = (  0.1249313  0.3749319  0.7500291  )
       200        C      tau( 200) = (  0.1250161  0.6249830 -0.0001002  )
       201        C      tau( 201) = (  0.1248791  0.6250041  0.2499089  )
       202        C      tau( 202) = (  0.1251733  0.6248729  0.4999128  )
       203        C      tau( 203) = (  0.1251998  0.6248776  0.7498239  )
       204        C      tau( 204) = (  0.1250119  0.8749591 -0.0000434  )
       205        C      tau( 205) = (  0.1249443  0.8749775  0.2499786  )
       206        C      tau( 206) = (  0.1249101  0.8750461  0.4999379  )
       207        C      tau( 207) = (  0.1251421  0.8748655  0.7499255  )
       208        C      tau( 208) = (  0.3749518  0.1249347  0.0000099  )
       209        C      tau( 209) = (  0.3749501  0.1249641  0.2500192  )
       210        C      tau( 210) = (  0.3749594  0.1249658  0.5000159  )
       211        C      tau( 211) = (  0.3749407  0.1248190  0.7500959  )
       212        C      tau( 212) = (  0.3749799  0.3749843 -0.0000461  )
       213        C      tau( 213) = (  0.3750943  0.3751932  0.2501745  )
       214        C      tau( 214) = (  0.3755481  0.3752405  0.5007771  )
       215        C      tau( 215) = (  0.3749465  0.3747869  0.7501278  )
       216        C      tau( 216) = (  0.3750134  0.6249677 -0.0000775  )
       217        C      tau( 217) = (  0.3748825  0.6250911  0.2497647  )
       218        C      tau( 218) = (  0.3760989  0.6239228  0.4987601  )
       219        C      tau( 219) = (  0.3757526  0.6246823  0.7492056  )
       220        C      tau( 220) = (  0.3749906  0.8749670 -0.0000900  )
       221        C      tau( 221) = (  0.3749340  0.8750886  0.2498722  )
       222        C      tau( 222) = (  0.3751141  0.8748198  0.4999491  )
       223        C      tau( 223) = (  0.3751018  0.8748276  0.7498749  )
       224        C      tau( 224) = (  0.6249841  0.1250343 -0.0000305  )
       225        C      tau( 225) = (  0.6249552  0.1249231  0.2499599  )
       226        C      tau( 226) = (  0.6249006  0.1250603  0.4999885  )
       227        C      tau( 227) = (  0.6249349  0.1250670  0.7499450  )
       228        C      tau( 228) = (  0.6249614  0.3750227 -0.0000113  )
       229        C      tau( 229) = (  0.6248795  0.3749400  0.2499317  )
       230        C      tau( 230) = (  0.6238473  0.3756948  0.4994644  )
       231        C      tau( 231) = (  0.6247612  0.3756447  0.7493551  )
       232        C      tau( 232) = (  0.6249997  0.6250060  0.0000593  )
       233        C      tau( 233) = (  0.6245845  0.6247242  0.2503658  )
       234        C      tau( 234) = (  0.6245237  0.6246774  0.5024535  )
       235        C      tau( 235) = (  0.6253094  0.6252941  0.7504604  )
       236        C      tau( 236) = (  0.6250171  0.8750271  0.0000721  )
       237        C      tau( 237) = (  0.6249486  0.8748356  0.2502165  )
       238        C      tau( 238) = (  0.6250073  0.8749873  0.5000783  )
       239        C      tau( 239) = (  0.6251190  0.8751801  0.7501510  )
       240        C      tau( 240) = (  0.8749627  0.1250245 -0.0000031  )
       241        C      tau( 241) = (  0.8749468  0.1249925  0.2500159  )
       242        C      tau( 242) = (  0.8749971  0.1249751  0.4999908  )
       243        C      tau( 243) = (  0.8749144  0.1251161  0.7499742  )
       244        C      tau( 244) = (  0.8749482  0.3750126 -0.0000132  )
       245        C      tau( 245) = (  0.8749586  0.3749936  0.2499974  )
       246        C      tau( 246) = (  0.8747851  0.3751272  0.5000199  )
       247        C      tau( 247) = (  0.8748710  0.3750875  0.7499217  )
       248        C      tau( 248) = (  0.8750139  0.6250175  0.0000875  )
       249        C      tau( 249) = (  0.8747363  0.6249716  0.2502667  )
       250        C      tau( 250) = (  0.8749479  0.6250044  0.5000931  )
       251        C      tau( 251) = (  0.8752045  0.6251049  0.7501472  )
       252        C      tau( 252) = (  0.8750104  0.8750106  0.0000719  )
       253        C      tau( 253) = (  0.8749087  0.8749372  0.2500721  )
       254        C      tau( 254) = (  0.8750824  0.8750834  0.5000727  )
       255        C      tau( 255) = (  0.8751104  0.8750841  0.7500668  )
       256        C      tau( 256) = (  0.1874538  0.0625039  0.1874965  )
       257        C      tau( 257) = (  0.1874268  0.0624118  0.4374956  )
       258        C      tau( 258) = (  0.1874678  0.0623632  0.6874989  )
       259        C      tau( 259) = (  0.1874795  0.0624502  0.9374858  )
       260        C      tau( 260) = (  0.1874836  0.3125083  0.1875319  )
       261        C      tau( 261) = (  0.1875278  0.3124607  0.4375190  )
       262        C      tau( 262) = (  0.1874204  0.3124287  0.6874982  )
       263        C      tau( 263) = (  0.1874285  0.3124540  0.9375261  )
       264        C      tau( 264) = (  0.1871575  0.5624485  0.1871539  )
       265        C      tau( 265) = (  0.1876940  0.5623961  0.4374518  )
       266        C      tau( 266) = (  0.1877685  0.5623323  0.6873286  )
       267        C      tau( 267) = (  0.1875724  0.5624442  0.9373697  )
       268        C      tau( 268) = (  0.1874635  0.8124786  0.1874607  )
       269        C      tau( 269) = (  0.1873052  0.8126713  0.4374912  )
       270        C      tau( 270) = (  0.1877262  0.8122721  0.6873687  )
       271        C      tau( 271) = (  0.1875492  0.8124300  0.9374010  )
       272        C      tau( 272) = (  0.4374514  0.0624491  0.1874751  )
       273        C      tau( 273) = (  0.4374509  0.0624603  0.4375002  )
       274        C      tau( 274) = (  0.4374811  0.0624369  0.6875061  )
       275        C      tau( 275) = (  0.4374944  0.0623759  0.9375621  )
       276        C      tau( 276) = (  0.4374028  0.3124805  0.1874773  )
       277        C      tau( 277) = (  0.4375014  0.3127748  0.4377430  )
       278        C      tau( 278) = (  0.4376872  0.3116044  0.6883685  )
       279        C      tau( 279) = (  0.4374715  0.3124806  0.9374602  )
       280        C      tau( 280) = (  0.4374306  0.5624765  0.1874975  )
       281        C      tau( 281) = (  0.4385595  0.5617147  0.6863413  )
       282        C      tau( 282) = (  0.4375248  0.5624754  0.9374343  )
       283        C      tau( 283) = (  0.4375083  0.8128148  0.1871589  )
       284        C      tau( 284) = (  0.4375258  0.8123605  0.4374695  )
       285        C      tau( 285) = (  0.4377039  0.8122933  0.6874007  )
       286        C      tau( 286) = (  0.4375396  0.8124494  0.9374376  )
       287        C      tau( 287) = (  0.6874674  0.0624554  0.1875186  )
       288        C      tau( 288) = (  0.6874460  0.0625151  0.4375308  )
       289        C      tau( 289) = (  0.6874830  0.0625686  0.6875222  )
       290        C      tau( 290) = (  0.6874831  0.0625677  0.9375011  )
       291        C      tau( 291) = (  0.6874322  0.3124949  0.1874480  )
       292        C      tau( 292) = (  0.6878290  0.3120565  0.4376601  )
       293        C      tau( 293) = (  0.6871069  0.3128682  0.6872445  )
       294        C      tau( 294) = (  0.6874530  0.3125583  0.9374546  )
       295        C      tau( 295) = (  0.6873474  0.5624893  0.1876269  )
       296        C      tau( 296) = (  0.6862897  0.5619546  0.4385622  )
       297        C      tau( 297) = (  0.6881958  0.5628415  0.6882712  )
       298        C      tau( 298) = (  0.6875277  0.5625434  0.9375682  )
       299        C      tau( 299) = (  0.6874000  0.8123829  0.1876722  )
       300        C      tau( 300) = (  0.6874469  0.8123947  0.4376694  )
       301        C      tau( 301) = (  0.6877201  0.8128073  0.6877219  )
       302        C      tau( 302) = (  0.6875698  0.8125876  0.9376434  )
       303        C      tau( 303) = (  0.9374552  0.0624914  0.1875203  )
       304        C      tau( 304) = (  0.9374669  0.0624724  0.4375261  )
       305        C      tau( 305) = (  0.9374616  0.0625622  0.6875028  )
       306        C      tau( 306) = (  0.9374850  0.0625244  0.9375092  )
       307        C      tau( 307) = (  0.9374547  0.3124961  0.1875063  )
       308        C      tau( 308) = (  0.9373817  0.3125467  0.4375275  )
       309        C      tau( 309) = (  0.9373901  0.3125768  0.6874720  )
       310        C      tau( 310) = (  0.9374297  0.3125227  0.9374751  )
       311        C      tau( 311) = (  0.9373556  0.5624774  0.1876186  )
       312        C      tau( 312) = (  0.9374310  0.5624978  0.4375526  )
       313        C      tau( 313) = (  0.9375647  0.5625353  0.6875222  )
       314        C      tau( 314) = (  0.9375396  0.5625121  0.9375452  )
       315        C      tau( 315) = (  0.9374245  0.8124671  0.1875606  )
       316        C      tau( 316) = (  0.9374672  0.8124590  0.4375548  )
       317        C      tau( 317) = (  0.9376614  0.8125622  0.6875629  )
       318        C      tau( 318) = (  0.9375620  0.8125184  0.9375556  )
       319        C      tau( 319) = (  0.0624693  0.0624892  0.0625019  )
       320        C      tau( 320) = (  0.0624517  0.0624994  0.3125073  )
       321        C      tau( 321) = (  0.0623764  0.0623906  0.5624863  )
       322        C      tau( 322) = (  0.0624920  0.0624798  0.8124919  )
       323        C      tau( 323) = (  0.0624512  0.3124946  0.0625133  )
       324        C      tau( 324) = (  0.0624345  0.3124922  0.3125060  )
       325        C      tau( 325) = (  0.0624702  0.3124979  0.5624858  )
       326        C      tau( 326) = (  0.0624188  0.3124870  0.8124911  )
       327        C      tau( 327) = (  0.0623770  0.5624726  0.0624067  )
       328        C      tau( 328) = (  0.0624702  0.5624715  0.3125128  )
       329        C      tau( 329) = (  0.0626049  0.5624509  0.5624660  )
       330        C      tau( 330) = (  0.0625778  0.5624684  0.8124503  )
       331        C      tau( 331) = (  0.0624929  0.8124788  0.0624943  )
       332        C      tau( 332) = (  0.0624200  0.8124763  0.3125015  )
       333        C      tau( 333) = (  0.0625780  0.8124350  0.5624826  )
       334        C      tau( 334) = (  0.0626332  0.8124466  0.8124609  )
       335        C      tau( 335) = (  0.3124623  0.0624791  0.0624948  )
       336        C      tau( 336) = (  0.3124379  0.0624431  0.3124825  )
       337        C      tau( 337) = (  0.3124691  0.0624058  0.5624934  )
       338        C      tau( 338) = (  0.3124768  0.0623557  0.8125099  )
       339        C      tau( 339) = (  0.3124376  0.3124680  0.0624578  )
       340        C      tau( 340) = (  0.3125853  0.3126246  0.3126418  )
       341        C      tau( 341) = (  0.3118052  0.3116516  0.5622891  )
       342        C      tau( 342) = (  0.3124519  0.3123929  0.8126234  )
       343        C      tau( 343) = (  0.3124703  0.5624777  0.0624231  )
       344        C      tau( 344) = (  0.3118057  0.5622716  0.3116686  )
       345        C      tau( 345) = (  0.3135042  0.5618806  0.5618972  )
       346        C      tau( 346) = (  0.3128221  0.5622982  0.8121248  )
       347        C      tau( 347) = (  0.3124785  0.8124926  0.0623755  )
       348        C      tau( 348) = (  0.3124535  0.8126053  0.3124114  )
       349        C      tau( 349) = (  0.3128223  0.8121074  0.5623148  )
       350        C      tau( 350) = (  0.3126240  0.8123151  0.8123325  )
       351        C      tau( 351) = (  0.5624653  0.0624382  0.0624514  )
       352        C      tau( 352) = (  0.5624444  0.0624705  0.3125157  )
       353        C      tau( 353) = (  0.5624649  0.0625142  0.5625164  )
       354        C      tau( 354) = (  0.5624879  0.0624926  0.8125303  )
       355        C      tau( 355) = (  0.5624443  0.3125028  0.0624836  )
       356        C      tau( 356) = (  0.5621967  0.3118528  0.3118683  )
       357        C      tau( 357) = (  0.5619482  0.3129329  0.5623461  )
       358        C      tau( 358) = (  0.5623570  0.3126991  0.8122650  )
       359        C      tau( 359) = (  0.5624658  0.5625026  0.0625285  )
       360        C      tau( 360) = (  0.5619490  0.5623290  0.3129498  )
       361        C      tau( 361) = (  0.5625845  0.5625368  0.8125241  )
       362        C      tau( 362) = (  0.5624889  0.8125154  0.0625085  )
       363        C      tau( 363) = (  0.5623579  0.8122505  0.3127138  )
       364        C      tau( 364) = (  0.5625848  0.8125096  0.5625512  )
       365        C      tau( 365) = (  0.5626207  0.8126975  0.8127110  )
       366        C      tau( 366) = (  0.8124722  0.0625146  0.0625261  )
       367        C      tau( 367) = (  0.8124549  0.0624670  0.3125256  )
       368        C      tau( 368) = (  0.8124622  0.0625575  0.5625219  )
       369        C      tau( 369) = (  0.8124791  0.0626088  0.8125053  )
       370        C      tau( 370) = (  0.8124546  0.3125143  0.0624791  )
       371        C      tau( 371) = (  0.8124625  0.3125057  0.3125188  )
       372        C      tau( 372) = (  0.8120844  0.3128359  0.5624335  )
       373        C      tau( 373) = (  0.8123703  0.3126011  0.8124156  )
       374        C      tau( 374) = (  0.8124622  0.5625101  0.0625705  )
       375        C      tau( 375) = (  0.8120839  0.5624182  0.3128519  )
       376        C      tau( 376) = (  0.8124619  0.5625917  0.5626062  )
       377        C      tau( 377) = (  0.8127298  0.5626120  0.8127437  )
       378        C      tau( 378) = (  0.8124792  0.8124933  0.0626214  )
       379        C      tau( 379) = (  0.8123697  0.8124020  0.3126145  )
       380        C      tau( 380) = (  0.8127295  0.8127309  0.5626241  )
       381        C      tau( 381) = (  0.8126411  0.8126237  0.8126355  )
       382        C      tau( 382) = (  0.0624624  0.1875001  0.1875130  )
       383        C      tau( 383) = (  0.0624129  0.1874772  0.4375064  )
       384        C      tau( 384) = (  0.0624027  0.1874785  0.6875004  )
       385        C      tau( 385) = (  0.0624552  0.1874910  0.9374948  )
       386        C      tau( 386) = (  0.0624128  0.4374928  0.1874917  )
       387        C      tau( 387) = (  0.0625129  0.4374862  0.4375008  )
       388        C      tau( 388) = (  0.0625418  0.4374851  0.6874567  )
       389        C      tau( 389) = (  0.0624008  0.4375009  0.9375281  )
       390        C      tau( 390) = (  0.0624038  0.6874862  0.1874941  )
       391        C      tau( 391) = (  0.0625420  0.6874419  0.4374998  )
       392        C      tau( 392) = (  0.0626476  0.6874394  0.6874546  )
       393        C      tau( 393) = (  0.0625754  0.6874708  0.9374457  )
       394        C      tau( 394) = (  0.0624563  0.9374813  0.1875043  )
       395        C      tau( 395) = (  0.0624017  0.9375129  0.4375145  )
       396        C      tau( 396) = (  0.0625751  0.9374300  0.6874840  )
       397        C      tau( 397) = (  0.0625216  0.9374775  0.9374907  )
       398        C      tau( 398) = (  0.3124590  0.1875146  0.1875291  )
       399        C      tau( 399) = (  0.3123935  0.1874231  0.4375238  )
       400        C      tau( 400) = (  0.3124410  0.1872856  0.6875455  )
       401        C      tau( 401) = (  0.3124437  0.1874175  0.9375473  )
       402        C      tau( 402) = (  0.3123943  0.4375070  0.1874393  )
       403        C      tau( 403) = (  0.3132024  0.4377118  0.4377286  )
       404        C      tau( 404) = (  0.3120691  0.4375459  0.6880514  )
       405        C      tau( 405) = (  0.3125009  0.4374664  0.9374224  )
       406        C      tau( 406) = (  0.3124428  0.6875270  0.1873054  )
       407        C      tau( 407) = (  0.3120695  0.6880348  0.4375631  )
       408        C      tau( 408) = (  0.3129954  0.6870545  0.6870718  )
       409        C      tau( 409) = (  0.3125688  0.6874298  0.9373624  )
       410        C      tau( 410) = (  0.3124454  0.9375300  0.1874353  )
       411        C      tau( 411) = (  0.3125015  0.9374067  0.4374815  )
       412        C      tau( 412) = (  0.3125684  0.9373439  0.6874452  )
       413        C      tau( 413) = (  0.3125065  0.9374129  0.9374298  )
       414        C      tau( 414) = (  0.5624091  0.1872676  0.1872809  )
       415        C      tau( 415) = (  0.5623611  0.1875408  0.4375380  )
       416        C      tau( 416) = (  0.5623790  0.1875266  0.6875232  )
       417        C      tau( 417) = (  0.5624549  0.1875424  0.9374522  )
       418        C      tau( 418) = (  0.5623617  0.4375230  0.1875555  )
       419        C      tau( 419) = (  0.5618055  0.4383330  0.6864961  )
       420        C      tau( 420) = (  0.5624886  0.4375124  0.9374713  )
       421        C      tau( 421) = (  0.5623808  0.6875065  0.1875438  )
       422        C      tau( 422) = (  0.5618066  0.6864814  0.4383482  )
       423        C      tau( 423) = (  0.5628715  0.6881597  0.6881752  )
       424        C      tau( 424) = (  0.5625448  0.6875206  0.9375399  )
       425        C      tau( 425) = (  0.5624556  0.9374384  0.1875564  )
       426        C      tau( 426) = (  0.5624889  0.9374579  0.4375257  )
       427        C      tau( 427) = (  0.5625445  0.9375256  0.6875337  )
       428        C      tau( 428) = (  0.5625154  0.9375369  0.9375509  )
       429        C      tau( 429) = (  0.8124414  0.1875061  0.1875176  )
       430        C      tau( 430) = (  0.8125660  0.1873924  0.4375417  )
       431        C      tau( 431) = (  0.8123285  0.1876801  0.6874489  )
       432        C      tau( 432) = (  0.8124478  0.1875542  0.9374704  )
       433        C      tau( 433) = (  0.8125653  0.4375287  0.1874065  )
       434        C      tau( 434) = (  0.8122506  0.4375624  0.4375777  )
       435        C      tau( 435) = (  0.8123187  0.4376975  0.6874820  )
       436        C      tau( 436) = (  0.8124650  0.4375447  0.9375004  )
       437        C      tau( 437) = (  0.8123278  0.6874353  0.1876946  )
       438        C      tau( 438) = (  0.8123180  0.6874676  0.4377122  )
       439        C      tau( 439) = (  0.8128133  0.6877114  0.6877244  )
       440        C      tau( 440) = (  0.8125903  0.6875664  0.9376490  )
       441        C      tau( 441) = (  0.8124479  0.9374582  0.1875661  )
       442        C      tau( 442) = (  0.8124649  0.9374880  0.4375562  )
       443        C      tau( 443) = (  0.8125900  0.9376366  0.6875779  )
       444        C      tau( 444) = (  0.8125267  0.9375572  0.9375689  )
       445        C      tau( 445) = (  0.1874532  0.1874823  0.0625187  )
       446        C      tau( 446) = (  0.1874834  0.1875171  0.3125227  )
       447        C      tau( 447) = (  0.1871568  0.1871364  0.5624654  )
       448        C      tau( 448) = (  0.1874615  0.1874430  0.8124950  )
       449        C      tau( 449) = (  0.1874270  0.4374813  0.0624271  )
       450        C      tau( 450) = (  0.1875277  0.4375025  0.3124769  )
       451        C      tau( 451) = (  0.1876941  0.4374341  0.5624138  )
       452        C      tau( 452) = (  0.1873045  0.4374742  0.8126888  )
       453        C      tau( 453) = (  0.1874693  0.6874832  0.0623821  )
       454        C      tau( 454) = (  0.1874221  0.6874802  0.3124472  )
       455        C      tau( 455) = (  0.1877684  0.6873111  0.5623496  )
       456        C      tau( 456) = (  0.1877261  0.6873523  0.8122901  )
       457        C      tau( 457) = (  0.1874806  0.9374710  0.0624658  )
       458        C      tau( 458) = (  0.1874302  0.9375096  0.3124698  )
       459        C      tau( 459) = (  0.1875726  0.9373528  0.5624588  )
       460        C      tau( 460) = (  0.1875487  0.9373837  0.8124452  )
       461        C      tau( 461) = (  0.4374511  0.1874610  0.0624633  )
       462        C      tau( 462) = (  0.4374025  0.1874624  0.3124954  )
       463        C      tau( 463) = (  0.4374290  0.1874800  0.5624941  )
       464        C      tau( 464) = (  0.4375069  0.1871423  0.8128307  )
       465        C      tau( 465) = (  0.4374513  0.4374859  0.0624748  )
       466        C      tau( 466) = (  0.4375018  0.4377254  0.3127923  )
       467        C      tau( 467) = (  0.4375248  0.4374530  0.8123763  )
       468        C      tau( 468) = (  0.4374827  0.6874898  0.0624550  )
       469        C      tau( 469) = (  0.4376885  0.6883526  0.3116207  )
       470        C      tau( 470) = (  0.4385598  0.6863255  0.5617307  )
       471        C      tau( 471) = (  0.4377038  0.6873852  0.8123098  )
       472        C      tau( 472) = (  0.4374954  0.9375455  0.0623934  )
       473        C      tau( 473) = (  0.4374725  0.9374450  0.3124960  )
       474        C      tau( 474) = (  0.4375246  0.9374190  0.5624897  )
       475        C      tau( 475) = (  0.4375391  0.9374205  0.8124646  )
       476        C      tau( 476) = (  0.6874673  0.1875068  0.0624674  )
       477        C      tau( 477) = (  0.6874323  0.1874351  0.3125076  )
       478        C      tau( 478) = (  0.6873468  0.1876121  0.5625039  )
       479        C      tau( 479) = (  0.6873999  0.1876581  0.8123966  )
       480        C      tau( 480) = (  0.6874461  0.4375186  0.0625277  )
       481        C      tau( 481) = (  0.6878294  0.4376449  0.3120714  )
       482        C      tau( 482) = (  0.6862889  0.4385467  0.5619700  )
       483        C      tau( 483) = (  0.6874470  0.4376558  0.8124083  )
       484        C      tau( 484) = (  0.6874835  0.6875094  0.0625822  )
       485        C      tau( 485) = (  0.6871070  0.6872285  0.3128845  )
       486        C      tau( 486) = (  0.6881958  0.6882562  0.5628566  )
       487        C      tau( 487) = (  0.6877203  0.6877092  0.8128207  )
       488        C      tau( 488) = (  0.6874832  0.9374887  0.0625802  )
       489        C      tau( 489) = (  0.6874532  0.9374421  0.3125706  )
       490        C      tau( 490) = (  0.6875275  0.9375555  0.5625554  )
       491        C      tau( 491) = (  0.6875697  0.9376307  0.8125998  )
       492        C      tau( 492) = (  0.9374549  0.1875088  0.0625033  )
       493        C      tau( 493) = (  0.9374550  0.1874938  0.3125080  )
       494        C      tau( 494) = (  0.9373562  0.1876044  0.5624902  )
       495        C      tau( 495) = (  0.9374242  0.1875476  0.8124798  )
       496        C      tau( 496) = (  0.9374665  0.4375145  0.0624857  )
       497        C      tau( 497) = (  0.9373815  0.4375142  0.3125604  )
       498        C      tau( 498) = (  0.9374311  0.4375387  0.5625115  )
       499        C      tau( 499) = (  0.9374674  0.4375421  0.8124724  )
       500        C      tau( 500) = (  0.9374618  0.6874908  0.0625759  )
       501        C      tau( 501) = (  0.9373895  0.6874585  0.3125907  )
       502        C      tau( 502) = (  0.9375647  0.6875088  0.5625485  )
       503        C      tau( 503) = (  0.9376615  0.6875506  0.8125753  )
       504        C      tau( 504) = (  0.9374853  0.9374974  0.0625363  )
       505        C      tau( 505) = (  0.9374302  0.9374622  0.3125346  )
       506        C      tau( 506) = (  0.9375394  0.9375318  0.5625238  )
       507        C      tau( 507) = (  0.9375618  0.9375430  0.8125302  )
       508        C      tau( 508) = (  0.5667489  0.4322377  0.4322532  )
       509        C      tau( 509) = (  0.4329064  0.4317109  0.5673041  )
       510        C      tau( 510) = (  0.4329069  0.5672887  0.4317265  )
       511        N      tau( 511) = (  0.5673849  0.5672839  0.5672986  )

     number of k points=     1
                       cart. coord. in units 2pi/alat
        k(    1) = (   0.0000000   0.0000000   0.0000000), wk =   1.0000000

                       cryst. coord.
        k(    1) = (   0.0000000   0.0000000   0.0000000), wk =   1.0000000

     Dense  grid:   948261 G-vectors     FFT dimensions: ( 160, 160, 160)

     Dynamical RAM for                 wfc:      38.88 MB

     Dynamical RAM for     wfc (w. buffer):      38.88 MB

     Dynamical RAM for           str. fact:       0.60 MB

     Dynamical RAM for           local pot:       0.00 MB

     Dynamical RAM for          nlocal pot:     154.01 MB

     Dynamical RAM for                qrad:       0.82 MB

     Dynamical RAM for          rho,v,vnew:       6.50 MB

     Dynamical RAM for               rhoin:       2.17 MB

     Dynamical RAM for            rho*nmix:       9.65 MB

     Dynamical RAM for           G-vectors:       1.28 MB

     Dynamical RAM for          h,s,v(r/c):       2.71 MB

     Dynamical RAM for          <psi|beta>:      32.19 MB

     Dynamical RAM for                 psi:      77.76 MB

     Dynamical RAM for                hpsi:      77.76 MB

     Dynamical RAM for      wfcinit/wfcrot:     102.14 MB

     Estimated static dynamical RAM per process >     209.85 MB

     Estimated max dynamical RAM per process >     409.91 MB

     Estimated total dynamical RAM >      37.98 GB
     Generating pointlists ...
     new r_m :   0.0428 (alat units)  1.1542 (a.u.) for type    1
     new r_m :   0.0428 (alat units)  1.1542 (a.u.) for type    2

     Initial potential from superposition of free atoms

     starting charge    2041.4445, renormalised to    2046.0000
     Starting wfcs are random

     total cpu time spent up to now is       16.3 secs

     Self-consistent Calculation

     iteration #  1     ecut=    80.00 Ry     beta= 0.70
     Davidson diagonalization with overlap

---- Real-time Memory Report at c_bands before calling an iterative solver
           513 MiB given to the printing process from OS
             0 MiB allocation reported by mallinfo(arena+hblkhd)
        160636 MiB available memory on the node where the printing process lives
------------------
     ethr =  1.00E-02,  avg # of iterations = 13.0

     total cpu time spent up to now is       91.3 secs

     total energy              =   -5824.01758620 Ry
     estimated scf accuracy    <      29.02418548 Ry

     total magnetization       =     2.00 Bohr mag/cell
     absolute magnetization    =     2.00 Bohr mag/cell

     iteration #  2     ecut=    80.00 Ry     beta= 0.70
     Davidson diagonalization with overlap

---- Real-time Memory Report at c_bands before calling an iterative solver
           631 MiB given to the printing process from OS
             0 MiB allocation reported by mallinfo(arena+hblkhd)
        159099 MiB available memory on the node where the printing process lives
------------------
     ethr =  1.42E-03,  avg # of iterations = 18.5

     total cpu time spent up to now is      119.2 secs

     total energy              =   -5828.16579521 Ry
     estimated scf accuracy    <       1.22195074 Ry

     total magnetization       =     2.00 Bohr mag/cell
     absolute magnetization    =     2.07 Bohr mag/cell

     iteration #  3     ecut=    80.00 Ry     beta= 0.70
     Davidson diagonalization with overlap

---- Real-time Memory Report at c_bands before calling an iterative solver
           652 MiB given to the printing process from OS
             0 MiB allocation reported by mallinfo(arena+hblkhd)
        158965 MiB available memory on the node where the printing process lives
------------------
     c_bands:  2 eigenvalues not converged
     ethr =  5.97E-05,  avg # of iterations = 20.0

     total cpu time spent up to now is      166.3 secs

     total energy              =   -5827.96105296 Ry
     estimated scf accuracy    <       5.33552223 Ry

     total magnetization       =     2.00 Bohr mag/cell
     absolute magnetization    =     2.25 Bohr mag/cell

     iteration #  4     ecut=    80.00 Ry     beta= 0.70
     Davidson diagonalization with overlap

---- Real-time Memory Report at c_bands before calling an iterative solver
           658 MiB given to the printing process from OS
             0 MiB allocation reported by mallinfo(arena+hblkhd)
        158963 MiB available memory on the node where the printing process lives
------------------
     c_bands:  1 eigenvalues not converged
     ethr =  5.97E-05,  avg # of iterations = 20.0

     total cpu time spent up to now is      208.5 secs

     total energy              =   -5829.06978919 Ry
     estimated scf accuracy    <       0.16573081 Ry

     total magnetization       =     2.00 Bohr mag/cell
     absolute magnetization    =     2.16 Bohr mag/cell

     iteration #  5     ecut=    80.00 Ry     beta= 0.70
     Davidson diagonalization with overlap

---- Real-time Memory Report at c_bands before calling an iterative solver
           659 MiB given to the printing process from OS
             0 MiB allocation reported by mallinfo(arena+hblkhd)
        158957 MiB available memory on the node where the printing process lives
------------------
     c_bands:  2 eigenvalues not converged
     ethr =  8.10E-06,  avg # of iterations = 20.0

     total cpu time spent up to now is      234.5 secs

     total energy              =   -5829.08748898 Ry
     estimated scf accuracy    <       0.05628100 Ry

     total magnetization       =     2.00 Bohr mag/cell
     absolute magnetization    =     2.18 Bohr mag/cell

     iteration #  6     ecut=    80.00 Ry     beta= 0.70
     Davidson diagonalization with overlap

---- Real-time Memory Report at c_bands before calling an iterative solver
           659 MiB given to the printing process from OS
             0 MiB allocation reported by mallinfo(arena+hblkhd)
        158956 MiB available memory on the node where the printing process lives
------------------
     c_bands:  1 eigenvalues not converged
     ethr =  2.75E-06,  avg # of iterations = 20.0

     total cpu time spent up to now is      261.6 secs

     total energy              =   -5829.09775487 Ry
     estimated scf accuracy    <       0.00415586 Ry

     total magnetization       =     2.00 Bohr mag/cell
     absolute magnetization    =     2.21 Bohr mag/cell

     iteration #  7     ecut=    80.00 Ry     beta= 0.70
     Davidson diagonalization with overlap

---- Real-time Memory Report at c_bands before calling an iterative solver
           659 MiB given to the printing process from OS
             0 MiB allocation reported by mallinfo(arena+hblkhd)
        158956 MiB available memory on the node where the printing process lives
------------------
     c_bands:  1 eigenvalues not converged
     ethr =  2.03E-07,  avg # of iterations = 19.0

     total cpu time spent up to now is      291.5 secs

     total energy              =   -5829.09934225 Ry
     estimated scf accuracy    <       0.00052898 Ry

     total magnetization       =     2.00 Bohr mag/cell
     absolute magnetization    =     2.23 Bohr mag/cell

     iteration #  8     ecut=    80.00 Ry     beta= 0.70
     Davidson diagonalization with overlap

---- Real-time Memory Report at c_bands before calling an iterative solver
           659 MiB given to the printing process from OS
             0 MiB allocation reported by mallinfo(arena+hblkhd)
        158753 MiB available memory on the node where the printing process lives
------------------
     c_bands:  2 eigenvalues not converged
     ethr =  2.59E-08,  avg # of iterations = 20.0

     total cpu time spent up to now is      319.5 secs

     total energy              =   -5829.09962875 Ry
     estimated scf accuracy    <       0.00026252 Ry

     total magnetization       =     2.00 Bohr mag/cell
     absolute magnetization    =     2.25 Bohr mag/cell

     iteration #  9     ecut=    80.00 Ry     beta= 0.70
     Davidson diagonalization with overlap

---- Real-time Memory Report at c_bands before calling an iterative solver
           663 MiB given to the printing process from OS
             0 MiB allocation reported by mallinfo(arena+hblkhd)
        158587 MiB available memory on the node where the printing process lives
------------------
     c_bands:  1 eigenvalues not converged
     ethr =  1.28E-08,  avg # of iterations = 20.0

     total cpu time spent up to now is      346.6 secs

     total energy              =   -5829.09972175 Ry
     estimated scf accuracy    <       0.00006312 Ry

     total magnetization       =     2.00 Bohr mag/cell
     absolute magnetization    =     2.26 Bohr mag/cell

     iteration # 10     ecut=    80.00 Ry     beta= 0.70
     Davidson diagonalization with overlap

---- Real-time Memory Report at c_bands before calling an iterative solver
           666 MiB given to the printing process from OS
             0 MiB allocation reported by mallinfo(arena+hblkhd)
        158559 MiB available memory on the node where the printing process lives
------------------
     c_bands:  1 eigenvalues not converged
     ethr =  3.09E-09,  avg # of iterations = 20.0

     total cpu time spent up to now is      374.9 secs

     total energy              =   -5829.09974462 Ry
     estimated scf accuracy    <       0.00002048 Ry

     total magnetization       =     2.00 Bohr mag/cell
     absolute magnetization    =     2.27 Bohr mag/cell

     iteration # 11     ecut=    80.00 Ry     beta= 0.70
     Davidson diagonalization with overlap

---- Real-time Memory Report at c_bands before calling an iterative solver
           668 MiB given to the printing process from OS
             0 MiB allocation reported by mallinfo(arena+hblkhd)
        158558 MiB available memory on the node where the printing process lives
------------------
     c_bands:  1 eigenvalues not converged
     ethr =  1.00E-09,  avg # of iterations = 20.0

     total cpu time spent up to now is      402.0 secs

     total energy              =   -5829.09975002 Ry
     estimated scf accuracy    <       0.00000638 Ry

     total magnetization       =     2.00 Bohr mag/cell
     absolute magnetization    =     2.28 Bohr mag/cell

     iteration # 12     ecut=    80.00 Ry     beta= 0.70
     Davidson diagonalization with overlap

---- Real-time Memory Report at c_bands before calling an iterative solver
           668 MiB given to the printing process from OS
             0 MiB allocation reported by mallinfo(arena+hblkhd)
        158496 MiB available memory on the node where the printing process lives
------------------
     c_bands:  1 eigenvalues not converged
     ethr =  3.12E-10,  avg # of iterations = 20.0

     total cpu time spent up to now is      432.1 secs

     total energy              =   -5829.09975212 Ry
     estimated scf accuracy    <       0.00000158 Ry

     total magnetization       =     2.00 Bohr mag/cell
     absolute magnetization    =     2.28 Bohr mag/cell

     iteration # 13     ecut=    80.00 Ry     beta= 0.70
     Davidson diagonalization with overlap

---- Real-time Memory Report at c_bands before calling an iterative solver
           668 MiB given to the printing process from OS
             0 MiB allocation reported by mallinfo(arena+hblkhd)
        158497 MiB available memory on the node where the printing process lives
------------------
     c_bands:  2 eigenvalues not converged
     ethr =  7.73E-11,  avg # of iterations = 20.0

     total cpu time spent up to now is      460.3 secs

     total energy              =   -5829.09975271 Ry
     estimated scf accuracy    <       0.00000026 Ry

     total magnetization       =     2.00 Bohr mag/cell
     absolute magnetization    =     2.28 Bohr mag/cell

     iteration # 14     ecut=    80.00 Ry     beta= 0.70
     Davidson diagonalization with overlap

---- Real-time Memory Report at c_bands before calling an iterative solver
           668 MiB given to the printing process from OS
             0 MiB allocation reported by mallinfo(arena+hblkhd)
        158496 MiB available memory on the node where the printing process lives
------------------
     ethr =  1.28E-11,  avg # of iterations = 16.0

     total cpu time spent up to now is      501.1 secs

     total energy              =   -5829.09975282 Ry
     estimated scf accuracy    <       0.00000008 Ry

     total magnetization       =     2.00 Bohr mag/cell
     absolute magnetization    =     2.28 Bohr mag/cell

     iteration # 15     ecut=    80.00 Ry     beta= 0.70
     Davidson diagonalization with overlap

---- Real-time Memory Report at c_bands before calling an iterative solver
           668 MiB given to the printing process from OS
             0 MiB allocation reported by mallinfo(arena+hblkhd)
        158383 MiB available memory on the node where the printing process lives
------------------
     c_bands:  2 eigenvalues not converged
     ethr =  3.82E-12,  avg # of iterations = 20.0

     total cpu time spent up to now is      529.4 secs

     total energy              =   -5829.09975285 Ry
     estimated scf accuracy    <       0.00000005 Ry

     total magnetization       =     2.00 Bohr mag/cell
     absolute magnetization    =     2.29 Bohr mag/cell

     iteration # 16     ecut=    80.00 Ry     beta= 0.70
     Davidson diagonalization with overlap

---- Real-time Memory Report at c_bands before calling an iterative solver
           671 MiB given to the printing process from OS
             0 MiB allocation reported by mallinfo(arena+hblkhd)
        158383 MiB available memory on the node where the printing process lives
------------------
     c_bands:  1 eigenvalues not converged
     ethr =  2.53E-12,  avg # of iterations = 20.0

     total cpu time spent up to now is      557.2 secs

     total energy              =   -5829.09975287 Ry
     estimated scf accuracy    <          5.2E-09 Ry

     total magnetization       =     2.00 Bohr mag/cell
     absolute magnetization    =     2.29 Bohr mag/cell

     iteration # 17     ecut=    80.00 Ry     beta= 0.70
     Davidson diagonalization with overlap

---- Real-time Memory Report at c_bands before calling an iterative solver
           671 MiB given to the printing process from OS
             0 MiB allocation reported by mallinfo(arena+hblkhd)
        158383 MiB available memory on the node where the printing process lives
------------------
     ethr =  2.55E-13,  avg # of iterations = 19.0

     total cpu time spent up to now is      588.7 secs

     total energy              =   -5829.09975287 Ry
     estimated scf accuracy    <          5.3E-09 Ry

     total magnetization       =     2.00 Bohr mag/cell
     absolute magnetization    =     2.29 Bohr mag/cell

     iteration # 18     ecut=    80.00 Ry     beta= 0.70
     Davidson diagonalization with overlap

---- Real-time Memory Report at c_bands before calling an iterative solver
           671 MiB given to the printing process from OS
             0 MiB allocation reported by mallinfo(arena+hblkhd)
        158214 MiB available memory on the node where the printing process lives
------------------
     ethr =  2.55E-13,  avg # of iterations = 18.0

     total cpu time spent up to now is      613.9 secs

     total energy              =   -5829.09975287 Ry
     estimated scf accuracy    <          5.3E-10 Ry

     total magnetization       =     2.00 Bohr mag/cell
     absolute magnetization    =     2.29 Bohr mag/cell

     iteration # 19     ecut=    80.00 Ry     beta= 0.70
     Davidson diagonalization with overlap

---- Real-time Memory Report at c_bands before calling an iterative solver
           674 MiB given to the printing process from OS
             0 MiB allocation reported by mallinfo(arena+hblkhd)
        158213 MiB available memory on the node where the printing process lives
------------------
     ethr =  1.00E-13,  avg # of iterations = 16.5

     total cpu time spent up to now is      639.8 secs

     total energy              =   -5829.09975287 Ry
     estimated scf accuracy    <          3.6E-10 Ry

     total magnetization       =     2.00 Bohr mag/cell
     absolute magnetization    =     2.29 Bohr mag/cell

     iteration # 20     ecut=    80.00 Ry     beta= 0.70
     Davidson diagonalization with overlap

---- Real-time Memory Report at c_bands before calling an iterative solver
           674 MiB given to the printing process from OS
             0 MiB allocation reported by mallinfo(arena+hblkhd)
        158213 MiB available memory on the node where the printing process lives
------------------
     ethr =  1.00E-13,  avg # of iterations = 11.0
 
     Magnetic moment per site  (integrated on atomic sphere of radius R)
     atom   1 (R=0.043)  charge=  1.8273  magn= -0.0000
     atom   2 (R=0.043)  charge=  1.8273  magn= -0.0000
     atom   3 (R=0.043)  charge=  1.8289  magn=  0.0002
     atom   4 (R=0.043)  charge=  1.8272  magn=  0.0000
     atom   5 (R=0.043)  charge=  1.8274  magn= -0.0000
     atom   6 (R=0.043)  charge=  1.8277  magn= -0.0000
     atom   7 (R=0.043)  charge=  1.8274  magn= -0.0000
     atom   8 (R=0.043)  charge=  1.8275  magn= -0.0000
     atom   9 (R=0.043)  charge=  1.8289  magn=  0.0002
     atom  10 (R=0.043)  charge=  1.8274  magn= -0.0000
     atom  11 (R=0.043)  charge=  1.8272  magn= -0.0000
     atom  12 (R=0.043)  charge=  1.8275  magn=  0.0000
     atom  13 (R=0.043)  charge=  1.8272  magn=  0.0000
     atom  14 (R=0.043)  charge=  1.8275  magn= -0.0000
     atom  15 (R=0.043)  charge=  1.8275  magn=  0.0000
     atom  16 (R=0.043)  charge=  1.8276  magn= -0.0000
     atom  17 (R=0.043)  charge=  1.8273  magn= -0.0000
     atom  18 (R=0.043)  charge=  1.8278  magn= -0.0000
     atom  19 (R=0.043)  charge=  1.8275  magn= -0.0000
     atom  20 (R=0.043)  charge=  1.8275  magn= -0.0000
     atom  21 (R=0.043)  charge=  1.8278  magn= -0.0000
     atom  22 (R=0.043)  charge=  1.8268  magn= -0.0001
     atom  23 (R=0.043)  charge=  1.8316  magn=  0.0018
     atom  24 (R=0.043)  charge=  1.8270  magn= -0.0001
     atom  25 (R=0.043)  charge=  1.8275  magn= -0.0000
     atom  26 (R=0.043)  charge=  1.8316  magn=  0.0018
     atom  27 (R=0.043)  charge=  1.8283  magn= -0.0009
     atom  28 (R=0.043)  charge=  1.8309  magn=  0.0029
     atom  29 (R=0.043)  charge=  1.8275  magn= -0.0000
     atom  30 (R=0.043)  charge=  1.8270  magn= -0.0001
     atom  31 (R=0.043)  charge=  1.8309  magn=  0.0029
     atom  32 (R=0.043)  charge=  1.8262  magn=  0.0001
     atom  33 (R=0.043)  charge=  1.8293  magn=  0.0002
     atom  34 (R=0.043)  charge=  1.8276  magn= -0.0000
     atom  35 (R=0.043)  charge=  1.8274  magn= -0.0000
     atom  36 (R=0.043)  charge=  1.8277  magn=  0.0000
     atom  37 (R=0.043)  charge=  1.8276  magn= -0.0000
     atom  38 (R=0.043)  charge=  1.8309  magn=  0.0018
     atom  39 (R=0.043)  charge=  1.8280  magn= -0.0009
     atom  40 (R=0.043)  charge=  1.8326  magn=  0.0029
     atom  41 (R=0.043)  charge=  1.8274  magn= -0.0000
     atom  42 (R=0.043)  charge=  1.8280  magn= -0.0009
     atom  43 (R=0.043)  charge=  1.8305  magn= -0.0006
     atom  44 (R=0.043)  charge=  1.8277  magn=  0.0000
     atom  45 (R=0.043)  charge=  1.8326  magn=  0.0029
     atom  46 (R=0.043)  charge=  1.8305  magn= -0.0006
     atom  47 (R=0.043)  charge=  1.8306  magn=  0.0001
     atom  48 (R=0.043)  charge=  1.8273  magn=  0.0000
     atom  49 (R=0.043)  charge=  1.8276  magn= -0.0000
     atom  50 (R=0.043)  charge=  1.8277  magn=  0.0000
     atom  51 (R=0.043)  charge=  1.8278  magn= -0.0000
     atom  52 (R=0.043)  charge=  1.8276  magn= -0.0000
     atom  53 (R=0.043)  charge=  1.8270  magn= -0.0001
     atom  54 (R=0.043)  charge=  1.8302  magn=  0.0030
     atom  55 (R=0.043)  charge=  1.8264  magn=  0.0001
     atom  56 (R=0.043)  charge=  1.8277  magn=  0.0000
     atom  57 (R=0.043)  charge=  1.8302  magn=  0.0030
     atom  58 (R=0.043)  charge=  1.8299  magn= -0.0006
     atom  59 (R=0.043)  charge=  1.8309  magn=  0.0001
     atom  60 (R=0.043)  charge=  1.8278  magn= -0.0000
     atom  61 (R=0.043)  charge=  1.8264  magn=  0.0001
     atom  62 (R=0.043)  charge=  1.8309  magn=  0.0001
     atom  63 (R=0.043)  charge=  1.8276  magn= -0.0000
     atom  64 (R=0.043)  charge=  1.8274  magn= -0.0000
     atom  65 (R=0.043)  charge=  1.8277  magn= -0.0000
     atom  66 (R=0.043)  charge=  1.8272  magn= -0.0000
     atom  67 (R=0.043)  charge=  1.8273  magn= -0.0000
     atom  68 (R=0.043)  charge=  1.8277  magn= -0.0000
     atom  69 (R=0.043)  charge=  1.8272  magn=  0.0000
     atom  70 (R=0.043)  charge=  1.8273  magn=  0.0000
     atom  71 (R=0.043)  charge=  1.8276  magn= -0.0000
     atom  72 (R=0.043)  charge=  1.8272  magn= -0.0000
     atom  73 (R=0.043)  charge=  1.8273  magn=  0.0000
     atom  74 (R=0.043)  charge=  1.8274  magn= -0.0000
     atom  75 (R=0.043)  charge=  1.8277  magn= -0.0000
     atom  76 (R=0.043)  charge=  1.8273  magn= -0.0000
     atom  77 (R=0.043)  charge=  1.8276  magn= -0.0000
     atom  78 (R=0.043)  charge=  1.8277  magn= -0.0000
     atom  79 (R=0.043)  charge=  1.8272  magn=  0.0000
     atom  80 (R=0.043)  charge=  1.8275  magn= -0.0000
     atom  81 (R=0.043)  charge=  1.8275  magn=  0.0000
     atom  82 (R=0.043)  charge=  1.8275  magn= -0.0001
     atom  83 (R=0.043)  charge=  1.8274  magn= -0.0000
     atom  84 (R=0.043)  charge=  1.8275  magn=  0.0000
     atom  85 (R=0.043)  charge=  1.8246  magn= -0.0004
     atom  86 (R=0.043)  charge=  1.8260  magn= -0.0011
     atom  87 (R=0.043)  charge=  1.8278  magn= -0.0001
     atom  88 (R=0.043)  charge=  1.8275  magn= -0.0001
     atom  89 (R=0.043)  charge=  1.8260  magn= -0.0011
     atom  90 (R=0.043)  charge=  1.8245  magn= -0.0007
     atom  91 (R=0.043)  charge=  1.8263  magn= -0.0000
     atom  92 (R=0.043)  charge=  1.8274  magn= -0.0000
     atom  93 (R=0.043)  charge=  1.8278  magn= -0.0001
     atom  94 (R=0.043)  charge=  1.8263  magn= -0.0000
     atom  95 (R=0.043)  charge=  1.8272  magn=  0.0000
     atom  96 (R=0.043)  charge=  1.8287  magn=  0.0004
     atom  97 (R=0.043)  charge=  1.8273  magn= -0.0001
     atom  98 (R=0.043)  charge=  1.8275  magn= -0.0001
     atom  99 (R=0.043)  charge=  1.8294  magn=  0.0005
     atom 100 (R=0.043)  charge=  1.8273  magn= -0.0001
     atom 101 (R=0.043)  charge=  1.8320  magn= -0.0084
     atom 102 (R=0.043)  charge=  1.8359  magn= -0.0046
     atom 103 (R=0.043)  charge=  1.8277  magn= -0.0000
     atom 104 (R=0.043)  charge=  1.8275  magn= -0.0001
     atom 105 (R=0.043)  charge=  1.8359  magn= -0.0046
     atom 106 (R=0.043)  charge=  1.8025  magn=  0.0008
     atom 107 (R=0.043)  charge=  1.8277  magn= -0.0000
     atom 108 (R=0.043)  charge=  1.8294  magn=  0.0005
     atom 109 (R=0.043)  charge=  1.8277  magn= -0.0000
     atom 110 (R=0.043)  charge=  1.8277  magn= -0.0000
     atom 111 (R=0.043)  charge=  1.8286  magn=  0.0000
     atom 112 (R=0.043)  charge=  1.8274  magn= -0.0000
     atom 113 (R=0.043)  charge=  1.8275  magn= -0.0001
     atom 114 (R=0.043)  charge=  1.8274  magn= -0.0000
     atom 115 (R=0.043)  charge=  1.8272  magn=  0.0000
     atom 116 (R=0.043)  charge=  1.8275  magn= -0.0001
     atom 117 (R=0.043)  charge=  1.8263  magn= -0.0010
     atom 118 (R=0.043)  charge=  1.8226  magn= -0.0002
     atom 119 (R=0.043)  charge=  1.8272  magn=  0.0000
     atom 120 (R=0.043)  charge=  1.8274  magn= -0.0000
     atom 121 (R=0.043)  charge=  1.8227  magn= -0.0002
     atom 122 (R=0.043)  charge=  1.8282  magn= -0.0000
     atom 123 (R=0.043)  charge=  1.8282  magn= -0.0000
     atom 124 (R=0.043)  charge=  1.8272  magn=  0.0000
     atom 125 (R=0.043)  charge=  1.8272  magn=  0.0000
     atom 126 (R=0.043)  charge=  1.8282  magn= -0.0000
     atom 127 (R=0.043)  charge=  1.8277  magn=  0.0000
     atom 128 (R=0.043)  charge=  1.8274  magn= -0.0000
     atom 129 (R=0.043)  charge=  1.8278  magn= -0.0000
     atom 130 (R=0.043)  charge=  1.8273  magn= -0.0000
     atom 131 (R=0.043)  charge=  1.8272  magn= -0.0000
     atom 132 (R=0.043)  charge=  1.8275  magn= -0.0000
     atom 133 (R=0.043)  charge=  1.8272  magn=  0.0000
     atom 134 (R=0.043)  charge=  1.8274  magn= -0.0001
     atom 135 (R=0.043)  charge=  1.8274  magn= -0.0000
     atom 136 (R=0.043)  charge=  1.8290  magn=  0.0004
     atom 137 (R=0.043)  charge=  1.8272  magn= -0.0001
     atom 138 (R=0.043)  charge=  1.8272  magn= -0.0001
     atom 139 (R=0.043)  charge=  1.8288  magn=  0.0005
     atom 140 (R=0.043)  charge=  1.8273  magn= -0.0000
     atom 141 (R=0.043)  charge=  1.8275  magn= -0.0001
     atom 142 (R=0.043)  charge=  1.8270  magn= -0.0000
     atom 143 (R=0.043)  charge=  1.8270  magn=  0.0000
     atom 144 (R=0.043)  charge=  1.8279  magn= -0.0000
     atom 145 (R=0.043)  charge=  1.8275  magn=  0.0000
     atom 146 (R=0.043)  charge=  1.8275  magn=  0.0000
     atom 147 (R=0.043)  charge=  1.8277  magn= -0.0000
     atom 148 (R=0.043)  charge=  1.8275  magn=  0.0000
     atom 149 (R=0.043)  charge=  1.8258  magn= -0.0004
     atom 150 (R=0.043)  charge=  1.8262  magn= -0.0011
     atom 151 (R=0.043)  charge=  1.8278  magn= -0.0001
     atom 152 (R=0.043)  charge=  1.8274  magn= -0.0001
     atom 153 (R=0.043)  charge=  1.8331  magn= -0.0082
     atom 154 (R=0.043)  charge=  1.8316  magn= -0.0047
     atom 155 (R=0.043)  charge=  1.8276  magn= -0.0000
     atom 156 (R=0.043)  charge=  1.8277  magn= -0.0001
     atom 157 (R=0.043)  charge=  1.8268  magn= -0.0011
     atom 158 (R=0.043)  charge=  1.8227  magn= -0.0002
     atom 159 (R=0.043)  charge=  1.8271  magn=  0.0000
     atom 160 (R=0.043)  charge=  1.8275  magn= -0.0000
     atom 161 (R=0.043)  charge=  1.8275  magn=  0.0000
     atom 162 (R=0.043)  charge=  1.8276  magn= -0.0000
     atom 163 (R=0.043)  charge=  1.8280  magn= -0.0000
     atom 164 (R=0.043)  charge=  1.8274  magn= -0.0001
     atom 165 (R=0.043)  charge=  1.8260  magn= -0.0011
     atom 166 (R=0.043)  charge=  1.8256  magn= -0.0007
     atom 167 (R=0.043)  charge=  1.8265  magn= -0.0000
     atom 168 (R=0.043)  charge=  1.8274  magn= -0.0001
     atom 169 (R=0.043)  charge=  1.8300  magn= -0.0047
     atom 170 (R=0.043)  charge=  1.8026  magn=  0.0009
     atom 171 (R=0.043)  charge=  1.8277  magn= -0.0000
     atom 172 (R=0.043)  charge=  1.8275  magn= -0.0000
     atom 173 (R=0.043)  charge=  1.8227  magn= -0.0002
     atom 174 (R=0.043)  charge=  1.8285  magn= -0.0000
     atom 175 (R=0.043)  charge=  1.8282  magn= -0.0000
     atom 176 (R=0.043)  charge=  1.8273  magn= -0.0000
     atom 177 (R=0.043)  charge=  1.8276  magn= -0.0000
     atom 178 (R=0.043)  charge=  1.8278  magn=  0.0000
     atom 179 (R=0.043)  charge=  1.8273  magn=  0.0000
     atom 180 (R=0.043)  charge=  1.8274  magn= -0.0000
     atom 181 (R=0.043)  charge=  1.8275  magn= -0.0001
     atom 182 (R=0.043)  charge=  1.8263  magn= -0.0000
     atom 183 (R=0.043)  charge=  1.8273  magn=  0.0000
     atom 184 (R=0.043)  charge=  1.8285  magn=  0.0005
     atom 185 (R=0.043)  charge=  1.8273  magn= -0.0000
     atom 186 (R=0.043)  charge=  1.8275  magn= -0.0000
     atom 187 (R=0.043)  charge=  1.8286  magn=  0.0000
     atom 188 (R=0.043)  charge=  1.8271  magn=  0.0000
     atom 189 (R=0.043)  charge=  1.8270  magn=  0.0000
     atom 190 (R=0.043)  charge=  1.8281  magn= -0.0000
     atom 191 (R=0.043)  charge=  1.8276  magn=  0.0000
     atom 192 (R=0.043)  charge=  1.8274  magn= -0.0000
     atom 193 (R=0.043)  charge=  1.8274  magn= -0.0000
     atom 194 (R=0.043)  charge=  1.8290  magn=  0.0004
     atom 195 (R=0.043)  charge=  1.8273  magn= -0.0000
     atom 196 (R=0.043)  charge=  1.8278  magn= -0.0000
     atom 197 (R=0.043)  charge=  1.8272  magn=  0.0000
     atom 198 (R=0.043)  charge=  1.8272  magn= -0.0001
     atom 199 (R=0.043)  charge=  1.8275  magn= -0.0001
     atom 200 (R=0.043)  charge=  1.8273  magn= -0.0000
     atom 201 (R=0.043)  charge=  1.8274  magn= -0.0001
     atom 202 (R=0.043)  charge=  1.8272  magn= -0.0001
     atom 203 (R=0.043)  charge=  1.8270  magn= -0.0000
     atom 204 (R=0.043)  charge=  1.8272  magn= -0.0000
     atom 205 (R=0.043)  charge=  1.8274  magn= -0.0000
     atom 206 (R=0.043)  charge=  1.8288  magn=  0.0005
     atom 207 (R=0.043)  charge=  1.8270  magn=  0.0000
     atom 208 (R=0.043)  charge=  1.8279  magn= -0.0000
     atom 209 (R=0.043)  charge=  1.8275  magn=  0.0000
     atom 210 (R=0.043)  charge=  1.8274  magn= -0.0001
     atom 211 (R=0.043)  charge=  1.8277  magn= -0.0001
     atom 212 (R=0.043)  charge=  1.8275  magn=  0.0000
     atom 213 (R=0.043)  charge=  1.8258  magn= -0.0004
     atom 214 (R=0.043)  charge=  1.8331  magn= -0.0082
     atom 215 (R=0.043)  charge=  1.8268  magn= -0.0011
     atom 216 (R=0.043)  charge=  1.8275  magn=  0.0000
     atom 217 (R=0.043)  charge=  1.8262  magn= -0.0011
     atom 218 (R=0.043)  charge=  1.8316  magn= -0.0047
     atom 219 (R=0.043)  charge=  1.8226  magn= -0.0002
     atom 220 (R=0.043)  charge=  1.8277  magn= -0.0000
     atom 221 (R=0.043)  charge=  1.8278  magn= -0.0001
     atom 222 (R=0.043)  charge=  1.8276  magn= -0.0000
     atom 223 (R=0.043)  charge=  1.8271  magn=  0.0000
     atom 224 (R=0.043)  charge=  1.8275  magn= -0.0000
     atom 225 (R=0.043)  charge=  1.8274  magn= -0.0001
     atom 226 (R=0.043)  charge=  1.8274  magn= -0.0001
     atom 227 (R=0.043)  charge=  1.8275  magn= -0.0000
     atom 228 (R=0.043)  charge=  1.8275  magn=  0.0000
     atom 229 (R=0.043)  charge=  1.8260  magn= -0.0011
     atom 230 (R=0.043)  charge=  1.8299  magn= -0.0047
     atom 231 (R=0.043)  charge=  1.8227  magn= -0.0002
     atom 232 (R=0.043)  charge=  1.8276  magn= -0.0000
     atom 233 (R=0.043)  charge=  1.8257  magn= -0.0007
     atom 234 (R=0.043)  charge=  1.8026  magn=  0.0009
     atom 235 (R=0.043)  charge=  1.8285  magn= -0.0000
     atom 236 (R=0.043)  charge=  1.8280  magn= -0.0000
     atom 237 (R=0.043)  charge=  1.8265  magn= -0.0000
     atom 238 (R=0.043)  charge=  1.8277  magn= -0.0000
     atom 239 (R=0.043)  charge=  1.8282  magn= -0.0000
     atom 240 (R=0.043)  charge=  1.8273  magn= -0.0000
     atom 241 (R=0.043)  charge=  1.8274  magn= -0.0000
     atom 242 (R=0.043)  charge=  1.8285  magn=  0.0005
     atom 243 (R=0.043)  charge=  1.8271  magn=  0.0000
     atom 244 (R=0.043)  charge=  1.8276  magn= -0.0000
     atom 245 (R=0.043)  charge=  1.8275  magn= -0.0001
     atom 246 (R=0.043)  charge=  1.8273  magn= -0.0000
     atom 247 (R=0.043)  charge=  1.8270  magn=  0.0000
     atom 248 (R=0.043)  charge=  1.8278  magn=  0.0000
     atom 249 (R=0.043)  charge=  1.8263  magn= -0.0000
     atom 250 (R=0.043)  charge=  1.8275  magn= -0.0000
     atom 251 (R=0.043)  charge=  1.8281  magn= -0.0000
     atom 252 (R=0.043)  charge=  1.8273  magn=  0.0000
     atom 253 (R=0.043)  charge=  1.8273  magn=  0.0000
     atom 254 (R=0.043)  charge=  1.8286  magn=  0.0000
     atom 255 (R=0.043)  charge=  1.8276  magn=  0.0000
     atom 256 (R=0.043)  charge=  1.8277  magn=  0.0000
     atom 257 (R=0.043)  charge=  1.8272  magn=  0.0000
     atom 258 (R=0.043)  charge=  1.8279  magn=  0.0001
     atom 259 (R=0.043)  charge=  1.8277  magn=  0.0001
     atom 260 (R=0.043)  charge=  1.8270  magn=  0.0000
     atom 261 (R=0.043)  charge=  1.8262  magn=  0.0001
     atom 262 (R=0.043)  charge=  1.8273  magn=  0.0011
     atom 263 (R=0.043)  charge=  1.8279  magn=  0.0001
     atom 264 (R=0.043)  charge=  1.8296  magn=  0.0012
     atom 265 (R=0.043)  charge=  1.8267  magn=  0.0014
     atom 266 (R=0.043)  charge=  1.8260  magn=  0.0000
     atom 267 (R=0.043)  charge=  1.8266  magn=  0.0000
     atom 268 (R=0.043)  charge=  1.8275  magn=  0.0003
     atom 269 (R=0.043)  charge=  1.8288  magn=  0.0014
     atom 270 (R=0.043)  charge=  1.8271  magn=  0.0000
     atom 271 (R=0.043)  charge=  1.8278  magn=  0.0000
     atom 272 (R=0.043)  charge=  1.8272  magn=  0.0000
     atom 273 (R=0.043)  charge=  1.8274  magn=  0.0003
     atom 274 (R=0.043)  charge=  1.8274  magn=  0.0001
     atom 275 (R=0.043)  charge=  1.8285  magn=  0.0002
     atom 276 (R=0.043)  charge=  1.8268  magn=  0.0001
     atom 277 (R=0.043)  charge=  1.8267  magn=  0.0070
     atom 278 (R=0.043)  charge=  1.8288  magn=  0.0182
     atom 279 (R=0.043)  charge=  1.8272  magn=  0.0001
     atom 280 (R=0.043)  charge=  1.8274  magn=  0.0014
     atom 281 (R=0.043)  charge=  1.8251  magn=  0.0040
     atom 282 (R=0.043)  charge=  1.8274  magn=  0.0002
     atom 283 (R=0.043)  charge=  1.8298  magn=  0.0014
     atom 284 (R=0.043)  charge=  1.8275  magn=  0.0007
     atom 285 (R=0.043)  charge=  1.8268  magn=  0.0001
     atom 286 (R=0.043)  charge=  1.8272  magn=  0.0000
     atom 287 (R=0.043)  charge=  1.8278  magn=  0.0001
     atom 288 (R=0.043)  charge=  1.8273  magn=  0.0001
     atom 289 (R=0.043)  charge=  1.8276  magn=  0.0000
     atom 290 (R=0.043)  charge=  1.8276  magn=  0.0000
     atom 291 (R=0.043)  charge=  1.8274  magn=  0.0011
     atom 292 (R=0.043)  charge=  1.8246  magn=  0.0178
     atom 293 (R=0.043)  charge=  1.8277  magn=  0.0003
     atom 294 (R=0.043)  charge=  1.8276  magn=  0.0000
     atom 295 (R=0.043)  charge=  1.8266  magn=  0.0000
     atom 296 (R=0.043)  charge=  1.8250  magn=  0.0039
     atom 297 (R=0.043)  charge=  1.8345  magn=  0.0001
     atom 298 (R=0.043)  charge=  1.8275  magn=  0.0001
     atom 299 (R=0.043)  charge=  1.8271  magn=  0.0000
     atom 300 (R=0.043)  charge=  1.8269  magn=  0.0001
     atom 301 (R=0.043)  charge=  1.8292  magn=  0.0000
     atom 302 (R=0.043)  charge=  1.8282  magn=  0.0000
     atom 303 (R=0.043)  charge=  1.8276  magn=  0.0001
     atom 304 (R=0.043)  charge=  1.8279  magn=  0.0002
     atom 305 (R=0.043)  charge=  1.8276  magn=  0.0000
     atom 306 (R=0.043)  charge=  1.8277  magn=  0.0000
     atom 307 (R=0.043)  charge=  1.8277  magn=  0.0001
     atom 308 (R=0.043)  charge=  1.8269  magn=  0.0001
     atom 309 (R=0.043)  charge=  1.8274  magn=  0.0000
     atom 310 (R=0.043)  charge=  1.8276  magn=  0.0000
     atom 311 (R=0.043)  charge=  1.8265  magn=  0.0000
     atom 312 (R=0.043)  charge=  1.8272  magn=  0.0002
     atom 313 (R=0.043)  charge=  1.8273  magn=  0.0001
     atom 314 (R=0.043)  charge=  1.8280  magn=  0.0000
     atom 315 (R=0.043)  charge=  1.8277  magn=  0.0000
     atom 316 (R=0.043)  charge=  1.8271  magn=  0.0000
     atom 317 (R=0.043)  charge=  1.8282  magn=  0.0000
     atom 318 (R=0.043)  charge=  1.8278  magn=  0.0000
     atom 319 (R=0.043)  charge=  1.8277  magn=  0.0000
     atom 320 (R=0.043)  charge=  1.8276  magn=  0.0000
     atom 321 (R=0.043)  charge=  1.8280  magn=  0.0001
     atom 322 (R=0.043)  charge=  1.8277  magn=  0.0000
     atom 323 (R=0.043)  charge=  1.8276  magn=  0.0000
     atom 324 (R=0.043)  charge=  1.8273  magn= -0.0000
     atom 325 (R=0.043)  charge=  1.8271  magn=  0.0001
     atom 326 (R=0.043)  charge=  1.8277  magn=  0.0001
     atom 327 (R=0.043)  charge=  1.8279  magn=  0.0001
     atom 328 (R=0.043)  charge=  1.8271  magn=  0.0001
     atom 329 (R=0.043)  charge=  1.8271  magn=  0.0003
     atom 330 (R=0.043)  charge=  1.8270  magn= -0.0000
     atom 331 (R=0.043)  charge=  1.8277  magn=  0.0000
     atom 332 (R=0.043)  charge=  1.8277  magn=  0.0001
     atom 333 (R=0.043)  charge=  1.8270  magn= -0.0000
     atom 334 (R=0.043)  charge=  1.8277  magn=  0.0000
     atom 335 (R=0.043)  charge=  1.8278  magn=  0.0000
     atom 336 (R=0.043)  charge=  1.8275  magn= -0.0000
     atom 337 (R=0.043)  charge=  1.8274  magn=  0.0001
     atom 338 (R=0.043)  charge=  1.8280  magn=  0.0001
     atom 339 (R=0.043)  charge=  1.8275  magn= -0.0000
     atom 340 (R=0.043)  charge=  1.8268  magn=  0.0003
     atom 341 (R=0.043)  charge=  1.8273  magn=  0.0166
     atom 342 (R=0.043)  charge=  1.8277  magn=  0.0010
     atom 343 (R=0.043)  charge=  1.8274  magn=  0.0001
     atom 344 (R=0.043)  charge=  1.8273  magn=  0.0166
     atom 345 (R=0.043)  charge=  1.8257  magn=  0.0058
     atom 346 (R=0.043)  charge=  1.8250  magn=  0.0001
     atom 347 (R=0.043)  charge=  1.8280  magn=  0.0001
     atom 348 (R=0.043)  charge=  1.8277  magn=  0.0010
     atom 349 (R=0.043)  charge=  1.8250  magn=  0.0001
     atom 350 (R=0.043)  charge=  1.8273  magn=  0.0000
     atom 351 (R=0.043)  charge=  1.8278  magn=  0.0001
     atom 352 (R=0.043)  charge=  1.8274  magn=  0.0001
     atom 353 (R=0.043)  charge=  1.8275  magn=  0.0003
     atom 354 (R=0.043)  charge=  1.8273  magn= -0.0000
     atom 355 (R=0.043)  charge=  1.8274  magn=  0.0001
     atom 356 (R=0.043)  charge=  1.8266  magn=  0.0166
     atom 357 (R=0.043)  charge=  1.8266  magn=  0.0060
     atom 358 (R=0.043)  charge=  1.8249  magn=  0.0001
     atom 359 (R=0.043)  charge=  1.8275  magn=  0.0003
     atom 360 (R=0.043)  charge=  1.8266  magn=  0.0060
     atom 361 (R=0.043)  charge=  1.8273  magn=  0.0006
     atom 362 (R=0.043)  charge=  1.8273  magn= -0.0000
     atom 363 (R=0.043)  charge=  1.8249  magn=  0.0001
     atom 364 (R=0.043)  charge=  1.8273  magn=  0.0006
     atom 365 (R=0.043)  charge=  1.8287  magn=  0.0000
     atom 366 (R=0.043)  charge=  1.8276  magn=  0.0000
     atom 367 (R=0.043)  charge=  1.8277  magn=  0.0001
     atom 368 (R=0.043)  charge=  1.8272  magn= -0.0000
     atom 369 (R=0.043)  charge=  1.8277  magn=  0.0000
     atom 370 (R=0.043)  charge=  1.8277  magn=  0.0001
     atom 371 (R=0.043)  charge=  1.8273  magn=  0.0010
     atom 372 (R=0.043)  charge=  1.8249  magn=  0.0001
     atom 373 (R=0.043)  charge=  1.8273  magn=  0.0000
     atom 374 (R=0.043)  charge=  1.8272  magn= -0.0000
     atom 375 (R=0.043)  charge=  1.8249  magn=  0.0001
     atom 376 (R=0.043)  charge=  1.8272  magn=  0.0005
     atom 377 (R=0.043)  charge=  1.8289  magn=  0.0000
     atom 378 (R=0.043)  charge=  1.8277  magn=  0.0000
     atom 379 (R=0.043)  charge=  1.8273  magn=  0.0000
     atom 380 (R=0.043)  charge=  1.8289  magn=  0.0000
     atom 381 (R=0.043)  charge=  1.8282  magn= -0.0000
     atom 382 (R=0.043)  charge=  1.8276  magn=  0.0000
     atom 383 (R=0.043)  charge=  1.8270  magn=  0.0000
     atom 384 (R=0.043)  charge=  1.8278  magn=  0.0001
     atom 385 (R=0.043)  charge=  1.8276  magn=  0.0001
     atom 386 (R=0.043)  charge=  1.8270  magn=  0.0000
     atom 387 (R=0.043)  charge=  1.8271  magn=  0.0003
     atom 388 (R=0.043)  charge=  1.8271  magn=  0.0001
     atom 389 (R=0.043)  charge=  1.8280  magn=  0.0002
     atom 390 (R=0.043)  charge=  1.8278  magn=  0.0001
     atom 391 (R=0.043)  charge=  1.8271  magn=  0.0001
     atom 392 (R=0.043)  charge=  1.8274  magn=  0.0000
     atom 393 (R=0.043)  charge=  1.8276  magn=  0.0000
     atom 394 (R=0.043)  charge=  1.8276  magn=  0.0001
     atom 395 (R=0.043)  charge=  1.8280  magn=  0.0002
     atom 396 (R=0.043)  charge=  1.8276  magn=  0.0000
     atom 397 (R=0.043)  charge=  1.8278  magn=  0.0000
     atom 398 (R=0.043)  charge=  1.8271  magn=  0.0000
     atom 399 (R=0.043)  charge=  1.8269  magn=  0.0001
     atom 400 (R=0.043)  charge=  1.8277  magn=  0.0011
     atom 401 (R=0.043)  charge=  1.8281  magn=  0.0001
     atom 402 (R=0.043)  charge=  1.8269  magn=  0.0001
     atom 403 (R=0.043)  charge=  1.8246  magn=  0.0068
     atom 404 (R=0.043)  charge=  1.8249  magn=  0.0179
     atom 405 (R=0.043)  charge=  1.8271  magn=  0.0001
     atom 406 (R=0.043)  charge=  1.8277  magn=  0.0011
     atom 407 (R=0.043)  charge=  1.8249  magn=  0.0179
     atom 408 (R=0.043)  charge=  1.8278  magn=  0.0003
     atom 409 (R=0.043)  charge=  1.8275  magn=  0.0000
     atom 410 (R=0.043)  charge=  1.8281  magn=  0.0001
     atom 411 (R=0.043)  charge=  1.8271  magn=  0.0001
     atom 412 (R=0.043)  charge=  1.8275  magn=  0.0000
     atom 413 (R=0.043)  charge=  1.8278  magn=  0.0000
     atom 414 (R=0.043)  charge=  1.8290  magn=  0.0013
     atom 415 (R=0.043)  charge=  1.8272  magn=  0.0014
     atom 416 (R=0.043)  charge=  1.8267  magn=  0.0000
     atom 417 (R=0.043)  charge=  1.8267  magn=  0.0000
     atom 418 (R=0.043)  charge=  1.8272  magn=  0.0014
     atom 419 (R=0.043)  charge=  1.8241  magn=  0.0041
     atom 420 (R=0.043)  charge=  1.8274  magn=  0.0002
     atom 421 (R=0.043)  charge=  1.8267  magn=  0.0000
     atom 422 (R=0.043)  charge=  1.8241  magn=  0.0041
     atom 423 (R=0.043)  charge=  1.8340  magn=  0.0000
     atom 424 (R=0.043)  charge=  1.8274  magn=  0.0001
     atom 425 (R=0.043)  charge=  1.8267  magn=  0.0000
     atom 426 (R=0.043)  charge=  1.8274  magn=  0.0002
     atom 427 (R=0.043)  charge=  1.8274  magn=  0.0001
     atom 428 (R=0.043)  charge=  1.8280  magn=  0.0000
     atom 429 (R=0.043)  charge=  1.8275  magn=  0.0003
     atom 430 (R=0.043)  charge=  1.8283  magn=  0.0014
     atom 431 (R=0.043)  charge=  1.8271  magn=  0.0000
     atom 432 (R=0.043)  charge=  1.8277  magn=  0.0000
     atom 433 (R=0.043)  charge=  1.8283  magn=  0.0014
     atom 434 (R=0.043)  charge=  1.8272  magn=  0.0006
     atom 435 (R=0.043)  charge=  1.8268  magn=  0.0001
     atom 436 (R=0.043)  charge=  1.8272  magn=  0.0000
     atom 437 (R=0.043)  charge=  1.8271  magn=  0.0000
     atom 438 (R=0.043)  charge=  1.8268  magn=  0.0001
     atom 439 (R=0.043)  charge=  1.8291  magn=  0.0000
     atom 440 (R=0.043)  charge=  1.8282  magn=  0.0000
     atom 441 (R=0.043)  charge=  1.8277  magn=  0.0000
     atom 442 (R=0.043)  charge=  1.8272  magn=  0.0000
     atom 443 (R=0.043)  charge=  1.8282  magn=  0.0000
     atom 444 (R=0.043)  charge=  1.8278  magn=  0.0000
     atom 445 (R=0.043)  charge=  1.8277  magn=  0.0000
     atom 446 (R=0.043)  charge=  1.8271  magn=  0.0000
     atom 447 (R=0.043)  charge=  1.8296  magn=  0.0012
     atom 448 (R=0.043)  charge=  1.8276  magn=  0.0003
     atom 449 (R=0.043)  charge=  1.8272  magn=  0.0000
     atom 450 (R=0.043)  charge=  1.8262  magn=  0.0001
     atom 451 (R=0.043)  charge=  1.8267  magn=  0.0014
     atom 452 (R=0.043)  charge=  1.8288  magn=  0.0014
     atom 453 (R=0.043)  charge=  1.8279  magn=  0.0001
     atom 454 (R=0.043)  charge=  1.8273  magn=  0.0011
     atom 455 (R=0.043)  charge=  1.8260  magn=  0.0000
     atom 456 (R=0.043)  charge=  1.8270  magn=  0.0000
     atom 457 (R=0.043)  charge=  1.8277  magn=  0.0001
     atom 458 (R=0.043)  charge=  1.8279  magn=  0.0001
     atom 459 (R=0.043)  charge=  1.8266  magn=  0.0000
     atom 460 (R=0.043)  charge=  1.8278  magn=  0.0000
     atom 461 (R=0.043)  charge=  1.8272  magn=  0.0000
     atom 462 (R=0.043)  charge=  1.8268  magn=  0.0001
     atom 463 (R=0.043)  charge=  1.8274  magn=  0.0014
     atom 464 (R=0.043)  charge=  1.8298  magn=  0.0014
     atom 465 (R=0.043)  charge=  1.8274  magn=  0.0003
     atom 466 (R=0.043)  charge=  1.8267  magn=  0.0070
     atom 467 (R=0.043)  charge=  1.8275  magn=  0.0007
     atom 468 (R=0.043)  charge=  1.8274  magn=  0.0001
     atom 469 (R=0.043)  charge=  1.8287  magn=  0.0182
     atom 470 (R=0.043)  charge=  1.8251  magn=  0.0040
     atom 471 (R=0.043)  charge=  1.8268  magn=  0.0001
     atom 472 (R=0.043)  charge=  1.8285  magn=  0.0002
     atom 473 (R=0.043)  charge=  1.8272  magn=  0.0001
     atom 474 (R=0.043)  charge=  1.8274  magn=  0.0002
     atom 475 (R=0.043)  charge=  1.8272  magn=  0.0000
     atom 476 (R=0.043)  charge=  1.8278  magn=  0.0001
     atom 477 (R=0.043)  charge=  1.8274  magn=  0.0011
     atom 478 (R=0.043)  charge=  1.8266  magn=  0.0000
     atom 479 (R=0.043)  charge=  1.8271  magn=  0.0000
     atom 480 (R=0.043)  charge=  1.8273  magn=  0.0001
     atom 481 (R=0.043)  charge=  1.8246  magn=  0.0178
     atom 482 (R=0.043)  charge=  1.8249  magn=  0.0039
     atom 483 (R=0.043)  charge=  1.8269  magn=  0.0001
     atom 484 (R=0.043)  charge=  1.8276  magn=  0.0000
     atom 485 (R=0.043)  charge=  1.8277  magn=  0.0003
     atom 486 (R=0.043)  charge=  1.8345  magn=  0.0001
     atom 487 (R=0.043)  charge=  1.8292  magn=  0.0000
     atom 488 (R=0.043)  charge=  1.8276  magn=  0.0000
     atom 489 (R=0.043)  charge=  1.8276  magn=  0.0000
     atom 490 (R=0.043)  charge=  1.8275  magn=  0.0001
     atom 491 (R=0.043)  charge=  1.8282  magn=  0.0000
     atom 492 (R=0.043)  charge=  1.8276  magn=  0.0001
     atom 493 (R=0.043)  charge=  1.8277  magn=  0.0001
     atom 494 (R=0.043)  charge=  1.8265  magn=  0.0000
     atom 495 (R=0.043)  charge=  1.8277  magn=  0.0000
     atom 496 (R=0.043)  charge=  1.8279  magn=  0.0002
     atom 497 (R=0.043)  charge=  1.8269  magn=  0.0001
     atom 498 (R=0.043)  charge=  1.8272  magn=  0.0002
     atom 499 (R=0.043)  charge=  1.8271  magn=  0.0000
     atom 500 (R=0.043)  charge=  1.8276  magn=  0.0000
     atom 501 (R=0.043)  charge=  1.8274  magn=  0.0000
     atom 502 (R=0.043)  charge=  1.8273  magn=  0.0001
     atom 503 (R=0.043)  charge=  1.8282  magn=  0.0000
     atom 504 (R=0.043)  charge=  1.8277  magn=  0.0000
     atom 505 (R=0.043)  charge=  1.8275  magn=  0.0000
     atom 506 (R=0.043)  charge=  1.8280  magn=  0.0000
     atom 507 (R=0.043)  charge=  1.8278  magn=  0.0000
     atom 508 (R=0.043)  charge=  1.8336  magn=  0.2527
     atom 509 (R=0.043)  charge=  1.8404  magn=  0.2499
     atom 510 (R=0.043)  charge=  1.8404  magn=  0.2499
     atom 511 (R=0.043)  charge=  2.9163  magn= -0.0010

     total cpu time spent up to now is      656.3 secs

     End of self-consistent calculation

 ------ SPIN UP ------------


          k = 0.0000 0.0000 0.0000 (118565 PWs)   bands (ev):

    -8.1978  -7.6598  -7.6375  -7.6375  -7.6155  -7.6132  -7.5577  -7.1615
    -7.0679  -7.0665  -7.0626  -7.0610  -7.0604  -7.0427  -7.0416  -7.0358
    -7.0033  -6.9988  -6.9136  -6.5863  -6.4756  -6.4690  -6.4677  -6.4584
    -6.4499  -6.4471  -6.3736  -5.9909  -5.9123  -5.9115  -5.9035  -5.9024
    -5.8809  -5.6325  -5.3847  -5.3822  -5.3811  -5.3792  -5.3737  -5.3732
    -5.3702  -5.3691  -5.3626  -5.3605  -5.3581  -5.3568  -5.3533  -5.3511
    -5.3423  -5.3322  -5.3308  -5.3179  -5.3177  -5.3168  -5.2807  -5.2757
    -5.1905  -5.0012  -4.8235  -4.8232  -4.8199  -4.8167  -4.8163  -4.8160
    -4.8152  -4.8130  -4.8117  -4.8116  -4.8075  -4.8052  -4.8035  -4.8029
    -4.7954  -4.7940  -4.7722  -4.7545  -4.7532  -4.7264  -4.7125  -4.7049
    -4.4694  -3.8931  -3.7317  -3.7312  -3.7291  -3.7278  -3.7227  -3.7214
    -3.7206  -3.7129  -3.7094  -3.7084  -3.6665  -3.4846  -3.2656  -3.2653
    -3.2623  -3.2607  -3.2605  -3.2598  -3.2592  -3.2575  -3.2533  -3.2527
    -3.2456  -3.2449  -3.2446  -3.2440  -3.2419  -3.2310  -3.2191  -3.1978
    -3.1963  -3.1805  -3.1680  -3.1653  -3.1573  -3.1460  -3.1449  -3.1415
    -3.1349  -3.1330  -3.0115  -2.7847  -2.6585  -2.6579  -2.6578  -2.6568
    -2.6567  -2.6562  -2.6475  -2.6463  -2.6406  -2.6388  -2.6377  -2.6347
    -2.6326  -2.6326  -2.6309  -2.6307  -2.6278  -2.6116  -2.5928  -2.5918
    -2.5645  -2.5614  -2.4981  -2.4437  -2.3988  -2.3983  -2.3771  -2.2964
    -2.1909  -2.1901  -2.1783  -2.1756  -2.1756  -2.1746  -2.1745  -2.1718
    -2.1675  -2.1675  -2.1650  -2.1604  -2.1597  -2.1596  -2.1552  -2.1528
    -2.1525  -2.1355  -2.1352  -2.1250  -2.0851  -2.0793  -1.8437  -1.5809
    -1.4464  -1.4450  -1.4446  -1.4366  -1.4361  -1.4361  -1.4299  -1.4295
    -1.4288  -1.4268  -1.4257  -1.4254  -1.4124  -1.4109  -1.4044  -1.4011
    -1.3941  -1.3878  -1.3860  -1.3831  -1.3674  -1.3674  -1.3519  -1.3034
    -1.2525  -1.2503  -1.2503  -1.2480  -1.2473  -1.2432  -1.2403  -1.2395
    -1.2380  -1.2243  -1.2222  -1.2175  -1.2021  -1.2004  -1.1903  -1.1881
    -1.1830  -1.1573  -1.1495  -1.1479  -1.0805  -1.0736  -0.4550  -0.0885
    -0.0882  -0.0870  -0.0659   0.2138   0.2891   0.2897   0.3030   0.3041
     0.3046   0.3070   0.3079   0.3101   0.3204   0.3210   0.3837   0.4906
     0.4993   0.4998   0.5039   0.5054   0.5326   0.7548   0.8150   0.8159
     0.8213   0.8217   0.8226   0.8240   0.8257   0.8270   0.8439   0.8451
     0.8477   0.8483   0.8491   0.8503   0.8543   0.8555   0.8596   0.8652
     0.8717   0.8727   0.8830   0.8843   0.8846   0.8888   0.8920   0.8922
     0.8924   0.8965   0.8965   0.8977   0.8979   0.8983   0.9127   0.9146
     0.9181   0.9237   0.9245   0.9255   0.9296   0.9300   0.9307   0.9340
     0.9354   1.0045   1.0443   1.0474   1.1376   1.2436   1.2924   1.2927
     1.3121   1.3127   1.3138   1.3220   1.3241   1.3265   1.3395   1.3408
     1.4247   1.5125   1.5302   1.5315   1.5470   1.5479   1.5512   1.5520
     1.5669   1.5674   1.5909   1.5920   1.6737   1.6913   1.6983   1.6988
     1.7030   1.7044   1.7056   1.7092   1.7099   1.7104   1.7107   1.7160
     1.7227   1.7244   1.7258   1.7267   1.7271   1.7366   1.7443   1.7530
     1.7535   1.8643   1.9016   1.9057   2.2109   2.4291   2.4533   2.4543
     2.4783   2.4845   2.4845   2.4859   2.4864   2.4875   2.4875   2.4909
     2.4911   2.4915   2.4923   2.4927   2.4958   2.4972   2.4982   2.5031
     2.5032   2.5582   2.5716   2.5743   2.6693   2.8280   2.8287   2.8322
     2.8433   2.8433   2.8466   2.8497   2.8502   2.8503   2.8611   2.8612
     2.8682   2.8723   2.8826   2.8828   2.8841   2.8856   2.8879   2.8929
     2.9048   2.9059   3.0238   3.0281   3.6809   3.9228   3.9231   3.9459
     3.9463   3.9463   3.9468   3.9469   3.9529   3.9533   3.9651   3.9676
     3.9679   4.0838   4.1065   4.1079   4.1356   4.1358   4.1369   4.1388
     4.1395   4.1408   4.1415   4.1425   4.1425   4.1431   4.1434   4.1437
     4.1444   4.1484   4.1630   4.1635   4.1864   4.1971   4.2042   4.2056
     4.2140   4.2307   4.2309   4.2332   4.2354   4.2392   4.2394   4.2397
     4.2429   4.2437   4.2616   4.2622   4.2643   4.2645   4.2661   4.2679
     4.2708   4.2720   4.2757   4.2785   4.2848   4.2866   4.3319   4.3325
     4.3679   4.3682   4.3717   4.3769   4.3769   4.3777   4.3792   4.3798
     4.3815   4.3860   4.3900   4.3902   4.3907   4.4037   4.4044   4.4119
     4.4162   4.4163   4.4292   4.4344   4.4348   4.4836   4.5046   4.5053
     4.5072   4.5498   4.5506   4.5730   4.5787   4.5803   4.5813   4.5840
     4.5842   4.6138   4.6424   4.6431   4.6545   4.6897   4.7083   4.7098
     4.7870   4.7917   4.9253   4.9253   4.9450   4.9502   4.9504   4.9507
     4.9517   4.9632   4.9635   5.0377   5.0667   5.0719   5.5792   5.6310
     5.6315   5.6535   5.6612   5.6620   5.6650   5.6652   5.6661   5.6999
     5.7004   5.7046   5.8920   5.9000   5.9008   5.9162   5.9190   5.9192
     5.9214   5.9216   5.9219   5.9317   5.9372   5.9376   5.9445   5.9449
     5.9469   5.9511   5.9512   5.9569   5.9720   5.9728   5.9748   6.0034
     6.0066   6.0078   6.0689   6.1983   6.1995   6.2620   6.2621   6.2640
     6.2650   6.2661   6.2662   6.2677   6.2678   6.2700   6.2719   6.2748
     6.2757   6.2769   6.2860   6.2867   6.2951   6.2970   6.2971   6.3161
     6.3304   6.3313   6.3347   6.4780   6.4791   6.4855   6.5139   6.5150
     6.5158   6.5159   6.5186   6.5188   6.5192   6.5209   6.5213   6.5220
     6.5224   6.5243   6.5264   6.5287   6.5296   6.5356   6.5368   6.5749
     6.5791   6.5797   6.5859   6.6547   6.6556   6.6558   6.6652   6.6696
     6.6700   6.6708   6.6816   6.7117   6.7128   6.7266   6.7305   6.7313
     6.7315   6.7352   6.7396   6.7400   6.7419   6.7424   6.7428   6.7449
     6.7453   6.7701   6.7707   6.7760   6.7784   6.7793   6.7802   6.8100
     6.8525   6.8544   6.8982   6.8983   6.9021   6.9312   6.9321   6.9322
     6.9349   6.9404   6.9421   6.9437   6.9438   6.9453   6.9461   6.9481
     6.9538   6.9545   6.9586   6.9589   6.9617   6.9651   6.9681   6.9690
     6.9697   6.9710   6.9833   6.9957   6.9963   7.0792   7.1083   7.1118
     7.2630   7.2644   7.3017   7.3025   7.3026   7.3031   7.3031   7.3070
     7.3075   7.3078   7.3083   7.3084   7.3121   7.3123   7.3132   7.3191
     7.3244   7.3245   7.3275   7.3522   7.3527   7.3765   7.3766   7.3804
     7.4908   7.4915   7.5220   7.5240   7.5249   7.5271   7.5398   7.5405
     7.5603   7.5852   7.5872   7.5880   7.6602   7.6890   7.6896   7.7355
     7.7401   7.7403   7.7406   7.7420   7.7426   7.7428   7.7489   7.7498
     7.7516   7.7529   7.7530   7.7573   7.7606   7.7612   7.7635   7.7645
     7.7650   7.7655   7.7664   7.7665   7.7692   7.7707   7.7712   7.7712
     7.7720   7.7752   7.7769   7.7772   7.7778   7.7784   7.7799   7.7805
     7.7812   7.7830   7.7840   7.7865   7.7977   7.8002   7.8079   7.8196
     7.8204   7.8508   7.8522   7.8656   7.8856   7.8861   7.8976   7.9158
     7.9170   7.9255   7.9377   7.9395   7.9402   8.0959   8.1012   8.1031
     8.3080   8.3086   8.3569   8.3575   8.3588   8.3631   8.3638   8.3640
     8.3671   8.3686   8.3689   8.3706   8.3729   8.3735   8.3741   8.3801
     8.3803   8.3860   8.3987   8.4009   8.4102   8.4147   8.4194   8.4199
     8.4362   8.5165   8.5170   8.5492   8.5514   8.5516   8.5528   8.5537
     8.5538   8.5549   8.5597   8.5624   8.5628   8.5653   8.5662   8.5815
     8.5818   8.5870   8.5946   8.6010   8.6024   8.6080   8.6285   8.6291
     8.6298   8.6507   8.6588   8.6590   8.6603   8.6615   8.6615   8.6763
     8.6794   8.6798   8.6891   8.6896   8.6901   8.6919   8.6938   8.6982
     8.7133   8.7168   8.7202   8.7238   8.7256   8.7374   8.7420   8.7439
     8.7510   8.7601   8.7620   9.0056   9.0305   9.0317   9.1111   9.1116
     9.1323   9.1326   9.1345   9.1345   9.1374   9.1385   9.1432   9.1706
     9.1911   9.1998   9.2007   9.2523   9.2530   9.2601   9.2605   9.2678
     9.2744   9.2752   9.2863   9.4240   9.4484   9.4510   9.6659   9.6666
     9.7096   9.7099   9.7109   9.7114   9.7142   9.7164   9.7186   9.7187
     9.7304   9.7307   9.7337   9.7350   9.7353   9.7427   9.7429   9.7461
     9.7579   9.7598   9.7636   9.8059   9.8414   9.8418   9.8487   9.9755
     9.9766   9.9905   9.9945   9.9945  10.0002  10.0012  10.0014  10.0058
    10.0179  10.0188  10.0193  10.0254  10.0282  10.0287  10.0363  10.0368
    10.0376  10.0393  10.0394  10.0427  10.0436  10.0439  10.0444  10.0455
    10.0463  10.0482  10.0485  10.0493  10.0608  10.0617  10.0628  10.1422
    10.1430  10.1529  10.1978  10.1985  10.2014  10.2018  10.2019  10.2020
    10.2029  10.2039  10.2043  10.2050  10.2055  10.2067  10.2778  10.2828
    10.2836  10.3098  10.3102  10.3118  10.3120  10.3182  10.3184  10.3211
    10.3216  10.3218  10.3244  10.3246  10.3280  10.3281  10.3298  10.3303
    10.3326  10.3337  10.3338  10.3358  10.3363  10.3373  10.3408  10.3419
    10.3425  10.3475  10.3485  10.3503  10.3583  10.3585  10.3592  10.3709
    10.3724  10.3806  10.3931  10.3947  10.4097  10.4221  10.4242  10.4250
    10.4489  10.4507  10.4515  10.4567  10.4756  10.4791  10.5011  10.5013
    10.5763  10.6157  10.6207  11.2442  11.3121  11.3140  11.4646  11.4649
    11.4844  11.4853  11.4881  11.4906  11.4909  11.4910  11.4936  11.4945
    11.4950  11.4953  11.5002  11.5003  11.5044  11.5046  11.5159  11.5178
    11.5198  11.5343  11.5352  11.5399  11.5469  11.5528  11.5539  11.6090
    11.8753  11.8758  11.8825  11.9174  11.9186  12.2261  12.3306  12.3316
    12.3530  12.4577  12.4686  12.4687  12.4742  12.4868  12.4889  12.4969
    12.5261  12.5305  13.1563  13.1813  13.1814  14.0909  15.0870  15.1550
    17.4054  17.4060  17.4067  17.4203  17.4205  17.4315  17.7127  17.7143

     occupation numbers 
     1.0000   1.0000   1.0000   1.0000   1.0000   1.0000   1.0000   1.0000
     1.0000   1.0000   1.0000   1.0000   1.0000   1.0000   1.0000   1.0000
     1.0000   1.0000   1.0000   1.0000   1.0000   1.0000   1.0000   1.0000
     1.0000   1.0000   1.0000   1.0000   1.0000   1.0000   1.0000   1.0000
     1.0000   1.0000   1.0000   1.0000   1.0000   1.0000   1.0000   1.0000
     1.0000   1.0000   1.0000   1.0000   1.0000   1.0000   1.0000   1.0000
     1.0000   1.0000   1.0000   1.0000   1.0000   1.0000   1.0000   1.0000
     1.0000   1.0000   1.0000   1.0000   1.0000   1.0000   1.0000   1.0000
     1.0000   1.0000   1.0000   1.0000   1.0000   1.0000   1.0000   1.0000
     1.0000   1.0000   1.0000   1.0000   1.0000   1.0000   1.0000   1.0000
     1.0000   1.0000   1.0000   1.0000   1.0000   1.0000   1.0000   1.0000
     1.0000   1.0000   1.0000   1.0000   1.0000   1.0000   1.0000   1.0000
     1.0000   1.0000   1.0000   1.0000   1.0000   1.0000   1.0000   1.0000
     1.0000   1.0000   1.0000   1.0000   1.0000   1.0000   1.0000   1.0000
     1.0000   1.0000   1.0000   1.0000   1.0000   1.0000   1.0000   1.0000
     1.0000   1.0000   1.0000   1.0000   1.0000   1.0000   1.0000   1.0000
     1.0000   1.0000   1.0000   1.0000   1.0000   1.0000   1.0000   1.0000
     1.0000   1.0000   1.0000   1.0000   1.0000   1.0000   1.0000   1.0000
     1.0000   1.0000   1.0000   1.0000   1.0000   1.0000   1.0000   1.0000
     1.0000   1.0000   1.0000   1.0000   1.0000   1.0000   1.0000   1.0000
     1.0000   1.0000   1.0000   1.0000   1.0000   1.0000   1.0000   1.0000
     1.0000   1.0000   1.0000   1.0000   1.0000   1.0000   1.0000   1.0000
     1.0000   1.0000   1.0000   1.0000   1.0000   1.0000   1.0000   1.0000
     1.0000   1.0000   1.0000   1.0000   1.0000   1.0000   1.0000   1.0000
     1.0000   1.0000   1.0000   1.0000   1.0000   1.0000   1.0000   1.0000
     1.0000   1.0000   1.0000   1.0000   1.0000   1.0000   1.0000   1.0000
     1.0000   1.0000   1.0000   1.0000   1.0000   1.0000   1.0000   1.0000
     1.0000   1.0000   1.0000   1.0000   1.0000   1.0000   1.0000   1.0000
     1.0000   1.0000   1.0000   1.0000   1.0000   1.0000   1.0000   1.0000
     1.0000   1.0000   1.0000   1.0000   1.0000   1.0000   1.0000   1.0000
     1.0000   1.0000   1.0000   1.0000   1.0000   1.0000   1.0000   1.0000
     1.0000   1.0000   1.0000   1.0000   1.0000   1.0000   1.0000   1.0000
     1.0000   1.0000   1.0000   1.0000   1.0000   1.0000   1.0000   1.0000
     1.0000   1.0000   1.0000   1.0000   1.0000   1.0000   1.0000   1.0000
     1.0000   1.0000   1.0000   1.0000   1.0000   1.0000   1.0000   1.0000
     1.0000   1.0000   1.0000   1.0000   1.0000   1.0000   1.0000   1.0000
     1.0000   1.0000   1.0000   1.0000   1.0000   1.0000   1.0000   1.0000
     1.0000   1.0000   1.0000   1.0000   1.0000   1.0000   1.0000   1.0000
     1.0000   1.0000   1.0000   1.0000   1.0000   1.0000   1.0000   1.0000
     1.0000   1.0000   1.0000   1.0000   1.0000   1.0000   1.0000   1.0000
     1.0000   1.0000   1.0000   1.0000   1.0000   1.0000   1.0000   1.0000
     1.0000   1.0000   1.0000   1.0000   1.0000   1.0000   1.0000   1.0000
     1.0000   1.0000   1.0000   1.0000   1.0000   1.0000   1.0000   1.0000
     1.0000   1.0000   1.0000   1.0000   1.0000   1.0000   1.0000   1.0000
     1.0000   1.0000   1.0000   1.0000   1.0000   1.0000   1.0000   1.0000
     1.0000   1.0000   1.0000   1.0000   1.0000   1.0000   1.0000   1.0000
     1.0000   1.0000   1.0000   1.0000   1.0000   1.0000   1.0000   1.0000
     1.0000   1.0000   1.0000   1.0000   1.0000   1.0000   1.0000   1.0000
     1.0000   1.0000   1.0000   1.0000   1.0000   1.0000   1.0000   1.0000
     1.0000   1.0000   1.0000   1.0000   1.0000   1.0000   1.0000   1.0000
     1.0000   1.0000   1.0000   1.0000   1.0000   1.0000   1.0000   1.0000
     1.0000   1.0000   1.0000   1.0000   1.0000   1.0000   1.0000   1.0000
     1.0000   1.0000   1.0000   1.0000   1.0000   1.0000   1.0000   1.0000
     1.0000   1.0000   1.0000   1.0000   1.0000   1.0000   1.0000   1.0000
     1.0000   1.0000   1.0000   1.0000   1.0000   1.0000   1.0000   1.0000
     1.0000   1.0000   1.0000   1.0000   1.0000   1.0000   1.0000   1.0000
     1.0000   1.0000   1.0000   1.0000   1.0000   1.0000   1.0000   1.0000
     1.0000   1.0000   1.0000   1.0000   1.0000   1.0000   1.0000   1.0000
     1.0000   1.0000   1.0000   1.0000   1.0000   1.0000   1.0000   1.0000
     1.0000   1.0000   1.0000   1.0000   1.0000   1.0000   1.0000   1.0000
     1.0000   1.0000   1.0000   1.0000   1.0000   1.0000   1.0000   1.0000
     1.0000   1.0000   1.0000   1.0000   1.0000   1.0000   1.0000   1.0000
     1.0000   1.0000   1.0000   1.0000   1.0000   1.0000   1.0000   1.0000
     1.0000   1.0000   1.0000   1.0000   1.0000   1.0000   1.0000   1.0000
     1.0000   1.0000   1.0000   1.0000   1.0000   1.0000   1.0000   1.0000
     1.0000   1.0000   1.0000   1.0000   1.0000   1.0000   1.0000   1.0000
     1.0000   1.0000   1.0000   1.0000   1.0000   1.0000   1.0000   1.0000
     1.0000   1.0000   1.0000   1.0000   1.0000   1.0000   1.0000   1.0000
     1.0000   1.0000   1.0000   1.0000   1.0000   1.0000   1.0000   1.0000
     1.0000   1.0000   1.0000   1.0000   1.0000   1.0000   1.0000   1.0000
     1.0000   1.0000   1.0000   1.0000   1.0000   1.0000   1.0000   1.0000
     1.0000   1.0000   1.0000   1.0000   1.0000   1.0000   1.0000   1.0000
     1.0000   1.0000   1.0000   1.0000   1.0000   1.0000   1.0000   1.0000
     1.0000   1.0000   1.0000   1.0000   1.0000   1.0000   1.0000   1.0000
     1.0000   1.0000   1.0000   1.0000   1.0000   1.0000   1.0000   1.0000
     1.0000   1.0000   1.0000   1.0000   1.0000   1.0000   1.0000   1.0000
     1.0000   1.0000   1.0000   1.0000   1.0000   1.0000   1.0000   1.0000
     1.0000   1.0000   1.0000   1.0000   1.0000   1.0000   1.0000   1.0000
     1.0000   1.0000   1.0000   1.0000   1.0000   1.0000   1.0000   1.0000
     1.0000   1.0000   1.0000   1.0000   1.0000   1.0000   1.0000   1.0000
     1.0000   1.0000   1.0000   1.0000   1.0000   1.0000   1.0000   1.0000
     1.0000   1.0000   1.0000   1.0000   1.0000   1.0000   1.0000   1.0000
     1.0000   1.0000   1.0000   1.0000   1.0000   1.0000   1.0000   1.0000
     1.0000   1.0000   1.0000   1.0000   1.0000   1.0000   1.0000   1.0000
     1.0000   1.0000   1.0000   1.0000   1.0000   1.0000   1.0000   1.0000
     1.0000   1.0000   1.0000   1.0000   1.0000   1.0000   1.0000   1.0000
     1.0000   1.0000   1.0000   1.0000   1.0000   1.0000   1.0000   1.0000
     1.0000   1.0000   1.0000   1.0000   1.0000   1.0000   1.0000   1.0000
     1.0000   1.0000   1.0000   1.0000   1.0000   1.0000   1.0000   1.0000
     1.0000   1.0000   1.0000   1.0000   1.0000   1.0000   1.0000   1.0000
     1.0000   1.0000   1.0000   1.0000   1.0000   1.0000   1.0000   1.0000
     1.0000   1.0000   1.0000   1.0000   1.0000   1.0000   1.0000   1.0000
     1.0000   1.0000   1.0000   1.0000   1.0000   1.0000   1.0000   1.0000
     1.0000   1.0000   1.0000   1.0000   1.0000   1.0000   1.0000   1.0000
     1.0000   1.0000   1.0000   1.0000   1.0000   1.0000   1.0000   1.0000
     1.0000   1.0000   1.0000   1.0000   1.0000   1.0000   1.0000   1.0000
     1.0000   1.0000   1.0000   1.0000   1.0000   1.0000   1.0000   1.0000
     1.0000   1.0000   1.0000   1.0000   1.0000   1.0000   1.0000   1.0000
     1.0000   1.0000   1.0000   1.0000   1.0000   1.0000   1.0000   1.0000
     1.0000   1.0000   1.0000   1.0000   1.0000   1.0000   1.0000   1.0000
     1.0000   1.0000   1.0000   1.0000   1.0000   1.0000   1.0000   1.0000
     1.0000   1.0000   1.0000   1.0000   1.0000   1.0000   1.0000   1.0000
     1.0000   1.0000   1.0000   1.0000   1.0000   1.0000   1.0000   1.0000
     1.0000   1.0000   1.0000   1.0000   1.0000   1.0000   1.0000   1.0000
     1.0000   1.0000   1.0000   1.0000   1.0000   1.0000   1.0000   1.0000
     1.0000   1.0000   1.0000   1.0000   1.0000   1.0000   1.0000   1.0000
     1.0000   1.0000   1.0000   1.0000   1.0000   1.0000   1.0000   1.0000
     1.0000   1.0000   1.0000   1.0000   1.0000   1.0000   1.0000   1.0000
     1.0000   1.0000   1.0000   1.0000   1.0000   1.0000   1.0000   1.0000
     1.0000   1.0000   1.0000   1.0000   1.0000   1.0000   1.0000   1.0000
     1.0000   1.0000   1.0000   1.0000   1.0000   1.0000   1.0000   1.0000
     1.0000   1.0000   1.0000   1.0000   1.0000   1.0000   1.0000   1.0000
     1.0000   1.0000   1.0000   1.0000   1.0000   1.0000   1.0000   1.0000
     1.0000   1.0000   1.0000   1.0000   1.0000   1.0000   1.0000   1.0000
     1.0000   1.0000   1.0000   1.0000   1.0000   1.0000   1.0000   1.0000
     1.0000   1.0000   1.0000   1.0000   1.0000   1.0000   1.0000   1.0000
     1.0000   1.0000   1.0000   1.0000   1.0000   1.0000   1.0000   1.0000
     1.0000   1.0000   1.0000   1.0000   1.0000   1.0000   1.0000   1.0000
     1.0000   1.0000   1.0000   1.0000   1.0000   1.0000   1.0000   1.0000
     1.0000   1.0000   1.0000   1.0000   1.0000   1.0000   1.0000   1.0000
     1.0000   1.0000   1.0000   1.0000   1.0000   1.0000   1.0000   1.0000
     1.0000   1.0000   1.0000   1.0000   1.0000   1.0000   1.0000   1.0000
     1.0000   1.0000   1.0000   1.0000   1.0000   1.0000   1.0000   1.0000
     1.0000   1.0000   1.0000   1.0000   1.0000   1.0000   1.0000   1.0000
     1.0000   1.0000   1.0000   1.0000   1.0000   1.0000   1.0000   1.0000
     1.0000   1.0000   1.0000   1.0000   1.0000   1.0000   1.0000   1.0000
     1.0000   1.0000   1.0000   1.0000   1.0000   1.0000   1.0000   1.0000
     1.0000   1.0000   1.0000   1.0000   1.0000   1.0000   1.0000   1.0000
     0.0000   0.0000   0.0000   0.0000   0.0000   0.0000   0.0000   0.0000

 ------ SPIN DOWN ----------


          k = 0.0000 0.0000 0.0000 (118565 PWs)   bands (ev):

    -8.1964  -7.6586  -7.6370  -7.6370  -7.6137  -7.6115  -7.5528  -7.1597
    -7.0675  -7.0661  -7.0617  -7.0605  -7.0599  -7.0414  -7.0403  -7.0346
    -6.9980  -6.9936  -6.9039  -6.5851  -6.4747  -6.4666  -6.4653  -6.4561
    -6.4448  -6.4421  -6.3632  -5.9883  -5.9106  -5.9098  -5.9004  -5.8995
    -5.8775  -5.6272  -5.3843  -5.3818  -5.3806  -5.3786  -5.3729  -5.3724
    -5.3696  -5.3685  -5.3622  -5.3601  -5.3575  -5.3563  -5.3518  -5.3497
    -5.3390  -5.3290  -5.3275  -5.3165  -5.3142  -5.3133  -5.2691  -5.2645
    -5.1820  -4.9988  -4.8230  -4.8228  -4.8189  -4.8157  -4.8150  -4.8149
    -4.8145  -4.8123  -4.8112  -4.8107  -4.8058  -4.8036  -4.8019  -4.8001
    -4.7925  -4.7909  -4.7684  -4.7461  -4.7443  -4.7220  -4.6939  -4.6860
    -4.4427  -3.8866  -3.7298  -3.7293  -3.7273  -3.7262  -3.7189  -3.7171
    -3.7165  -3.7118  -3.7060  -3.7048  -3.6609  -3.4792  -3.2653  -3.2650
    -3.2618  -3.2598  -3.2598  -3.2590  -3.2575  -3.2558  -3.2515  -3.2512
    -3.2435  -3.2433  -3.2422  -3.2414  -3.2388  -3.2282  -3.2138  -3.1934
    -3.1920  -3.1769  -3.1584  -3.1570  -3.1544  -3.1435  -3.1422  -3.1401
    -3.1260  -3.1232  -2.9992  -2.7770  -2.6579  -2.6576  -2.6573  -2.6561
    -2.6560  -2.6556  -2.6460  -2.6448  -2.6400  -2.6377  -2.6368  -2.6329
    -2.6309  -2.6307  -2.6285  -2.6276  -2.6244  -2.6101  -2.5880  -2.5871
    -2.5532  -2.5504  -2.4940  -2.4422  -2.3939  -2.3934  -2.3703  -2.2925
    -2.1893  -2.1888  -2.1758  -2.1735  -2.1733  -2.1704  -2.1702  -2.1693
    -2.1653  -2.1648  -2.1636  -2.1589  -2.1579  -2.1577  -2.1510  -2.1487
    -2.1487  -2.1297  -2.1292  -2.1227  -2.0613  -2.0555  -1.8275  -1.5761
    -1.4459  -1.4445  -1.4438  -1.4363  -1.4354  -1.4353  -1.4292  -1.4289
    -1.4280  -1.4264  -1.4246  -1.4243  -1.4112  -1.4097  -1.3993  -1.3961
    -1.3920  -1.3864  -1.3846  -1.3803  -1.3617  -1.3616  -1.3471  -1.3002
    -1.2523  -1.2490  -1.2487  -1.2471  -1.2460  -1.2424  -1.2380  -1.2374
    -1.2371  -1.2217  -1.2197  -1.2132  -1.1977  -1.1961  -1.1845  -1.1819
    -1.1804  -1.1508  -1.1434  -1.1395  -1.0244  -1.0159  -0.3833  -0.0864
    -0.0860  -0.0849  -0.0614   0.2200   0.2907   0.2914   0.3053   0.3064
     0.3067   0.3101   0.3101   0.3118   0.3302   0.3311   0.3965   0.4926
     0.5005   0.5009   0.5067   0.5081   0.5378   0.7672   0.8162   0.8170
     0.8220   0.8224   0.8228   0.8246   0.8265   0.8278   0.8450   0.8470
     0.8494   0.8501   0.8513   0.8519   0.8567   0.8579   0.8605   0.8670
     0.8748   0.8759   0.8835   0.8848   0.8853   0.8896   0.8926   0.8929
     0.8932   0.8978   0.8980   0.8985   0.8987   0.8991   0.9193   0.9215
     0.9245   0.9271   0.9291   0.9299   0.9342   0.9343   0.9358   0.9418
     0.9428   1.0078   1.0564   1.0590   1.1454   1.2488   1.2939   1.2942
     1.3152   1.3156   1.3180   1.3242   1.3261   1.3284   1.3530   1.3546
     1.4319   1.5166   1.5323   1.5335   1.5494   1.5502   1.5535   1.5569
     1.5702   1.5706   1.6069   1.6083   1.6791   1.6935   1.6991   1.6995
     1.7048   1.7061   1.7067   1.7099   1.7106   1.7115   1.7119   1.7190
     1.7247   1.7263   1.7277   1.7294   1.7300   1.7417   1.7579   1.7594
     1.7632   1.8727   1.9243   1.9287   2.2321   2.4330   2.4551   2.4560
     2.4857   2.4868   2.4875   2.4878   2.4895   2.4896   2.4904   2.4919
     2.4921   2.4946   2.4958   2.4964   2.4992   2.5001   2.5011   2.5080
     2.5082   2.5629   2.5832   2.5858   2.6792   2.8293   2.8299   2.8390
     2.8442   2.8443   2.8477   2.8504   2.8517   2.8519   2.8628   2.8631
     2.8740   2.8745   2.8858   2.8863   2.8885   2.8887   2.8912   2.8991
     2.9086   2.9097   3.0703   3.0758   3.7296   3.9244   3.9246   3.9476
     3.9478   3.9479   3.9483   3.9485   3.9548   3.9551   3.9664   3.9703
     3.9707   4.0925   4.1095   4.1108   4.1363   4.1364   4.1376   4.1406
     4.1413   4.1420   4.1426   4.1435   4.1436   4.1439   4.1446   4.1448
     4.1456   4.1538   4.1661   4.1667   4.1922   4.1996   4.2060   4.2074
     4.2171   4.2325   4.2329   4.2364   4.2398   4.2401   4.2406   4.2443
     4.2449   4.2475   4.2651   4.2654   4.2669   4.2695   4.2698   4.2718
     4.2731   4.2744   4.2796   4.2818   4.2883   4.2903   4.3469   4.3476
     4.3689   4.3691   4.3749   4.3775   4.3775   4.3790   4.3800   4.3806
     4.3829   4.3895   4.3914   4.3922   4.3929   4.4080   4.4089   4.4139
     4.4178   4.4179   4.4309   4.4403   4.4409   4.4893   4.5124   4.5126
     4.5134   4.5531   4.5539   4.5768   4.5833   4.5845   4.5850   4.5874
     4.5883   4.6219   4.6481   4.6486   4.6580   4.6980   4.7116   4.7132
     4.8233   4.8280   4.9272   4.9273   4.9481   4.9528   4.9531   4.9532
     4.9534   4.9679   4.9681   5.0428   5.0926   5.0987   5.6009   5.6338
     5.6344   5.6559   5.6627   5.6634   5.6674   5.6693   5.6698   5.7045
     5.7050   5.7079   5.9022   5.9029   5.9071   5.9189   5.9194   5.9196
     5.9220   5.9227   5.9232   5.9329   5.9385   5.9388   5.9458   5.9462
     5.9482   5.9536   5.9536   5.9591   5.9761   5.9769   5.9793   6.0056
     6.0125   6.0134   6.1062   6.2002   6.2013   6.2632   6.2634   6.2667
     6.2670   6.2679   6.2682   6.2698   6.2699   6.2714   6.2753   6.2765
     6.2780   6.2791   6.2900   6.2906   6.3002   6.3016   6.3026   6.3309
     6.3372   6.3381   6.3421   6.4807   6.4818   6.4887   6.5169   6.5171
     6.5173   6.5181   6.5201   6.5204   6.5213   6.5229   6.5230   6.5252
     6.5258   6.5266   6.5289   6.5318   6.5327   6.5407   6.5417   6.5778
     6.5859   6.5862   6.5960   6.6586   6.6598   6.6599   6.6663   6.6706
     6.6710   6.6724   6.6844   6.7152   6.7164   6.7269   6.7309   6.7317
     6.7319   6.7392   6.7409   6.7415   6.7428   6.7440   6.7443   6.7470
     6.7473   6.7730   6.7735   6.7799   6.7855   6.7857   6.7877   6.8218
     6.8613   6.8630   6.9015   6.9017   6.9080   6.9320   6.9330   6.9331
     6.9358   6.9430   6.9451   6.9454   6.9459   6.9481   6.9483   6.9534
     6.9566   6.9573   6.9628   6.9632   6.9660   6.9666   6.9698   6.9707
     6.9751   6.9762   6.9879   7.0126   7.0135   7.0870   7.1277   7.1315
     7.2650   7.2664   7.3025   7.3034   7.3039   7.3053   7.3060   7.3085
     7.3089   7.3090   7.3093   7.3095   7.3148   7.3151   7.3154   7.3216
     7.3270   7.3271   7.3294   7.3570   7.3575   7.3828   7.3830   7.3833
     7.4939   7.4947   7.5252   7.5263   7.5272   7.5293   7.5450   7.5456
     7.5665   7.5890   7.5945   7.5955   7.6816   7.6918   7.6924   7.7364
     7.7410   7.7411   7.7413   7.7432   7.7437   7.7442   7.7501   7.7512
     7.7546   7.7554   7.7556   7.7604   7.7621   7.7628   7.7666   7.7669
     7.7669   7.7676   7.7676   7.7679   7.7722   7.7723   7.7731   7.7739
     7.7744   7.7772   7.7781   7.7794   7.7798   7.7815   7.7822   7.7826
     7.7837   7.7852   7.7862   7.7890   7.8019   7.8043   7.8142   7.8297
     7.8302   7.8538   7.8552   7.8713   7.8923   7.8929   7.9038   7.9224
     7.9231   7.9282   7.9438   7.9492   7.9493   8.1044   8.1195   8.1211
     8.3102   8.3107   8.3590   8.3595   8.3606   8.3649   8.3651   8.3657
     8.3689   8.3700   8.3703   8.3711   8.3755   8.3759   8.3764   8.3830
     8.3832   8.3883   8.4019   8.4041   8.4154   8.4239   8.4253   8.4257
     8.4736   8.5194   8.5200   8.5513   8.5528   8.5534   8.5547   8.5555
     8.5555   8.5578   8.5615   8.5643   8.5652   8.5675   8.5679   8.5839
     8.5842   8.5934   8.5985   8.6065   8.6079   8.6097   8.6331   8.6336
     8.6342   8.6527   8.6602   8.6603   8.6614   8.6668   8.6668   8.6801
     8.6839   8.6844   8.6924   8.6939   8.6940   8.6965   8.6993   8.7040
     8.7220   8.7249   8.7271   8.7318   8.7325   8.7418   8.7506   8.7516
     8.7670   8.7715   8.7732   9.0123   9.0489   9.0498   9.1159   9.1164
     9.1359   9.1364   9.1369   9.1379   9.1417   9.1424   9.1456   9.1860
     9.2041   9.2107   9.2116   9.2555   9.2565   9.2610   9.2614   9.2701
     9.2825   9.2830   9.2953   9.4354   9.4728   9.4754   9.6699   9.6707
     9.7103   9.7114   9.7122   9.7124   9.7152   9.7174   9.7217   9.7218
     9.7342   9.7344   9.7383   9.7392   9.7399   9.7449   9.7450   9.7485
     9.7673   9.7690   9.7726   9.8337   9.8524   9.8531   9.8778   9.9800
     9.9812   9.9923   9.9968   9.9969  10.0018  10.0038  10.0039  10.0114
    10.0190  10.0197  10.0206  10.0285  10.0310  10.0315  10.0391  10.0400
    10.0404  10.0406  10.0411  10.0449  10.0454  10.0467  10.0472  10.0474
    10.0479  10.0500  10.0502  10.0509  10.0685  10.0701  10.0717  10.1495
    10.1502  10.1593  10.1987  10.1994  10.2020  10.2022  10.2025  10.2025
    10.2034  10.2046  10.2049  10.2061  10.2066  10.2078  10.2864  10.2872
    10.2944  10.3102  10.3107  10.3123  10.3125  10.3193  10.3195  10.3219
    10.3223  10.3227  10.3255  10.3257  10.3289  10.3289  10.3305  10.3311
    10.3335  10.3352  10.3353  10.3371  10.3375  10.3386  10.3426  10.3437
    10.3442  10.3494  10.3506  10.3528  10.3609  10.3617  10.3635  10.3766
    10.3783  10.3883  10.4028  10.4044  10.4128  10.4247  10.4266  10.4287
    10.4531  10.4556  10.4606  10.4686  10.4886  10.4917  10.5168  10.5170
    10.6005  10.6469  10.6524  11.2492  11.3457  11.3473  11.4683  11.4685
    11.4852  11.4861  11.4892  11.4919  11.4921  11.4928  11.4958  11.4961
    11.4965  11.4980  11.5037  11.5043  11.5077  11.5086  11.5198  11.5219
    11.5246  11.5390  11.5401  11.5452  11.5619  11.5693  11.5693  11.7464
    11.8831  11.8836  11.8899  11.9192  11.9204  12.2696  12.3591  12.3599
    12.4581  12.4703  12.4704  12.4753  12.4901  12.4923  12.5023  12.5325
    12.5373  12.5894  13.1984  13.1986  13.2051  14.7877  16.4906  16.5710
    17.4067  17.4077  17.4090  17.4232  17.4237  17.4359  17.7147  17.7162

     occupation numbers 
     1.0000   1.0000   1.0000   1.0000   1.0000   1.0000   1.0000   1.0000
     1.0000   1.0000   1.0000   1.0000   1.0000   1.0000   1.0000   1.0000
     1.0000   1.0000   1.0000   1.0000   1.0000   1.0000   1.0000   1.0000
     1.0000   1.0000   1.0000   1.0000   1.0000   1.0000   1.0000   1.0000
     1.0000   1.0000   1.0000   1.0000   1.0000   1.0000   1.0000   1.0000
     1.0000   1.0000   1.0000   1.0000   1.0000   1.0000   1.0000   1.0000
     1.0000   1.0000   1.0000   1.0000   1.0000   1.0000   1.0000   1.0000
     1.0000   1.0000   1.0000   1.0000   1.0000   1.0000   1.0000   1.0000
     1.0000   1.0000   1.0000   1.0000   1.0000   1.0000   1.0000   1.0000
     1.0000   1.0000   1.0000   1.0000   1.0000   1.0000   1.0000   1.0000
     1.0000   1.0000   1.0000   1.0000   1.0000   1.0000   1.0000   1.0000
     1.0000   1.0000   1.0000   1.0000   1.0000   1.0000   1.0000   1.0000
     1.0000   1.0000   1.0000   1.0000   1.0000   1.0000   1.0000   1.0000
     1.0000   1.0000   1.0000   1.0000   1.0000   1.0000   1.0000   1.0000
     1.0000   1.0000   1.0000   1.0000   1.0000   1.0000   1.0000   1.0000
     1.0000   1.0000   1.0000   1.0000   1.0000   1.0000   1.0000   1.0000
     1.0000   1.0000   1.0000   1.0000   1.0000   1.0000   1.0000   1.0000
     1.0000   1.0000   1.0000   1.0000   1.0000   1.0000   1.0000   1.0000
     1.0000   1.0000   1.0000   1.0000   1.0000   1.0000   1.0000   1.0000
     1.0000   1.0000   1.0000   1.0000   1.0000   1.0000   1.0000   1.0000
     1.0000   1.0000   1.0000   1.0000   1.0000   1.0000   1.0000   1.0000
     1.0000   1.0000   1.0000   1.0000   1.0000   1.0000   1.0000   1.0000
     1.0000   1.0000   1.0000   1.0000   1.0000   1.0000   1.0000   1.0000
     1.0000   1.0000   1.0000   1.0000   1.0000   1.0000   1.0000   1.0000
     1.0000   1.0000   1.0000   1.0000   1.0000   1.0000   1.0000   1.0000
     1.0000   1.0000   1.0000   1.0000   1.0000   1.0000   1.0000   1.0000
     1.0000   1.0000   1.0000   1.0000   1.0000   1.0000   1.0000   1.0000
     1.0000   1.0000   1.0000   1.0000   1.0000   1.0000   1.0000   1.0000
     1.0000   1.0000   1.0000   1.0000   1.0000   1.0000   1.0000   1.0000
     1.0000   1.0000   1.0000   1.0000   1.0000   1.0000   1.0000   1.0000
     1.0000   1.0000   1.0000   1.0000   1.0000   1.0000   1.0000   1.0000
     1.0000   1.0000   1.0000   1.0000   1.0000   1.0000   1.0000   1.0000
     1.0000   1.0000   1.0000   1.0000   1.0000   1.0000   1.0000   1.0000
     1.0000   1.0000   1.0000   1.0000   1.0000   1.0000   1.0000   1.0000
     1.0000   1.0000   1.0000   1.0000   1.0000   1.0000   1.0000   1.0000
     1.0000   1.0000   1.0000   1.0000   1.0000   1.0000   1.0000   1.0000
     1.0000   1.0000   1.0000   1.0000   1.0000   1.0000   1.0000   1.0000
     1.0000   1.0000   1.0000   1.0000   1.0000   1.0000   1.0000   1.0000
     1.0000   1.0000   1.0000   1.0000   1.0000   1.0000   1.0000   1.0000
     1.0000   1.0000   1.0000   1.0000   1.0000   1.0000   1.0000   1.0000
     1.0000   1.0000   1.0000   1.0000   1.0000   1.0000   1.0000   1.0000
     1.0000   1.0000   1.0000   1.0000   1.0000   1.0000   1.0000   1.0000
     1.0000   1.0000   1.0000   1.0000   1.0000   1.0000   1.0000   1.0000
     1.0000   1.0000   1.0000   1.0000   1.0000   1.0000   1.0000   1.0000
     1.0000   1.0000   1.0000   1.0000   1.0000   1.0000   1.0000   1.0000
     1.0000   1.0000   1.0000   1.0000   1.0000   1.0000   1.0000   1.0000
     1.0000   1.0000   1.0000   1.0000   1.0000   1.0000   1.0000   1.0000
     1.0000   1.0000   1.0000   1.0000   1.0000   1.0000   1.0000   1.0000
     1.0000   1.0000   1.0000   1.0000   1.0000   1.0000   1.0000   1.0000
     1.0000   1.0000   1.0000   1.0000   1.0000   1.0000   1.0000   1.0000
     1.0000   1.0000   1.0000   1.0000   1.0000   1.0000   1.0000   1.0000
     1.0000   1.0000   1.0000   1.0000   1.0000   1.0000   1.0000   1.0000
     1.0000   1.0000   1.0000   1.0000   1.0000   1.0000   1.0000   1.0000
     1.0000   1.0000   1.0000   1.0000   1.0000   1.0000   1.0000   1.0000
     1.0000   1.0000   1.0000   1.0000   1.0000   1.0000   1.0000   1.0000
     1.0000   1.0000   1.0000   1.0000   1.0000   1.0000   1.0000   1.0000
     1.0000   1.0000   1.0000   1.0000   1.0000   1.0000   1.0000   1.0000
     1.0000   1.0000   1.0000   1.0000   1.0000   1.0000   1.0000   1.0000
     1.0000   1.0000   1.0000   1.0000   1.0000   1.0000   1.0000   1.0000
     1.0000   1.0000   1.0000   1.0000   1.0000   1.0000   1.0000   1.0000
     1.0000   1.0000   1.0000   1.0000   1.0000   1.0000   1.0000   1.0000
     1.0000   1.0000   1.0000   1.0000   1.0000   1.0000   1.0000   1.0000
     1.0000   1.0000   1.0000   1.0000   1.0000   1.0000   1.0000   1.0000
     1.0000   1.0000   1.0000   1.0000   1.0000   1.0000   1.0000   1.0000
     1.0000   1.0000   1.0000   1.0000   1.0000   1.0000   1.0000   1.0000
     1.0000   1.0000   1.0000   1.0000   1.0000   1.0000   1.0000   1.0000
     1.0000   1.0000   1.0000   1.0000   1.0000   1.0000   1.0000   1.0000
     1.0000   1.0000   1.0000   1.0000   1.0000   1.0000   1.0000   1.0000
     1.0000   1.0000   1.0000   1.0000   1.0000   1.0000   1.0000   1.0000
     1.0000   1.0000   1.0000   1.0000   1.0000   1.0000   1.0000   1.0000
     1.0000   1.0000   1.0000   1.0000   1.0000   1.0000   1.0000   1.0000
     1.0000   1.0000   1.0000   1.0000   1.0000   1.0000   1.0000   1.0000
     1.0000   1.0000   1.0000   1.0000   1.0000   1.0000   1.0000   1.0000
     1.0000   1.0000   1.0000   1.0000   1.0000   1.0000   1.0000   1.0000
     1.0000   1.0000   1.0000   1.0000   1.0000   1.0000   1.0000   1.0000
     1.0000   1.0000   1.0000   1.0000   1.0000   1.0000   1.0000   1.0000
     1.0000   1.0000   1.0000   1.0000   1.0000   1.0000   1.0000   1.0000
     1.0000   1.0000   1.0000   1.0000   1.0000   1.0000   1.0000   1.0000
     1.0000   1.0000   1.0000   1.0000   1.0000   1.0000   1.0000   1.0000
     1.0000   1.0000   1.0000   1.0000   1.0000   1.0000   1.0000   1.0000
     1.0000   1.0000   1.0000   1.0000   1.0000   1.0000   1.0000   1.0000
     1.0000   1.0000   1.0000   1.0000   1.0000   1.0000   1.0000   1.0000
     1.0000   1.0000   1.0000   1.0000   1.0000   1.0000   1.0000   1.0000
     1.0000   1.0000   1.0000   1.0000   1.0000   1.0000   1.0000   1.0000
     1.0000   1.0000   1.0000   1.0000   1.0000   1.0000   1.0000   1.0000
     1.0000   1.0000   1.0000   1.0000   1.0000   1.0000   1.0000   1.0000
     1.0000   1.0000   1.0000   1.0000   1.0000   1.0000   1.0000   1.0000
     1.0000   1.0000   1.0000   1.0000   1.0000   1.0000   1.0000   1.0000
     1.0000   1.0000   1.0000   1.0000   1.0000   1.0000   1.0000   1.0000
     1.0000   1.0000   1.0000   1.0000   1.0000   1.0000   1.0000   1.0000
     1.0000   1.0000   1.0000   1.0000   1.0000   1.0000   1.0000   1.0000
     1.0000   1.0000   1.0000   1.0000   1.0000   1.0000   1.0000   1.0000
     1.0000   1.0000   1.0000   1.0000   1.0000   1.0000   1.0000   1.0000
     1.0000   1.0000   1.0000   1.0000   1.0000   1.0000   1.0000   1.0000
     1.0000   1.0000   1.0000   1.0000   1.0000   1.0000   1.0000   1.0000
     1.0000   1.0000   1.0000   1.0000   1.0000   1.0000   1.0000   1.0000
     1.0000   1.0000   1.0000   1.0000   1.0000   1.0000   1.0000   1.0000
     1.0000   1.0000   1.0000   1.0000   1.0000   1.0000   1.0000   1.0000
     1.0000   1.0000   1.0000   1.0000   1.0000   1.0000   1.0000   1.0000
     1.0000   1.0000   1.0000   1.0000   1.0000   1.0000   1.0000   1.0000
     1.0000   1.0000   1.0000   1.0000   1.0000   1.0000   1.0000   1.0000
     1.0000   1.0000   1.0000   1.0000   1.0000   1.0000   1.0000   1.0000
     1.0000   1.0000   1.0000   1.0000   1.0000   1.0000   1.0000   1.0000
     1.0000   1.0000   1.0000   1.0000   1.0000   1.0000   1.0000   1.0000
     1.0000   1.0000   1.0000   1.0000   1.0000   1.0000   1.0000   1.0000
     1.0000   1.0000   1.0000   1.0000   1.0000   1.0000   1.0000   1.0000
     1.0000   1.0000   1.0000   1.0000   1.0000   1.0000   1.0000   1.0000
     1.0000   1.0000   1.0000   1.0000   1.0000   1.0000   1.0000   1.0000
     1.0000   1.0000   1.0000   1.0000   1.0000   1.0000   1.0000   1.0000
     1.0000   1.0000   1.0000   1.0000   1.0000   1.0000   1.0000   1.0000
     1.0000   1.0000   1.0000   1.0000   1.0000   1.0000   1.0000   1.0000
     1.0000   1.0000   1.0000   1.0000   1.0000   1.0000   1.0000   1.0000
     1.0000   1.0000   1.0000   1.0000   1.0000   1.0000   1.0000   1.0000
     1.0000   1.0000   1.0000   1.0000   1.0000   1.0000   1.0000   1.0000
     1.0000   1.0000   1.0000   1.0000   1.0000   1.0000   1.0000   1.0000
     1.0000   1.0000   1.0000   1.0000   1.0000   1.0000   1.0000   1.0000
     1.0000   1.0000   1.0000   1.0000   1.0000   1.0000   1.0000   1.0000
     1.0000   1.0000   1.0000   1.0000   1.0000   1.0000   1.0000   1.0000
     1.0000   1.0000   1.0000   1.0000   1.0000   1.0000   1.0000   1.0000
     1.0000   1.0000   1.0000   1.0000   1.0000   1.0000   1.0000   1.0000
     1.0000   1.0000   1.0000   1.0000   1.0000   1.0000   1.0000   1.0000
     1.0000   1.0000   1.0000   1.0000   1.0000   1.0000   1.0000   1.0000
     1.0000   1.0000   1.0000   1.0000   1.0000   1.0000   1.0000   1.0000
     1.0000   1.0000   1.0000   1.0000   1.0000   1.0000   1.0000   1.0000
     1.0000   1.0000   1.0000   1.0000   1.0000   1.0000   1.0000   1.0000
     1.0000   1.0000   1.0000   1.0000   1.0000   1.0000   1.0000   1.0000
     1.0000   1.0000   1.0000   1.0000   1.0000   1.0000   1.0000   1.0000
     1.0000   1.0000   1.0000   1.0000   1.0000   1.0000   0.0000   0.0000
     0.0000   0.0000   0.0000   0.0000   0.0000   0.0000   0.0000   0.0000

     highest occupied, lowest unoccupied level (ev):    15.1550   16.4906

!    total energy              =   -5829.09975287 Ry
     estimated scf accuracy    <          9.7E-11 Ry

     The total energy is the sum of the following terms:
     one-electron contribution =    2012.01447374 Ry
     hartree contribution      =     505.13807676 Ry
     xc contribution           =   -1820.30412914 Ry
     ewald contribution        =   -6525.94817423 Ry

     total magnetization       =     2.00 Bohr mag/cell
     absolute magnetization    =     2.29 Bohr mag/cell

     convergence has been achieved in  20 iterations

 %%%%%%%%%%%%%%%%%%%%%%%%%%%%%%%%%%%%%%%%%%%%%%%%%%%%%%%%%%%%%%%%%%%%%%%%%%%%%%
     Error in routine write_rhog (2):
     error writing file ./pwscf.save/charge-density
 %%%%%%%%%%%%%%%%%%%%%%%%%%%%%%%%%%%%%%%%%%%%%%%%%%%%%%%%%%%%%%%%%%%%%%%%%%%%%%

     stopping ...

 %%%%%%%%%%%%%%%%%%%%%%%%%%%%%%%%%%%%%%%%%%%%%%%%%%%%%%%%%%%%%%%%%%%%%%%%%%%%%%
     Error in routine write_rhog (2):
     error writing file ./pwscf.save/charge-density
 %%%%%%%%%%%%%%%%%%%%%%%%%%%%%%%%%%%%%%%%%%%%%%%%%%%%%%%%%%%%%%%%%%%%%%%%%%%%%%

     stopping ...

 %%%%%%%%%%%%%%%%%%%%%%%%%%%%%%%%%%%%%%%%%%%%%%%%%%%%%%%%%%%%%%%%%%%%%%%%%%%%%%
     Error in routine write_rhog (2):
     error writing file ./pwscf.save/charge-density
 %%%%%%%%%%%%%%%%%%%%%%%%%%%%%%%%%%%%%%%%%%%%%%%%%%%%%%%%%%%%%%%%%%%%%%%%%%%%%%

     stopping ...

 %%%%%%%%%%%%%%%%%%%%%%%%%%%%%%%%%%%%%%%%%%%%%%%%%%%%%%%%%%%%%%%%%%%%%%%%%%%%%%
     Error in routine write_rhog (2):
     error writing file ./pwscf.save/charge-density
 %%%%%%%%%%%%%%%%%%%%%%%%%%%%%%%%%%%%%%%%%%%%%%%%%%%%%%%%%%%%%%%%%%%%%%%%%%%%%%

     stopping ...

 %%%%%%%%%%%%%%%%%%%%%%%%%%%%%%%%%%%%%%%%%%%%%%%%%%%%%%%%%%%%%%%%%%%%%%%%%%%%%%
     Error in routine write_rhog (2):
     error writing file ./pwscf.save/charge-density
 %%%%%%%%%%%%%%%%%%%%%%%%%%%%%%%%%%%%%%%%%%%%%%%%%%%%%%%%%%%%%%%%%%%%%%%%%%%%%%

     stopping ...

 %%%%%%%%%%%%%%%%%%%%%%%%%%%%%%%%%%%%%%%%%%%%%%%%%%%%%%%%%%%%%%%%%%%%%%%%%%%%%%
     Error in routine write_rhog (2):
     error writing file ./pwscf.save/charge-density
 %%%%%%%%%%%%%%%%%%%%%%%%%%%%%%%%%%%%%%%%%%%%%%%%%%%%%%%%%%%%%%%%%%%%%%%%%%%%%%

     stopping ...

 %%%%%%%%%%%%%%%%%%%%%%%%%%%%%%%%%%%%%%%%%%%%%%%%%%%%%%%%%%%%%%%%%%%%%%%%%%%%%%
     Error in routine write_rhog (2):
     error writing file ./pwscf.save/charge-density
 %%%%%%%%%%%%%%%%%%%%%%%%%%%%%%%%%%%%%%%%%%%%%%%%%%%%%%%%%%%%%%%%%%%%%%%%%%%%%%

     stopping ...

 %%%%%%%%%%%%%%%%%%%%%%%%%%%%%%%%%%%%%%%%%%%%%%%%%%%%%%%%%%%%%%%%%%%%%%%%%%%%%%
     Error in routine write_rhog (2):
     error writing file ./pwscf.save/charge-density
 %%%%%%%%%%%%%%%%%%%%%%%%%%%%%%%%%%%%%%%%%%%%%%%%%%%%%%%%%%%%%%%%%%%%%%%%%%%%%%

     stopping ...

 %%%%%%%%%%%%%%%%%%%%%%%%%%%%%%%%%%%%%%%%%%%%%%%%%%%%%%%%%%%%%%%%%%%%%%%%%%%%%%
     Error in routine write_rhog (2):
     error writing file ./pwscf.save/charge-density
 %%%%%%%%%%%%%%%%%%%%%%%%%%%%%%%%%%%%%%%%%%%%%%%%%%%%%%%%%%%%%%%%%%%%%%%%%%%%%%

     stopping ...

 %%%%%%%%%%%%%%%%%%%%%%%%%%%%%%%%%%%%%%%%%%%%%%%%%%%%%%%%%%%%%%%%%%%%%%%%%%%%%%
     Error in routine write_rhog (2):
     error writing file ./pwscf.save/charge-density
 %%%%%%%%%%%%%%%%%%%%%%%%%%%%%%%%%%%%%%%%%%%%%%%%%%%%%%%%%%%%%%%%%%%%%%%%%%%%%%

     stopping ...

 %%%%%%%%%%%%%%%%%%%%%%%%%%%%%%%%%%%%%%%%%%%%%%%%%%%%%%%%%%%%%%%%%%%%%%%%%%%%%%
     Error in routine write_rhog (2):
     error writing file ./pwscf.save/charge-density
 %%%%%%%%%%%%%%%%%%%%%%%%%%%%%%%%%%%%%%%%%%%%%%%%%%%%%%%%%%%%%%%%%%%%%%%%%%%%%%

     stopping ...

 %%%%%%%%%%%%%%%%%%%%%%%%%%%%%%%%%%%%%%%%%%%%%%%%%%%%%%%%%%%%%%%%%%%%%%%%%%%%%%
     Error in routine write_rhog (2):
     error writing file ./pwscf.save/charge-density
 %%%%%%%%%%%%%%%%%%%%%%%%%%%%%%%%%%%%%%%%%%%%%%%%%%%%%%%%%%%%%%%%%%%%%%%%%%%%%%

     stopping ...

 %%%%%%%%%%%%%%%%%%%%%%%%%%%%%%%%%%%%%%%%%%%%%%%%%%%%%%%%%%%%%%%%%%%%%%%%%%%%%%
     Error in routine write_rhog (2):
     error writing file ./pwscf.save/charge-density
 %%%%%%%%%%%%%%%%%%%%%%%%%%%%%%%%%%%%%%%%%%%%%%%%%%%%%%%%%%%%%%%%%%%%%%%%%%%%%%

     stopping ...

 %%%%%%%%%%%%%%%%%%%%%%%%%%%%%%%%%%%%%%%%%%%%%%%%%%%%%%%%%%%%%%%%%%%%%%%%%%%%%%
     Error in routine write_rhog (2):
     error writing file ./pwscf.save/charge-density
 %%%%%%%%%%%%%%%%%%%%%%%%%%%%%%%%%%%%%%%%%%%%%%%%%%%%%%%%%%%%%%%%%%%%%%%%%%%%%%

     stopping ...

 %%%%%%%%%%%%%%%%%%%%%%%%%%%%%%%%%%%%%%%%%%%%%%%%%%%%%%%%%%%%%%%%%%%%%%%%%%%%%%
     Error in routine write_rhog (2):
     error writing file ./pwscf.save/charge-density
 %%%%%%%%%%%%%%%%%%%%%%%%%%%%%%%%%%%%%%%%%%%%%%%%%%%%%%%%%%%%%%%%%%%%%%%%%%%%%%

     stopping ...

 %%%%%%%%%%%%%%%%%%%%%%%%%%%%%%%%%%%%%%%%%%%%%%%%%%%%%%%%%%%%%%%%%%%%%%%%%%%%%%
     Error in routine write_rhog (2):
     error writing file ./pwscf.save/charge-density
 %%%%%%%%%%%%%%%%%%%%%%%%%%%%%%%%%%%%%%%%%%%%%%%%%%%%%%%%%%%%%%%%%%%%%%%%%%%%%%

     stopping ...

 %%%%%%%%%%%%%%%%%%%%%%%%%%%%%%%%%%%%%%%%%%%%%%%%%%%%%%%%%%%%%%%%%%%%%%%%%%%%%%
     Error in routine write_rhog (2):
     error writing file ./pwscf.save/charge-density
 %%%%%%%%%%%%%%%%%%%%%%%%%%%%%%%%%%%%%%%%%%%%%%%%%%%%%%%%%%%%%%%%%%%%%%%%%%%%%%

     stopping ...

 %%%%%%%%%%%%%%%%%%%%%%%%%%%%%%%%%%%%%%%%%%%%%%%%%%%%%%%%%%%%%%%%%%%%%%%%%%%%%%
     Error in routine write_rhog (2):
     error writing file ./pwscf.save/charge-density
 %%%%%%%%%%%%%%%%%%%%%%%%%%%%%%%%%%%%%%%%%%%%%%%%%%%%%%%%%%%%%%%%%%%%%%%%%%%%%%

     stopping ...

 %%%%%%%%%%%%%%%%%%%%%%%%%%%%%%%%%%%%%%%%%%%%%%%%%%%%%%%%%%%%%%%%%%%%%%%%%%%%%%
     Error in routine write_rhog (2):
     error writing file ./pwscf.save/charge-density
 %%%%%%%%%%%%%%%%%%%%%%%%%%%%%%%%%%%%%%%%%%%%%%%%%%%%%%%%%%%%%%%%%%%%%%%%%%%%%%

     stopping ...

 %%%%%%%%%%%%%%%%%%%%%%%%%%%%%%%%%%%%%%%%%%%%%%%%%%%%%%%%%%%%%%%%%%%%%%%%%%%%%%
     Error in routine write_rhog (2):
     error writing file ./pwscf.save/charge-density
 %%%%%%%%%%%%%%%%%%%%%%%%%%%%%%%%%%%%%%%%%%%%%%%%%%%%%%%%%%%%%%%%%%%%%%%%%%%%%%

     stopping ...

 %%%%%%%%%%%%%%%%%%%%%%%%%%%%%%%%%%%%%%%%%%%%%%%%%%%%%%%%%%%%%%%%%%%%%%%%%%%%%%
     Error in routine write_rhog (2):
     error writing file ./pwscf.save/charge-density
 %%%%%%%%%%%%%%%%%%%%%%%%%%%%%%%%%%%%%%%%%%%%%%%%%%%%%%%%%%%%%%%%%%%%%%%%%%%%%%

     stopping ...

 %%%%%%%%%%%%%%%%%%%%%%%%%%%%%%%%%%%%%%%%%%%%%%%%%%%%%%%%%%%%%%%%%%%%%%%%%%%%%%
     Error in routine write_rhog (2):
     error writing file ./pwscf.save/charge-density
 %%%%%%%%%%%%%%%%%%%%%%%%%%%%%%%%%%%%%%%%%%%%%%%%%%%%%%%%%%%%%%%%%%%%%%%%%%%%%%

     stopping ...

 %%%%%%%%%%%%%%%%%%%%%%%%%%%%%%%%%%%%%%%%%%%%%%%%%%%%%%%%%%%%%%%%%%%%%%%%%%%%%%
     Error in routine write_rhog (2):
     error writing file ./pwscf.save/charge-density
 %%%%%%%%%%%%%%%%%%%%%%%%%%%%%%%%%%%%%%%%%%%%%%%%%%%%%%%%%%%%%%%%%%%%%%%%%%%%%%

     stopping ...

 %%%%%%%%%%%%%%%%%%%%%%%%%%%%%%%%%%%%%%%%%%%%%%%%%%%%%%%%%%%%%%%%%%%%%%%%%%%%%%
     Error in routine write_rhog (2):
     error writing file ./pwscf.save/charge-density
 %%%%%%%%%%%%%%%%%%%%%%%%%%%%%%%%%%%%%%%%%%%%%%%%%%%%%%%%%%%%%%%%%%%%%%%%%%%%%%

     stopping ...

 %%%%%%%%%%%%%%%%%%%%%%%%%%%%%%%%%%%%%%%%%%%%%%%%%%%%%%%%%%%%%%%%%%%%%%%%%%%%%%
     Error in routine write_rhog (2):
     error writing file ./pwscf.save/charge-density
 %%%%%%%%%%%%%%%%%%%%%%%%%%%%%%%%%%%%%%%%%%%%%%%%%%%%%%%%%%%%%%%%%%%%%%%%%%%%%%

     stopping ...

 %%%%%%%%%%%%%%%%%%%%%%%%%%%%%%%%%%%%%%%%%%%%%%%%%%%%%%%%%%%%%%%%%%%%%%%%%%%%%%
     Error in routine write_rhog (2):
     error writing file ./pwscf.save/charge-density
 %%%%%%%%%%%%%%%%%%%%%%%%%%%%%%%%%%%%%%%%%%%%%%%%%%%%%%%%%%%%%%%%%%%%%%%%%%%%%%

     stopping ...

 %%%%%%%%%%%%%%%%%%%%%%%%%%%%%%%%%%%%%%%%%%%%%%%%%%%%%%%%%%%%%%%%%%%%%%%%%%%%%%
     Error in routine write_rhog (2):
     error writing file ./pwscf.save/charge-density
 %%%%%%%%%%%%%%%%%%%%%%%%%%%%%%%%%%%%%%%%%%%%%%%%%%%%%%%%%%%%%%%%%%%%%%%%%%%%%%

     stopping ...

 %%%%%%%%%%%%%%%%%%%%%%%%%%%%%%%%%%%%%%%%%%%%%%%%%%%%%%%%%%%%%%%%%%%%%%%%%%%%%%
     Error in routine write_rhog (2):
     error writing file ./pwscf.save/charge-density
 %%%%%%%%%%%%%%%%%%%%%%%%%%%%%%%%%%%%%%%%%%%%%%%%%%%%%%%%%%%%%%%%%%%%%%%%%%%%%%

     stopping ...

 %%%%%%%%%%%%%%%%%%%%%%%%%%%%%%%%%%%%%%%%%%%%%%%%%%%%%%%%%%%%%%%%%%%%%%%%%%%%%%
     Error in routine write_rhog (2):
     error writing file ./pwscf.save/charge-density
 %%%%%%%%%%%%%%%%%%%%%%%%%%%%%%%%%%%%%%%%%%%%%%%%%%%%%%%%%%%%%%%%%%%%%%%%%%%%%%

     stopping ...

 %%%%%%%%%%%%%%%%%%%%%%%%%%%%%%%%%%%%%%%%%%%%%%%%%%%%%%%%%%%%%%%%%%%%%%%%%%%%%%
     Error in routine write_rhog (2):
     error writing file ./pwscf.save/charge-density
 %%%%%%%%%%%%%%%%%%%%%%%%%%%%%%%%%%%%%%%%%%%%%%%%%%%%%%%%%%%%%%%%%%%%%%%%%%%%%%

     stopping ...

 %%%%%%%%%%%%%%%%%%%%%%%%%%%%%%%%%%%%%%%%%%%%%%%%%%%%%%%%%%%%%%%%%%%%%%%%%%%%%%
     Error in routine write_rhog (2):
     error writing file ./pwscf.save/charge-density
 %%%%%%%%%%%%%%%%%%%%%%%%%%%%%%%%%%%%%%%%%%%%%%%%%%%%%%%%%%%%%%%%%%%%%%%%%%%%%%

     stopping ...

 %%%%%%%%%%%%%%%%%%%%%%%%%%%%%%%%%%%%%%%%%%%%%%%%%%%%%%%%%%%%%%%%%%%%%%%%%%%%%%
     Error in routine write_rhog (2):
     error writing file ./pwscf.save/charge-density
 %%%%%%%%%%%%%%%%%%%%%%%%%%%%%%%%%%%%%%%%%%%%%%%%%%%%%%%%%%%%%%%%%%%%%%%%%%%%%%

     stopping ...

 %%%%%%%%%%%%%%%%%%%%%%%%%%%%%%%%%%%%%%%%%%%%%%%%%%%%%%%%%%%%%%%%%%%%%%%%%%%%%%
     Error in routine write_rhog (2):
     error writing file ./pwscf.save/charge-density
 %%%%%%%%%%%%%%%%%%%%%%%%%%%%%%%%%%%%%%%%%%%%%%%%%%%%%%%%%%%%%%%%%%%%%%%%%%%%%%

     stopping ...

 %%%%%%%%%%%%%%%%%%%%%%%%%%%%%%%%%%%%%%%%%%%%%%%%%%%%%%%%%%%%%%%%%%%%%%%%%%%%%%
     Error in routine write_rhog (2):
     error writing file ./pwscf.save/charge-density
 %%%%%%%%%%%%%%%%%%%%%%%%%%%%%%%%%%%%%%%%%%%%%%%%%%%%%%%%%%%%%%%%%%%%%%%%%%%%%%

     stopping ...

 %%%%%%%%%%%%%%%%%%%%%%%%%%%%%%%%%%%%%%%%%%%%%%%%%%%%%%%%%%%%%%%%%%%%%%%%%%%%%%
     Error in routine write_rhog (2):
     error writing file ./pwscf.save/charge-density
 %%%%%%%%%%%%%%%%%%%%%%%%%%%%%%%%%%%%%%%%%%%%%%%%%%%%%%%%%%%%%%%%%%%%%%%%%%%%%%

     stopping ...

 %%%%%%%%%%%%%%%%%%%%%%%%%%%%%%%%%%%%%%%%%%%%%%%%%%%%%%%%%%%%%%%%%%%%%%%%%%%%%%
     Error in routine write_rhog (2):
     error writing file ./pwscf.save/charge-density
 %%%%%%%%%%%%%%%%%%%%%%%%%%%%%%%%%%%%%%%%%%%%%%%%%%%%%%%%%%%%%%%%%%%%%%%%%%%%%%

     stopping ...

 %%%%%%%%%%%%%%%%%%%%%%%%%%%%%%%%%%%%%%%%%%%%%%%%%%%%%%%%%%%%%%%%%%%%%%%%%%%%%%
     Error in routine write_rhog (2):
     error writing file ./pwscf.save/charge-density
 %%%%%%%%%%%%%%%%%%%%%%%%%%%%%%%%%%%%%%%%%%%%%%%%%%%%%%%%%%%%%%%%%%%%%%%%%%%%%%

     stopping ...

 %%%%%%%%%%%%%%%%%%%%%%%%%%%%%%%%%%%%%%%%%%%%%%%%%%%%%%%%%%%%%%%%%%%%%%%%%%%%%%
     Error in routine write_rhog (2):
     error writing file ./pwscf.save/charge-density
 %%%%%%%%%%%%%%%%%%%%%%%%%%%%%%%%%%%%%%%%%%%%%%%%%%%%%%%%%%%%%%%%%%%%%%%%%%%%%%

     stopping ...

 %%%%%%%%%%%%%%%%%%%%%%%%%%%%%%%%%%%%%%%%%%%%%%%%%%%%%%%%%%%%%%%%%%%%%%%%%%%%%%
     Error in routine write_rhog (2):
     error writing file ./pwscf.save/charge-density
 %%%%%%%%%%%%%%%%%%%%%%%%%%%%%%%%%%%%%%%%%%%%%%%%%%%%%%%%%%%%%%%%%%%%%%%%%%%%%%

     stopping ...

 %%%%%%%%%%%%%%%%%%%%%%%%%%%%%%%%%%%%%%%%%%%%%%%%%%%%%%%%%%%%%%%%%%%%%%%%%%%%%%
     Error in routine write_rhog (2):
     error writing file ./pwscf.save/charge-density
 %%%%%%%%%%%%%%%%%%%%%%%%%%%%%%%%%%%%%%%%%%%%%%%%%%%%%%%%%%%%%%%%%%%%%%%%%%%%%%

     stopping ...

 %%%%%%%%%%%%%%%%%%%%%%%%%%%%%%%%%%%%%%%%%%%%%%%%%%%%%%%%%%%%%%%%%%%%%%%%%%%%%%
     Error in routine write_rhog (2):
     error writing file ./pwscf.save/charge-density
 %%%%%%%%%%%%%%%%%%%%%%%%%%%%%%%%%%%%%%%%%%%%%%%%%%%%%%%%%%%%%%%%%%%%%%%%%%%%%%

     stopping ...

 %%%%%%%%%%%%%%%%%%%%%%%%%%%%%%%%%%%%%%%%%%%%%%%%%%%%%%%%%%%%%%%%%%%%%%%%%%%%%%
     Error in routine write_rhog (2):
     error writing file ./pwscf.save/charge-density
 %%%%%%%%%%%%%%%%%%%%%%%%%%%%%%%%%%%%%%%%%%%%%%%%%%%%%%%%%%%%%%%%%%%%%%%%%%%%%%

     stopping ...

 %%%%%%%%%%%%%%%%%%%%%%%%%%%%%%%%%%%%%%%%%%%%%%%%%%%%%%%%%%%%%%%%%%%%%%%%%%%%%%
     Error in routine write_rhog (2):
     error writing file ./pwscf.save/charge-density
 %%%%%%%%%%%%%%%%%%%%%%%%%%%%%%%%%%%%%%%%%%%%%%%%%%%%%%%%%%%%%%%%%%%%%%%%%%%%%%

     stopping ...

 %%%%%%%%%%%%%%%%%%%%%%%%%%%%%%%%%%%%%%%%%%%%%%%%%%%%%%%%%%%%%%%%%%%%%%%%%%%%%%
     Error in routine write_rhog (2):
     error writing file ./pwscf.save/charge-density
 %%%%%%%%%%%%%%%%%%%%%%%%%%%%%%%%%%%%%%%%%%%%%%%%%%%%%%%%%%%%%%%%%%%%%%%%%%%%%%

     stopping ...

 %%%%%%%%%%%%%%%%%%%%%%%%%%%%%%%%%%%%%%%%%%%%%%%%%%%%%%%%%%%%%%%%%%%%%%%%%%%%%%
     Error in routine write_rhog (2):
     error writing file ./pwscf.save/charge-density
 %%%%%%%%%%%%%%%%%%%%%%%%%%%%%%%%%%%%%%%%%%%%%%%%%%%%%%%%%%%%%%%%%%%%%%%%%%%%%%

     stopping ...

 %%%%%%%%%%%%%%%%%%%%%%%%%%%%%%%%%%%%%%%%%%%%%%%%%%%%%%%%%%%%%%%%%%%%%%%%%%%%%%
     Error in routine write_rhog (2):
     error writing file ./pwscf.save/charge-density
 %%%%%%%%%%%%%%%%%%%%%%%%%%%%%%%%%%%%%%%%%%%%%%%%%%%%%%%%%%%%%%%%%%%%%%%%%%%%%%

     stopping ...

 %%%%%%%%%%%%%%%%%%%%%%%%%%%%%%%%%%%%%%%%%%%%%%%%%%%%%%%%%%%%%%%%%%%%%%%%%%%%%%
     Error in routine write_rhog (2):
     error writing file ./pwscf.save/charge-density
 %%%%%%%%%%%%%%%%%%%%%%%%%%%%%%%%%%%%%%%%%%%%%%%%%%%%%%%%%%%%%%%%%%%%%%%%%%%%%%

     stopping ...

 %%%%%%%%%%%%%%%%%%%%%%%%%%%%%%%%%%%%%%%%%%%%%%%%%%%%%%%%%%%%%%%%%%%%%%%%%%%%%%
     Error in routine write_rhog (2):
     error writing file ./pwscf.save/charge-density
 %%%%%%%%%%%%%%%%%%%%%%%%%%%%%%%%%%%%%%%%%%%%%%%%%%%%%%%%%%%%%%%%%%%%%%%%%%%%%%

     stopping ...
