
     Program PWSCF v.7.5 starts on  4Dec2025 at 23:26:23 

     This program is part of the open-source Quantum ESPRESSO suite
     for quantum simulation of materials; please cite
         "P. Giannozzi et al., J. Phys.:Condens. Matter 21 395502 (2009);
         "P. Giannozzi et al., J. Phys.:Condens. Matter 29 465901 (2017);
         "P. Giannozzi et al., J. Chem. Phys. 152 154105 (2020);
          URL http://www.quantum-espresso.org", 
     in publications or presentations arising from this work. More details at
     http://www.quantum-espresso.org/quote

     Parallel version (MPI), running on    96 processors

     MPI processes distributed on     2 nodes
     174054 MiB available memory on the printing compute node when the environment starts
 
     Reading input from pw.in

     Current dimensions of program PWSCF are:
     Max number of different atomic species (ntypx) = 10
     Max number of k-points (npk) =  40000
     Max angular momentum in pseudopotentials (lmaxx) =  4

     gamma-point specific algorithms are used
 
     K-points division:     npool     =       2
     R & G space division:  proc/nbgrp/npool/nimage =      48
     Subspace diagonalization in iterative solution of the eigenvalue problem:
     one sub-group per band group will be used
     scalapack distributed-memory algorithm (size of sub-group:  6*  6 procs)

 
     Parallelization info
     --------------------
     sticks:   dense  smooth     PW     G-vecs:    dense   smooth      PW
     Min         384     384     96                39496    39496    4936
     Max         386     386     98                39521    39521    4949
     Sum       18505   18505   4637              1896521  1896521  237129
 
     Using Slab Decomposition
 


     bravais-lattice index     =            0
     lattice parameter (alat)  =      26.9702  a.u.
     unit-cell volume          =   19617.8366 (a.u.)^3
     number of atoms/cell      =          511
     number of atomic types    =            2
     number of electrons       =      2046.00 (up:1024.00, down:1022.00)
     number of Kohn-Sham states=         1032
     kinetic-energy cutoff     =      80.0000  Ry
     charge density cutoff     =     320.0000  Ry
     scf convergence threshold =      1.0E-10
     mixing beta               =       0.7000
     number of iterations used =            8  plain     mixing
     Exchange-correlation= PBE
                           (   1   4   3   4   0   0   0)

     celldm(1)=  26.970171  celldm(2)=   0.000000  celldm(3)=   0.000000
     celldm(4)=   0.000000  celldm(5)=   0.000000  celldm(6)=   0.000000

     crystal axes: (cart. coord. in units of alat)
               a(1) = (   1.000000   0.000000   0.000000 )  
               a(2) = (   0.000000   1.000000   0.000000 )  
               a(3) = (   0.000000   0.000000   1.000000 )  

     reciprocal axes: (cart. coord. in units 2 pi/alat)
               b(1) = (  1.000000  0.000000  0.000000 )  
               b(2) = (  0.000000  1.000000  0.000000 )  
               b(3) = (  0.000000  0.000000  1.000000 )  


     PseudoPot. # 1 for C  read from file:
     ./C_ONCV_PBE-1.2.upf
     MD5 check sum: d60b57d9bdca4133f5fde4b584ee909d
     Pseudo is Norm-conserving, Zval =  4.0
     Generated using ONCVPSP code by D. R. Hamann
     Using radial grid of  602 points,  4 beta functions with: 
                l(1) =   0
                l(2) =   0
                l(3) =   1
                l(4) =   1

     PseudoPot. # 2 for N  read from file:
     ./N_ONCV_PBE-1.2.upf
     MD5 check sum: 5312fdf34e96954e02a33bdc911c617a
     Pseudo is Norm-conserving, Zval =  5.0
     Generated using ONCVPSP code by D. R. Hamann
     Using radial grid of  602 points,  4 beta functions with: 
                l(1) =   0
                l(2) =   0
                l(3) =   1
                l(4) =   1

     atomic species   valence    mass     pseudopotential
     C                 4.00    12.01100     C ( 1.00)
     N                 5.00    14.00670     N ( 1.00)

     Starting magnetic structure 
     atomic species   magnetization
     C               0.000
     N               0.000

     No symmetry found


                                    s                        frac. trans.

      isym =  1     identity                                     

 cryst.   s( 1) = (     1          0          0      )
                  (     0          1          0      )
                  (     0          0          1      )

 cart.    s( 1) = (  1.0000000  0.0000000  0.0000000 )
                  (  0.0000000  1.0000000  0.0000000 )
                  (  0.0000000  0.0000000  1.0000000 )


   Cartesian axes

     site n.     atom                  positions (alat units)
         1        C      tau(   1) = (  -0.0000199  -0.0000138   0.0000032  )
         2        C      tau(   2) = (  -0.0000516  -0.0000049   0.2500140  )
         3        C      tau(   3) = (  -0.0000943  -0.0000337   0.5000077  )
         4        C      tau(   4) = (   0.0000073  -0.0000245   0.7499951  )
         5        C      tau(   5) = (  -0.0000523   0.2499973   0.0000131  )
         6        C      tau(   6) = (  -0.0000237   0.2500106   0.2500281  )
         7        C      tau(   7) = (  -0.0000716   0.2500411   0.5000283  )
         8        C      tau(   8) = (  -0.0001097   0.2499910   0.7500074  )
         9        C      tau(   9) = (  -0.0000944   0.4999905  -0.0000135  )
        10        C      tau(  10) = (  -0.0000720   0.5000099   0.2500607  )
        11        C      tau(  11) = (   0.0000156   0.4999903   0.5000099  )
        12        C      tau(  12) = (   0.0000272   0.4999741   0.7499605  )
        13        C      tau(  13) = (   0.0000077   0.7499781  -0.0000050  )
        14        C      tau(  14) = (  -0.0001091   0.7499884   0.2500107  )
        15        C      tau(  15) = (   0.0000272   0.7499411   0.4999926  )
        16        C      tau(  16) = (   0.0001242   0.7499589   0.7499777  )
        17        C      tau(  17) = (   0.2499687  -0.0000483  -0.0000268  )
        18        C      tau(  18) = (   0.2499258   0.0000370   0.2499649  )
        19        C      tau(  19) = (   0.2499873  -0.0000852   0.4999943  )
        20        C      tau(  20) = (   0.2499846  -0.0001762   0.7499904  )
        21        C      tau(  21) = (   0.2499242   0.2499431   0.0000594  )
        22        C      tau(  22) = (   0.2500770   0.2501344   0.2501560  )
        23        C      tau(  23) = (   0.2495499   0.2494867   0.5002130  )
        24        C      tau(  24) = (   0.2499457   0.2498750   0.7500668  )
        25        C      tau(  25) = (   0.2499877   0.4999741  -0.0000627  )
        26        C      tau(  26) = (   0.2495500   0.5001890   0.2495099  )
        27        C      tau(  27) = (   0.2507045   0.4998792   0.4999040  )
        28        C      tau(  28) = (   0.2497463   0.4996773   0.7503015  )
        29        C      tau(  29) = (   0.2499861   0.7499684  -0.0001492  )
        30        C      tau(  30) = (   0.2499484   0.7500410   0.2499021  )
        31        C      tau(  31) = (   0.2497461   0.7502773   0.4997013  )
        32        C      tau(  32) = (   0.2503164   0.7496711   0.7496961  )
        33        C      tau(  33) = (   0.4999688  -0.0000376  -0.0000162  )
        34        C      tau(  34) = (   0.4999637  -0.0000083   0.2500105  )
        35        C      tau(  35) = (   0.4999816  -0.0000300   0.5000104  )
        36        C      tau(  36) = (   0.4999934  -0.0000666   0.7500091  )
        37        C      tau(  37) = (   0.4999631   0.2499910   0.0000114  )
        38        C      tau(  38) = (   0.4999438   0.2496981   0.2497189  )
        39        C      tau(  39) = (   0.4998665   0.2502324   0.5000545  )
        40        C      tau(  40) = (   0.4997700   0.2493343   0.7506563  )
        41        C      tau(  41) = (   0.4999821   0.4999914  -0.0000101  )
        42        C      tau(  42) = (   0.4998677   0.5000304   0.2502562  )
        43        C      tau(  43) = (   0.5000517   0.4999193   0.7497160  )
        44        C      tau(  44) = (   0.4999945   0.7499884  -0.0000434  )
        45        C      tau(  45) = (   0.4997719   0.7506349   0.2493562  )
        46        C      tau(  46) = (   0.5000526   0.7496943   0.4999414  )
        47        C      tau(  47) = (   0.5001554   0.7501175   0.7501386  )
        48        C      tau(  48) = (   0.7499850   0.0000164   0.0000331  )
        49        C      tau(  49) = (   0.7499648  -0.0000359   0.2500327  )
        50        C      tau(  50) = (   0.7499705   0.0000160   0.5000261  )
        51        C      tau(  51) = (   0.7500135   0.0000599   0.7500339  )
        52        C      tau(  52) = (   0.7499645   0.2500165  -0.0000190  )
        53        C      tau(  53) = (   0.7499350   0.2500053   0.2500226  )
        54        C      tau(  54) = (   0.7500946   0.2498031   0.4999791  )
        55        C      tau(  55) = (   0.7497757   0.2502122   0.7498673  )
        56        C      tau(  56) = (   0.7499706   0.5000098   0.0000336  )
        57        C      tau(  57) = (   0.7500941   0.4999582   0.2498250  )
        58        C      tau(  58) = (   0.7495609   0.5000664   0.5000887  )
        59        C      tau(  59) = (   0.7501750   0.5001313   0.7502555  )
        60        C      tau(  60) = (   0.7500139   0.7500172   0.0000776  )
        61        C      tau(  61) = (   0.7497743   0.7498466   0.2502333  )
        62        C      tau(  62) = (   0.7501744   0.7502358   0.5001507  )
        63        C      tau(  63) = (   0.7501380   0.7501245   0.7501420  )
        64        C      tau(  64) = (  -0.0000327   0.1250022   0.1250190  )
        65        C      tau(  65) = (  -0.0000451   0.1250057   0.3750145  )
        66        C      tau(  66) = (  -0.0001122   0.1250055   0.6250235  )
        67        C      tau(  67) = (  -0.0000484   0.1249900   0.8750009  )
        68        C      tau(  68) = (  -0.0000456   0.3749976   0.1250243  )
        69        C      tau(  69) = (  -0.0000403   0.3750349   0.3750540  )
        70        C      tau(  70) = (  -0.0000332   0.3750083   0.6249916  )
        71        C      tau(  71) = (  -0.0000884   0.3749822   0.8749965  )
        72        C      tau(  72) = (  -0.0001118   0.6250054   0.1250261  )
        73        C      tau(  73) = (  -0.0000334   0.6249725   0.3750278  )
        74        C      tau(  74) = (   0.0000895   0.6249460   0.6249655  )
        75        C      tau(  75) = (   0.0000628   0.6249817   0.8749708  )
        76        C      tau(  76) = (  -0.0000476   0.8749833   0.1250082  )
        77        C      tau(  77) = (  -0.0000875   0.8749771   0.3750002  )
        78        C      tau(  78) = (   0.0000625   0.8749509   0.6249991  )
        79        C      tau(  79) = (   0.0000518   0.8749688   0.8749865  )
        80        C      tau(  80) = (   0.2499581   0.1250242   0.1250448  )
        81        C      tau(  81) = (   0.2499858   0.1249832   0.3750446  )
        82        C      tau(  82) = (   0.2498638   0.1247830   0.6250725  )
        83        C      tau(  83) = (   0.2499458   0.1248968   0.8750317  )
        84        C      tau(  84) = (   0.2499861   0.3750239   0.1250041  )
        85        C      tau(  85) = (   0.2504716   0.3753120   0.3753355  )
        86        C      tau(  86) = (   0.2499779   0.3748050   0.6250784  )
        87        C      tau(  87) = (   0.2498786   0.3748816   0.8751245  )
        88        C      tau(  88) = (   0.2498661   0.6250483   0.1248100  )
        89        C      tau(  89) = (   0.2499793   0.6250521   0.3748316  )
        90        C      tau(  90) = (   0.2507369   0.6244415   0.6244656  )
        91        C      tau(  91) = (   0.2502285   0.6248865   0.8747454  )
        92        C      tau(  92) = (   0.2499481   0.8750088   0.1249218  )
        93        C      tau(  93) = (   0.2498806   0.8750996   0.3749058  )
        94        C      tau(  94) = (   0.2502287   0.8747198   0.6249089  )
        95        C      tau(  95) = (   0.2500379   0.8748551   0.8748785  )
        96        C      tau(  96) = (   0.4999740   0.1248899   0.1249089  )
        97        C      tau(  97) = (   0.4999530   0.1250167   0.3750402  )
        98        C      tau(  98) = (   0.4999232   0.1249670   0.6250236  )
        99        C      tau(  99) = (   0.4999183   0.1247366   0.8752419  )
       100        C      tau( 100) = (   0.4999533   0.3750206   0.1250365  )
       101        C      tau( 101) = (   0.5000096   0.3753705   0.3753946  )
       102        C      tau( 102) = (   0.4986864   0.3749483   0.6248722  )
       103        C      tau( 103) = (   0.4999629   0.3750136   0.8749512  )
       104        C      tau( 104) = (   0.4999257   0.6250007   0.1249909  )
       105        C      tau( 105) = (   0.4986877   0.6248504   0.3749705  )
       106        C      tau( 106) = (   0.5021603   0.6243210   0.6243426  )
       107        C      tau( 107) = (   0.5000629   0.6249463   0.8749478  )
       108        C      tau( 108) = (   0.4999196   0.8752198   0.1247597  )
       109        C      tau( 109) = (   0.4999640   0.8749307   0.3750345  )
       110        C      tau( 110) = (   0.5000627   0.8749267   0.6249661  )
       111        C      tau( 111) = (   0.5000367   0.8750075   0.8750284  )
       112        C      tau( 112) = (   0.7499692   0.1249993   0.1250154  )
       113        C      tau( 113) = (   0.7499866   0.1249568   0.3750126  )
       114        C      tau( 114) = (   0.7498855   0.1250668   0.6249984  )
       115        C      tau( 115) = (   0.7499448   0.1250772   0.8749685  )
       116        C      tau( 116) = (   0.7499862   0.3749958   0.1249747  )
       117        C      tau( 117) = (   0.7499454   0.3749742   0.3749946  )
       118        C      tau( 118) = (   0.7491996   0.3756159   0.6248917  )
       119        C      tau( 119) = (   0.7499026   0.3750505   0.8749499  )
       120        C      tau( 120) = (   0.7498855   0.6249801   0.1250863  )
       121        C      tau( 121) = (   0.7492003   0.6248700   0.3756378  )
       122        C      tau( 122) = (   0.7503035   0.6252406   0.6252611  )
       123        C      tau( 123) = (   0.7501034   0.6250712   0.8751513  )
       124        C      tau( 124) = (   0.7499447   0.8749509   0.1250951  )
       125        C      tau( 125) = (   0.7499023   0.8749318   0.3750681  )
       126        C      tau( 126) = (   0.7501029   0.8751334   0.6250878  )
       127        C      tau( 127) = (   0.7500471   0.8750519   0.8750686  )
       128        C      tau( 128) = (   0.1249582  -0.0000005   0.1249931  )
       129        C      tau( 129) = (   0.1249171   0.0000031   0.3749884  )
       130        C      tau( 130) = (   0.1249887  -0.0001322   0.6250041  )
       131        C      tau( 131) = (   0.1249937  -0.0000745   0.8749776  )
       132        C      tau( 132) = (   0.1249803   0.2500159   0.1250624  )
       133        C      tau( 133) = (   0.1250147   0.2500723   0.3750625  )
       134        C      tau( 134) = (   0.1248732   0.2498760   0.6250539  )
       135        C      tau( 135) = (   0.1249281   0.2499475   0.8750233  )
       136        C      tau( 136) = (   0.1247754   0.5000410   0.1248153  )
       137        C      tau( 137) = (   0.1251178   0.5000179   0.3750342  )
       138        C      tau( 138) = (   0.1251954   0.4998829   0.6248956  )
       139        C      tau( 139) = (   0.1248659   0.4999053   0.8750974  )
       140        C      tau( 140) = (   0.1249447   0.7499957   0.1249459  )
       141        C      tau( 141) = (   0.1249127   0.7500424   0.3749326  )
       142        C      tau( 142) = (   0.1251903   0.7497847   0.6248788  )
       143        C      tau( 143) = (   0.1251150   0.7498961   0.8748640  )
       144        C      tau( 144) = (   0.3749438   0.0000264   0.1249475  )
       145        C      tau( 145) = (   0.3749730  -0.0000253   0.3749990  )
       146        C      tau( 146) = (   0.3749966  -0.0001097   0.6249950  )
       147        C      tau( 147) = (   0.3749725  -0.0001405   0.8749983  )
       148        C      tau( 148) = (   0.3749572   0.2500315   0.1250263  )
       149        C      tau( 149) = (   0.3751369   0.2502146   0.3752997  )
       150        C      tau( 150) = (   0.3748819   0.2496624   0.6252304  )
       151        C      tau( 151) = (   0.3749131   0.2497963   0.8751899  )
       152        C      tau( 152) = (   0.3749660   0.5000326   0.1249912  )
       153        C      tau( 153) = (   0.3757491   0.5009765   0.3753410  )
       154        C      tau( 154) = (   0.3761240   0.4985532   0.6241090  )
       155        C      tau( 155) = (   0.3750885   0.4999067   0.8748761  )
       156        C      tau( 156) = (   0.3749244   0.7501336   0.1247811  )
       157        C      tau( 157) = (   0.3749159   0.7502476   0.3747150  )
       158        C      tau( 158) = (   0.3757063   0.7492018   0.6246610  )
       159        C      tau( 159) = (   0.3750775   0.7498401   0.8748253  )
       160        C      tau( 160) = (   0.6249863  -0.0000284   0.1250329  )
       161        C      tau( 161) = (   0.6249651  -0.0000105   0.3750283  )
       162        C      tau( 162) = (   0.6249899   0.0000111   0.6250170  )
       163        C      tau( 163) = (   0.6250074   0.0000120   0.8750317  )
       164        C      tau( 164) = (   0.6249631   0.2499535   0.1249544  )
       165        C      tau( 165) = (   0.6249093   0.2499004   0.3749848  )
       166        C      tau( 166) = (   0.6245862   0.2502787   0.6248062  )
       167        C      tau( 167) = (   0.6249525   0.2501491   0.8749064  )
       168        C      tau( 168) = (   0.6249123   0.4999924   0.1250566  )
       169        C      tau( 169) = (   0.6239825   0.4995395   0.3755812  )
       170        C      tau( 170) = (   0.6243527   0.5021640   0.6245894  )
       171        C      tau( 171) = (   0.6249900   0.5000281   0.8750045  )
       172        C      tau( 172) = (   0.6249381   0.7499574   0.1250257  )
       173        C      tau( 173) = (   0.6247493   0.7494142   0.3755762  )
       174        C      tau( 174) = (   0.6252248   0.7503547   0.6252242  )
       175        C      tau( 175) = (   0.6250802   0.7500863   0.8751310  )
       176        C      tau( 176) = (   0.8749638  -0.0000137   0.1250282  )
       177        C      tau( 177) = (   0.8749492  -0.0000246   0.3750201  )
       178        C      tau( 178) = (   0.8749944   0.0000347   0.6250243  )
       179        C      tau( 179) = (   0.8749978   0.0000306   0.8750145  )
       180        C      tau( 180) = (   0.8749590   0.2500049   0.1250141  )
       181        C      tau( 181) = (   0.8749834   0.2499786   0.3750162  )
       182        C      tau( 182) = (   0.8747502   0.2502175   0.6250051  )
       183        C      tau( 183) = (   0.8749076   0.2500351   0.8749654  )
       184        C      tau( 184) = (   0.8750047   0.4999836   0.1249771  )
       185        C      tau( 185) = (   0.8748051   0.5000073   0.3751283  )
       186        C      tau( 186) = (   0.8749310   0.5000475   0.6250052  )
       187        C      tau( 187) = (   0.8750418   0.5000346   0.8750606  )
       188        C      tau( 188) = (   0.8749090   0.7499670   0.1250974  )
       189        C      tau( 189) = (   0.8748598   0.7499088   0.3750765  )
       190        C      tau( 190) = (   0.8751464   0.7500807   0.6250775  )
       191        C      tau( 191) = (   0.8750767   0.7500246   0.8750567  )
       192        C      tau( 192) = (   0.1249573   0.1249742   0.0000185  )
       193        C      tau( 193) = (   0.1249807   0.1250427   0.2500344  )
       194        C      tau( 194) = (   0.1247743   0.1247924   0.5000618  )
       195        C      tau( 195) = (   0.1249428   0.1249228   0.7500159  )
       196        C      tau( 196) = (   0.1249159   0.3749691   0.0000243  )
       197        C      tau( 197) = (   0.1250146   0.3750423   0.2500930  )
       198        C      tau( 198) = (   0.1251180   0.3750124   0.5000397  )
       199        C      tau( 199) = (   0.1249108   0.3749099   0.7500653  )
       200        C      tau( 200) = (   0.1249897   0.6249845  -0.0001082  )
       201        C      tau( 201) = (   0.1248750   0.6250318   0.2498996  )
       202        C      tau( 202) = (   0.1251952   0.6248728   0.4999056  )
       203        C      tau( 203) = (   0.1251903   0.6248566   0.7498083  )
       204        C      tau( 204) = (   0.1249945   0.8749586  -0.0000537  )
       205        C      tau( 205) = (   0.1249302   0.8750023   0.2499685  )
       206        C      tau( 206) = (   0.1248671   0.8750742   0.4999264  )
       207        C      tau( 207) = (   0.1251148   0.8748408   0.7499165  )
       208        C      tau( 208) = (   0.3749428   0.1249244   0.0000491  )
       209        C      tau( 209) = (   0.3749574   0.1250061   0.2500515  )
       210        C      tau( 210) = (   0.3749644   0.1249684   0.5000552  )
       211        C      tau( 211) = (   0.3749222   0.1247537   0.7501588  )
       212        C      tau( 212) = (   0.3749727   0.3749788  -0.0000046  )
       213        C      tau( 213) = (   0.3751373   0.3752757   0.2502384  )
       214        C      tau( 214) = (   0.3757483   0.3753176   0.5010000  )
       215        C      tau( 215) = (   0.3749145   0.3746909   0.7502709  )
       216        C      tau( 216) = (   0.3749979   0.6249737  -0.0000852  )
       217        C      tau( 217) = (   0.3748838   0.6252058   0.2496872  )
       218        C      tau( 218) = (   0.3761247   0.6240865   0.4985762  )
       219        C      tau( 219) = (   0.3757064   0.6246378   0.7492252  )
       220        C      tau( 220) = (   0.3749735   0.8749752  -0.0001147  )
       221        C      tau( 221) = (   0.3749151   0.8751652   0.2498217  )
       222        C      tau( 222) = (   0.3750888   0.8748539   0.4999286  )
       223        C      tau( 223) = (   0.3750772   0.8748002   0.7498626  )
       224        C      tau( 224) = (   0.6249861   0.1250152  -0.0000107  )
       225        C      tau( 225) = (   0.6249633   0.1249367   0.2499709  )
       226        C      tau( 226) = (   0.6249116   0.1250370   0.5000116  )
       227        C      tau( 227) = (   0.6249368   0.1250044   0.7499778  )
       228        C      tau( 228) = (   0.6249649   0.3750109   0.0000074  )
       229        C      tau( 229) = (   0.6249096   0.3749642   0.2499211  )
       230        C      tau( 230) = (   0.6239809   0.3755589   0.4995622  )
       231        C      tau( 231) = (   0.6247483   0.3755554   0.7494345  )
       232        C      tau( 232) = (   0.6249906   0.6249993   0.0000301  )
       233        C      tau( 233) = (   0.6245871   0.6247826   0.2503024  )
       234        C      tau( 234) = (   0.6243535   0.6245687   0.5021848  )
       235        C      tau( 235) = (   0.6252252   0.6252038   0.7503760  )
       236        C      tau( 236) = (   0.6250076   0.8750131   0.0000312  )
       237        C      tau( 237) = (   0.6249530   0.8748877   0.2501684  )
       238        C      tau( 238) = (   0.6249899   0.8749858   0.5000465  )
       239        C      tau( 239) = (   0.6250800   0.8751125   0.7501039  )
       240        C      tau( 240) = (   0.8749636   0.1250121   0.0000027  )
       241        C      tau( 241) = (   0.8749593   0.1249976   0.2500207  )
       242        C      tau( 242) = (   0.8750055   0.1249582   0.5000005  )
       243        C      tau( 243) = (   0.8749094   0.1250784   0.7499847  )
       244        C      tau( 244) = (   0.8749488   0.3750043  -0.0000071  )
       245        C      tau( 245) = (   0.8749832   0.3749985   0.2499969  )
       246        C      tau( 246) = (   0.8748054   0.3751072   0.5000277  )
       247        C      tau( 247) = (   0.8748610   0.3750571   0.7499281  )
       248        C      tau( 248) = (   0.8749947   0.6250082   0.0000529  )
       249        C      tau( 249) = (   0.8747487   0.6249852   0.2502388  )
       250        C      tau( 250) = (   0.8749306   0.6249858   0.5000672  )
       251        C      tau( 251) = (   0.8751467   0.6250602   0.7500987  )
       252        C      tau( 252) = (   0.8749979   0.8749982   0.0000475  )
       253        C      tau( 253) = (   0.8749074   0.8749474   0.2500525  )
       254        C      tau( 254) = (   0.8750414   0.8750427   0.5000509  )
       255        C      tau( 255) = (   0.8750765   0.8750396   0.7500408  )
       256        C      tau( 256) = (   0.1874507   0.0625321   0.1875104  )
       257        C      tau( 257) = (   0.1874221   0.0624328   0.4375122  )
       258        C      tau( 258) = (   0.1874431   0.0623362   0.6875177  )
       259        C      tau( 259) = (   0.1874638   0.0624394   0.9375023  )
       260        C      tau( 260) = (   0.1875095   0.3125389   0.1875773  )
       261        C      tau( 261) = (   0.1876001   0.3125065   0.4375792  )
       262        C      tau( 262) = (   0.1874104   0.3124034   0.6875451  )
       263        C      tau( 263) = (   0.1874082   0.3124412   0.9375740  )
       264        C      tau( 264) = (   0.1871490   0.5624793   0.1871440  )
       265        C      tau( 265) = (   0.1877443   0.5624246   0.4374585  )
       266        C      tau( 266) = (   0.1877836   0.5623030   0.6873310  )
       267        C      tau( 267) = (   0.1875427   0.5624375   0.9373851  )
       268        C      tau( 268) = (   0.1874456   0.8125073   0.1874416  )
       269        C      tau( 269) = (   0.1872472   0.8127380   0.4374784  )
       270        C      tau( 270) = (   0.1877030   0.8122544   0.6873560  )
       271        C      tau( 271) = (   0.1875239   0.8124230   0.9373847  )
       272        C      tau( 272) = (   0.4374504   0.0624850   0.1874898  )
       273        C      tau( 273) = (   0.4374483   0.0624745   0.4375173  )
       274        C      tau( 274) = (   0.4374655   0.0623974   0.6875359  )
       275        C      tau( 275) = (   0.4374853   0.0623371   0.9376001  )
       276        C      tau( 276) = (   0.4374165   0.3125343   0.1875294  )
       277        C      tau( 277) = (   0.4375590   0.3128258   0.4378973  )
       278        C      tau( 278) = (   0.4377022   0.3113391   0.6886763  )
       279        C      tau( 279) = (   0.4374586   0.3124505   0.9375177  )
       280        C      tau( 280) = (   0.4374289   0.5625372   0.1874693  )
       281        C      tau( 281) = (   0.4384681   0.5616239   0.6864053  )
       282        C      tau( 282) = (   0.4375042   0.5624614   0.9374437  )
       283        C      tau( 283) = (   0.4375023   0.8129389   0.1870424  )
       284        C      tau( 284) = (   0.4374954   0.8124330   0.4374166  )
       285        C      tau( 285) = (   0.4376594   0.8122642   0.6873572  )
       286        C      tau( 286) = (   0.4375183   0.8124352   0.9374083  )
       287        C      tau( 287) = (   0.6874736   0.0624654   0.1875142  )
       288        C      tau( 288) = (   0.6874518   0.0625068   0.4375351  )
       289        C      tau( 289) = (   0.6874790   0.0625194   0.6875339  )
       290        C      tau( 290) = (   0.6874786   0.0625368   0.9375027  )
       291        C      tau( 291) = (   0.6874528   0.3124960   0.1874491  )
       292        C      tau( 292) = (   0.6879210   0.3119720   0.4376643  )
       293        C      tau( 293) = (   0.6871018   0.3127999   0.6872946  )
       294        C      tau( 294) = (   0.6874564   0.3125293   0.9374822  )
       295        C      tau( 295) = (   0.6873573   0.5625227   0.1875854  )
       296        C      tau( 296) = (   0.6863330   0.5619596   0.4384720  )
       297        C      tau( 297) = (   0.6880356   0.5627824   0.6881411  )
       298        C      tau( 298) = (   0.6875094   0.5625194   0.9375477  )
       299        C      tau( 299) = (   0.6873998   0.8124095   0.1876273  )
       300        C      tau( 300) = (   0.6874219   0.8124061   0.4376111  )
       301        C      tau( 301) = (   0.6876632   0.8127298   0.6876657  )
       302        C      tau( 302) = (   0.6875461   0.8125560   0.9375914  )
       303        C      tau( 303) = (   0.9374594   0.0624970   0.1875208  )
       304        C      tau( 304) = (   0.9374669   0.0624723   0.4375298  )
       305        C      tau( 305) = (   0.9374475   0.0625292   0.6875062  )
       306        C      tau( 306) = (   0.9374764   0.0625067   0.9375102  )
       307        C      tau( 307) = (   0.9374741   0.3125000   0.1875172  )
       308        C      tau( 308) = (   0.9374077   0.3125430   0.4375370  )
       309        C      tau( 309) = (   0.9373920   0.3125551   0.6874830  )
       310        C      tau( 310) = (   0.9374255   0.3125088   0.9374890  )
       311        C      tau( 311) = (   0.9373653   0.5624840   0.1876075  )
       312        C      tau( 312) = (   0.9374391   0.5624928   0.4375433  )
       313        C      tau( 313) = (   0.9375427   0.5625081   0.6875018  )
       314        C      tau( 314) = (   0.9375074   0.5624996   0.9375153  )
       315        C      tau( 315) = (   0.9374176   0.8124749   0.1875398  )
       316        C      tau( 316) = (   0.9374499   0.8124488   0.4375395  )
       317        C      tau( 317) = (   0.9376167   0.8125204   0.6875365  )
       318        C      tau( 318) = (   0.9375376   0.8125001   0.9375286  )
       319        C      tau( 319) = (   0.0624637   0.0624916   0.0625094  )
       320        C      tau( 320) = (   0.0624548   0.0625216   0.3125154  )
       321        C      tau( 321) = (   0.0623557   0.0623756   0.5624958  )
       322        C      tau( 322) = (   0.0624746   0.0624576   0.8125005  )
       323        C      tau( 323) = (   0.0624540   0.3124978   0.0625411  )
       324        C      tau( 324) = (   0.0624711   0.3125137   0.3125330  )
       325        C      tau( 325) = (   0.0624911   0.3124962   0.5625055  )
       326        C      tau( 326) = (   0.0624020   0.3124685   0.8125144  )
       327        C      tau( 327) = (   0.0623566   0.5624766   0.0623981  )
       328        C      tau( 328) = (   0.0624911   0.5624855   0.3125169  )
       329        C      tau( 329) = (   0.0626188   0.5624415   0.5624627  )
       330        C      tau( 330) = (   0.0625572   0.5624510   0.8124441  )
       331        C      tau( 331) = (   0.0624760   0.8124821   0.0624779  )
       332        C      tau( 332) = (   0.0624037   0.8124937   0.3124888  )
       333        C      tau( 333) = (   0.0625575   0.8124228   0.5624708  )
       334        C      tau( 334) = (   0.0626014   0.8124234   0.8124435  )
       335        C      tau( 335) = (   0.3124525   0.0624931   0.0625151  )
       336        C      tau( 336) = (   0.3124377   0.0624831   0.3125001  )
       337        C      tau( 337) = (   0.3124559   0.0624009   0.5625161  )
       338        C      tau( 338) = (   0.3124541   0.0623136   0.8125409  )
       339        C      tau( 339) = (   0.3124373   0.3124799   0.0625037  )
       340        C      tau( 340) = (   0.3126457   0.3127007   0.3127247  )
       341        C      tau( 341) = (   0.3118311   0.3116161   0.5623936  )
       342        C      tau( 342) = (   0.3124207   0.3123381   0.8127224  )
       343        C      tau( 343) = (   0.3124574   0.5624942   0.0624251  )
       344        C      tau( 344) = (   0.3118317   0.5623691   0.3116398  )
       345        C      tau( 345) = (   0.3136491   0.5618196   0.5618428  )
       346        C      tau( 346) = (   0.3127746   0.5622612   0.8121651  )
       347        C      tau( 347) = (   0.3124565   0.8125166   0.0623414  )
       348        C      tau( 348) = (   0.3124229   0.8126970   0.3123640  )
       349        C      tau( 349) = (   0.3127749   0.8121407   0.5622844  )
       350        C      tau( 350) = (   0.3125986   0.8122917   0.8123161  )
       351        C      tau( 351) = (   0.5624665   0.0624423   0.0624607  )
       352        C      tau( 352) = (   0.5624476   0.0624915   0.3125211  )
       353        C      tau( 353) = (   0.5624611   0.0624918   0.5625332  )
       354        C      tau( 354) = (   0.5624783   0.0624379   0.8125562  )
       355        C      tau( 355) = (   0.5624474   0.3125029   0.0625099  )
       356        C      tau( 356) = (   0.5622643   0.3118977   0.3119195  )
       357        C      tau( 357) = (   0.5619143   0.3128493   0.5624712  )
       358        C      tau( 358) = (   0.5623435   0.3126024   0.8123614  )
       359        C      tau( 359) = (   0.5624623   0.5625139   0.0625119  )
       360        C      tau( 360) = (   0.5619153   0.5624473   0.3128730  )
       361        C      tau( 361) = (   0.5625437   0.5624769   0.8125240  )
       362        C      tau( 362) = (   0.5624796   0.8125354   0.0624601  )
       363        C      tau( 363) = (   0.5623448   0.8123411   0.3126231  )
       364        C      tau( 364) = (   0.5625440   0.8125038   0.5624970  )
       365        C      tau( 365) = (   0.5625860   0.8126110   0.8126300  )
       366        C      tau( 366) = (   0.8124729   0.0625064   0.0625225  )
       367        C      tau( 367) = (   0.8124638   0.0624696   0.3125225  )
       368        C      tau( 368) = (   0.8124609   0.0625288   0.5625258  )
       369        C      tau( 369) = (   0.8124690   0.0625672   0.8125056  )
       370        C      tau( 370) = (   0.8124634   0.3125068   0.0624864  )
       371        C      tau( 371) = (   0.8124971   0.3124960   0.3125143  )
       372        C      tau( 372) = (   0.8121085   0.3127940   0.5624506  )
       373        C      tau( 373) = (   0.8123691   0.3125666   0.8124324  )
       374        C      tau( 374) = (   0.8124609   0.5625093   0.0625470  )
       375        C      tau( 375) = (   0.8121079   0.5624292   0.3128163  )
       376        C      tau( 376) = (   0.8124370   0.5625538   0.5625741  )
       377        C      tau( 377) = (   0.8126563   0.5625738   0.8126758  )
       378        C      tau( 378) = (   0.8124691   0.8124888   0.0625848  )
       379        C      tau( 379) = (   0.8123682   0.8124135   0.3125853  )
       380        C      tau( 380) = (   0.8126558   0.8126578   0.5625908  )
       381        C      tau( 381) = (   0.8126010   0.8125767   0.8125932  )
       382        C      tau( 382) = (   0.0624741   0.1875154   0.1875334  )
       383        C      tau( 383) = (   0.0624343   0.1874928   0.4375273  )
       384        C      tau( 384) = (   0.0623916   0.1874581   0.6875197  )
       385        C      tau( 385) = (   0.0624464   0.1874799   0.9375149  )
       386        C      tau( 386) = (   0.0624341   0.4375083   0.1875129  )
       387        C      tau( 387) = (   0.0625481   0.4374978   0.4375182  )
       388        C      tau( 388) = (   0.0625443   0.4374712   0.6874668  )
       389        C      tau( 389) = (   0.0623720   0.4374945   0.9375525  )
       390        C      tau( 390) = (   0.0623931   0.6874999   0.1874800  )
       391        C      tau( 391) = (   0.0625445   0.6874460   0.4374918  )
       392        C      tau( 392) = (   0.0626300   0.6874180   0.6874392  )
       393        C      tau( 393) = (   0.0625476   0.6874614   0.9374252  )
       394        C      tau( 394) = (   0.0624479   0.9374960   0.1874985  )
       395        C      tau( 395) = (   0.0623733   0.9375312   0.4375135  )
       396        C      tau( 396) = (   0.0625473   0.9374032   0.6874799  )
       397        C      tau( 397) = (   0.0625029   0.9374658   0.9374843  )
       398        C      tau( 398) = (   0.3124698   0.1875530   0.1875733  )
       399        C      tau( 399) = (   0.3124125   0.1874535   0.4375859  )
       400        C      tau( 400) = (   0.3124206   0.1872217   0.6876113  )
       401        C      tau( 401) = (   0.3124267   0.1873928   0.9376036  )
       402        C      tau( 402) = (   0.3124135   0.4375624   0.1874762  )
       403        C      tau( 403) = (   0.3134244   0.4378536   0.4378771  )
       404        C      tau( 404) = (   0.3119897   0.4375043   0.6882324  )
       405        C      tau( 405) = (   0.3124790   0.4374514   0.9374647  )
       406        C      tau( 406) = (   0.3124231   0.6875854   0.1872494  )
       407        C      tau( 407) = (   0.3119902   0.6882091   0.4375284  )
       408        C      tau( 408) = (   0.3129779   0.6870285   0.6870527  )
       409        C      tau( 409) = (   0.3125440   0.6874239   0.9373532  )
       410        C      tau( 410) = (   0.3124291   0.9375794   0.1874177  )
       411        C      tau( 411) = (   0.3124797   0.9374427   0.4374726  )
       412        C      tau( 412) = (   0.3125435   0.9373272   0.6874455  )
       413        C      tau( 413) = (   0.3124861   0.9374020   0.9374256  )
       414        C      tau( 414) = (   0.5624242   0.1873031   0.1873217  )
       415        C      tau( 415) = (   0.5623756   0.1875299   0.4375793  )
       416        C      tau( 416) = (   0.5623683   0.1874450   0.6876035  )
       417        C      tau( 417) = (   0.5624525   0.1875007   0.9375005  )
       418        C      tau( 418) = (   0.5623765   0.4375583   0.1875505  )
       419        C      tau( 419) = (   0.5617509   0.4381510   0.6866220  )
       420        C      tau( 420) = (   0.5624799   0.4374869   0.9374956  )
       421        C      tau( 421) = (   0.5623709   0.6875800   0.1874690  )
       422        C      tau( 422) = (   0.5617525   0.6866014   0.4381723  )
       423        C      tau( 423) = (   0.5628243   0.6879850   0.6880068  )
       424        C      tau( 424) = (   0.5625213   0.6874995   0.9375080  )
       425        C      tau( 425) = (   0.5624534   0.9374813   0.1875204  )
       426        C      tau( 426) = (   0.5624802   0.9374768   0.4375055  )
       427        C      tau( 427) = (   0.5625209   0.9374880   0.6875179  )
       428        C      tau( 428) = (   0.5625043   0.9375037   0.9375233  )
       429        C      tau( 429) = (   0.8124554   0.1875052   0.1875213  )
       430        C      tau( 430) = (   0.8125905   0.1873693   0.4375490  )
       431        C      tau( 431) = (   0.8123333   0.1876383   0.6874682  )
       432        C      tau( 432) = (   0.8124479   0.1875309   0.9374818  )
       433        C      tau( 433) = (   0.8125896   0.4375309   0.1873890  )
       434        C      tau( 434) = (   0.8122792   0.4375468   0.4375681  )
       435        C      tau( 435) = (   0.8122997   0.4376504   0.6874712  )
       436        C      tau( 436) = (   0.8124571   0.4375254   0.9374963  )
       437        C      tau( 437) = (   0.8123323   0.6874492   0.1876587  )
       438        C      tau( 438) = (   0.8122988   0.6874509   0.4376710  )
       439        C      tau( 439) = (   0.8127383   0.6876510   0.6876692  )
       440        C      tau( 440) = (   0.8125597   0.6875413   0.9375994  )
       441        C      tau( 441) = (   0.8124481   0.9374648   0.1875475  )
       442        C      tau( 442) = (   0.8124570   0.9374789   0.4375415  )
       443        C      tau( 443) = (   0.8125593   0.9375819   0.6875574  )
       444        C      tau( 444) = (   0.8125117   0.9375309   0.9375473  )
       445        C      tau( 445) = (   0.1874497   0.1874905   0.0625529  )
       446        C      tau( 446) = (   0.1875093   0.1875565   0.3125589  )
       447        C      tau( 447) = (   0.1871481   0.1871194   0.5625029  )
       448        C      tau( 448) = (   0.1874428   0.1874169   0.8125304  )
       449        C      tau( 449) = (   0.1874224   0.4374922   0.0624542  )
       450        C      tau( 450) = (   0.1876000   0.4375561   0.3125292  )
       451        C      tau( 451) = (   0.1877445   0.4374338   0.5624494  )
       452        C      tau( 452) = (   0.1872461   0.4374546   0.8127624  )
       453        C      tau( 453) = (   0.1874453   0.6874956   0.0623626  )
       454        C      tau( 454) = (   0.1874128   0.6875199   0.3124293  )
       455        C      tau( 455) = (   0.1877834   0.6873065   0.5623270  )
       456        C      tau( 456) = (   0.1877028   0.6873331   0.8122795  )
       457        C      tau( 457) = (   0.1874653   0.9374815   0.0624612  )
       458        C      tau( 458) = (   0.1874106   0.9375508   0.3124633  )
       459        C      tau( 459) = (   0.1875431   0.9373615   0.5624579  )
       460        C      tau( 460) = (   0.1875231   0.9373605   0.8124443  )
       461        C      tau( 461) = (   0.4374499   0.1874700   0.0625049  )
       462        C      tau( 462) = (   0.4374161   0.1875086   0.3125551  )
       463        C      tau( 463) = (   0.4374266   0.1874448   0.5625618  )
       464        C      tau( 464) = (   0.4375003   0.1870191   0.8129612  )
       465        C      tau( 465) = (   0.4374489   0.4374973   0.0624948  )
       466        C      tau( 466) = (   0.4375596   0.4378727   0.3128503  )
       467        C      tau( 467) = (   0.4374941   0.4373935   0.8124551  )
       468        C      tau( 468) = (   0.4374678   0.6875132   0.0624228  )
       469        C      tau( 469) = (   0.4377040   0.6886541   0.3113619  )
       470        C      tau( 470) = (   0.4384686   0.6863832   0.5616462  )
       471        C      tau( 471) = (   0.4376593   0.6873355   0.8122873  )
       472        C      tau( 472) = (   0.4374867   0.9375770   0.0623617  )
       473        C      tau( 473) = (   0.4374599   0.9374963   0.3124720  )
       474        C      tau( 474) = (   0.4375041   0.9374223   0.5624814  )
       475        C      tau( 475) = (   0.4375176   0.9373844   0.8124565  )
       476        C      tau( 476) = (   0.6874734   0.1874977   0.0624822  )
       477        C      tau( 477) = (   0.6874529   0.1874310   0.3125138  )
       478        C      tau( 478) = (   0.6873565   0.1875647   0.5625431  )
       479        C      tau( 479) = (   0.6873997   0.1876076   0.8124287  )
       480        C      tau( 480) = (   0.6874520   0.4375180   0.0625246  )
       481        C      tau( 481) = (   0.6879216   0.4376429   0.3119929  )
       482        C      tau( 482) = (   0.6863319   0.4384503   0.5619813  )
       483        C      tau( 483) = (   0.6874221   0.4375921   0.8124251  )
       484        C      tau( 484) = (   0.6874797   0.6875160   0.0625384  )
       485        C      tau( 485) = (   0.6871020   0.6872721   0.3128226  )
       486        C      tau( 486) = (   0.6880356   0.6881202   0.5628035  )
       487        C      tau( 487) = (   0.6876635   0.6876479   0.8127486  )
       488        C      tau( 488) = (   0.6874787   0.9374854   0.0625544  )
       489        C      tau( 489) = (   0.6874567   0.9374647   0.3125465  )
       490        C      tau( 490) = (   0.6875092   0.9375299   0.5625362  )
       491        C      tau( 491) = (   0.6875459   0.9375737   0.8125730  )
       492        C      tau( 492) = (   0.9374590   0.1875047   0.0625138  )
       493        C      tau( 493) = (   0.9374744   0.1874997   0.3125167  )
       494        C      tau( 494) = (   0.9373662   0.1875875   0.5625019  )
       495        C      tau( 495) = (   0.9374171   0.1875216   0.8124927  )
       496        C      tau( 496) = (   0.9374663   0.4375135   0.0624908  )
       497        C      tau( 497) = (   0.9374075   0.4375184   0.3125622  )
       498        C      tau( 498) = (   0.9374393   0.4375237   0.5625119  )
       499        C      tau( 499) = (   0.9374502   0.4375218   0.8124675  )
       500        C      tau( 500) = (   0.9374478   0.6874893   0.0625483  )
       501        C      tau( 501) = (   0.9373912   0.6874641   0.3125747  )
       502        C      tau( 502) = (   0.9375427   0.6874830   0.5625265  )
       503        C      tau( 503) = (   0.9376169   0.6875192   0.8125387  )
       504        C      tau( 504) = (   0.9374768   0.9374937   0.0625234  )
       505        C      tau( 505) = (   0.9374261   0.9374709   0.3125254  )
       506        C      tau( 506) = (   0.9375071   0.9374965   0.5625161  )
       507        C      tau( 507) = (   0.9375374   0.9375111   0.8125167  )
       508        C      tau( 508) = (   0.5674509   0.4319283   0.4319500  )
       509        C      tau( 509) = (   0.4328644   0.4311907   0.5682282  )
       510        C      tau( 510) = (   0.4328652   0.5682066   0.4312127  )
       511        N      tau( 511) = (   0.5668896   0.5667483   0.5667688  )

   Crystallographic axes

     site n.     atom                  positions (cryst. coord.)
         1        C      tau(   1) = ( -0.0000199 -0.0000138  0.0000032  )
         2        C      tau(   2) = ( -0.0000516 -0.0000049  0.2500140  )
         3        C      tau(   3) = ( -0.0000943 -0.0000337  0.5000077  )
         4        C      tau(   4) = (  0.0000073 -0.0000245  0.7499951  )
         5        C      tau(   5) = ( -0.0000523  0.2499973  0.0000131  )
         6        C      tau(   6) = ( -0.0000237  0.2500106  0.2500281  )
         7        C      tau(   7) = ( -0.0000716  0.2500411  0.5000283  )
         8        C      tau(   8) = ( -0.0001097  0.2499910  0.7500074  )
         9        C      tau(   9) = ( -0.0000944  0.4999905 -0.0000135  )
        10        C      tau(  10) = ( -0.0000720  0.5000099  0.2500607  )
        11        C      tau(  11) = (  0.0000156  0.4999903  0.5000099  )
        12        C      tau(  12) = (  0.0000272  0.4999741  0.7499605  )
        13        C      tau(  13) = (  0.0000077  0.7499781 -0.0000050  )
        14        C      tau(  14) = ( -0.0001091  0.7499884  0.2500107  )
        15        C      tau(  15) = (  0.0000272  0.7499411  0.4999926  )
        16        C      tau(  16) = (  0.0001242  0.7499589  0.7499777  )
        17        C      tau(  17) = (  0.2499687 -0.0000483 -0.0000268  )
        18        C      tau(  18) = (  0.2499258  0.0000370  0.2499649  )
        19        C      tau(  19) = (  0.2499873 -0.0000852  0.4999943  )
        20        C      tau(  20) = (  0.2499846 -0.0001762  0.7499904  )
        21        C      tau(  21) = (  0.2499242  0.2499431  0.0000594  )
        22        C      tau(  22) = (  0.2500770  0.2501344  0.2501560  )
        23        C      tau(  23) = (  0.2495499  0.2494867  0.5002130  )
        24        C      tau(  24) = (  0.2499457  0.2498750  0.7500668  )
        25        C      tau(  25) = (  0.2499877  0.4999741 -0.0000627  )
        26        C      tau(  26) = (  0.2495500  0.5001890  0.2495099  )
        27        C      tau(  27) = (  0.2507045  0.4998792  0.4999040  )
        28        C      tau(  28) = (  0.2497463  0.4996773  0.7503015  )
        29        C      tau(  29) = (  0.2499861  0.7499684 -0.0001492  )
        30        C      tau(  30) = (  0.2499484  0.7500410  0.2499021  )
        31        C      tau(  31) = (  0.2497461  0.7502773  0.4997013  )
        32        C      tau(  32) = (  0.2503164  0.7496711  0.7496961  )
        33        C      tau(  33) = (  0.4999688 -0.0000376 -0.0000162  )
        34        C      tau(  34) = (  0.4999637 -0.0000083  0.2500105  )
        35        C      tau(  35) = (  0.4999816 -0.0000300  0.5000104  )
        36        C      tau(  36) = (  0.4999934 -0.0000666  0.7500091  )
        37        C      tau(  37) = (  0.4999631  0.2499910  0.0000114  )
        38        C      tau(  38) = (  0.4999438  0.2496981  0.2497189  )
        39        C      tau(  39) = (  0.4998665  0.2502324  0.5000545  )
        40        C      tau(  40) = (  0.4997700  0.2493343  0.7506563  )
        41        C      tau(  41) = (  0.4999821  0.4999914 -0.0000101  )
        42        C      tau(  42) = (  0.4998677  0.5000304  0.2502562  )
        43        C      tau(  43) = (  0.5000517  0.4999193  0.7497160  )
        44        C      tau(  44) = (  0.4999945  0.7499884 -0.0000434  )
        45        C      tau(  45) = (  0.4997719  0.7506349  0.2493562  )
        46        C      tau(  46) = (  0.5000526  0.7496943  0.4999414  )
        47        C      tau(  47) = (  0.5001554  0.7501175  0.7501386  )
        48        C      tau(  48) = (  0.7499850  0.0000164  0.0000331  )
        49        C      tau(  49) = (  0.7499648 -0.0000359  0.2500327  )
        50        C      tau(  50) = (  0.7499705  0.0000160  0.5000261  )
        51        C      tau(  51) = (  0.7500135  0.0000599  0.7500339  )
        52        C      tau(  52) = (  0.7499645  0.2500165 -0.0000190  )
        53        C      tau(  53) = (  0.7499350  0.2500053  0.2500226  )
        54        C      tau(  54) = (  0.7500946  0.2498031  0.4999791  )
        55        C      tau(  55) = (  0.7497757  0.2502122  0.7498673  )
        56        C      tau(  56) = (  0.7499706  0.5000098  0.0000336  )
        57        C      tau(  57) = (  0.7500941  0.4999582  0.2498250  )
        58        C      tau(  58) = (  0.7495609  0.5000664  0.5000887  )
        59        C      tau(  59) = (  0.7501750  0.5001313  0.7502555  )
        60        C      tau(  60) = (  0.7500139  0.7500172  0.0000776  )
        61        C      tau(  61) = (  0.7497743  0.7498466  0.2502333  )
        62        C      tau(  62) = (  0.7501744  0.7502358  0.5001507  )
        63        C      tau(  63) = (  0.7501380  0.7501245  0.7501420  )
        64        C      tau(  64) = ( -0.0000327  0.1250022  0.1250190  )
        65        C      tau(  65) = ( -0.0000451  0.1250057  0.3750145  )
        66        C      tau(  66) = ( -0.0001122  0.1250055  0.6250235  )
        67        C      tau(  67) = ( -0.0000484  0.1249900  0.8750009  )
        68        C      tau(  68) = ( -0.0000456  0.3749976  0.1250243  )
        69        C      tau(  69) = ( -0.0000403  0.3750349  0.3750540  )
        70        C      tau(  70) = ( -0.0000332  0.3750083  0.6249916  )
        71        C      tau(  71) = ( -0.0000884  0.3749822  0.8749965  )
        72        C      tau(  72) = ( -0.0001118  0.6250054  0.1250261  )
        73        C      tau(  73) = ( -0.0000334  0.6249725  0.3750278  )
        74        C      tau(  74) = (  0.0000895  0.6249460  0.6249655  )
        75        C      tau(  75) = (  0.0000628  0.6249817  0.8749708  )
        76        C      tau(  76) = ( -0.0000476  0.8749833  0.1250082  )
        77        C      tau(  77) = ( -0.0000875  0.8749771  0.3750002  )
        78        C      tau(  78) = (  0.0000625  0.8749509  0.6249991  )
        79        C      tau(  79) = (  0.0000518  0.8749688  0.8749865  )
        80        C      tau(  80) = (  0.2499581  0.1250242  0.1250448  )
        81        C      tau(  81) = (  0.2499858  0.1249832  0.3750446  )
        82        C      tau(  82) = (  0.2498638  0.1247830  0.6250725  )
        83        C      tau(  83) = (  0.2499458  0.1248968  0.8750317  )
        84        C      tau(  84) = (  0.2499861  0.3750239  0.1250041  )
        85        C      tau(  85) = (  0.2504716  0.3753120  0.3753355  )
        86        C      tau(  86) = (  0.2499779  0.3748050  0.6250784  )
        87        C      tau(  87) = (  0.2498786  0.3748816  0.8751245  )
        88        C      tau(  88) = (  0.2498661  0.6250483  0.1248100  )
        89        C      tau(  89) = (  0.2499793  0.6250521  0.3748316  )
        90        C      tau(  90) = (  0.2507369  0.6244415  0.6244656  )
        91        C      tau(  91) = (  0.2502285  0.6248865  0.8747454  )
        92        C      tau(  92) = (  0.2499481  0.8750088  0.1249218  )
        93        C      tau(  93) = (  0.2498806  0.8750996  0.3749058  )
        94        C      tau(  94) = (  0.2502287  0.8747198  0.6249089  )
        95        C      tau(  95) = (  0.2500379  0.8748551  0.8748785  )
        96        C      tau(  96) = (  0.4999740  0.1248899  0.1249089  )
        97        C      tau(  97) = (  0.4999530  0.1250167  0.3750402  )
        98        C      tau(  98) = (  0.4999232  0.1249670  0.6250236  )
        99        C      tau(  99) = (  0.4999183  0.1247366  0.8752419  )
       100        C      tau( 100) = (  0.4999533  0.3750206  0.1250365  )
       101        C      tau( 101) = (  0.5000096  0.3753705  0.3753946  )
       102        C      tau( 102) = (  0.4986864  0.3749483  0.6248722  )
       103        C      tau( 103) = (  0.4999629  0.3750136  0.8749512  )
       104        C      tau( 104) = (  0.4999257  0.6250007  0.1249909  )
       105        C      tau( 105) = (  0.4986877  0.6248504  0.3749705  )
       106        C      tau( 106) = (  0.5021603  0.6243210  0.6243426  )
       107        C      tau( 107) = (  0.5000629  0.6249463  0.8749478  )
       108        C      tau( 108) = (  0.4999196  0.8752198  0.1247597  )
       109        C      tau( 109) = (  0.4999640  0.8749307  0.3750345  )
       110        C      tau( 110) = (  0.5000627  0.8749267  0.6249661  )
       111        C      tau( 111) = (  0.5000367  0.8750075  0.8750284  )
       112        C      tau( 112) = (  0.7499692  0.1249993  0.1250154  )
       113        C      tau( 113) = (  0.7499866  0.1249568  0.3750126  )
       114        C      tau( 114) = (  0.7498855  0.1250668  0.6249984  )
       115        C      tau( 115) = (  0.7499448  0.1250772  0.8749685  )
       116        C      tau( 116) = (  0.7499862  0.3749958  0.1249747  )
       117        C      tau( 117) = (  0.7499454  0.3749742  0.3749946  )
       118        C      tau( 118) = (  0.7491996  0.3756159  0.6248917  )
       119        C      tau( 119) = (  0.7499026  0.3750505  0.8749499  )
       120        C      tau( 120) = (  0.7498855  0.6249801  0.1250863  )
       121        C      tau( 121) = (  0.7492003  0.6248700  0.3756378  )
       122        C      tau( 122) = (  0.7503035  0.6252406  0.6252611  )
       123        C      tau( 123) = (  0.7501034  0.6250712  0.8751513  )
       124        C      tau( 124) = (  0.7499447  0.8749509  0.1250951  )
       125        C      tau( 125) = (  0.7499023  0.8749318  0.3750681  )
       126        C      tau( 126) = (  0.7501029  0.8751334  0.6250878  )
       127        C      tau( 127) = (  0.7500471  0.8750519  0.8750686  )
       128        C      tau( 128) = (  0.1249582 -0.0000005  0.1249931  )
       129        C      tau( 129) = (  0.1249171  0.0000031  0.3749884  )
       130        C      tau( 130) = (  0.1249887 -0.0001322  0.6250041  )
       131        C      tau( 131) = (  0.1249937 -0.0000745  0.8749776  )
       132        C      tau( 132) = (  0.1249803  0.2500159  0.1250624  )
       133        C      tau( 133) = (  0.1250147  0.2500723  0.3750625  )
       134        C      tau( 134) = (  0.1248732  0.2498760  0.6250539  )
       135        C      tau( 135) = (  0.1249281  0.2499475  0.8750233  )
       136        C      tau( 136) = (  0.1247754  0.5000410  0.1248153  )
       137        C      tau( 137) = (  0.1251178  0.5000179  0.3750342  )
       138        C      tau( 138) = (  0.1251954  0.4998829  0.6248956  )
       139        C      tau( 139) = (  0.1248659  0.4999053  0.8750974  )
       140        C      tau( 140) = (  0.1249447  0.7499957  0.1249459  )
       141        C      tau( 141) = (  0.1249127  0.7500424  0.3749326  )
       142        C      tau( 142) = (  0.1251903  0.7497847  0.6248788  )
       143        C      tau( 143) = (  0.1251150  0.7498961  0.8748640  )
       144        C      tau( 144) = (  0.3749438  0.0000264  0.1249475  )
       145        C      tau( 145) = (  0.3749730 -0.0000253  0.3749990  )
       146        C      tau( 146) = (  0.3749966 -0.0001097  0.6249950  )
       147        C      tau( 147) = (  0.3749725 -0.0001405  0.8749983  )
       148        C      tau( 148) = (  0.3749572  0.2500315  0.1250263  )
       149        C      tau( 149) = (  0.3751369  0.2502146  0.3752997  )
       150        C      tau( 150) = (  0.3748819  0.2496624  0.6252304  )
       151        C      tau( 151) = (  0.3749131  0.2497963  0.8751899  )
       152        C      tau( 152) = (  0.3749660  0.5000326  0.1249912  )
       153        C      tau( 153) = (  0.3757491  0.5009765  0.3753410  )
       154        C      tau( 154) = (  0.3761240  0.4985532  0.6241090  )
       155        C      tau( 155) = (  0.3750885  0.4999067  0.8748761  )
       156        C      tau( 156) = (  0.3749244  0.7501336  0.1247811  )
       157        C      tau( 157) = (  0.3749159  0.7502476  0.3747150  )
       158        C      tau( 158) = (  0.3757063  0.7492018  0.6246610  )
       159        C      tau( 159) = (  0.3750775  0.7498401  0.8748253  )
       160        C      tau( 160) = (  0.6249863 -0.0000284  0.1250329  )
       161        C      tau( 161) = (  0.6249651 -0.0000105  0.3750283  )
       162        C      tau( 162) = (  0.6249899  0.0000111  0.6250170  )
       163        C      tau( 163) = (  0.6250074  0.0000120  0.8750317  )
       164        C      tau( 164) = (  0.6249631  0.2499535  0.1249544  )
       165        C      tau( 165) = (  0.6249093  0.2499004  0.3749848  )
       166        C      tau( 166) = (  0.6245862  0.2502787  0.6248062  )
       167        C      tau( 167) = (  0.6249525  0.2501491  0.8749064  )
       168        C      tau( 168) = (  0.6249123  0.4999924  0.1250566  )
       169        C      tau( 169) = (  0.6239825  0.4995395  0.3755812  )
       170        C      tau( 170) = (  0.6243527  0.5021640  0.6245894  )
       171        C      tau( 171) = (  0.6249900  0.5000281  0.8750045  )
       172        C      tau( 172) = (  0.6249381  0.7499574  0.1250257  )
       173        C      tau( 173) = (  0.6247493  0.7494142  0.3755762  )
       174        C      tau( 174) = (  0.6252248  0.7503547  0.6252242  )
       175        C      tau( 175) = (  0.6250802  0.7500863  0.8751310  )
       176        C      tau( 176) = (  0.8749638 -0.0000137  0.1250282  )
       177        C      tau( 177) = (  0.8749492 -0.0000246  0.3750201  )
       178        C      tau( 178) = (  0.8749944  0.0000347  0.6250243  )
       179        C      tau( 179) = (  0.8749978  0.0000306  0.8750145  )
       180        C      tau( 180) = (  0.8749590  0.2500049  0.1250141  )
       181        C      tau( 181) = (  0.8749834  0.2499786  0.3750162  )
       182        C      tau( 182) = (  0.8747502  0.2502175  0.6250051  )
       183        C      tau( 183) = (  0.8749076  0.2500351  0.8749654  )
       184        C      tau( 184) = (  0.8750047  0.4999836  0.1249771  )
       185        C      tau( 185) = (  0.8748051  0.5000073  0.3751283  )
       186        C      tau( 186) = (  0.8749310  0.5000475  0.6250052  )
       187        C      tau( 187) = (  0.8750418  0.5000346  0.8750606  )
       188        C      tau( 188) = (  0.8749090  0.7499670  0.1250974  )
       189        C      tau( 189) = (  0.8748598  0.7499088  0.3750765  )
       190        C      tau( 190) = (  0.8751464  0.7500807  0.6250775  )
       191        C      tau( 191) = (  0.8750767  0.7500246  0.8750567  )
       192        C      tau( 192) = (  0.1249573  0.1249742  0.0000185  )
       193        C      tau( 193) = (  0.1249807  0.1250427  0.2500344  )
       194        C      tau( 194) = (  0.1247743  0.1247924  0.5000618  )
       195        C      tau( 195) = (  0.1249428  0.1249228  0.7500159  )
       196        C      tau( 196) = (  0.1249159  0.3749691  0.0000243  )
       197        C      tau( 197) = (  0.1250146  0.3750423  0.2500930  )
       198        C      tau( 198) = (  0.1251180  0.3750124  0.5000397  )
       199        C      tau( 199) = (  0.1249108  0.3749099  0.7500653  )
       200        C      tau( 200) = (  0.1249897  0.6249845 -0.0001082  )
       201        C      tau( 201) = (  0.1248750  0.6250318  0.2498996  )
       202        C      tau( 202) = (  0.1251952  0.6248728  0.4999056  )
       203        C      tau( 203) = (  0.1251903  0.6248566  0.7498083  )
       204        C      tau( 204) = (  0.1249945  0.8749586 -0.0000537  )
       205        C      tau( 205) = (  0.1249302  0.8750023  0.2499685  )
       206        C      tau( 206) = (  0.1248671  0.8750742  0.4999264  )
       207        C      tau( 207) = (  0.1251148  0.8748408  0.7499165  )
       208        C      tau( 208) = (  0.3749428  0.1249244  0.0000491  )
       209        C      tau( 209) = (  0.3749574  0.1250061  0.2500515  )
       210        C      tau( 210) = (  0.3749644  0.1249684  0.5000552  )
       211        C      tau( 211) = (  0.3749222  0.1247537  0.7501588  )
       212        C      tau( 212) = (  0.3749727  0.3749788 -0.0000046  )
       213        C      tau( 213) = (  0.3751373  0.3752757  0.2502384  )
       214        C      tau( 214) = (  0.3757483  0.3753176  0.5010000  )
       215        C      tau( 215) = (  0.3749145  0.3746909  0.7502709  )
       216        C      tau( 216) = (  0.3749979  0.6249737 -0.0000852  )
       217        C      tau( 217) = (  0.3748838  0.6252058  0.2496872  )
       218        C      tau( 218) = (  0.3761247  0.6240865  0.4985762  )
       219        C      tau( 219) = (  0.3757064  0.6246378  0.7492252  )
       220        C      tau( 220) = (  0.3749735  0.8749752 -0.0001147  )
       221        C      tau( 221) = (  0.3749151  0.8751652  0.2498217  )
       222        C      tau( 222) = (  0.3750888  0.8748539  0.4999286  )
       223        C      tau( 223) = (  0.3750772  0.8748002  0.7498626  )
       224        C      tau( 224) = (  0.6249861  0.1250152 -0.0000107  )
       225        C      tau( 225) = (  0.6249633  0.1249367  0.2499709  )
       226        C      tau( 226) = (  0.6249116  0.1250370  0.5000116  )
       227        C      tau( 227) = (  0.6249368  0.1250044  0.7499778  )
       228        C      tau( 228) = (  0.6249649  0.3750109  0.0000074  )
       229        C      tau( 229) = (  0.6249096  0.3749642  0.2499211  )
       230        C      tau( 230) = (  0.6239809  0.3755589  0.4995622  )
       231        C      tau( 231) = (  0.6247483  0.3755554  0.7494345  )
       232        C      tau( 232) = (  0.6249906  0.6249993  0.0000301  )
       233        C      tau( 233) = (  0.6245871  0.6247826  0.2503024  )
       234        C      tau( 234) = (  0.6243535  0.6245687  0.5021848  )
       235        C      tau( 235) = (  0.6252252  0.6252038  0.7503760  )
       236        C      tau( 236) = (  0.6250076  0.8750131  0.0000312  )
       237        C      tau( 237) = (  0.6249530  0.8748877  0.2501684  )
       238        C      tau( 238) = (  0.6249899  0.8749858  0.5000465  )
       239        C      tau( 239) = (  0.6250800  0.8751125  0.7501039  )
       240        C      tau( 240) = (  0.8749636  0.1250121  0.0000027  )
       241        C      tau( 241) = (  0.8749593  0.1249976  0.2500207  )
       242        C      tau( 242) = (  0.8750055  0.1249582  0.5000005  )
       243        C      tau( 243) = (  0.8749094  0.1250784  0.7499847  )
       244        C      tau( 244) = (  0.8749488  0.3750043 -0.0000071  )
       245        C      tau( 245) = (  0.8749832  0.3749985  0.2499969  )
       246        C      tau( 246) = (  0.8748054  0.3751072  0.5000277  )
       247        C      tau( 247) = (  0.8748610  0.3750571  0.7499281  )
       248        C      tau( 248) = (  0.8749947  0.6250082  0.0000529  )
       249        C      tau( 249) = (  0.8747487  0.6249852  0.2502388  )
       250        C      tau( 250) = (  0.8749306  0.6249858  0.5000672  )
       251        C      tau( 251) = (  0.8751467  0.6250602  0.7500987  )
       252        C      tau( 252) = (  0.8749979  0.8749982  0.0000475  )
       253        C      tau( 253) = (  0.8749074  0.8749474  0.2500525  )
       254        C      tau( 254) = (  0.8750414  0.8750427  0.5000509  )
       255        C      tau( 255) = (  0.8750765  0.8750396  0.7500408  )
       256        C      tau( 256) = (  0.1874507  0.0625321  0.1875104  )
       257        C      tau( 257) = (  0.1874221  0.0624328  0.4375122  )
       258        C      tau( 258) = (  0.1874431  0.0623362  0.6875177  )
       259        C      tau( 259) = (  0.1874638  0.0624394  0.9375023  )
       260        C      tau( 260) = (  0.1875095  0.3125389  0.1875773  )
       261        C      tau( 261) = (  0.1876001  0.3125065  0.4375792  )
       262        C      tau( 262) = (  0.1874104  0.3124034  0.6875451  )
       263        C      tau( 263) = (  0.1874082  0.3124412  0.9375740  )
       264        C      tau( 264) = (  0.1871490  0.5624793  0.1871440  )
       265        C      tau( 265) = (  0.1877443  0.5624246  0.4374585  )
       266        C      tau( 266) = (  0.1877836  0.5623030  0.6873310  )
       267        C      tau( 267) = (  0.1875427  0.5624375  0.9373851  )
       268        C      tau( 268) = (  0.1874456  0.8125073  0.1874416  )
       269        C      tau( 269) = (  0.1872472  0.8127380  0.4374784  )
       270        C      tau( 270) = (  0.1877030  0.8122544  0.6873560  )
       271        C      tau( 271) = (  0.1875239  0.8124230  0.9373847  )
       272        C      tau( 272) = (  0.4374504  0.0624850  0.1874898  )
       273        C      tau( 273) = (  0.4374483  0.0624745  0.4375173  )
       274        C      tau( 274) = (  0.4374655  0.0623974  0.6875359  )
       275        C      tau( 275) = (  0.4374853  0.0623371  0.9376001  )
       276        C      tau( 276) = (  0.4374165  0.3125343  0.1875294  )
       277        C      tau( 277) = (  0.4375590  0.3128258  0.4378973  )
       278        C      tau( 278) = (  0.4377022  0.3113391  0.6886763  )
       279        C      tau( 279) = (  0.4374586  0.3124505  0.9375177  )
       280        C      tau( 280) = (  0.4374289  0.5625372  0.1874693  )
       281        C      tau( 281) = (  0.4384681  0.5616239  0.6864053  )
       282        C      tau( 282) = (  0.4375042  0.5624614  0.9374437  )
       283        C      tau( 283) = (  0.4375023  0.8129389  0.1870424  )
       284        C      tau( 284) = (  0.4374954  0.8124330  0.4374166  )
       285        C      tau( 285) = (  0.4376594  0.8122642  0.6873572  )
       286        C      tau( 286) = (  0.4375183  0.8124352  0.9374083  )
       287        C      tau( 287) = (  0.6874736  0.0624654  0.1875142  )
       288        C      tau( 288) = (  0.6874518  0.0625068  0.4375351  )
       289        C      tau( 289) = (  0.6874790  0.0625194  0.6875339  )
       290        C      tau( 290) = (  0.6874786  0.0625368  0.9375027  )
       291        C      tau( 291) = (  0.6874528  0.3124960  0.1874491  )
       292        C      tau( 292) = (  0.6879210  0.3119720  0.4376643  )
       293        C      tau( 293) = (  0.6871018  0.3127999  0.6872946  )
       294        C      tau( 294) = (  0.6874564  0.3125293  0.9374822  )
       295        C      tau( 295) = (  0.6873573  0.5625227  0.1875854  )
       296        C      tau( 296) = (  0.6863330  0.5619596  0.4384720  )
       297        C      tau( 297) = (  0.6880356  0.5627824  0.6881411  )
       298        C      tau( 298) = (  0.6875094  0.5625194  0.9375477  )
       299        C      tau( 299) = (  0.6873998  0.8124095  0.1876273  )
       300        C      tau( 300) = (  0.6874219  0.8124061  0.4376111  )
       301        C      tau( 301) = (  0.6876632  0.8127298  0.6876657  )
       302        C      tau( 302) = (  0.6875461  0.8125560  0.9375914  )
       303        C      tau( 303) = (  0.9374594  0.0624970  0.1875208  )
       304        C      tau( 304) = (  0.9374669  0.0624723  0.4375298  )
       305        C      tau( 305) = (  0.9374475  0.0625292  0.6875062  )
       306        C      tau( 306) = (  0.9374764  0.0625067  0.9375102  )
       307        C      tau( 307) = (  0.9374741  0.3125000  0.1875172  )
       308        C      tau( 308) = (  0.9374077  0.3125430  0.4375370  )
       309        C      tau( 309) = (  0.9373920  0.3125551  0.6874830  )
       310        C      tau( 310) = (  0.9374255  0.3125088  0.9374890  )
       311        C      tau( 311) = (  0.9373653  0.5624840  0.1876075  )
       312        C      tau( 312) = (  0.9374391  0.5624928  0.4375433  )
       313        C      tau( 313) = (  0.9375427  0.5625081  0.6875018  )
       314        C      tau( 314) = (  0.9375074  0.5624996  0.9375153  )
       315        C      tau( 315) = (  0.9374176  0.8124749  0.1875398  )
       316        C      tau( 316) = (  0.9374499  0.8124488  0.4375395  )
       317        C      tau( 317) = (  0.9376167  0.8125204  0.6875365  )
       318        C      tau( 318) = (  0.9375376  0.8125001  0.9375286  )
       319        C      tau( 319) = (  0.0624637  0.0624916  0.0625094  )
       320        C      tau( 320) = (  0.0624548  0.0625216  0.3125154  )
       321        C      tau( 321) = (  0.0623557  0.0623756  0.5624958  )
       322        C      tau( 322) = (  0.0624746  0.0624576  0.8125005  )
       323        C      tau( 323) = (  0.0624540  0.3124978  0.0625411  )
       324        C      tau( 324) = (  0.0624711  0.3125137  0.3125330  )
       325        C      tau( 325) = (  0.0624911  0.3124962  0.5625055  )
       326        C      tau( 326) = (  0.0624020  0.3124685  0.8125144  )
       327        C      tau( 327) = (  0.0623566  0.5624766  0.0623981  )
       328        C      tau( 328) = (  0.0624911  0.5624855  0.3125169  )
       329        C      tau( 329) = (  0.0626188  0.5624415  0.5624627  )
       330        C      tau( 330) = (  0.0625572  0.5624510  0.8124441  )
       331        C      tau( 331) = (  0.0624760  0.8124821  0.0624779  )
       332        C      tau( 332) = (  0.0624037  0.8124937  0.3124888  )
       333        C      tau( 333) = (  0.0625575  0.8124228  0.5624708  )
       334        C      tau( 334) = (  0.0626014  0.8124234  0.8124435  )
       335        C      tau( 335) = (  0.3124525  0.0624931  0.0625151  )
       336        C      tau( 336) = (  0.3124377  0.0624831  0.3125001  )
       337        C      tau( 337) = (  0.3124559  0.0624009  0.5625161  )
       338        C      tau( 338) = (  0.3124541  0.0623136  0.8125409  )
       339        C      tau( 339) = (  0.3124373  0.3124799  0.0625037  )
       340        C      tau( 340) = (  0.3126457  0.3127007  0.3127247  )
       341        C      tau( 341) = (  0.3118311  0.3116161  0.5623936  )
       342        C      tau( 342) = (  0.3124207  0.3123381  0.8127224  )
       343        C      tau( 343) = (  0.3124574  0.5624942  0.0624251  )
       344        C      tau( 344) = (  0.3118317  0.5623691  0.3116398  )
       345        C      tau( 345) = (  0.3136491  0.5618196  0.5618428  )
       346        C      tau( 346) = (  0.3127746  0.5622612  0.8121651  )
       347        C      tau( 347) = (  0.3124565  0.8125166  0.0623414  )
       348        C      tau( 348) = (  0.3124229  0.8126970  0.3123640  )
       349        C      tau( 349) = (  0.3127749  0.8121407  0.5622844  )
       350        C      tau( 350) = (  0.3125986  0.8122917  0.8123161  )
       351        C      tau( 351) = (  0.5624665  0.0624423  0.0624607  )
       352        C      tau( 352) = (  0.5624476  0.0624915  0.3125211  )
       353        C      tau( 353) = (  0.5624611  0.0624918  0.5625332  )
       354        C      tau( 354) = (  0.5624783  0.0624379  0.8125562  )
       355        C      tau( 355) = (  0.5624474  0.3125029  0.0625099  )
       356        C      tau( 356) = (  0.5622643  0.3118977  0.3119195  )
       357        C      tau( 357) = (  0.5619143  0.3128493  0.5624712  )
       358        C      tau( 358) = (  0.5623435  0.3126024  0.8123614  )
       359        C      tau( 359) = (  0.5624623  0.5625139  0.0625119  )
       360        C      tau( 360) = (  0.5619153  0.5624473  0.3128730  )
       361        C      tau( 361) = (  0.5625437  0.5624769  0.8125240  )
       362        C      tau( 362) = (  0.5624796  0.8125354  0.0624601  )
       363        C      tau( 363) = (  0.5623448  0.8123411  0.3126231  )
       364        C      tau( 364) = (  0.5625440  0.8125038  0.5624970  )
       365        C      tau( 365) = (  0.5625860  0.8126110  0.8126300  )
       366        C      tau( 366) = (  0.8124729  0.0625064  0.0625225  )
       367        C      tau( 367) = (  0.8124638  0.0624696  0.3125225  )
       368        C      tau( 368) = (  0.8124609  0.0625288  0.5625258  )
       369        C      tau( 369) = (  0.8124690  0.0625672  0.8125056  )
       370        C      tau( 370) = (  0.8124634  0.3125068  0.0624864  )
       371        C      tau( 371) = (  0.8124971  0.3124960  0.3125143  )
       372        C      tau( 372) = (  0.8121085  0.3127940  0.5624506  )
       373        C      tau( 373) = (  0.8123691  0.3125666  0.8124324  )
       374        C      tau( 374) = (  0.8124609  0.5625093  0.0625470  )
       375        C      tau( 375) = (  0.8121079  0.5624292  0.3128163  )
       376        C      tau( 376) = (  0.8124370  0.5625538  0.5625741  )
       377        C      tau( 377) = (  0.8126563  0.5625738  0.8126758  )
       378        C      tau( 378) = (  0.8124691  0.8124888  0.0625848  )
       379        C      tau( 379) = (  0.8123682  0.8124135  0.3125853  )
       380        C      tau( 380) = (  0.8126558  0.8126578  0.5625908  )
       381        C      tau( 381) = (  0.8126010  0.8125767  0.8125932  )
       382        C      tau( 382) = (  0.0624741  0.1875154  0.1875334  )
       383        C      tau( 383) = (  0.0624343  0.1874928  0.4375273  )
       384        C      tau( 384) = (  0.0623916  0.1874581  0.6875197  )
       385        C      tau( 385) = (  0.0624464  0.1874799  0.9375149  )
       386        C      tau( 386) = (  0.0624341  0.4375083  0.1875129  )
       387        C      tau( 387) = (  0.0625481  0.4374978  0.4375182  )
       388        C      tau( 388) = (  0.0625443  0.4374712  0.6874668  )
       389        C      tau( 389) = (  0.0623720  0.4374945  0.9375525  )
       390        C      tau( 390) = (  0.0623931  0.6874999  0.1874800  )
       391        C      tau( 391) = (  0.0625445  0.6874460  0.4374918  )
       392        C      tau( 392) = (  0.0626300  0.6874180  0.6874392  )
       393        C      tau( 393) = (  0.0625476  0.6874614  0.9374252  )
       394        C      tau( 394) = (  0.0624479  0.9374960  0.1874985  )
       395        C      tau( 395) = (  0.0623733  0.9375312  0.4375135  )
       396        C      tau( 396) = (  0.0625473  0.9374032  0.6874799  )
       397        C      tau( 397) = (  0.0625029  0.9374658  0.9374843  )
       398        C      tau( 398) = (  0.3124698  0.1875530  0.1875733  )
       399        C      tau( 399) = (  0.3124125  0.1874535  0.4375859  )
       400        C      tau( 400) = (  0.3124206  0.1872217  0.6876113  )
       401        C      tau( 401) = (  0.3124267  0.1873928  0.9376036  )
       402        C      tau( 402) = (  0.3124135  0.4375624  0.1874762  )
       403        C      tau( 403) = (  0.3134244  0.4378536  0.4378771  )
       404        C      tau( 404) = (  0.3119897  0.4375043  0.6882324  )
       405        C      tau( 405) = (  0.3124790  0.4374514  0.9374647  )
       406        C      tau( 406) = (  0.3124231  0.6875854  0.1872494  )
       407        C      tau( 407) = (  0.3119902  0.6882091  0.4375284  )
       408        C      tau( 408) = (  0.3129779  0.6870285  0.6870527  )
       409        C      tau( 409) = (  0.3125440  0.6874239  0.9373532  )
       410        C      tau( 410) = (  0.3124291  0.9375794  0.1874177  )
       411        C      tau( 411) = (  0.3124797  0.9374427  0.4374726  )
       412        C      tau( 412) = (  0.3125435  0.9373272  0.6874455  )
       413        C      tau( 413) = (  0.3124861  0.9374020  0.9374256  )
       414        C      tau( 414) = (  0.5624242  0.1873031  0.1873217  )
       415        C      tau( 415) = (  0.5623756  0.1875299  0.4375793  )
       416        C      tau( 416) = (  0.5623683  0.1874450  0.6876035  )
       417        C      tau( 417) = (  0.5624525  0.1875007  0.9375005  )
       418        C      tau( 418) = (  0.5623765  0.4375583  0.1875505  )
       419        C      tau( 419) = (  0.5617509  0.4381510  0.6866220  )
       420        C      tau( 420) = (  0.5624799  0.4374869  0.9374956  )
       421        C      tau( 421) = (  0.5623709  0.6875800  0.1874690  )
       422        C      tau( 422) = (  0.5617525  0.6866014  0.4381723  )
       423        C      tau( 423) = (  0.5628243  0.6879850  0.6880068  )
       424        C      tau( 424) = (  0.5625213  0.6874995  0.9375080  )
       425        C      tau( 425) = (  0.5624534  0.9374813  0.1875204  )
       426        C      tau( 426) = (  0.5624802  0.9374768  0.4375055  )
       427        C      tau( 427) = (  0.5625209  0.9374880  0.6875179  )
       428        C      tau( 428) = (  0.5625043  0.9375037  0.9375233  )
       429        C      tau( 429) = (  0.8124554  0.1875052  0.1875213  )
       430        C      tau( 430) = (  0.8125905  0.1873693  0.4375490  )
       431        C      tau( 431) = (  0.8123333  0.1876383  0.6874682  )
       432        C      tau( 432) = (  0.8124479  0.1875309  0.9374818  )
       433        C      tau( 433) = (  0.8125896  0.4375309  0.1873890  )
       434        C      tau( 434) = (  0.8122792  0.4375468  0.4375681  )
       435        C      tau( 435) = (  0.8122997  0.4376504  0.6874712  )
       436        C      tau( 436) = (  0.8124571  0.4375254  0.9374963  )
       437        C      tau( 437) = (  0.8123323  0.6874492  0.1876587  )
       438        C      tau( 438) = (  0.8122988  0.6874509  0.4376710  )
       439        C      tau( 439) = (  0.8127383  0.6876510  0.6876692  )
       440        C      tau( 440) = (  0.8125597  0.6875413  0.9375994  )
       441        C      tau( 441) = (  0.8124481  0.9374648  0.1875475  )
       442        C      tau( 442) = (  0.8124570  0.9374789  0.4375415  )
       443        C      tau( 443) = (  0.8125593  0.9375819  0.6875574  )
       444        C      tau( 444) = (  0.8125117  0.9375309  0.9375473  )
       445        C      tau( 445) = (  0.1874497  0.1874905  0.0625529  )
       446        C      tau( 446) = (  0.1875093  0.1875565  0.3125589  )
       447        C      tau( 447) = (  0.1871481  0.1871194  0.5625029  )
       448        C      tau( 448) = (  0.1874428  0.1874169  0.8125304  )
       449        C      tau( 449) = (  0.1874224  0.4374922  0.0624542  )
       450        C      tau( 450) = (  0.1876000  0.4375561  0.3125292  )
       451        C      tau( 451) = (  0.1877445  0.4374338  0.5624494  )
       452        C      tau( 452) = (  0.1872461  0.4374546  0.8127624  )
       453        C      tau( 453) = (  0.1874453  0.6874956  0.0623626  )
       454        C      tau( 454) = (  0.1874128  0.6875199  0.3124293  )
       455        C      tau( 455) = (  0.1877834  0.6873065  0.5623270  )
       456        C      tau( 456) = (  0.1877028  0.6873331  0.8122795  )
       457        C      tau( 457) = (  0.1874653  0.9374815  0.0624612  )
       458        C      tau( 458) = (  0.1874106  0.9375508  0.3124633  )
       459        C      tau( 459) = (  0.1875431  0.9373615  0.5624579  )
       460        C      tau( 460) = (  0.1875231  0.9373605  0.8124443  )
       461        C      tau( 461) = (  0.4374499  0.1874700  0.0625049  )
       462        C      tau( 462) = (  0.4374161  0.1875086  0.3125551  )
       463        C      tau( 463) = (  0.4374266  0.1874448  0.5625618  )
       464        C      tau( 464) = (  0.4375003  0.1870191  0.8129612  )
       465        C      tau( 465) = (  0.4374489  0.4374973  0.0624948  )
       466        C      tau( 466) = (  0.4375596  0.4378727  0.3128503  )
       467        C      tau( 467) = (  0.4374941  0.4373935  0.8124551  )
       468        C      tau( 468) = (  0.4374678  0.6875132  0.0624228  )
       469        C      tau( 469) = (  0.4377040  0.6886541  0.3113619  )
       470        C      tau( 470) = (  0.4384686  0.6863832  0.5616462  )
       471        C      tau( 471) = (  0.4376593  0.6873355  0.8122873  )
       472        C      tau( 472) = (  0.4374867  0.9375770  0.0623617  )
       473        C      tau( 473) = (  0.4374599  0.9374963  0.3124720  )
       474        C      tau( 474) = (  0.4375041  0.9374223  0.5624814  )
       475        C      tau( 475) = (  0.4375176  0.9373844  0.8124565  )
       476        C      tau( 476) = (  0.6874734  0.1874977  0.0624822  )
       477        C      tau( 477) = (  0.6874529  0.1874310  0.3125138  )
       478        C      tau( 478) = (  0.6873565  0.1875647  0.5625431  )
       479        C      tau( 479) = (  0.6873997  0.1876076  0.8124287  )
       480        C      tau( 480) = (  0.6874520  0.4375180  0.0625246  )
       481        C      tau( 481) = (  0.6879216  0.4376429  0.3119929  )
       482        C      tau( 482) = (  0.6863319  0.4384503  0.5619813  )
       483        C      tau( 483) = (  0.6874221  0.4375921  0.8124251  )
       484        C      tau( 484) = (  0.6874797  0.6875160  0.0625384  )
       485        C      tau( 485) = (  0.6871020  0.6872721  0.3128226  )
       486        C      tau( 486) = (  0.6880356  0.6881202  0.5628035  )
       487        C      tau( 487) = (  0.6876635  0.6876479  0.8127486  )
       488        C      tau( 488) = (  0.6874787  0.9374854  0.0625544  )
       489        C      tau( 489) = (  0.6874567  0.9374647  0.3125465  )
       490        C      tau( 490) = (  0.6875092  0.9375299  0.5625362  )
       491        C      tau( 491) = (  0.6875459  0.9375737  0.8125730  )
       492        C      tau( 492) = (  0.9374590  0.1875047  0.0625138  )
       493        C      tau( 493) = (  0.9374744  0.1874997  0.3125167  )
       494        C      tau( 494) = (  0.9373662  0.1875875  0.5625019  )
       495        C      tau( 495) = (  0.9374171  0.1875216  0.8124927  )
       496        C      tau( 496) = (  0.9374663  0.4375135  0.0624908  )
       497        C      tau( 497) = (  0.9374075  0.4375184  0.3125622  )
       498        C      tau( 498) = (  0.9374393  0.4375237  0.5625119  )
       499        C      tau( 499) = (  0.9374502  0.4375218  0.8124675  )
       500        C      tau( 500) = (  0.9374478  0.6874893  0.0625483  )
       501        C      tau( 501) = (  0.9373912  0.6874641  0.3125747  )
       502        C      tau( 502) = (  0.9375427  0.6874830  0.5625265  )
       503        C      tau( 503) = (  0.9376169  0.6875192  0.8125387  )
       504        C      tau( 504) = (  0.9374768  0.9374937  0.0625234  )
       505        C      tau( 505) = (  0.9374261  0.9374709  0.3125254  )
       506        C      tau( 506) = (  0.9375071  0.9374965  0.5625161  )
       507        C      tau( 507) = (  0.9375374  0.9375111  0.8125167  )
       508        C      tau( 508) = (  0.5674509  0.4319283  0.4319500  )
       509        C      tau( 509) = (  0.4328644  0.4311907  0.5682282  )
       510        C      tau( 510) = (  0.4328652  0.5682066  0.4312127  )
       511        N      tau( 511) = (  0.5668896  0.5667483  0.5667688  )

     number of k points=     1
                       cart. coord. in units 2pi/alat
        k(    1) = (   0.0000000   0.0000000   0.0000000), wk =   1.0000000

                       cryst. coord.
        k(    1) = (   0.0000000   0.0000000   0.0000000), wk =   1.0000000

     Dense  grid:   948261 G-vectors     FFT dimensions: ( 160, 160, 160)

     Occupations read from input 

      Spin-up

        1.0000   1.0000   1.0000   1.0000   1.0000   1.0000   1.0000   1.0000
        1.0000   1.0000   1.0000   1.0000   1.0000   1.0000   1.0000   1.0000
        1.0000   1.0000   1.0000   1.0000   1.0000   1.0000   1.0000   1.0000
        1.0000   1.0000   1.0000   1.0000   1.0000   1.0000   1.0000   1.0000
        1.0000   1.0000   1.0000   1.0000   1.0000   1.0000   1.0000   1.0000
        1.0000   1.0000   1.0000   1.0000   1.0000   1.0000   1.0000   1.0000
        1.0000   1.0000   1.0000   1.0000   1.0000   1.0000   1.0000   1.0000
        1.0000   1.0000   1.0000   1.0000   1.0000   1.0000   1.0000   1.0000
        1.0000   1.0000   1.0000   1.0000   1.0000   1.0000   1.0000   1.0000
        1.0000   1.0000   1.0000   1.0000   1.0000   1.0000   1.0000   1.0000
        1.0000   1.0000   1.0000   1.0000   1.0000   1.0000   1.0000   1.0000
        1.0000   1.0000   1.0000   1.0000   1.0000   1.0000   1.0000   1.0000
        1.0000   1.0000   1.0000   1.0000   1.0000   1.0000   1.0000   1.0000
        1.0000   1.0000   1.0000   1.0000   1.0000   1.0000   1.0000   1.0000
        1.0000   1.0000   1.0000   1.0000   1.0000   1.0000   1.0000   1.0000
        1.0000   1.0000   1.0000   1.0000   1.0000   1.0000   1.0000   1.0000
        1.0000   1.0000   1.0000   1.0000   1.0000   1.0000   1.0000   1.0000
        1.0000   1.0000   1.0000   1.0000   1.0000   1.0000   1.0000   1.0000
        1.0000   1.0000   1.0000   1.0000   1.0000   1.0000   1.0000   1.0000
        1.0000   1.0000   1.0000   1.0000   1.0000   1.0000   1.0000   1.0000
        1.0000   1.0000   1.0000   1.0000   1.0000   1.0000   1.0000   1.0000
        1.0000   1.0000   1.0000   1.0000   1.0000   1.0000   1.0000   1.0000
        1.0000   1.0000   1.0000   1.0000   1.0000   1.0000   1.0000   1.0000
        1.0000   1.0000   1.0000   1.0000   1.0000   1.0000   1.0000   1.0000
        1.0000   1.0000   1.0000   1.0000   1.0000   1.0000   1.0000   1.0000
        1.0000   1.0000   1.0000   1.0000   1.0000   1.0000   1.0000   1.0000
        1.0000   1.0000   1.0000   1.0000   1.0000   1.0000   1.0000   1.0000
        1.0000   1.0000   1.0000   1.0000   1.0000   1.0000   1.0000   1.0000
        1.0000   1.0000   1.0000   1.0000   1.0000   1.0000   1.0000   1.0000
        1.0000   1.0000   1.0000   1.0000   1.0000   1.0000   1.0000   1.0000
        1.0000   1.0000   1.0000   1.0000   1.0000   1.0000   1.0000   1.0000
        1.0000   1.0000   1.0000   1.0000   1.0000   1.0000   1.0000   1.0000
        1.0000   1.0000   1.0000   1.0000   1.0000   1.0000   1.0000   1.0000
        1.0000   1.0000   1.0000   1.0000   1.0000   1.0000   1.0000   1.0000
        1.0000   1.0000   1.0000   1.0000   1.0000   1.0000   1.0000   1.0000
        1.0000   1.0000   1.0000   1.0000   1.0000   1.0000   1.0000   1.0000
        1.0000   1.0000   1.0000   1.0000   1.0000   1.0000   1.0000   1.0000
        1.0000   1.0000   1.0000   1.0000   1.0000   1.0000   1.0000   1.0000
        1.0000   1.0000   1.0000   1.0000   1.0000   1.0000   1.0000   1.0000
        1.0000   1.0000   1.0000   1.0000   1.0000   1.0000   1.0000   1.0000
        1.0000   1.0000   1.0000   1.0000   1.0000   1.0000   1.0000   1.0000
        1.0000   1.0000   1.0000   1.0000   1.0000   1.0000   1.0000   1.0000
        1.0000   1.0000   1.0000   1.0000   1.0000   1.0000   1.0000   1.0000
        1.0000   1.0000   1.0000   1.0000   1.0000   1.0000   1.0000   1.0000
        1.0000   1.0000   1.0000   1.0000   1.0000   1.0000   1.0000   1.0000
        1.0000   1.0000   1.0000   1.0000   1.0000   1.0000   1.0000   1.0000
        1.0000   1.0000   1.0000   1.0000   1.0000   1.0000   1.0000   1.0000
        1.0000   1.0000   1.0000   1.0000   1.0000   1.0000   1.0000   1.0000
        1.0000   1.0000   1.0000   1.0000   1.0000   1.0000   1.0000   1.0000
        1.0000   1.0000   1.0000   1.0000   1.0000   1.0000   1.0000   1.0000
        1.0000   1.0000   1.0000   1.0000   1.0000   1.0000   1.0000   1.0000
        1.0000   1.0000   1.0000   1.0000   1.0000   1.0000   1.0000   1.0000
        1.0000   1.0000   1.0000   1.0000   1.0000   1.0000   1.0000   1.0000
        1.0000   1.0000   1.0000   1.0000   1.0000   1.0000   1.0000   1.0000
        1.0000   1.0000   1.0000   1.0000   1.0000   1.0000   1.0000   1.0000
        1.0000   1.0000   1.0000   1.0000   1.0000   1.0000   1.0000   1.0000
        1.0000   1.0000   1.0000   1.0000   1.0000   1.0000   1.0000   1.0000
        1.0000   1.0000   1.0000   1.0000   1.0000   1.0000   1.0000   1.0000
        1.0000   1.0000   1.0000   1.0000   1.0000   1.0000   1.0000   1.0000
        1.0000   1.0000   1.0000   1.0000   1.0000   1.0000   1.0000   1.0000
        1.0000   1.0000   1.0000   1.0000   1.0000   1.0000   1.0000   1.0000
        1.0000   1.0000   1.0000   1.0000   1.0000   1.0000   1.0000   1.0000
        1.0000   1.0000   1.0000   1.0000   1.0000   1.0000   1.0000   1.0000
        1.0000   1.0000   1.0000   1.0000   1.0000   1.0000   1.0000   1.0000
        1.0000   1.0000   1.0000   1.0000   1.0000   1.0000   1.0000   1.0000
        1.0000   1.0000   1.0000   1.0000   1.0000   1.0000   1.0000   1.0000
        1.0000   1.0000   1.0000   1.0000   1.0000   1.0000   1.0000   1.0000
        1.0000   1.0000   1.0000   1.0000   1.0000   1.0000   1.0000   1.0000
        1.0000   1.0000   1.0000   1.0000   1.0000   1.0000   1.0000   1.0000
        1.0000   1.0000   1.0000   1.0000   1.0000   1.0000   1.0000   1.0000
        1.0000   1.0000   1.0000   1.0000   1.0000   1.0000   1.0000   1.0000
        1.0000   1.0000   1.0000   1.0000   1.0000   1.0000   1.0000   1.0000
        1.0000   1.0000   1.0000   1.0000   1.0000   1.0000   1.0000   1.0000
        1.0000   1.0000   1.0000   1.0000   1.0000   1.0000   1.0000   1.0000
        1.0000   1.0000   1.0000   1.0000   1.0000   1.0000   1.0000   1.0000
        1.0000   1.0000   1.0000   1.0000   1.0000   1.0000   1.0000   1.0000
        1.0000   1.0000   1.0000   1.0000   1.0000   1.0000   1.0000   1.0000
        1.0000   1.0000   1.0000   1.0000   1.0000   1.0000   1.0000   1.0000
        1.0000   1.0000   1.0000   1.0000   1.0000   1.0000   1.0000   1.0000
        1.0000   1.0000   1.0000   1.0000   1.0000   1.0000   1.0000   1.0000
        1.0000   1.0000   1.0000   1.0000   1.0000   1.0000   1.0000   1.0000
        1.0000   1.0000   1.0000   1.0000   1.0000   1.0000   1.0000   1.0000
        1.0000   1.0000   1.0000   1.0000   1.0000   1.0000   1.0000   1.0000
        1.0000   1.0000   1.0000   1.0000   1.0000   1.0000   1.0000   1.0000
        1.0000   1.0000   1.0000   1.0000   1.0000   1.0000   1.0000   1.0000
        1.0000   1.0000   1.0000   1.0000   1.0000   1.0000   1.0000   1.0000
        1.0000   1.0000   1.0000   1.0000   1.0000   1.0000   1.0000   1.0000
        1.0000   1.0000   1.0000   1.0000   1.0000   1.0000   1.0000   1.0000
        1.0000   1.0000   1.0000   1.0000   1.0000   1.0000   1.0000   1.0000
        1.0000   1.0000   1.0000   1.0000   1.0000   1.0000   1.0000   1.0000
        1.0000   1.0000   1.0000   1.0000   1.0000   1.0000   1.0000   1.0000
        1.0000   1.0000   1.0000   1.0000   1.0000   1.0000   1.0000   1.0000
        1.0000   1.0000   1.0000   1.0000   1.0000   1.0000   1.0000   1.0000
        1.0000   1.0000   1.0000   1.0000   1.0000   1.0000   1.0000   1.0000
        1.0000   1.0000   1.0000   1.0000   1.0000   1.0000   1.0000   1.0000
        1.0000   1.0000   1.0000   1.0000   1.0000   1.0000   1.0000   1.0000
        1.0000   1.0000   1.0000   1.0000   1.0000   1.0000   1.0000   1.0000
        1.0000   1.0000   1.0000   1.0000   1.0000   1.0000   1.0000   1.0000
        1.0000   1.0000   1.0000   1.0000   1.0000   1.0000   1.0000   1.0000
        1.0000   1.0000   1.0000   1.0000   1.0000   1.0000   1.0000   1.0000
        1.0000   1.0000   1.0000   1.0000   1.0000   1.0000   1.0000   1.0000
        1.0000   1.0000   1.0000   1.0000   1.0000   1.0000   1.0000   1.0000
        1.0000   1.0000   1.0000   1.0000   1.0000   1.0000   1.0000   1.0000
        1.0000   1.0000   1.0000   1.0000   1.0000   1.0000   1.0000   1.0000
        1.0000   1.0000   1.0000   1.0000   1.0000   1.0000   1.0000   1.0000
        1.0000   1.0000   1.0000   1.0000   1.0000   1.0000   1.0000   1.0000
        1.0000   1.0000   1.0000   1.0000   1.0000   1.0000   1.0000   1.0000
        1.0000   1.0000   1.0000   1.0000   1.0000   1.0000   1.0000   1.0000
        1.0000   1.0000   1.0000   1.0000   1.0000   1.0000   1.0000   1.0000
        1.0000   1.0000   1.0000   1.0000   1.0000   1.0000   1.0000   1.0000
        1.0000   1.0000   1.0000   1.0000   1.0000   1.0000   1.0000   1.0000
        1.0000   1.0000   1.0000   1.0000   1.0000   1.0000   1.0000   1.0000
        1.0000   1.0000   1.0000   1.0000   1.0000   1.0000   1.0000   1.0000
        1.0000   1.0000   1.0000   1.0000   1.0000   1.0000   1.0000   1.0000
        1.0000   1.0000   1.0000   1.0000   1.0000   1.0000   1.0000   1.0000
        1.0000   1.0000   1.0000   1.0000   1.0000   1.0000   1.0000   1.0000
        1.0000   1.0000   1.0000   1.0000   1.0000   1.0000   1.0000   1.0000
        1.0000   1.0000   1.0000   1.0000   1.0000   1.0000   1.0000   1.0000
        1.0000   1.0000   1.0000   1.0000   1.0000   1.0000   1.0000   1.0000
        1.0000   1.0000   1.0000   1.0000   1.0000   1.0000   1.0000   1.0000
        1.0000   1.0000   1.0000   1.0000   1.0000   1.0000   1.0000   1.0000
        1.0000   1.0000   1.0000   1.0000   1.0000   1.0000   1.0000   1.0000
        1.0000   1.0000   1.0000   1.0000   1.0000   1.0000   1.0000   1.0000
        1.0000   1.0000   1.0000   1.0000   1.0000   1.0000   1.0000   1.0000
        1.0000   1.0000   1.0000   1.0000   1.0000   1.0000   1.0000   1.0000
        1.0000   1.0000   1.0000   1.0000   1.0000   1.0000   1.0000   1.0000
        1.0000   1.0000   1.0000   1.0000   1.0000   1.0000   1.0000   1.0000
        1.0000   1.0000   1.0000   1.0000   1.0000   1.0000   1.0000   1.0000
        0.0000   0.0000   0.0000   0.0000   0.0000   0.0000   0.0000   0.0000

      Spin-down

        1.0000   1.0000   1.0000   1.0000   1.0000   1.0000   1.0000   1.0000
        1.0000   1.0000   1.0000   1.0000   1.0000   1.0000   1.0000   1.0000
        1.0000   1.0000   1.0000   1.0000   1.0000   1.0000   1.0000   1.0000
        1.0000   1.0000   1.0000   1.0000   1.0000   1.0000   1.0000   1.0000
        1.0000   1.0000   1.0000   1.0000   1.0000   1.0000   1.0000   1.0000
        1.0000   1.0000   1.0000   1.0000   1.0000   1.0000   1.0000   1.0000
        1.0000   1.0000   1.0000   1.0000   1.0000   1.0000   1.0000   1.0000
        1.0000   1.0000   1.0000   1.0000   1.0000   1.0000   1.0000   1.0000
        1.0000   1.0000   1.0000   1.0000   1.0000   1.0000   1.0000   1.0000
        1.0000   1.0000   1.0000   1.0000   1.0000   1.0000   1.0000   1.0000
        1.0000   1.0000   1.0000   1.0000   1.0000   1.0000   1.0000   1.0000
        1.0000   1.0000   1.0000   1.0000   1.0000   1.0000   1.0000   1.0000
        1.0000   1.0000   1.0000   1.0000   1.0000   1.0000   1.0000   1.0000
        1.0000   1.0000   1.0000   1.0000   1.0000   1.0000   1.0000   1.0000
        1.0000   1.0000   1.0000   1.0000   1.0000   1.0000   1.0000   1.0000
        1.0000   1.0000   1.0000   1.0000   1.0000   1.0000   1.0000   1.0000
        1.0000   1.0000   1.0000   1.0000   1.0000   1.0000   1.0000   1.0000
        1.0000   1.0000   1.0000   1.0000   1.0000   1.0000   1.0000   1.0000
        1.0000   1.0000   1.0000   1.0000   1.0000   1.0000   1.0000   1.0000
        1.0000   1.0000   1.0000   1.0000   1.0000   1.0000   1.0000   1.0000
        1.0000   1.0000   1.0000   1.0000   1.0000   1.0000   1.0000   1.0000
        1.0000   1.0000   1.0000   1.0000   1.0000   1.0000   1.0000   1.0000
        1.0000   1.0000   1.0000   1.0000   1.0000   1.0000   1.0000   1.0000
        1.0000   1.0000   1.0000   1.0000   1.0000   1.0000   1.0000   1.0000
        1.0000   1.0000   1.0000   1.0000   1.0000   1.0000   1.0000   1.0000
        1.0000   1.0000   1.0000   1.0000   1.0000   1.0000   1.0000   1.0000
        1.0000   1.0000   1.0000   1.0000   1.0000   1.0000   1.0000   1.0000
        1.0000   1.0000   1.0000   1.0000   1.0000   1.0000   1.0000   1.0000
        1.0000   1.0000   1.0000   1.0000   1.0000   1.0000   1.0000   1.0000
        1.0000   1.0000   1.0000   1.0000   1.0000   1.0000   1.0000   1.0000
        1.0000   1.0000   1.0000   1.0000   1.0000   1.0000   1.0000   1.0000
        1.0000   1.0000   1.0000   1.0000   1.0000   1.0000   1.0000   1.0000
        1.0000   1.0000   1.0000   1.0000   1.0000   1.0000   1.0000   1.0000
        1.0000   1.0000   1.0000   1.0000   1.0000   1.0000   1.0000   1.0000
        1.0000   1.0000   1.0000   1.0000   1.0000   1.0000   1.0000   1.0000
        1.0000   1.0000   1.0000   1.0000   1.0000   1.0000   1.0000   1.0000
        1.0000   1.0000   1.0000   1.0000   1.0000   1.0000   1.0000   1.0000
        1.0000   1.0000   1.0000   1.0000   1.0000   1.0000   1.0000   1.0000
        1.0000   1.0000   1.0000   1.0000   1.0000   1.0000   1.0000   1.0000
        1.0000   1.0000   1.0000   1.0000   1.0000   1.0000   1.0000   1.0000
        1.0000   1.0000   1.0000   1.0000   1.0000   1.0000   1.0000   1.0000
        1.0000   1.0000   1.0000   1.0000   1.0000   1.0000   1.0000   1.0000
        1.0000   1.0000   1.0000   1.0000   1.0000   1.0000   1.0000   1.0000
        1.0000   1.0000   1.0000   1.0000   1.0000   1.0000   1.0000   1.0000
        1.0000   1.0000   1.0000   1.0000   1.0000   1.0000   1.0000   1.0000
        1.0000   1.0000   1.0000   1.0000   1.0000   1.0000   1.0000   1.0000
        1.0000   1.0000   1.0000   1.0000   1.0000   1.0000   1.0000   1.0000
        1.0000   1.0000   1.0000   1.0000   1.0000   1.0000   1.0000   1.0000
        1.0000   1.0000   1.0000   1.0000   1.0000   1.0000   1.0000   1.0000
        1.0000   1.0000   1.0000   1.0000   1.0000   1.0000   1.0000   1.0000
        1.0000   1.0000   1.0000   1.0000   1.0000   1.0000   1.0000   1.0000
        1.0000   1.0000   1.0000   1.0000   1.0000   1.0000   1.0000   1.0000
        1.0000   1.0000   1.0000   1.0000   1.0000   1.0000   1.0000   1.0000
        1.0000   1.0000   1.0000   1.0000   1.0000   1.0000   1.0000   1.0000
        1.0000   1.0000   1.0000   1.0000   1.0000   1.0000   1.0000   1.0000
        1.0000   1.0000   1.0000   1.0000   1.0000   1.0000   1.0000   1.0000
        1.0000   1.0000   1.0000   1.0000   1.0000   1.0000   1.0000   1.0000
        1.0000   1.0000   1.0000   1.0000   1.0000   1.0000   1.0000   1.0000
        1.0000   1.0000   1.0000   1.0000   1.0000   1.0000   1.0000   1.0000
        1.0000   1.0000   1.0000   1.0000   1.0000   1.0000   1.0000   1.0000
        1.0000   1.0000   1.0000   1.0000   1.0000   1.0000   1.0000   1.0000
        1.0000   1.0000   1.0000   1.0000   1.0000   1.0000   1.0000   1.0000
        1.0000   1.0000   1.0000   1.0000   1.0000   1.0000   1.0000   1.0000
        1.0000   1.0000   1.0000   1.0000   1.0000   1.0000   1.0000   1.0000
        1.0000   1.0000   1.0000   1.0000   1.0000   1.0000   1.0000   1.0000
        1.0000   1.0000   1.0000   1.0000   1.0000   1.0000   1.0000   1.0000
        1.0000   1.0000   1.0000   1.0000   1.0000   1.0000   1.0000   1.0000
        1.0000   1.0000   1.0000   1.0000   1.0000   1.0000   1.0000   1.0000
        1.0000   1.0000   1.0000   1.0000   1.0000   1.0000   1.0000   1.0000
        1.0000   1.0000   1.0000   1.0000   1.0000   1.0000   1.0000   1.0000
        1.0000   1.0000   1.0000   1.0000   1.0000   1.0000   1.0000   1.0000
        1.0000   1.0000   1.0000   1.0000   1.0000   1.0000   1.0000   1.0000
        1.0000   1.0000   1.0000   1.0000   1.0000   1.0000   1.0000   1.0000
        1.0000   1.0000   1.0000   1.0000   1.0000   1.0000   1.0000   1.0000
        1.0000   1.0000   1.0000   1.0000   1.0000   1.0000   1.0000   1.0000
        1.0000   1.0000   1.0000   1.0000   1.0000   1.0000   1.0000   1.0000
        1.0000   1.0000   1.0000   1.0000   1.0000   1.0000   1.0000   1.0000
        1.0000   1.0000   1.0000   1.0000   1.0000   1.0000   1.0000   1.0000
        1.0000   1.0000   1.0000   1.0000   1.0000   1.0000   1.0000   1.0000
        1.0000   1.0000   1.0000   1.0000   1.0000   1.0000   1.0000   1.0000
        1.0000   1.0000   1.0000   1.0000   1.0000   1.0000   1.0000   1.0000
        1.0000   1.0000   1.0000   1.0000   1.0000   1.0000   1.0000   1.0000
        1.0000   1.0000   1.0000   1.0000   1.0000   1.0000   1.0000   1.0000
        1.0000   1.0000   1.0000   1.0000   1.0000   1.0000   1.0000   1.0000
        1.0000   1.0000   1.0000   1.0000   1.0000   1.0000   1.0000   1.0000
        1.0000   1.0000   1.0000   1.0000   1.0000   1.0000   1.0000   1.0000
        1.0000   1.0000   1.0000   1.0000   1.0000   1.0000   1.0000   1.0000
        1.0000   1.0000   1.0000   1.0000   1.0000   1.0000   1.0000   1.0000
        1.0000   1.0000   1.0000   1.0000   1.0000   1.0000   1.0000   1.0000
        1.0000   1.0000   1.0000   1.0000   1.0000   1.0000   1.0000   1.0000
        1.0000   1.0000   1.0000   1.0000   1.0000   1.0000   1.0000   1.0000
        1.0000   1.0000   1.0000   1.0000   1.0000   1.0000   1.0000   1.0000
        1.0000   1.0000   1.0000   1.0000   1.0000   1.0000   1.0000   1.0000
        1.0000   1.0000   1.0000   1.0000   1.0000   1.0000   1.0000   1.0000
        1.0000   1.0000   1.0000   1.0000   1.0000   1.0000   1.0000   1.0000
        1.0000   1.0000   1.0000   1.0000   1.0000   1.0000   1.0000   1.0000
        1.0000   1.0000   1.0000   1.0000   1.0000   1.0000   1.0000   1.0000
        1.0000   1.0000   1.0000   1.0000   1.0000   1.0000   1.0000   1.0000
        1.0000   1.0000   1.0000   1.0000   1.0000   1.0000   1.0000   1.0000
        1.0000   1.0000   1.0000   1.0000   1.0000   1.0000   1.0000   1.0000
        1.0000   1.0000   1.0000   1.0000   1.0000   1.0000   1.0000   1.0000
        1.0000   1.0000   1.0000   1.0000   1.0000   1.0000   1.0000   1.0000
        1.0000   1.0000   1.0000   1.0000   1.0000   1.0000   1.0000   1.0000
        1.0000   1.0000   1.0000   1.0000   1.0000   1.0000   1.0000   1.0000
        1.0000   1.0000   1.0000   1.0000   1.0000   1.0000   1.0000   1.0000
        1.0000   1.0000   1.0000   1.0000   1.0000   1.0000   1.0000   1.0000
        1.0000   1.0000   1.0000   1.0000   1.0000   1.0000   1.0000   1.0000
        1.0000   1.0000   1.0000   1.0000   1.0000   1.0000   1.0000   1.0000
        1.0000   1.0000   1.0000   1.0000   1.0000   1.0000   1.0000   1.0000
        1.0000   1.0000   1.0000   1.0000   1.0000   1.0000   1.0000   1.0000
        1.0000   1.0000   1.0000   1.0000   1.0000   1.0000   1.0000   1.0000
        1.0000   1.0000   1.0000   1.0000   1.0000   1.0000   1.0000   1.0000
        1.0000   1.0000   1.0000   1.0000   1.0000   1.0000   1.0000   1.0000
        1.0000   1.0000   1.0000   1.0000   1.0000   1.0000   1.0000   1.0000
        1.0000   1.0000   1.0000   1.0000   1.0000   1.0000   1.0000   1.0000
        1.0000   1.0000   1.0000   1.0000   1.0000   1.0000   1.0000   1.0000
        1.0000   1.0000   1.0000   1.0000   1.0000   1.0000   1.0000   1.0000
        1.0000   1.0000   1.0000   1.0000   1.0000   1.0000   1.0000   1.0000
        1.0000   1.0000   1.0000   1.0000   1.0000   1.0000   1.0000   1.0000
        1.0000   1.0000   1.0000   1.0000   1.0000   1.0000   1.0000   1.0000
        1.0000   1.0000   1.0000   1.0000   1.0000   1.0000   1.0000   1.0000
        1.0000   1.0000   1.0000   1.0000   1.0000   1.0000   1.0000   1.0000
        1.0000   1.0000   1.0000   1.0000   1.0000   1.0000   1.0000   1.0000
        1.0000   1.0000   1.0000   1.0000   1.0000   1.0000   1.0000   1.0000
        1.0000   1.0000   1.0000   1.0000   1.0000   1.0000   1.0000   1.0000
        1.0000   1.0000   1.0000   1.0000   1.0000   1.0000   1.0000   1.0000
        1.0000   1.0000   1.0000   1.0000   1.0000   1.0000   1.0000   1.0000
        1.0000   1.0000   1.0000   1.0000   1.0000   0.0000   1.0000   0.0000
        0.0000   0.0000   0.0000   0.0000   0.0000   0.0000   0.0000   0.0000

     Dynamical RAM for                 wfc:      38.88 MB

     Dynamical RAM for     wfc (w. buffer):      38.88 MB

     Dynamical RAM for           str. fact:       0.60 MB

     Dynamical RAM for           local pot:       0.00 MB

     Dynamical RAM for          nlocal pot:     154.01 MB

     Dynamical RAM for                qrad:       0.82 MB

     Dynamical RAM for          rho,v,vnew:       6.50 MB

     Dynamical RAM for               rhoin:       2.17 MB

     Dynamical RAM for            rho*nmix:       9.65 MB

     Dynamical RAM for           G-vectors:       1.28 MB

     Dynamical RAM for          h,s,v(r/c):       2.71 MB

     Dynamical RAM for          <psi|beta>:      32.19 MB

     Dynamical RAM for                 psi:      77.76 MB

     Dynamical RAM for                hpsi:      77.76 MB

     Dynamical RAM for      wfcinit/wfcrot:     102.14 MB

     Estimated static dynamical RAM per process >     209.85 MB

     Estimated max dynamical RAM per process >     409.91 MB

     Estimated total dynamical RAM >      37.98 GB
     Generating pointlists ...
     new r_m :   0.0427 (alat units)  1.1510 (a.u.) for type    1
     new r_m :   0.0429 (alat units)  1.1570 (a.u.) for type    2

     Initial potential from superposition of free atoms

     starting charge    2041.4445, renormalised to    2046.0000
     Starting wfcs are random

     total cpu time spent up to now is       13.4 secs

     Self-consistent Calculation

     iteration #  1     ecut=    80.00 Ry     beta= 0.70
     Davidson diagonalization with overlap

---- Real-time Memory Report at c_bands before calling an iterative solver
           516 MiB given to the printing process from OS
             0 MiB allocation reported by mallinfo(arena+hblkhd)
        161265 MiB available memory on the node where the printing process lives
------------------
     ethr =  1.00E-02,  avg # of iterations = 13.0

     total cpu time spent up to now is      116.8 secs

     total energy              =   -5823.78776307 Ry
     estimated scf accuracy    <      29.20964908 Ry

     total magnetization       =     2.00 Bohr mag/cell
     absolute magnetization    =     2.00 Bohr mag/cell

     iteration #  2     ecut=    80.00 Ry     beta= 0.70
     Davidson diagonalization with overlap

---- Real-time Memory Report at c_bands before calling an iterative solver
           633 MiB given to the printing process from OS
             0 MiB allocation reported by mallinfo(arena+hblkhd)
        159727 MiB available memory on the node where the printing process lives
------------------
     ethr =  1.43E-03,  avg # of iterations = 16.0

     total cpu time spent up to now is      142.0 secs

     total energy              =   -5824.94291795 Ry
     estimated scf accuracy    <       5.56757489 Ry

     total magnetization       =     2.00 Bohr mag/cell
     absolute magnetization    =     2.34 Bohr mag/cell

     iteration #  3     ecut=    80.00 Ry     beta= 0.70
     Davidson diagonalization with overlap

---- Real-time Memory Report at c_bands before calling an iterative solver
           654 MiB given to the printing process from OS
             0 MiB allocation reported by mallinfo(arena+hblkhd)
        159487 MiB available memory on the node where the printing process lives
------------------
     ethr =  2.72E-04,  avg # of iterations = 12.5

     total cpu time spent up to now is      172.5 secs

     total energy              =   -5817.69946208 Ry
     estimated scf accuracy    <      80.80139914 Ry

     total magnetization       =     2.00 Bohr mag/cell
     absolute magnetization    =     2.21 Bohr mag/cell

     iteration #  4     ecut=    80.00 Ry     beta= 0.70
     Davidson diagonalization with overlap

---- Real-time Memory Report at c_bands before calling an iterative solver
           663 MiB given to the printing process from OS
             0 MiB allocation reported by mallinfo(arena+hblkhd)
        159305 MiB available memory on the node where the printing process lives
------------------
     c_bands:  2 eigenvalues not converged
     ethr =  2.72E-04,  avg # of iterations = 20.0

     total cpu time spent up to now is      198.1 secs

     total energy              =   -5828.71736312 Ry
     estimated scf accuracy    <       2.26559100 Ry

     total magnetization       =     2.00 Bohr mag/cell
     absolute magnetization    =     2.16 Bohr mag/cell

     iteration #  5     ecut=    80.00 Ry     beta= 0.70
     Davidson diagonalization with overlap

---- Real-time Memory Report at c_bands before calling an iterative solver
           667 MiB given to the printing process from OS
             0 MiB allocation reported by mallinfo(arena+hblkhd)
        159304 MiB available memory on the node where the printing process lives
------------------
     ethr =  1.11E-04,  avg # of iterations = 13.0

     total cpu time spent up to now is      218.3 secs

     total energy              =   -5828.93672821 Ry
     estimated scf accuracy    <       0.23279519 Ry

     total magnetization       =     2.00 Bohr mag/cell
     absolute magnetization    =     2.17 Bohr mag/cell

     iteration #  6     ecut=    80.00 Ry     beta= 0.70
     Davidson diagonalization with overlap

---- Real-time Memory Report at c_bands before calling an iterative solver
           667 MiB given to the printing process from OS
             0 MiB allocation reported by mallinfo(arena+hblkhd)
        159302 MiB available memory on the node where the printing process lives
------------------
     c_bands:  2 eigenvalues not converged
     ethr =  1.14E-05,  avg # of iterations = 20.0

     total cpu time spent up to now is      251.6 secs

     total energy              =   -5828.96241831 Ry
     estimated scf accuracy    <       0.07470422 Ry

     total magnetization       =     2.00 Bohr mag/cell
     absolute magnetization    =     2.17 Bohr mag/cell

     iteration #  7     ecut=    80.00 Ry     beta= 0.70
     Davidson diagonalization with overlap

---- Real-time Memory Report at c_bands before calling an iterative solver
           667 MiB given to the printing process from OS
             0 MiB allocation reported by mallinfo(arena+hblkhd)
        159302 MiB available memory on the node where the printing process lives
------------------
     c_bands:  1 eigenvalues not converged
     ethr =  3.65E-06,  avg # of iterations = 20.0

     total cpu time spent up to now is      273.9 secs

     total energy              =   -5828.97060836 Ry
     estimated scf accuracy    <       0.04052532 Ry

     total magnetization       =     2.00 Bohr mag/cell
     absolute magnetization    =     2.18 Bohr mag/cell

     iteration #  8     ecut=    80.00 Ry     beta= 0.70
     Davidson diagonalization with overlap

---- Real-time Memory Report at c_bands before calling an iterative solver
           667 MiB given to the printing process from OS
             0 MiB allocation reported by mallinfo(arena+hblkhd)
        159302 MiB available memory on the node where the printing process lives
------------------
     ethr =  1.98E-06,  avg # of iterations = 16.5

     total cpu time spent up to now is      295.9 secs

     total energy              =   -5828.97312207 Ry
     estimated scf accuracy    <       0.02684534 Ry

     total magnetization       =     2.00 Bohr mag/cell
     absolute magnetization    =     2.20 Bohr mag/cell

     iteration #  9     ecut=    80.00 Ry     beta= 0.70
     Davidson diagonalization with overlap

---- Real-time Memory Report at c_bands before calling an iterative solver
           667 MiB given to the printing process from OS
             0 MiB allocation reported by mallinfo(arena+hblkhd)
        159300 MiB available memory on the node where the printing process lives
------------------
     ethr =  1.31E-06,  avg # of iterations = 11.5

     total cpu time spent up to now is      315.2 secs

     total energy              =   -5828.97505150 Ry
     estimated scf accuracy    <       0.01654588 Ry

     total magnetization       =     2.00 Bohr mag/cell
     absolute magnetization    =     2.22 Bohr mag/cell

     iteration # 10     ecut=    80.00 Ry     beta= 0.70
     Davidson diagonalization with overlap

---- Real-time Memory Report at c_bands before calling an iterative solver
           667 MiB given to the printing process from OS
             0 MiB allocation reported by mallinfo(arena+hblkhd)
        159300 MiB available memory on the node where the printing process lives
------------------
     ethr =  8.09E-07,  avg # of iterations = 10.0

     total cpu time spent up to now is      330.1 secs

     total energy              =   -5828.97578798 Ry
     estimated scf accuracy    <       0.00579233 Ry

     total magnetization       =     2.00 Bohr mag/cell
     absolute magnetization    =     2.23 Bohr mag/cell

     iteration # 11     ecut=    80.00 Ry     beta= 0.70
     Davidson diagonalization with overlap

---- Real-time Memory Report at c_bands before calling an iterative solver
           667 MiB given to the printing process from OS
             0 MiB allocation reported by mallinfo(arena+hblkhd)
        159299 MiB available memory on the node where the printing process lives
------------------
     ethr =  2.83E-07,  avg # of iterations = 10.0

     total cpu time spent up to now is      346.8 secs

     total energy              =   -5828.97582011 Ry
     estimated scf accuracy    <       0.00375344 Ry

     total magnetization       =     2.00 Bohr mag/cell
     absolute magnetization    =     2.24 Bohr mag/cell

     iteration # 12     ecut=    80.00 Ry     beta= 0.70
     Davidson diagonalization with overlap

---- Real-time Memory Report at c_bands before calling an iterative solver
           667 MiB given to the printing process from OS
             0 MiB allocation reported by mallinfo(arena+hblkhd)
        159296 MiB available memory on the node where the printing process lives
------------------
     ethr =  1.83E-07,  avg # of iterations = 15.0

     total cpu time spent up to now is      365.1 secs

     total energy              =   -5828.97542681 Ry
     estimated scf accuracy    <       0.02413594 Ry

     total magnetization       =     2.00 Bohr mag/cell
     absolute magnetization    =     2.25 Bohr mag/cell

     iteration # 13     ecut=    80.00 Ry     beta= 0.70
     Davidson diagonalization with overlap

---- Real-time Memory Report at c_bands before calling an iterative solver
           667 MiB given to the printing process from OS
             0 MiB allocation reported by mallinfo(arena+hblkhd)
        159290 MiB available memory on the node where the printing process lives
------------------
     c_bands:  2 eigenvalues not converged
     ethr =  1.83E-07,  avg # of iterations = 15.5

     total cpu time spent up to now is      387.2 secs

     total energy              =   -5828.97633702 Ry
     estimated scf accuracy    <       0.00136181 Ry

     total magnetization       =     2.00 Bohr mag/cell
     absolute magnetization    =     2.25 Bohr mag/cell

     iteration # 14     ecut=    80.00 Ry     beta= 0.70
     Davidson diagonalization with overlap

---- Real-time Memory Report at c_bands before calling an iterative solver
           667 MiB given to the printing process from OS
             0 MiB allocation reported by mallinfo(arena+hblkhd)
        159288 MiB available memory on the node where the printing process lives
------------------
     ethr =  6.66E-08,  avg # of iterations = 13.5

     total cpu time spent up to now is      414.2 secs

     total energy              =   -5828.97645253 Ry
     estimated scf accuracy    <       0.00061767 Ry

     total magnetization       =     2.00 Bohr mag/cell
     absolute magnetization    =     2.25 Bohr mag/cell

     iteration # 15     ecut=    80.00 Ry     beta= 0.70
     Davidson diagonalization with overlap

---- Real-time Memory Report at c_bands before calling an iterative solver
           667 MiB given to the printing process from OS
             0 MiB allocation reported by mallinfo(arena+hblkhd)
        159285 MiB available memory on the node where the printing process lives
------------------
     ethr =  3.02E-08,  avg # of iterations = 11.5

     total cpu time spent up to now is      432.1 secs

     total energy              =   -5828.97650020 Ry
     estimated scf accuracy    <       0.00021603 Ry

     total magnetization       =     2.00 Bohr mag/cell
     absolute magnetization    =     2.26 Bohr mag/cell

     iteration # 16     ecut=    80.00 Ry     beta= 0.70
     Davidson diagonalization with overlap

---- Real-time Memory Report at c_bands before calling an iterative solver
           667 MiB given to the printing process from OS
             0 MiB allocation reported by mallinfo(arena+hblkhd)
        159286 MiB available memory on the node where the printing process lives
------------------
     c_bands:  2 eigenvalues not converged
     ethr =  1.06E-08,  avg # of iterations = 20.0

     total cpu time spent up to now is      452.6 secs

     total energy              =   -5828.97652369 Ry
     estimated scf accuracy    <       0.00007476 Ry

     total magnetization       =     2.00 Bohr mag/cell
     absolute magnetization    =     2.27 Bohr mag/cell

     iteration # 17     ecut=    80.00 Ry     beta= 0.70
     Davidson diagonalization with overlap

---- Real-time Memory Report at c_bands before calling an iterative solver
           667 MiB given to the printing process from OS
             0 MiB allocation reported by mallinfo(arena+hblkhd)
        159286 MiB available memory on the node where the printing process lives
------------------
     c_bands:  2 eigenvalues not converged
     ethr =  3.65E-09,  avg # of iterations = 15.5

     total cpu time spent up to now is      475.2 secs

     total energy              =   -5828.97653399 Ry
     estimated scf accuracy    <       0.00001085 Ry

     total magnetization       =     2.00 Bohr mag/cell
     absolute magnetization    =     2.27 Bohr mag/cell

     iteration # 18     ecut=    80.00 Ry     beta= 0.70
     Davidson diagonalization with overlap

---- Real-time Memory Report at c_bands before calling an iterative solver
           667 MiB given to the printing process from OS
             0 MiB allocation reported by mallinfo(arena+hblkhd)
        159287 MiB available memory on the node where the printing process lives
------------------
     c_bands:  2 eigenvalues not converged
     ethr =  5.30E-10,  avg # of iterations = 16.0

     total cpu time spent up to now is      500.3 secs

     total energy              =   -5828.97653670 Ry
     estimated scf accuracy    <       0.00000321 Ry

     total magnetization       =     2.00 Bohr mag/cell
     absolute magnetization    =     2.27 Bohr mag/cell

     iteration # 19     ecut=    80.00 Ry     beta= 0.70
     Davidson diagonalization with overlap

---- Real-time Memory Report at c_bands before calling an iterative solver
           667 MiB given to the printing process from OS
             0 MiB allocation reported by mallinfo(arena+hblkhd)
        159286 MiB available memory on the node where the printing process lives
------------------
     c_bands:  2 eigenvalues not converged
     ethr =  1.57E-10,  avg # of iterations = 20.0

     total cpu time spent up to now is      528.0 secs

     total energy              =   -5828.97653785 Ry
     estimated scf accuracy    <       0.00000083 Ry

     total magnetization       =     2.00 Bohr mag/cell
     absolute magnetization    =     2.27 Bohr mag/cell

     iteration # 20     ecut=    80.00 Ry     beta= 0.70
     Davidson diagonalization with overlap

---- Real-time Memory Report at c_bands before calling an iterative solver
           667 MiB given to the printing process from OS
             0 MiB allocation reported by mallinfo(arena+hblkhd)
        159245 MiB available memory on the node where the printing process lives
------------------
     c_bands:  1 eigenvalues not converged
     ethr =  4.06E-11,  avg # of iterations = 19.5

     total cpu time spent up to now is      577.5 secs

     total energy              =   -5828.97653796 Ry
     estimated scf accuracy    <       0.00000055 Ry

     total magnetization       =     2.00 Bohr mag/cell
     absolute magnetization    =     2.27 Bohr mag/cell

     iteration # 21     ecut=    80.00 Ry     beta= 0.70
     Davidson diagonalization with overlap

---- Real-time Memory Report at c_bands before calling an iterative solver
           667 MiB given to the printing process from OS
             0 MiB allocation reported by mallinfo(arena+hblkhd)
        159244 MiB available memory on the node where the printing process lives
------------------
     ethr =  2.67E-11,  avg # of iterations = 12.0

     total cpu time spent up to now is      598.3 secs

     total energy              =   -5828.97653796 Ry
     estimated scf accuracy    <       0.00000036 Ry

     total magnetization       =     2.00 Bohr mag/cell
     absolute magnetization    =     2.27 Bohr mag/cell

     iteration # 22     ecut=    80.00 Ry     beta= 0.70
     Davidson diagonalization with overlap

---- Real-time Memory Report at c_bands before calling an iterative solver
           668 MiB given to the printing process from OS
             0 MiB allocation reported by mallinfo(arena+hblkhd)
        159245 MiB available memory on the node where the printing process lives
------------------
     ethr =  1.78E-11,  avg # of iterations = 12.5

     total cpu time spent up to now is      640.3 secs

     total energy              =   -5828.97653799 Ry
     estimated scf accuracy    <       0.00000013 Ry

     total magnetization       =     2.00 Bohr mag/cell
     absolute magnetization    =     2.27 Bohr mag/cell

     iteration # 23     ecut=    80.00 Ry     beta= 0.70
     Davidson diagonalization with overlap

---- Real-time Memory Report at c_bands before calling an iterative solver
           668 MiB given to the printing process from OS
             0 MiB allocation reported by mallinfo(arena+hblkhd)
        159245 MiB available memory on the node where the printing process lives
------------------
     ethr =  6.11E-12,  avg # of iterations = 13.0

     total cpu time spent up to now is      664.2 secs

     total energy              =   -5828.97653801 Ry
     estimated scf accuracy    <       0.00000007 Ry

     total magnetization       =     2.00 Bohr mag/cell
     absolute magnetization    =     2.27 Bohr mag/cell

     iteration # 24     ecut=    80.00 Ry     beta= 0.70
     Davidson diagonalization with overlap

---- Real-time Memory Report at c_bands before calling an iterative solver
           668 MiB given to the printing process from OS
             0 MiB allocation reported by mallinfo(arena+hblkhd)
        159240 MiB available memory on the node where the printing process lives
------------------
     ethr =  3.44E-12,  avg # of iterations =  6.0

     total cpu time spent up to now is      678.2 secs

     total energy              =   -5828.97653801 Ry
     estimated scf accuracy    <       0.00000004 Ry

     total magnetization       =     2.00 Bohr mag/cell
     absolute magnetization    =     2.27 Bohr mag/cell

     iteration # 25     ecut=    80.00 Ry     beta= 0.70
     Davidson diagonalization with overlap

---- Real-time Memory Report at c_bands before calling an iterative solver
           668 MiB given to the printing process from OS
             0 MiB allocation reported by mallinfo(arena+hblkhd)
        159235 MiB available memory on the node where the printing process lives
------------------
     ethr =  2.16E-12,  avg # of iterations = 10.0

     total cpu time spent up to now is      693.0 secs

     total energy              =   -5828.97653801 Ry
     estimated scf accuracy    <       0.00000001 Ry

     total magnetization       =     2.00 Bohr mag/cell
     absolute magnetization    =     2.27 Bohr mag/cell

     iteration # 26     ecut=    80.00 Ry     beta= 0.70
     Davidson diagonalization with overlap

---- Real-time Memory Report at c_bands before calling an iterative solver
           668 MiB given to the printing process from OS
             0 MiB allocation reported by mallinfo(arena+hblkhd)
        159234 MiB available memory on the node where the printing process lives
------------------
     c_bands:  1 eigenvalues not converged
     ethr =  5.54E-13,  avg # of iterations = 20.0

     total cpu time spent up to now is      713.0 secs

     total energy              =   -5828.97653801 Ry
     estimated scf accuracy    <          4.0E-09 Ry

     total magnetization       =     2.00 Bohr mag/cell
     absolute magnetization    =     2.27 Bohr mag/cell

     iteration # 27     ecut=    80.00 Ry     beta= 0.70
     Davidson diagonalization with overlap

---- Real-time Memory Report at c_bands before calling an iterative solver
           668 MiB given to the printing process from OS
             0 MiB allocation reported by mallinfo(arena+hblkhd)
        159231 MiB available memory on the node where the printing process lives
------------------
     ethr =  1.94E-13,  avg # of iterations = 16.5

     total cpu time spent up to now is      731.2 secs

     total energy              =   -5828.97653801 Ry
     estimated scf accuracy    <          2.6E-09 Ry

     total magnetization       =     2.00 Bohr mag/cell
     absolute magnetization    =     2.27 Bohr mag/cell

     iteration # 28     ecut=    80.00 Ry     beta= 0.70
     Davidson diagonalization with overlap

---- Real-time Memory Report at c_bands before calling an iterative solver
           668 MiB given to the printing process from OS
             0 MiB allocation reported by mallinfo(arena+hblkhd)
        159231 MiB available memory on the node where the printing process lives
------------------
     ethr =  1.29E-13,  avg # of iterations =  6.0

     total cpu time spent up to now is      747.0 secs

     total energy              =   -5828.97653801 Ry
     estimated scf accuracy    <          1.7E-09 Ry

     total magnetization       =     2.00 Bohr mag/cell
     absolute magnetization    =     2.27 Bohr mag/cell

     iteration # 29     ecut=    80.00 Ry     beta= 0.70
     Davidson diagonalization with overlap

---- Real-time Memory Report at c_bands before calling an iterative solver
           668 MiB given to the printing process from OS
             0 MiB allocation reported by mallinfo(arena+hblkhd)
        159231 MiB available memory on the node where the printing process lives
------------------
     c_bands:  2 eigenvalues not converged
     ethr =  1.00E-13,  avg # of iterations = 16.5

     total cpu time spent up to now is      768.0 secs

     total energy              =   -5828.97653801 Ry
     estimated scf accuracy    <          2.3E-10 Ry

     total magnetization       =     2.00 Bohr mag/cell
     absolute magnetization    =     2.27 Bohr mag/cell

     iteration # 30     ecut=    80.00 Ry     beta= 0.70
     Davidson diagonalization with overlap

---- Real-time Memory Report at c_bands before calling an iterative solver
           668 MiB given to the printing process from OS
             0 MiB allocation reported by mallinfo(arena+hblkhd)
        159231 MiB available memory on the node where the printing process lives
------------------
     ethr =  1.00E-13,  avg # of iterations =  4.5
 
     Magnetic moment per site  (integrated on atomic sphere of radius R)
     atom   1 (R=0.043)  charge=  1.8158  magn=  0.0000
     atom   2 (R=0.043)  charge=  1.8158  magn=  0.0000
     atom   3 (R=0.043)  charge=  1.8174  magn=  0.0002
     atom   4 (R=0.043)  charge=  1.8156  magn=  0.0000
     atom   5 (R=0.043)  charge=  1.8158  magn=  0.0000
     atom   6 (R=0.043)  charge=  1.8161  magn=  0.0000
     atom   7 (R=0.043)  charge=  1.8158  magn= -0.0000
     atom   8 (R=0.043)  charge=  1.8159  magn= -0.0000
     atom   9 (R=0.043)  charge=  1.8174  magn=  0.0002
     atom  10 (R=0.043)  charge=  1.8158  magn= -0.0000
     atom  11 (R=0.043)  charge=  1.8156  magn= -0.0000
     atom  12 (R=0.043)  charge=  1.8159  magn= -0.0000
     atom  13 (R=0.043)  charge=  1.8156  magn=  0.0000
     atom  14 (R=0.043)  charge=  1.8159  magn= -0.0000
     atom  15 (R=0.043)  charge=  1.8159  magn= -0.0000
     atom  16 (R=0.043)  charge=  1.8161  magn= -0.0000
     atom  17 (R=0.043)  charge=  1.8157  magn=  0.0000
     atom  18 (R=0.043)  charge=  1.8163  magn=  0.0000
     atom  19 (R=0.043)  charge=  1.8160  magn= -0.0000
     atom  20 (R=0.043)  charge=  1.8160  magn= -0.0000
     atom  21 (R=0.043)  charge=  1.8163  magn=  0.0000
     atom  22 (R=0.043)  charge=  1.8150  magn=  0.0003
     atom  23 (R=0.043)  charge=  1.8198  magn=  0.0027
     atom  24 (R=0.043)  charge=  1.8154  magn= -0.0001
     atom  25 (R=0.043)  charge=  1.8160  magn= -0.0000
     atom  26 (R=0.043)  charge=  1.8198  magn=  0.0027
     atom  27 (R=0.043)  charge=  1.8163  magn= -0.0008
     atom  28 (R=0.043)  charge=  1.8200  magn=  0.0020
     atom  29 (R=0.043)  charge=  1.8160  magn= -0.0000
     atom  30 (R=0.043)  charge=  1.8154  magn= -0.0001
     atom  31 (R=0.043)  charge=  1.8200  magn=  0.0020
     atom  32 (R=0.043)  charge=  1.8145  magn=  0.0001
     atom  33 (R=0.043)  charge=  1.8179  magn=  0.0002
     atom  34 (R=0.043)  charge=  1.8161  magn= -0.0000
     atom  35 (R=0.043)  charge=  1.8158  magn= -0.0000
     atom  36 (R=0.043)  charge=  1.8162  magn= -0.0000
     atom  37 (R=0.043)  charge=  1.8161  magn= -0.0000
     atom  38 (R=0.043)  charge=  1.8184  magn=  0.0041
     atom  39 (R=0.043)  charge=  1.8165  magn= -0.0009
     atom  40 (R=0.043)  charge=  1.8230  magn=  0.0005
     atom  41 (R=0.043)  charge=  1.8158  magn= -0.0000
     atom  42 (R=0.043)  charge=  1.8165  magn= -0.0009
     atom  43 (R=0.043)  charge=  1.8189  magn= -0.0005
     atom  44 (R=0.043)  charge=  1.8162  magn= -0.0000
     atom  45 (R=0.043)  charge=  1.8229  magn=  0.0005
     atom  46 (R=0.043)  charge=  1.8189  magn= -0.0005
     atom  47 (R=0.043)  charge=  1.8179  magn=  0.0008
     atom  48 (R=0.043)  charge=  1.8158  magn=  0.0000
     atom  49 (R=0.043)  charge=  1.8161  magn= -0.0000
     atom  50 (R=0.043)  charge=  1.8161  magn= -0.0000
     atom  51 (R=0.043)  charge=  1.8163  magn= -0.0000
     atom  52 (R=0.043)  charge=  1.8161  magn= -0.0000
     atom  53 (R=0.043)  charge=  1.8155  magn= -0.0001
     atom  54 (R=0.043)  charge=  1.8188  magn=  0.0035
     atom  55 (R=0.043)  charge=  1.8149  magn= -0.0000
     atom  56 (R=0.043)  charge=  1.8161  magn= -0.0000
     atom  57 (R=0.043)  charge=  1.8188  magn=  0.0035
     atom  58 (R=0.043)  charge=  1.8185  magn= -0.0008
     atom  59 (R=0.043)  charge=  1.8184  magn=  0.0007
     atom  60 (R=0.043)  charge=  1.8163  magn= -0.0000
     atom  61 (R=0.043)  charge=  1.8149  magn= -0.0000
     atom  62 (R=0.043)  charge=  1.8184  magn=  0.0007
     atom  63 (R=0.043)  charge=  1.8161  magn= -0.0000
     atom  64 (R=0.043)  charge=  1.8158  magn=  0.0000
     atom  65 (R=0.043)  charge=  1.8161  magn= -0.0000
     atom  66 (R=0.043)  charge=  1.8157  magn= -0.0000
     atom  67 (R=0.043)  charge=  1.8158  magn=  0.0000
     atom  68 (R=0.043)  charge=  1.8161  magn= -0.0000
     atom  69 (R=0.043)  charge=  1.8156  magn=  0.0000
     atom  70 (R=0.043)  charge=  1.8157  magn= -0.0000
     atom  71 (R=0.043)  charge=  1.8160  magn= -0.0000
     atom  72 (R=0.043)  charge=  1.8157  magn= -0.0000
     atom  73 (R=0.043)  charge=  1.8157  magn= -0.0000
     atom  74 (R=0.043)  charge=  1.8158  magn=  0.0000
     atom  75 (R=0.043)  charge=  1.8162  magn= -0.0000
     atom  76 (R=0.043)  charge=  1.8157  magn=  0.0000
     atom  77 (R=0.043)  charge=  1.8160  magn= -0.0000
     atom  78 (R=0.043)  charge=  1.8162  magn= -0.0000
     atom  79 (R=0.043)  charge=  1.8157  magn=  0.0000
     atom  80 (R=0.043)  charge=  1.8159  magn=  0.0001
     atom  81 (R=0.043)  charge=  1.8159  magn=  0.0000
     atom  82 (R=0.043)  charge=  1.8161  magn= -0.0000
     atom  83 (R=0.043)  charge=  1.8159  magn= -0.0000
     atom  84 (R=0.043)  charge=  1.8159  magn=  0.0000
     atom  85 (R=0.043)  charge=  1.8123  magn= -0.0002
     atom  86 (R=0.043)  charge=  1.8141  magn= -0.0007
     atom  87 (R=0.043)  charge=  1.8163  magn= -0.0001
     atom  88 (R=0.043)  charge=  1.8161  magn= -0.0000
     atom  89 (R=0.043)  charge=  1.8141  magn= -0.0007
     atom  90 (R=0.043)  charge=  1.8122  magn= -0.0002
     atom  91 (R=0.043)  charge=  1.8148  magn= -0.0000
     atom  92 (R=0.043)  charge=  1.8158  magn= -0.0000
     atom  93 (R=0.043)  charge=  1.8163  magn= -0.0001
     atom  94 (R=0.043)  charge=  1.8148  magn= -0.0000
     atom  95 (R=0.043)  charge=  1.8157  magn=  0.0000
     atom  96 (R=0.043)  charge=  1.8169  magn=  0.0007
     atom  97 (R=0.043)  charge=  1.8158  magn= -0.0001
     atom  98 (R=0.043)  charge=  1.8159  magn= -0.0000
     atom  99 (R=0.043)  charge=  1.8184  magn=  0.0002
     atom 100 (R=0.043)  charge=  1.8158  magn= -0.0001
     atom 101 (R=0.043)  charge=  1.8209  magn= -0.0053
     atom 102 (R=0.043)  charge=  1.8246  magn= -0.0037
     atom 103 (R=0.043)  charge=  1.8162  magn= -0.0001
     atom 104 (R=0.043)  charge=  1.8159  magn= -0.0000
     atom 105 (R=0.043)  charge=  1.8246  magn= -0.0037
     atom 106 (R=0.043)  charge=  1.7897  magn=  0.0003
     atom 107 (R=0.043)  charge=  1.8161  magn= -0.0000
     atom 108 (R=0.043)  charge=  1.8184  magn=  0.0002
     atom 109 (R=0.043)  charge=  1.8162  magn= -0.0001
     atom 110 (R=0.043)  charge=  1.8161  magn= -0.0000
     atom 111 (R=0.043)  charge=  1.8168  magn=  0.0002
     atom 112 (R=0.043)  charge=  1.8159  magn= -0.0000
     atom 113 (R=0.043)  charge=  1.8160  magn= -0.0001
     atom 114 (R=0.043)  charge=  1.8159  magn= -0.0000
     atom 115 (R=0.043)  charge=  1.8157  magn=  0.0000
     atom 116 (R=0.043)  charge=  1.8160  magn= -0.0001
     atom 117 (R=0.043)  charge=  1.8150  magn= -0.0015
     atom 118 (R=0.043)  charge=  1.8109  magn= -0.0005
     atom 119 (R=0.043)  charge=  1.8157  magn=  0.0000
     atom 120 (R=0.043)  charge=  1.8159  magn= -0.0000
     atom 121 (R=0.043)  charge=  1.8109  magn= -0.0005
     atom 122 (R=0.043)  charge=  1.8167  magn= -0.0004
     atom 123 (R=0.043)  charge=  1.8165  magn= -0.0000
     atom 124 (R=0.043)  charge=  1.8157  magn=  0.0000
     atom 125 (R=0.043)  charge=  1.8157  magn=  0.0000
     atom 126 (R=0.043)  charge=  1.8165  magn= -0.0000
     atom 127 (R=0.043)  charge=  1.8162  magn=  0.0000
     atom 128 (R=0.043)  charge=  1.8158  magn=  0.0000
     atom 129 (R=0.043)  charge=  1.8163  magn=  0.0000
     atom 130 (R=0.043)  charge=  1.8158  magn= -0.0000
     atom 131 (R=0.043)  charge=  1.8157  magn=  0.0000
     atom 132 (R=0.043)  charge=  1.8158  magn=  0.0000
     atom 133 (R=0.043)  charge=  1.8155  magn= -0.0000
     atom 134 (R=0.043)  charge=  1.8159  magn= -0.0000
     atom 135 (R=0.043)  charge=  1.8159  magn= -0.0000
     atom 136 (R=0.043)  charge=  1.8175  magn=  0.0004
     atom 137 (R=0.043)  charge=  1.8155  magn= -0.0000
     atom 138 (R=0.043)  charge=  1.8155  magn= -0.0000
     atom 139 (R=0.043)  charge=  1.8175  magn=  0.0003
     atom 140 (R=0.043)  charge=  1.8157  magn= -0.0000
     atom 141 (R=0.043)  charge=  1.8159  magn= -0.0001
     atom 142 (R=0.043)  charge=  1.8154  magn= -0.0000
     atom 143 (R=0.043)  charge=  1.8155  magn=  0.0000
     atom 144 (R=0.043)  charge=  1.8164  magn=  0.0000
     atom 145 (R=0.043)  charge=  1.8159  magn= -0.0000
     atom 146 (R=0.043)  charge=  1.8160  magn= -0.0000
     atom 147 (R=0.043)  charge=  1.8162  magn= -0.0000
     atom 148 (R=0.043)  charge=  1.8159  magn= -0.0000
     atom 149 (R=0.043)  charge=  1.8140  magn= -0.0006
     atom 150 (R=0.043)  charge=  1.8144  magn= -0.0007
     atom 151 (R=0.043)  charge=  1.8164  magn= -0.0001
     atom 152 (R=0.043)  charge=  1.8159  magn= -0.0001
     atom 153 (R=0.043)  charge=  1.8179  magn=  0.0018
     atom 154 (R=0.043)  charge=  1.8182  magn= -0.0006
     atom 155 (R=0.043)  charge=  1.8161  magn= -0.0001
     atom 156 (R=0.043)  charge=  1.8162  magn= -0.0001
     atom 157 (R=0.043)  charge=  1.8150  magn= -0.0008
     atom 158 (R=0.043)  charge=  1.8109  magn= -0.0003
     atom 159 (R=0.043)  charge=  1.8155  magn= -0.0000
     atom 160 (R=0.043)  charge=  1.8161  magn= -0.0000
     atom 161 (R=0.043)  charge=  1.8160  magn=  0.0000
     atom 162 (R=0.043)  charge=  1.8161  magn=  0.0000
     atom 163 (R=0.043)  charge=  1.8166  magn=  0.0000
     atom 164 (R=0.043)  charge=  1.8159  magn= -0.0001
     atom 165 (R=0.043)  charge=  1.8148  magn= -0.0015
     atom 166 (R=0.043)  charge=  1.8139  magn= -0.0004
     atom 167 (R=0.043)  charge=  1.8152  magn= -0.0000
     atom 168 (R=0.043)  charge=  1.8158  magn= -0.0001
     atom 169 (R=0.043)  charge=  1.8210  magn= -0.0087
     atom 170 (R=0.043)  charge=  1.7907  magn= -0.0008
     atom 171 (R=0.043)  charge=  1.8162  magn= -0.0000
     atom 172 (R=0.043)  charge=  1.8161  magn= -0.0000
     atom 173 (R=0.043)  charge=  1.8111  magn= -0.0000
     atom 174 (R=0.043)  charge=  1.8170  magn= -0.0004
     atom 175 (R=0.043)  charge=  1.8166  magn= -0.0000
     atom 176 (R=0.043)  charge=  1.8158  magn=  0.0000
     atom 177 (R=0.043)  charge=  1.8161  magn= -0.0000
     atom 178 (R=0.043)  charge=  1.8162  magn= -0.0000
     atom 179 (R=0.043)  charge=  1.8158  magn=  0.0000
     atom 180 (R=0.043)  charge=  1.8159  magn= -0.0000
     atom 181 (R=0.043)  charge=  1.8160  magn= -0.0001
     atom 182 (R=0.043)  charge=  1.8147  magn= -0.0000
     atom 183 (R=0.043)  charge=  1.8158  magn= -0.0000
     atom 184 (R=0.043)  charge=  1.8169  magn=  0.0006
     atom 185 (R=0.043)  charge=  1.8158  magn= -0.0001
     atom 186 (R=0.043)  charge=  1.8159  magn= -0.0000
     atom 187 (R=0.043)  charge=  1.8168  magn=  0.0002
     atom 188 (R=0.043)  charge=  1.8156  magn= -0.0000
     atom 189 (R=0.043)  charge=  1.8155  magn=  0.0000
     atom 190 (R=0.043)  charge=  1.8164  magn= -0.0000
     atom 191 (R=0.043)  charge=  1.8161  magn= -0.0000
     atom 192 (R=0.043)  charge=  1.8158  magn=  0.0000
     atom 193 (R=0.043)  charge=  1.8158  magn=  0.0000
     atom 194 (R=0.043)  charge=  1.8175  magn=  0.0004
     atom 195 (R=0.043)  charge=  1.8157  magn= -0.0000
     atom 196 (R=0.043)  charge=  1.8163  magn=  0.0000
     atom 197 (R=0.043)  charge=  1.8155  magn= -0.0000
     atom 198 (R=0.043)  charge=  1.8155  magn= -0.0000
     atom 199 (R=0.043)  charge=  1.8159  magn= -0.0001
     atom 200 (R=0.043)  charge=  1.8158  magn= -0.0000
     atom 201 (R=0.043)  charge=  1.8159  magn= -0.0000
     atom 202 (R=0.043)  charge=  1.8155  magn= -0.0000
     atom 203 (R=0.043)  charge=  1.8154  magn= -0.0000
     atom 204 (R=0.043)  charge=  1.8157  magn=  0.0000
     atom 205 (R=0.043)  charge=  1.8158  magn= -0.0000
     atom 206 (R=0.043)  charge=  1.8175  magn=  0.0003
     atom 207 (R=0.043)  charge=  1.8155  magn=  0.0000
     atom 208 (R=0.043)  charge=  1.8164  magn=  0.0000
     atom 209 (R=0.043)  charge=  1.8159  magn= -0.0000
     atom 210 (R=0.043)  charge=  1.8159  magn= -0.0001
     atom 211 (R=0.043)  charge=  1.8162  magn= -0.0001
     atom 212 (R=0.043)  charge=  1.8159  magn= -0.0000
     atom 213 (R=0.043)  charge=  1.8140  magn= -0.0006
     atom 214 (R=0.043)  charge=  1.8180  magn=  0.0018
     atom 215 (R=0.043)  charge=  1.8150  magn= -0.0008
     atom 216 (R=0.043)  charge=  1.8160  magn= -0.0000
     atom 217 (R=0.043)  charge=  1.8144  magn= -0.0007
     atom 218 (R=0.043)  charge=  1.8182  magn= -0.0006
     atom 219 (R=0.043)  charge=  1.8109  magn= -0.0003
     atom 220 (R=0.043)  charge=  1.8162  magn= -0.0000
     atom 221 (R=0.043)  charge=  1.8164  magn= -0.0001
     atom 222 (R=0.043)  charge=  1.8161  magn= -0.0001
     atom 223 (R=0.043)  charge=  1.8155  magn= -0.0000
     atom 224 (R=0.043)  charge=  1.8161  magn= -0.0000
     atom 225 (R=0.043)  charge=  1.8160  magn= -0.0001
     atom 226 (R=0.043)  charge=  1.8158  magn= -0.0001
     atom 227 (R=0.043)  charge=  1.8161  magn= -0.0000
     atom 228 (R=0.043)  charge=  1.8160  magn=  0.0000
     atom 229 (R=0.043)  charge=  1.8148  magn= -0.0015
     atom 230 (R=0.043)  charge=  1.8210  magn= -0.0087
     atom 231 (R=0.043)  charge=  1.8110  magn= -0.0000
     atom 232 (R=0.043)  charge=  1.8161  magn=  0.0000
     atom 233 (R=0.043)  charge=  1.8139  magn= -0.0004
     atom 234 (R=0.043)  charge=  1.7907  magn= -0.0008
     atom 235 (R=0.043)  charge=  1.8170  magn= -0.0004
     atom 236 (R=0.043)  charge=  1.8165  magn=  0.0000
     atom 237 (R=0.043)  charge=  1.8152  magn= -0.0000
     atom 238 (R=0.043)  charge=  1.8162  magn= -0.0000
     atom 239 (R=0.043)  charge=  1.8166  magn= -0.0000
     atom 240 (R=0.043)  charge=  1.8158  magn=  0.0000
     atom 241 (R=0.043)  charge=  1.8159  magn= -0.0000
     atom 242 (R=0.043)  charge=  1.8169  magn=  0.0006
     atom 243 (R=0.043)  charge=  1.8156  magn= -0.0000
     atom 244 (R=0.043)  charge=  1.8161  magn= -0.0000
     atom 245 (R=0.043)  charge=  1.8160  magn= -0.0001
     atom 246 (R=0.043)  charge=  1.8158  magn= -0.0001
     atom 247 (R=0.043)  charge=  1.8155  magn=  0.0000
     atom 248 (R=0.043)  charge=  1.8162  magn= -0.0000
     atom 249 (R=0.043)  charge=  1.8147  magn= -0.0000
     atom 250 (R=0.043)  charge=  1.8159  magn= -0.0000
     atom 251 (R=0.043)  charge=  1.8164  magn= -0.0000
     atom 252 (R=0.043)  charge=  1.8158  magn=  0.0000
     atom 253 (R=0.043)  charge=  1.8157  magn= -0.0000
     atom 254 (R=0.043)  charge=  1.8168  magn=  0.0002
     atom 255 (R=0.043)  charge=  1.8161  magn= -0.0000
     atom 256 (R=0.043)  charge=  1.8162  magn=  0.0000
     atom 257 (R=0.043)  charge=  1.8156  magn= -0.0000
     atom 258 (R=0.043)  charge=  1.8165  magn=  0.0001
     atom 259 (R=0.043)  charge=  1.8162  magn=  0.0000
     atom 260 (R=0.043)  charge=  1.8154  magn=  0.0000
     atom 261 (R=0.043)  charge=  1.8143  magn=  0.0001
     atom 262 (R=0.043)  charge=  1.8158  magn=  0.0008
     atom 263 (R=0.043)  charge=  1.8165  magn=  0.0001
     atom 264 (R=0.043)  charge=  1.8179  magn=  0.0010
     atom 265 (R=0.043)  charge=  1.8152  magn=  0.0003
     atom 266 (R=0.043)  charge=  1.8141  magn=  0.0001
     atom 267 (R=0.043)  charge=  1.8150  magn= -0.0000
     atom 268 (R=0.043)  charge=  1.8161  magn=  0.0003
     atom 269 (R=0.043)  charge=  1.8176  magn=  0.0009
     atom 270 (R=0.043)  charge=  1.8155  magn= -0.0000
     atom 271 (R=0.043)  charge=  1.8163  magn=  0.0000
     atom 272 (R=0.043)  charge=  1.8157  magn=  0.0000
     atom 273 (R=0.043)  charge=  1.8158  magn=  0.0002
     atom 274 (R=0.043)  charge=  1.8159  magn=  0.0001
     atom 275 (R=0.043)  charge=  1.8174  magn=  0.0001
     atom 276 (R=0.043)  charge=  1.8152  magn=  0.0000
     atom 277 (R=0.043)  charge=  1.8157  magn=  0.0052
     atom 278 (R=0.043)  charge=  1.8200  magn=  0.0105
     atom 279 (R=0.043)  charge=  1.8157  magn=  0.0001
     atom 280 (R=0.043)  charge=  1.8157  magn=  0.0011
     atom 281 (R=0.043)  charge=  1.8137  magn=  0.0024
     atom 282 (R=0.043)  charge=  1.8159  magn=  0.0002
     atom 283 (R=0.043)  charge=  1.8190  magn=  0.0008
     atom 284 (R=0.043)  charge=  1.8158  magn=  0.0008
     atom 285 (R=0.043)  charge=  1.8154  magn=  0.0001
     atom 286 (R=0.043)  charge=  1.8157  magn=  0.0000
     atom 287 (R=0.043)  charge=  1.8162  magn=  0.0001
     atom 288 (R=0.043)  charge=  1.8159  magn=  0.0001
     atom 289 (R=0.043)  charge=  1.8161  magn= -0.0000
     atom 290 (R=0.043)  charge=  1.8160  magn=  0.0000
     atom 291 (R=0.043)  charge=  1.8157  magn=  0.0015
     atom 292 (R=0.043)  charge=  1.8122  magn=  0.0242
     atom 293 (R=0.043)  charge=  1.8161  magn=  0.0002
     atom 294 (R=0.043)  charge=  1.8161  magn= -0.0000
     atom 295 (R=0.043)  charge=  1.8152  magn=  0.0001
     atom 296 (R=0.043)  charge=  1.8135  magn=  0.0057
     atom 297 (R=0.043)  charge=  1.8202  magn=  0.0065
     atom 298 (R=0.043)  charge=  1.8160  magn=  0.0001
     atom 299 (R=0.043)  charge=  1.8155  magn=  0.0000
     atom 300 (R=0.043)  charge=  1.8156  magn=  0.0001
     atom 301 (R=0.043)  charge=  1.8172  magn=  0.0008
     atom 302 (R=0.043)  charge=  1.8165  magn=  0.0001
     atom 303 (R=0.043)  charge=  1.8160  magn=  0.0001
     atom 304 (R=0.043)  charge=  1.8164  magn=  0.0002
     atom 305 (R=0.043)  charge=  1.8160  magn=  0.0000
     atom 306 (R=0.043)  charge=  1.8162  magn=  0.0000
     atom 307 (R=0.043)  charge=  1.8161  magn=  0.0002
     atom 308 (R=0.043)  charge=  1.8154  magn=  0.0001
     atom 309 (R=0.043)  charge=  1.8159  magn= -0.0000
     atom 310 (R=0.043)  charge=  1.8160  magn=  0.0000
     atom 311 (R=0.043)  charge=  1.8150  magn= -0.0000
     atom 312 (R=0.043)  charge=  1.8156  magn=  0.0002
     atom 313 (R=0.043)  charge=  1.8157  magn=  0.0001
     atom 314 (R=0.043)  charge=  1.8164  magn=  0.0001
     atom 315 (R=0.043)  charge=  1.8161  magn=  0.0000
     atom 316 (R=0.043)  charge=  1.8155  magn= -0.0000
     atom 317 (R=0.043)  charge=  1.8165  magn=  0.0001
     atom 318 (R=0.043)  charge=  1.8162  magn=  0.0001
     atom 319 (R=0.043)  charge=  1.8162  magn=  0.0000
     atom 320 (R=0.043)  charge=  1.8160  magn=  0.0000
     atom 321 (R=0.043)  charge=  1.8164  magn=  0.0001
     atom 322 (R=0.043)  charge=  1.8162  magn=  0.0001
     atom 323 (R=0.043)  charge=  1.8160  magn=  0.0000
     atom 324 (R=0.043)  charge=  1.8157  magn=  0.0000
     atom 325 (R=0.043)  charge=  1.8155  magn= -0.0000
     atom 326 (R=0.043)  charge=  1.8162  magn=  0.0001
     atom 327 (R=0.043)  charge=  1.8164  magn=  0.0001
     atom 328 (R=0.043)  charge=  1.8155  magn= -0.0000
     atom 329 (R=0.043)  charge=  1.8155  magn=  0.0000
     atom 330 (R=0.043)  charge=  1.8154  magn=  0.0000
     atom 331 (R=0.043)  charge=  1.8161  magn=  0.0001
     atom 332 (R=0.043)  charge=  1.8162  magn=  0.0001
     atom 333 (R=0.043)  charge=  1.8154  magn=  0.0000
     atom 334 (R=0.043)  charge=  1.8161  magn=  0.0000
     atom 335 (R=0.043)  charge=  1.8163  magn=  0.0000
     atom 336 (R=0.043)  charge=  1.8159  magn=  0.0000
     atom 337 (R=0.043)  charge=  1.8158  magn=  0.0001
     atom 338 (R=0.043)  charge=  1.8167  magn=  0.0001
     atom 339 (R=0.043)  charge=  1.8159  magn=  0.0000
     atom 340 (R=0.043)  charge=  1.8152  magn=  0.0006
     atom 341 (R=0.043)  charge=  1.8158  magn=  0.0115
     atom 342 (R=0.043)  charge=  1.8165  magn=  0.0010
     atom 343 (R=0.043)  charge=  1.8158  magn=  0.0001
     atom 344 (R=0.043)  charge=  1.8158  magn=  0.0115
     atom 345 (R=0.043)  charge=  1.8132  magn=  0.0048
     atom 346 (R=0.043)  charge=  1.8132  magn= -0.0000
     atom 347 (R=0.043)  charge=  1.8167  magn=  0.0001
     atom 348 (R=0.043)  charge=  1.8165  magn=  0.0010
     atom 349 (R=0.043)  charge=  1.8132  magn= -0.0000
     atom 350 (R=0.043)  charge=  1.8158  magn=  0.0000
     atom 351 (R=0.043)  charge=  1.8162  magn=  0.0003
     atom 352 (R=0.043)  charge=  1.8158  magn=  0.0001
     atom 353 (R=0.043)  charge=  1.8159  magn=  0.0002
     atom 354 (R=0.043)  charge=  1.8158  magn=  0.0000
     atom 355 (R=0.043)  charge=  1.8158  magn=  0.0001
     atom 356 (R=0.043)  charge=  1.8133  magn=  0.0236
     atom 357 (R=0.043)  charge=  1.8144  magn=  0.0062
     atom 358 (R=0.043)  charge=  1.8133  magn=  0.0000
     atom 359 (R=0.043)  charge=  1.8159  magn=  0.0002
     atom 360 (R=0.043)  charge=  1.8144  magn=  0.0062
     atom 361 (R=0.043)  charge=  1.8160  magn=  0.0007
     atom 362 (R=0.043)  charge=  1.8157  magn=  0.0000
     atom 363 (R=0.043)  charge=  1.8133  magn=  0.0000
     atom 364 (R=0.043)  charge=  1.8160  magn=  0.0007
     atom 365 (R=0.043)  charge=  1.8167  magn=  0.0007
     atom 366 (R=0.043)  charge=  1.8160  magn=  0.0001
     atom 367 (R=0.043)  charge=  1.8162  magn=  0.0001
     atom 368 (R=0.043)  charge=  1.8157  magn= -0.0000
     atom 369 (R=0.043)  charge=  1.8161  magn=  0.0000
     atom 370 (R=0.043)  charge=  1.8162  magn=  0.0001
     atom 371 (R=0.043)  charge=  1.8157  magn=  0.0016
     atom 372 (R=0.043)  charge=  1.8134  magn=  0.0000
     atom 373 (R=0.043)  charge=  1.8158  magn=  0.0000
     atom 374 (R=0.043)  charge=  1.8157  magn= -0.0000
     atom 375 (R=0.043)  charge=  1.8134  magn=  0.0000
     atom 376 (R=0.043)  charge=  1.8156  magn=  0.0011
     atom 377 (R=0.043)  charge=  1.8169  magn=  0.0006
     atom 378 (R=0.043)  charge=  1.8161  magn=  0.0000
     atom 379 (R=0.043)  charge=  1.8158  magn=  0.0000
     atom 380 (R=0.043)  charge=  1.8169  magn=  0.0006
     atom 381 (R=0.043)  charge=  1.8165  magn=  0.0003
     atom 382 (R=0.043)  charge=  1.8161  magn=  0.0000
     atom 383 (R=0.043)  charge=  1.8153  magn=  0.0000
     atom 384 (R=0.043)  charge=  1.8163  magn=  0.0001
     atom 385 (R=0.043)  charge=  1.8161  magn=  0.0001
     atom 386 (R=0.043)  charge=  1.8153  magn=  0.0000
     atom 387 (R=0.043)  charge=  1.8155  magn=  0.0001
     atom 388 (R=0.043)  charge=  1.8155  magn= -0.0000
     atom 389 (R=0.043)  charge=  1.8166  magn=  0.0001
     atom 390 (R=0.043)  charge=  1.8163  magn=  0.0001
     atom 391 (R=0.043)  charge=  1.8155  magn= -0.0000
     atom 392 (R=0.043)  charge=  1.8158  magn=  0.0000
     atom 393 (R=0.043)  charge=  1.8160  magn=  0.0000
     atom 394 (R=0.043)  charge=  1.8161  magn=  0.0001
     atom 395 (R=0.043)  charge=  1.8166  magn=  0.0001
     atom 396 (R=0.043)  charge=  1.8160  magn=  0.0000
     atom 397 (R=0.043)  charge=  1.8162  magn=  0.0000
     atom 398 (R=0.043)  charge=  1.8155  magn=  0.0000
     atom 399 (R=0.043)  charge=  1.8151  magn=  0.0000
     atom 400 (R=0.043)  charge=  1.8164  magn=  0.0009
     atom 401 (R=0.043)  charge=  1.8167  magn=  0.0001
     atom 402 (R=0.043)  charge=  1.8151  magn=  0.0000
     atom 403 (R=0.043)  charge=  1.8130  magn=  0.0046
     atom 404 (R=0.043)  charge=  1.8146  magn=  0.0120
     atom 405 (R=0.043)  charge=  1.8156  magn=  0.0001
     atom 406 (R=0.043)  charge=  1.8164  magn=  0.0009
     atom 407 (R=0.043)  charge=  1.8146  magn=  0.0120
     atom 408 (R=0.043)  charge=  1.8161  magn=  0.0002
     atom 409 (R=0.043)  charge=  1.8160  magn=  0.0000
     atom 410 (R=0.043)  charge=  1.8167  magn=  0.0001
     atom 411 (R=0.043)  charge=  1.8155  magn=  0.0001
     atom 412 (R=0.043)  charge=  1.8160  magn=  0.0000
     atom 413 (R=0.043)  charge=  1.8164  magn=  0.0000
     atom 414 (R=0.043)  charge=  1.8171  magn=  0.0020
     atom 415 (R=0.043)  charge=  1.8158  magn=  0.0011
     atom 416 (R=0.043)  charge=  1.8150  magn=  0.0001
     atom 417 (R=0.043)  charge=  1.8152  magn=  0.0000
     atom 418 (R=0.043)  charge=  1.8158  magn=  0.0011
     atom 419 (R=0.043)  charge=  1.8120  magn=  0.0032
     atom 420 (R=0.043)  charge=  1.8159  magn=  0.0002
     atom 421 (R=0.043)  charge=  1.8150  magn=  0.0001
     atom 422 (R=0.043)  charge=  1.8121  magn=  0.0032
     atom 423 (R=0.043)  charge=  1.8196  magn=  0.0067
     atom 424 (R=0.043)  charge=  1.8159  magn=  0.0001
     atom 425 (R=0.043)  charge=  1.8152  magn=  0.0000
     atom 426 (R=0.043)  charge=  1.8159  magn=  0.0002
     atom 427 (R=0.043)  charge=  1.8159  magn=  0.0001
     atom 428 (R=0.043)  charge=  1.8163  magn=  0.0001
     atom 429 (R=0.043)  charge=  1.8159  magn=  0.0005
     atom 430 (R=0.043)  charge=  1.8168  magn=  0.0019
     atom 431 (R=0.043)  charge=  1.8156  magn=  0.0000
     atom 432 (R=0.043)  charge=  1.8161  magn=  0.0000
     atom 433 (R=0.043)  charge=  1.8168  magn=  0.0019
     atom 434 (R=0.043)  charge=  1.8156  magn=  0.0013
     atom 435 (R=0.043)  charge=  1.8154  magn=  0.0001
     atom 436 (R=0.043)  charge=  1.8157  magn= -0.0000
     atom 437 (R=0.043)  charge=  1.8156  magn=  0.0000
     atom 438 (R=0.043)  charge=  1.8154  magn=  0.0001
     atom 439 (R=0.043)  charge=  1.8171  magn=  0.0008
     atom 440 (R=0.043)  charge=  1.8165  magn=  0.0001
     atom 441 (R=0.043)  charge=  1.8161  magn=  0.0000
     atom 442 (R=0.043)  charge=  1.8157  magn= -0.0000
     atom 443 (R=0.043)  charge=  1.8165  magn=  0.0001
     atom 444 (R=0.043)  charge=  1.8161  magn=  0.0001
     atom 445 (R=0.043)  charge=  1.8162  magn=  0.0000
     atom 446 (R=0.043)  charge=  1.8154  magn=  0.0000
     atom 447 (R=0.043)  charge=  1.8179  magn=  0.0010
     atom 448 (R=0.043)  charge=  1.8161  magn=  0.0003
     atom 449 (R=0.043)  charge=  1.8156  magn= -0.0000
     atom 450 (R=0.043)  charge=  1.8143  magn=  0.0001
     atom 451 (R=0.043)  charge=  1.8152  magn=  0.0003
     atom 452 (R=0.043)  charge=  1.8176  magn=  0.0009
     atom 453 (R=0.043)  charge=  1.8165  magn=  0.0001
     atom 454 (R=0.043)  charge=  1.8158  magn=  0.0008
     atom 455 (R=0.043)  charge=  1.8141  magn=  0.0001
     atom 456 (R=0.043)  charge=  1.8155  magn= -0.0000
     atom 457 (R=0.043)  charge=  1.8162  magn=  0.0000
     atom 458 (R=0.043)  charge=  1.8165  magn=  0.0001
     atom 459 (R=0.043)  charge=  1.8150  magn= -0.0000
     atom 460 (R=0.043)  charge=  1.8163  magn=  0.0000
     atom 461 (R=0.043)  charge=  1.8157  magn=  0.0000
     atom 462 (R=0.043)  charge=  1.8152  magn=  0.0000
     atom 463 (R=0.043)  charge=  1.8157  magn=  0.0011
     atom 464 (R=0.043)  charge=  1.8190  magn=  0.0008
     atom 465 (R=0.043)  charge=  1.8158  magn=  0.0002
     atom 466 (R=0.043)  charge=  1.8157  magn=  0.0052
     atom 467 (R=0.043)  charge=  1.8158  magn=  0.0008
     atom 468 (R=0.043)  charge=  1.8159  magn=  0.0001
     atom 469 (R=0.043)  charge=  1.8199  magn=  0.0105
     atom 470 (R=0.043)  charge=  1.8137  magn=  0.0024
     atom 471 (R=0.043)  charge=  1.8154  magn=  0.0001
     atom 472 (R=0.043)  charge=  1.8174  magn=  0.0001
     atom 473 (R=0.043)  charge=  1.8157  magn=  0.0001
     atom 474 (R=0.043)  charge=  1.8159  magn=  0.0002
     atom 475 (R=0.043)  charge=  1.8157  magn=  0.0000
     atom 476 (R=0.043)  charge=  1.8162  magn=  0.0001
     atom 477 (R=0.043)  charge=  1.8157  magn=  0.0015
     atom 478 (R=0.043)  charge=  1.8152  magn=  0.0001
     atom 479 (R=0.043)  charge=  1.8155  magn=  0.0000
     atom 480 (R=0.043)  charge=  1.8159  magn=  0.0001
     atom 481 (R=0.043)  charge=  1.8122  magn=  0.0242
     atom 482 (R=0.043)  charge=  1.8134  magn=  0.0057
     atom 483 (R=0.043)  charge=  1.8156  magn=  0.0001
     atom 484 (R=0.043)  charge=  1.8161  magn= -0.0000
     atom 485 (R=0.043)  charge=  1.8161  magn=  0.0002
     atom 486 (R=0.043)  charge=  1.8202  magn=  0.0065
     atom 487 (R=0.043)  charge=  1.8172  magn=  0.0008
     atom 488 (R=0.043)  charge=  1.8160  magn=  0.0000
     atom 489 (R=0.043)  charge=  1.8161  magn= -0.0000
     atom 490 (R=0.043)  charge=  1.8160  magn=  0.0001
     atom 491 (R=0.043)  charge=  1.8165  magn=  0.0001
     atom 492 (R=0.043)  charge=  1.8160  magn=  0.0001
     atom 493 (R=0.043)  charge=  1.8161  magn=  0.0002
     atom 494 (R=0.043)  charge=  1.8150  magn= -0.0000
     atom 495 (R=0.043)  charge=  1.8162  magn=  0.0000
     atom 496 (R=0.043)  charge=  1.8164  magn=  0.0002
     atom 497 (R=0.043)  charge=  1.8154  magn=  0.0001
     atom 498 (R=0.043)  charge=  1.8156  magn=  0.0002
     atom 499 (R=0.043)  charge=  1.8155  magn= -0.0000
     atom 500 (R=0.043)  charge=  1.8160  magn=  0.0000
     atom 501 (R=0.043)  charge=  1.8159  magn= -0.0000
     atom 502 (R=0.043)  charge=  1.8157  magn=  0.0001
     atom 503 (R=0.043)  charge=  1.8165  magn=  0.0001
     atom 504 (R=0.043)  charge=  1.8162  magn=  0.0000
     atom 505 (R=0.043)  charge=  1.8160  magn=  0.0000
     atom 506 (R=0.043)  charge=  1.8164  magn=  0.0001
     atom 507 (R=0.043)  charge=  1.8162  magn=  0.0001
     atom 508 (R=0.043)  charge=  1.8135  magn=  0.3319
     atom 509 (R=0.043)  charge=  1.8539  magn=  0.1403
     atom 510 (R=0.043)  charge=  1.8539  magn=  0.1404
     atom 511 (R=0.043)  charge=  2.9019  magn=  0.1177

     total cpu time spent up to now is      781.9 secs

     End of self-consistent calculation

 ------ SPIN UP ------------


          k = 0.0000 0.0000 0.0000 (118565 PWs)   bands (ev):

    -8.2055  -7.7207  -7.6405  -7.6378  -7.6183  -7.6075  -7.5642  -7.2532
    -7.0739  -7.0700  -7.0663  -7.0612  -7.0577  -7.0461  -7.0407  -7.0354
    -7.0052  -6.9857  -6.9150  -6.6324  -6.4790  -6.4710  -6.4667  -6.4605
    -6.4492  -6.4379  -6.3706  -6.0301  -5.9143  -5.9134  -5.9049  -5.9006
    -5.8820  -5.6948  -5.3906  -5.3862  -5.3839  -5.3817  -5.3791  -5.3768
    -5.3758  -5.3692  -5.3689  -5.3625  -5.3618  -5.3581  -5.3553  -5.3490
    -5.3379  -5.3375  -5.3278  -5.3204  -5.3132  -5.3063  -5.2790  -5.2599
    -5.1907  -5.0255  -4.8369  -4.8337  -4.8267  -4.8228  -4.8181  -4.8167
    -4.8157  -4.8148  -4.8128  -4.8120  -4.8092  -4.8036  -4.8028  -4.7974
    -4.7942  -4.7841  -4.7720  -4.7480  -4.7457  -4.7214  -4.7057  -4.6763
    -4.4688  -3.9315  -3.7354  -3.7326  -3.7324  -3.7303  -3.7276  -3.7207
    -3.7160  -3.7151  -3.7092  -3.7059  -3.6670  -3.5136  -3.2746  -3.2737
    -3.2715  -3.2678  -3.2668  -3.2662  -3.2617  -3.2588  -3.2560  -3.2517
    -3.2493  -3.2470  -3.2421  -3.2384  -3.2383  -3.2280  -3.2169  -3.1934
    -3.1905  -3.1774  -3.1683  -3.1588  -3.1564  -3.1470  -3.1447  -3.1399
    -3.1345  -3.1213  -3.0088  -2.8038  -2.6662  -2.6641  -2.6603  -2.6592
    -2.6574  -2.6558  -2.6556  -2.6527  -2.6469  -2.6455  -2.6426  -2.6349
    -2.6337  -2.6324  -2.6298  -2.6212  -2.6189  -2.6124  -2.5934  -2.5843
    -2.5634  -2.5533  -2.4987  -2.4483  -2.4012  -2.3981  -2.3723  -2.3018
    -2.2028  -2.1997  -2.1836  -2.1805  -2.1797  -2.1762  -2.1740  -2.1697
    -2.1671  -2.1643  -2.1628  -2.1605  -2.1597  -2.1568  -2.1543  -2.1511
    -2.1419  -2.1373  -2.1209  -2.1185  -2.0849  -2.0543  -1.8442  -1.5982
    -1.4532  -1.4503  -1.4469  -1.4468  -1.4432  -1.4389  -1.4356  -1.4334
    -1.4311  -1.4278  -1.4268  -1.4230  -1.4147  -1.4117  -1.4106  -1.3990
    -1.3958  -1.3910  -1.3869  -1.3819  -1.3666  -1.3658  -1.3464  -1.3011
    -1.2585  -1.2583  -1.2518  -1.2501  -1.2490  -1.2485  -1.2453  -1.2334
    -1.2312  -1.2293  -1.2234  -1.2161  -1.2012  -1.1925  -1.1880  -1.1848
    -1.1719  -1.1347  -1.1339  -1.1273  -1.1016  -0.9889  -0.4477  -0.0916
    -0.0905  -0.0882  -0.0670   0.2034   0.2811   0.2832   0.2998   0.3018
     0.3060   0.3079   0.3084   0.3124   0.3169   0.3306   0.3852   0.4873
     0.4948   0.4987   0.5026   0.5036   0.5319   0.7404   0.7910   0.7975
     0.8171   0.8202   0.8213   0.8225   0.8227   0.8250   0.8363   0.8386
     0.8392   0.8478   0.8500   0.8524   0.8539   0.8579   0.8610   0.8649
     0.8654   0.8676   0.8794   0.8801   0.8813   0.8860   0.8871   0.8881
     0.8920   0.8928   0.8962   0.8964   0.9015   0.9054   0.9124   0.9163
     0.9177   0.9207   0.9324   0.9329   0.9348   0.9366   0.9400   0.9432
     0.9481   0.9911   1.0468   1.0509   1.1409   1.2405   1.2878   1.2889
     1.3088   1.3156   1.3170   1.3213   1.3242   1.3306   1.3376   1.3543
     1.4257   1.5116   1.5250   1.5251   1.5466   1.5471   1.5544   1.5553
     1.5637   1.5788   1.5853   1.6069   1.6667   1.6850   1.6881   1.6907
     1.6998   1.7027   1.7035   1.7053   1.7065   1.7097   1.7124   1.7125
     1.7222   1.7242   1.7253   1.7353   1.7367   1.7401   1.7552   1.7605
     1.7624   1.8635   1.9029   1.9228   2.2110   2.4245   2.4398   2.4399
     2.4735   2.4801   2.4809   2.4833   2.4852   2.4878   2.4890   2.4903
     2.4910   2.4930   2.4943   2.4954   2.4972   2.4999   2.5013   2.5038
     2.5091   2.5556   2.5741   2.5785   2.6726   2.8157   2.8175   2.8241
     2.8382   2.8395   2.8453   2.8494   2.8501   2.8552   2.8562   2.8602
     2.8622   2.8701   2.8808   2.8826   2.8856   2.8901   2.9014   2.9082
     2.9095   2.9193   3.0170   3.0787   3.6721   3.9030   3.9045   3.9415
     3.9431   3.9445   3.9461   3.9481   3.9511   3.9524   3.9613   3.9667
     3.9671   4.0648   4.0776   4.0842   4.1279   4.1291   4.1294   4.1345
     4.1377   4.1378   4.1397   4.1409   4.1416   4.1453   4.1478   4.1494
     4.1496   4.1511   4.1570   4.1606   4.1837   4.1993   4.2033   4.2064
     4.2162   4.2252   4.2258   4.2314   4.2339   4.2365   4.2385   4.2398
     4.2409   4.2443   4.2557   4.2584   4.2624   4.2686   4.2688   4.2709
     4.2721   4.2747   4.2811   4.2886   4.2896   4.2951   4.3272   4.3489
     4.3565   4.3630   4.3659   4.3729   4.3730   4.3754   4.3775   4.3780
     4.3798   4.3828   4.3905   4.3942   4.3945   4.3965   4.4081   4.4126
     4.4178   4.4187   4.4346   4.4411   4.4412   4.4855   4.5018   4.5068
     4.5108   4.5468   4.5502   4.5736   4.5757   4.5849   4.5855   4.5870
     4.5898   4.6115   4.6429   4.6438   4.6583   4.6921   4.7125   4.7171
     4.7837   4.8318   4.9197   4.9199   4.9461   4.9482   4.9504   4.9521
     4.9535   4.9606   4.9664   5.0299   5.0694   5.0895   5.5680   5.6143
     5.6159   5.6489   5.6602   5.6615   5.6653   5.6662   5.6679   5.6980
     5.6997   5.7039   5.8709   5.8739   5.8859   5.9135   5.9167   5.9177
     5.9181   5.9208   5.9219   5.9275   5.9328   5.9391   5.9400   5.9407
     5.9489   5.9509   5.9529   5.9629   5.9696   5.9714   5.9857   5.9928
     6.0040   6.0084   6.0666   6.1735   6.1758   6.2559   6.2570   6.2603
     6.2618   6.2619   6.2663   6.2675   6.2702   6.2706   6.2722   6.2731
     6.2769   6.2799   6.2850   6.2878   6.2986   6.2991   6.3032   6.3174
     6.3310   6.3349   6.3368   6.4658   6.4671   6.4829   6.5108   6.5117
     6.5129   6.5138   6.5169   6.5175   6.5184   6.5210   6.5217   6.5228
     6.5230   6.5238   6.5238   6.5274   6.5284   6.5373   6.5386   6.5691
     6.5788   6.5816   6.5866   6.6425   6.6475   6.6502   6.6626   6.6648
     6.6680   6.6725   6.6841   6.7060   6.7076   6.7232   6.7266   6.7283
     6.7316   6.7320   6.7363   6.7372   6.7431   6.7439   6.7457   6.7462
     6.7518   6.7598   6.7737   6.7794   6.7866   6.7887   6.7951   6.8059
     6.8560   6.8621   6.8834   6.8951   6.9013   6.9281   6.9290   6.9311
     6.9356   6.9371   6.9378   6.9395   6.9405   6.9446   6.9487   6.9497
     6.9557   6.9561   6.9607   6.9622   6.9629   6.9644   6.9676   6.9719
     6.9763   6.9835   6.9911   7.0034   7.0068   7.0676   7.1079   7.1321
     7.2469   7.2536   7.2973   7.2981   7.2996   7.3008   7.3016   7.3044
     7.3053   7.3055   7.3077   7.3104   7.3117   7.3130   7.3165   7.3184
     7.3242   7.3266   7.3281   7.3464   7.3467   7.3774   7.3816   7.3838
     7.4793   7.4797   7.5196   7.5206   7.5246   7.5282   7.5398   7.5449
     7.5628   7.5822   7.5906   7.5929   7.6504   7.6742   7.6780   7.7327
     7.7343   7.7360   7.7365   7.7392   7.7403   7.7429   7.7446   7.7488
     7.7501   7.7513   7.7537   7.7543   7.7569   7.7588   7.7597   7.7605
     7.7613   7.7626   7.7668   7.7672   7.7691   7.7706   7.7718   7.7719
     7.7727   7.7743   7.7749   7.7773   7.7774   7.7802   7.7814   7.7838
     7.7852   7.7860   7.7895   7.7938   7.7944   7.7996   7.8082   7.8262
     7.8268   7.8539   7.8575   7.8692   7.8798   7.8985   7.9068   7.9137
     7.9281   7.9294   7.9405   7.9424   7.9665   8.0845   8.0995   8.1087
     8.2940   8.2956   8.3520   8.3559   8.3577   8.3588   8.3608   8.3626
     8.3647   8.3673   8.3681   8.3683   8.3690   8.3722   8.3727   8.3797
     8.3826   8.3896   8.3960   8.4000   8.4036   8.4097   8.4231   8.4248
     8.4465   8.5015   8.5236   8.5440   8.5446   8.5472   8.5488   8.5532
     8.5560   8.5576   8.5591   8.5612   8.5638   8.5650   8.5703   8.5750
     8.5798   8.5810   8.5983   8.6013   8.6030   8.6068   8.6306   8.6320
     8.6409   8.6441   8.6568   8.6609   8.6616   8.6651   8.6679   8.6713
     8.6778   8.6794   8.6911   8.6938   8.6972   8.6979   8.6999   8.7061
     8.7170   8.7179   8.7285   8.7323   8.7338   8.7393   8.7432   8.7524
     8.7606   8.7741   8.7975   8.9827   9.0263   9.0381   9.1070   9.1080
     9.1298   9.1330   9.1335   9.1349   9.1379   9.1413   9.1440   9.1672
     9.1901   9.2001   9.2028   9.2496   9.2529   9.2585   9.2615   9.2689
     9.2781   9.2875   9.2943   9.4099   9.4484   9.4657   9.6534   9.6542
     9.7059   9.7062   9.7066   9.7087   9.7121   9.7146   9.7170   9.7225
     9.7236   9.7296   9.7309   9.7322   9.7376   9.7424   9.7477   9.7536
     9.7608   9.7621   9.7738   9.7891   9.8439   9.8460   9.8599   9.9644
     9.9733   9.9859   9.9902   9.9944   9.9973  10.0007  10.0028  10.0064
    10.0156  10.0172  10.0198  10.0207  10.0262  10.0306  10.0322  10.0358
    10.0360  10.0382  10.0392  10.0398  10.0428  10.0432  10.0435  10.0443
    10.0483  10.0490  10.0497  10.0521  10.0617  10.0621  10.0680  10.1410
    10.1447  10.1550  10.1907  10.1948  10.1968  10.1973  10.1995  10.1999
    10.2006  10.2019  10.2020  10.2043  10.2061  10.2076  10.2668  10.2791
    10.2800  10.3054  10.3058  10.3076  10.3103  10.3158  10.3165  10.3171
    10.3178  10.3206  10.3208  10.3216  10.3233  10.3249  10.3254  10.3258
    10.3287  10.3288  10.3313  10.3315  10.3326  10.3369  10.3407  10.3449
    10.3481  10.3505  10.3508  10.3512  10.3573  10.3614  10.3636  10.3692
    10.3778  10.3825  10.3898  10.4080  10.4136  10.4250  10.4310  10.4359
    10.4491  10.4524  10.4683  10.4894  10.4918  10.5059  10.5151  10.5644
    10.5958  10.6127  10.7302  11.1269  11.2939  11.3275  11.4463  11.4571
    11.4661  11.4783  11.4792  11.4864  11.4875  11.4887  11.4899  11.4911
    11.4914  11.4948  11.5006  11.5016  11.5038  11.5057  11.5145  11.5196
    11.5266  11.5379  11.5417  11.5447  11.5503  11.5793  11.5797  11.5902
    11.8761  11.8776  11.8863  11.9202  11.9210  12.0767  12.3161  12.3440
    12.3673  12.4549  12.4620  12.4670  12.4755  12.4902  12.4913  12.5122
    12.5294  12.5483  13.1363  13.1883  13.1886  13.7570  15.1390  15.7451
    17.4002  17.4036  17.4044  17.4180  17.4208  17.4301  17.7106  17.7133

     occupation numbers 
     1.0000   1.0000   1.0000   1.0000   1.0000   1.0000   1.0000   1.0000
     1.0000   1.0000   1.0000   1.0000   1.0000   1.0000   1.0000   1.0000
     1.0000   1.0000   1.0000   1.0000   1.0000   1.0000   1.0000   1.0000
     1.0000   1.0000   1.0000   1.0000   1.0000   1.0000   1.0000   1.0000
     1.0000   1.0000   1.0000   1.0000   1.0000   1.0000   1.0000   1.0000
     1.0000   1.0000   1.0000   1.0000   1.0000   1.0000   1.0000   1.0000
     1.0000   1.0000   1.0000   1.0000   1.0000   1.0000   1.0000   1.0000
     1.0000   1.0000   1.0000   1.0000   1.0000   1.0000   1.0000   1.0000
     1.0000   1.0000   1.0000   1.0000   1.0000   1.0000   1.0000   1.0000
     1.0000   1.0000   1.0000   1.0000   1.0000   1.0000   1.0000   1.0000
     1.0000   1.0000   1.0000   1.0000   1.0000   1.0000   1.0000   1.0000
     1.0000   1.0000   1.0000   1.0000   1.0000   1.0000   1.0000   1.0000
     1.0000   1.0000   1.0000   1.0000   1.0000   1.0000   1.0000   1.0000
     1.0000   1.0000   1.0000   1.0000   1.0000   1.0000   1.0000   1.0000
     1.0000   1.0000   1.0000   1.0000   1.0000   1.0000   1.0000   1.0000
     1.0000   1.0000   1.0000   1.0000   1.0000   1.0000   1.0000   1.0000
     1.0000   1.0000   1.0000   1.0000   1.0000   1.0000   1.0000   1.0000
     1.0000   1.0000   1.0000   1.0000   1.0000   1.0000   1.0000   1.0000
     1.0000   1.0000   1.0000   1.0000   1.0000   1.0000   1.0000   1.0000
     1.0000   1.0000   1.0000   1.0000   1.0000   1.0000   1.0000   1.0000
     1.0000   1.0000   1.0000   1.0000   1.0000   1.0000   1.0000   1.0000
     1.0000   1.0000   1.0000   1.0000   1.0000   1.0000   1.0000   1.0000
     1.0000   1.0000   1.0000   1.0000   1.0000   1.0000   1.0000   1.0000
     1.0000   1.0000   1.0000   1.0000   1.0000   1.0000   1.0000   1.0000
     1.0000   1.0000   1.0000   1.0000   1.0000   1.0000   1.0000   1.0000
     1.0000   1.0000   1.0000   1.0000   1.0000   1.0000   1.0000   1.0000
     1.0000   1.0000   1.0000   1.0000   1.0000   1.0000   1.0000   1.0000
     1.0000   1.0000   1.0000   1.0000   1.0000   1.0000   1.0000   1.0000
     1.0000   1.0000   1.0000   1.0000   1.0000   1.0000   1.0000   1.0000
     1.0000   1.0000   1.0000   1.0000   1.0000   1.0000   1.0000   1.0000
     1.0000   1.0000   1.0000   1.0000   1.0000   1.0000   1.0000   1.0000
     1.0000   1.0000   1.0000   1.0000   1.0000   1.0000   1.0000   1.0000
     1.0000   1.0000   1.0000   1.0000   1.0000   1.0000   1.0000   1.0000
     1.0000   1.0000   1.0000   1.0000   1.0000   1.0000   1.0000   1.0000
     1.0000   1.0000   1.0000   1.0000   1.0000   1.0000   1.0000   1.0000
     1.0000   1.0000   1.0000   1.0000   1.0000   1.0000   1.0000   1.0000
     1.0000   1.0000   1.0000   1.0000   1.0000   1.0000   1.0000   1.0000
     1.0000   1.0000   1.0000   1.0000   1.0000   1.0000   1.0000   1.0000
     1.0000   1.0000   1.0000   1.0000   1.0000   1.0000   1.0000   1.0000
     1.0000   1.0000   1.0000   1.0000   1.0000   1.0000   1.0000   1.0000
     1.0000   1.0000   1.0000   1.0000   1.0000   1.0000   1.0000   1.0000
     1.0000   1.0000   1.0000   1.0000   1.0000   1.0000   1.0000   1.0000
     1.0000   1.0000   1.0000   1.0000   1.0000   1.0000   1.0000   1.0000
     1.0000   1.0000   1.0000   1.0000   1.0000   1.0000   1.0000   1.0000
     1.0000   1.0000   1.0000   1.0000   1.0000   1.0000   1.0000   1.0000
     1.0000   1.0000   1.0000   1.0000   1.0000   1.0000   1.0000   1.0000
     1.0000   1.0000   1.0000   1.0000   1.0000   1.0000   1.0000   1.0000
     1.0000   1.0000   1.0000   1.0000   1.0000   1.0000   1.0000   1.0000
     1.0000   1.0000   1.0000   1.0000   1.0000   1.0000   1.0000   1.0000
     1.0000   1.0000   1.0000   1.0000   1.0000   1.0000   1.0000   1.0000
     1.0000   1.0000   1.0000   1.0000   1.0000   1.0000   1.0000   1.0000
     1.0000   1.0000   1.0000   1.0000   1.0000   1.0000   1.0000   1.0000
     1.0000   1.0000   1.0000   1.0000   1.0000   1.0000   1.0000   1.0000
     1.0000   1.0000   1.0000   1.0000   1.0000   1.0000   1.0000   1.0000
     1.0000   1.0000   1.0000   1.0000   1.0000   1.0000   1.0000   1.0000
     1.0000   1.0000   1.0000   1.0000   1.0000   1.0000   1.0000   1.0000
     1.0000   1.0000   1.0000   1.0000   1.0000   1.0000   1.0000   1.0000
     1.0000   1.0000   1.0000   1.0000   1.0000   1.0000   1.0000   1.0000
     1.0000   1.0000   1.0000   1.0000   1.0000   1.0000   1.0000   1.0000
     1.0000   1.0000   1.0000   1.0000   1.0000   1.0000   1.0000   1.0000
     1.0000   1.0000   1.0000   1.0000   1.0000   1.0000   1.0000   1.0000
     1.0000   1.0000   1.0000   1.0000   1.0000   1.0000   1.0000   1.0000
     1.0000   1.0000   1.0000   1.0000   1.0000   1.0000   1.0000   1.0000
     1.0000   1.0000   1.0000   1.0000   1.0000   1.0000   1.0000   1.0000
     1.0000   1.0000   1.0000   1.0000   1.0000   1.0000   1.0000   1.0000
     1.0000   1.0000   1.0000   1.0000   1.0000   1.0000   1.0000   1.0000
     1.0000   1.0000   1.0000   1.0000   1.0000   1.0000   1.0000   1.0000
     1.0000   1.0000   1.0000   1.0000   1.0000   1.0000   1.0000   1.0000
     1.0000   1.0000   1.0000   1.0000   1.0000   1.0000   1.0000   1.0000
     1.0000   1.0000   1.0000   1.0000   1.0000   1.0000   1.0000   1.0000
     1.0000   1.0000   1.0000   1.0000   1.0000   1.0000   1.0000   1.0000
     1.0000   1.0000   1.0000   1.0000   1.0000   1.0000   1.0000   1.0000
     1.0000   1.0000   1.0000   1.0000   1.0000   1.0000   1.0000   1.0000
     1.0000   1.0000   1.0000   1.0000   1.0000   1.0000   1.0000   1.0000
     1.0000   1.0000   1.0000   1.0000   1.0000   1.0000   1.0000   1.0000
     1.0000   1.0000   1.0000   1.0000   1.0000   1.0000   1.0000   1.0000
     1.0000   1.0000   1.0000   1.0000   1.0000   1.0000   1.0000   1.0000
     1.0000   1.0000   1.0000   1.0000   1.0000   1.0000   1.0000   1.0000
     1.0000   1.0000   1.0000   1.0000   1.0000   1.0000   1.0000   1.0000
     1.0000   1.0000   1.0000   1.0000   1.0000   1.0000   1.0000   1.0000
     1.0000   1.0000   1.0000   1.0000   1.0000   1.0000   1.0000   1.0000
     1.0000   1.0000   1.0000   1.0000   1.0000   1.0000   1.0000   1.0000
     1.0000   1.0000   1.0000   1.0000   1.0000   1.0000   1.0000   1.0000
     1.0000   1.0000   1.0000   1.0000   1.0000   1.0000   1.0000   1.0000
     1.0000   1.0000   1.0000   1.0000   1.0000   1.0000   1.0000   1.0000
     1.0000   1.0000   1.0000   1.0000   1.0000   1.0000   1.0000   1.0000
     1.0000   1.0000   1.0000   1.0000   1.0000   1.0000   1.0000   1.0000
     1.0000   1.0000   1.0000   1.0000   1.0000   1.0000   1.0000   1.0000
     1.0000   1.0000   1.0000   1.0000   1.0000   1.0000   1.0000   1.0000
     1.0000   1.0000   1.0000   1.0000   1.0000   1.0000   1.0000   1.0000
     1.0000   1.0000   1.0000   1.0000   1.0000   1.0000   1.0000   1.0000
     1.0000   1.0000   1.0000   1.0000   1.0000   1.0000   1.0000   1.0000
     1.0000   1.0000   1.0000   1.0000   1.0000   1.0000   1.0000   1.0000
     1.0000   1.0000   1.0000   1.0000   1.0000   1.0000   1.0000   1.0000
     1.0000   1.0000   1.0000   1.0000   1.0000   1.0000   1.0000   1.0000
     1.0000   1.0000   1.0000   1.0000   1.0000   1.0000   1.0000   1.0000
     1.0000   1.0000   1.0000   1.0000   1.0000   1.0000   1.0000   1.0000
     1.0000   1.0000   1.0000   1.0000   1.0000   1.0000   1.0000   1.0000
     1.0000   1.0000   1.0000   1.0000   1.0000   1.0000   1.0000   1.0000
     1.0000   1.0000   1.0000   1.0000   1.0000   1.0000   1.0000   1.0000
     1.0000   1.0000   1.0000   1.0000   1.0000   1.0000   1.0000   1.0000
     1.0000   1.0000   1.0000   1.0000   1.0000   1.0000   1.0000   1.0000
     1.0000   1.0000   1.0000   1.0000   1.0000   1.0000   1.0000   1.0000
     1.0000   1.0000   1.0000   1.0000   1.0000   1.0000   1.0000   1.0000
     1.0000   1.0000   1.0000   1.0000   1.0000   1.0000   1.0000   1.0000
     1.0000   1.0000   1.0000   1.0000   1.0000   1.0000   1.0000   1.0000
     1.0000   1.0000   1.0000   1.0000   1.0000   1.0000   1.0000   1.0000
     1.0000   1.0000   1.0000   1.0000   1.0000   1.0000   1.0000   1.0000
     1.0000   1.0000   1.0000   1.0000   1.0000   1.0000   1.0000   1.0000
     1.0000   1.0000   1.0000   1.0000   1.0000   1.0000   1.0000   1.0000
     1.0000   1.0000   1.0000   1.0000   1.0000   1.0000   1.0000   1.0000
     1.0000   1.0000   1.0000   1.0000   1.0000   1.0000   1.0000   1.0000
     1.0000   1.0000   1.0000   1.0000   1.0000   1.0000   1.0000   1.0000
     1.0000   1.0000   1.0000   1.0000   1.0000   1.0000   1.0000   1.0000
     1.0000   1.0000   1.0000   1.0000   1.0000   1.0000   1.0000   1.0000
     1.0000   1.0000   1.0000   1.0000   1.0000   1.0000   1.0000   1.0000
     1.0000   1.0000   1.0000   1.0000   1.0000   1.0000   1.0000   1.0000
     1.0000   1.0000   1.0000   1.0000   1.0000   1.0000   1.0000   1.0000
     1.0000   1.0000   1.0000   1.0000   1.0000   1.0000   1.0000   1.0000
     1.0000   1.0000   1.0000   1.0000   1.0000   1.0000   1.0000   1.0000
     1.0000   1.0000   1.0000   1.0000   1.0000   1.0000   1.0000   1.0000
     1.0000   1.0000   1.0000   1.0000   1.0000   1.0000   1.0000   1.0000
     1.0000   1.0000   1.0000   1.0000   1.0000   1.0000   1.0000   1.0000
     1.0000   1.0000   1.0000   1.0000   1.0000   1.0000   1.0000   1.0000
     1.0000   1.0000   1.0000   1.0000   1.0000   1.0000   1.0000   1.0000
     1.0000   1.0000   1.0000   1.0000   1.0000   1.0000   1.0000   1.0000
     1.0000   1.0000   1.0000   1.0000   1.0000   1.0000   1.0000   1.0000
     1.0000   1.0000   1.0000   1.0000   1.0000   1.0000   1.0000   1.0000
     0.0000   0.0000   0.0000   0.0000   0.0000   0.0000   0.0000   0.0000

 ------ SPIN DOWN ----------


          k = 0.0000 0.0000 0.0000 (118565 PWs)   bands (ev):

    -8.2025  -7.7054  -7.6397  -7.6373  -7.6155  -7.6065  -7.5579  -7.2313
    -7.0732  -7.0695  -7.0651  -7.0604  -7.0572  -7.0432  -7.0390  -7.0346
    -6.9989  -6.9825  -6.9051  -6.6199  -6.4769  -6.4690  -6.4643  -6.4560
    -6.4450  -6.4348  -6.3605  -6.0160  -5.9126  -5.9115  -5.9010  -5.8989
    -5.8787  -5.6749  -5.3893  -5.3857  -5.3834  -5.3801  -5.3786  -5.3762
    -5.3749  -5.3688  -5.3676  -5.3614  -5.3614  -5.3572  -5.3533  -5.3484
    -5.3348  -5.3337  -5.3219  -5.3187  -5.3104  -5.3040  -5.2672  -5.2531
    -5.1826  -5.0170  -4.8350  -4.8325  -4.8251  -4.8208  -4.8169  -4.8157
    -4.8146  -4.8142  -4.8111  -4.8108  -4.8085  -4.8015  -4.8002  -4.7930
    -4.7924  -4.7821  -4.7660  -4.7410  -4.7371  -4.7161  -4.6901  -4.6632
    -4.4429  -3.9128  -3.7332  -3.7308  -3.7304  -3.7287  -3.7207  -3.7187
    -3.7144  -3.7120  -3.7054  -3.7035  -3.6615  -3.5009  -3.2718  -3.2716
    -3.2700  -3.2662  -3.2656  -3.2652  -3.2596  -3.2583  -3.2552  -3.2478
    -3.2477  -3.2451  -3.2406  -3.2360  -3.2342  -3.2257  -3.2127  -3.1885
    -3.1872  -3.1726  -3.1573  -3.1564  -3.1542  -3.1446  -3.1404  -3.1378
    -3.1273  -3.1133  -2.9971  -2.7910  -2.6638  -2.6627  -2.6596  -2.6585
    -2.6567  -2.6552  -2.6537  -2.6518  -2.6457  -2.6438  -2.6419  -2.6320
    -2.6318  -2.6289  -2.6285  -2.6195  -2.6168  -2.6099  -2.5886  -2.5807
    -2.5506  -2.5473  -2.4944  -2.4451  -2.3950  -2.3946  -2.3664  -2.2959
    -2.2004  -2.1968  -2.1787  -2.1771  -2.1763  -2.1741  -2.1725  -2.1675
    -2.1651  -2.1623  -2.1605  -2.1580  -2.1571  -2.1548  -2.1533  -2.1469
    -2.1391  -2.1289  -2.1165  -2.1153  -2.0595  -2.0394  -1.8278  -1.5876
    -1.4520  -1.4488  -1.4464  -1.4456  -1.4422  -1.4384  -1.4343  -1.4319
    -1.4305  -1.4264  -1.4258  -1.4225  -1.4132  -1.4102  -1.4041  -1.3967
    -1.3927  -1.3887  -1.3832  -1.3808  -1.3638  -1.3580  -1.3431  -1.2969
    -1.2569  -1.2552  -1.2512  -1.2488  -1.2482  -1.2464  -1.2438  -1.2312
    -1.2290  -1.2274  -1.2194  -1.2128  -1.1976  -1.1875  -1.1836  -1.1806
    -1.1662  -1.1279  -1.1269  -1.1213  -1.0396  -0.9529  -0.3838  -0.0897
    -0.0879  -0.0853  -0.0620   0.2136   0.2835   0.2859   0.3028   0.3042
     0.3079   0.3099   0.3108   0.3145   0.3291   0.3367   0.3960   0.4899
     0.4961   0.5002   0.5050   0.5064   0.5367   0.7571   0.7945   0.8016
     0.8177   0.8212   0.8220   0.8231   0.8233   0.8256   0.8383   0.8408
     0.8421   0.8498   0.8522   0.8533   0.8575   0.8595   0.8638   0.8664
     0.8667   0.8695   0.8803   0.8810   0.8818   0.8875   0.8886   0.8891
     0.8931   0.8962   0.8970   0.8976   0.9022   0.9062   0.9174   0.9226
     0.9245   0.9250   0.9353   0.9367   0.9392   0.9395   0.9438   0.9509
     0.9531   0.9977   1.0582   1.0607   1.1488   1.2475   1.2901   1.2909
     1.3121   1.3188   1.3201   1.3246   1.3260   1.3322   1.3539   1.3621
     1.4324   1.5166   1.5275   1.5281   1.5487   1.5495   1.5569   1.5593
     1.5683   1.5822   1.6024   1.6173   1.6718   1.6881   1.6897   1.6922
     1.7019   1.7048   1.7052   1.7061   1.7082   1.7111   1.7131   1.7154
     1.7252   1.7271   1.7289   1.7367   1.7387   1.7445   1.7650   1.7668
     1.7720   1.8738   1.9274   1.9376   2.2323   2.4300   2.4431   2.4433
     2.4821   2.4832   2.4843   2.4861   2.4882   2.4902   2.4909   2.4924
     2.4931   2.4950   2.4976   2.4987   2.5003   2.5016   2.5035   2.5093
     2.5127   2.5619   2.5855   2.5873   2.6824   2.8182   2.8205   2.8347
     2.8391   2.8407   2.8472   2.8501   2.8507   2.8576   2.8579   2.8641
     2.8686   2.8719   2.8842   2.8855   2.8896   2.8936   2.9054   2.9113
     2.9135   2.9225   3.0666   3.1078   3.7243   3.9074   3.9094   3.9435
     3.9455   3.9460   3.9474   3.9494   3.9534   3.9539   3.9638   3.9690
     3.9701   4.0770   4.0838   4.0895   4.1292   4.1299   4.1306   4.1376
     4.1391   4.1399   4.1411   4.1420   4.1435   4.1462   4.1486   4.1502
     4.1505   4.1554   4.1600   4.1627   4.1909   4.2016   4.2046   4.2084
     4.2191   4.2283   4.2333   4.2336   4.2376   4.2391   4.2406   4.2425
     4.2454   4.2457   4.2594   4.2638   4.2655   4.2704   4.2733   4.2737
     4.2757   4.2765   4.2840   4.2907   4.2932   4.2980   4.3430   4.3563
     4.3590   4.3648   4.3689   4.3739   4.3739   4.3768   4.3792   4.3793
     4.3826   4.3839   4.3917   4.3958   4.3973   4.4011   4.4115   4.4154
     4.4202   4.4209   4.4362   4.4451   4.4460   4.4910   4.5105   4.5128
     4.5172   4.5511   4.5538   4.5773   4.5808   4.5872   4.5892   4.5931
     4.5938   4.6215   4.6472   4.6501   4.6618   4.7004   4.7159   4.7203
     4.8208   4.8534   4.9227   4.9231   4.9484   4.9513   4.9535   4.9538
     4.9557   4.9661   4.9702   5.0389   5.0980   5.1094   5.5951   5.6204
     5.6209   5.6530   5.6616   5.6632   5.6672   5.6694   5.6718   5.7032
     5.7035   5.7081   5.8766   5.8802   5.9019   5.9158   5.9184   5.9186
     5.9199   5.9217   5.9227   5.9284   5.9344   5.9412   5.9414   5.9424
     5.9503   5.9528   5.9555   5.9660   5.9742   5.9754   5.9880   5.9988
     6.0117   6.0122   6.1046   6.1796   6.1809   6.2588   6.2607   6.2627
     6.2649   6.2653   6.2677   6.2696   6.2714   6.2724   6.2745   6.2752
     6.2802   6.2815   6.2891   6.2912   6.3027   6.3046   6.3067   6.3289
     6.3361   6.3420   6.3468   6.4698   6.4721   6.4867   6.5133   6.5148
     6.5158   6.5161   6.5186   6.5195   6.5202   6.5228   6.5229   6.5241
     6.5260   6.5268   6.5271   6.5304   6.5317   6.5422   6.5425   6.5750
     6.5859   6.5869   6.5958   6.6485   6.6522   6.6546   6.6638   6.6657
     6.6691   6.6745   6.6867   6.7104   6.7106   6.7236   6.7277   6.7288
     6.7324   6.7363   6.7382   6.7393   6.7445   6.7453   6.7468   6.7477
     6.7536   6.7652   6.7772   6.7824   6.7932   6.7958   6.7980   6.8210
     6.8638   6.8673   6.8884   6.8991   6.9077   6.9294   6.9304   6.9324
     6.9368   6.9400   6.9408   6.9422   6.9424   6.9479   6.9513   6.9543
     6.9575   6.9601   6.9645   6.9649   6.9660   6.9664   6.9734   6.9740
     6.9794   6.9873   6.9949   7.0186   7.0195   7.0820   7.1283   7.1447
     7.2518   7.2574   7.2983   7.2999   7.3017   7.3019   7.3042   7.3064
     7.3069   7.3070   7.3090   7.3112   7.3137   7.3151   7.3194   7.3196
     7.3275   7.3299   7.3303   7.3515   7.3516   7.3824   7.3858   7.3914
     7.4839   7.4851   7.5232   7.5250   7.5274   7.5303   7.5457   7.5487
     7.5673   7.5894   7.5955   7.6004   7.6751   7.6783   7.6825   7.7339
     7.7359   7.7377   7.7378   7.7415   7.7415   7.7440   7.7489   7.7507
     7.7515   7.7538   7.7555   7.7583   7.7595   7.7599   7.7623   7.7627
     7.7629   7.7641   7.7683   7.7686   7.7720   7.7722   7.7735   7.7739
     7.7744   7.7758   7.7770   7.7788   7.7813   7.7816   7.7854   7.7861
     7.7876   7.7877   7.7917   7.7955   7.7971   7.8050   7.8171   7.8350
     7.8351   7.8564   7.8605   7.8760   7.8863   7.9045   7.9109   7.9201
     7.9304   7.9365   7.9454   7.9520   7.9724   8.0995   8.1203   8.1207
     8.2980   8.3003   8.3545   8.3581   8.3592   8.3613   8.3638   8.3649
     8.3661   8.3687   8.3694   8.3704   8.3718   8.3738   8.3760   8.3820
     8.3854   8.3915   8.4012   8.4020   8.4138   8.4243   8.4274   8.4311
     8.4775   8.5053   8.5273   8.5463   8.5466   8.5500   8.5510   8.5563
     8.5580   8.5593   8.5603   8.5631   8.5661   8.5675   8.5737   8.5781
     8.5840   8.5841   8.6007   8.6058   8.6073   8.6105   8.6359   8.6380
     8.6438   8.6490   8.6589   8.6627   8.6632   8.6691   8.6711   8.6761
     8.6816   8.6851   8.6936   8.6962   8.7021   8.7032   8.7047   8.7124
     8.7250   8.7254   8.7353   8.7384   8.7385   8.7457   8.7475   8.7626
     8.7693   8.7860   8.8096   9.0027   9.0485   9.0493   9.1126   9.1128
     9.1351   9.1359   9.1370   9.1370   9.1414   9.1460   9.1463   9.1847
     9.2043   9.2100   9.2131   9.2530   9.2559   9.2605   9.2622   9.2717
     9.2850   9.2923   9.3033   9.4304   9.4750   9.4798   9.6593   9.6605
     9.7068   9.7079   9.7094   9.7139   9.7150   9.7155   9.7182   9.7246
     9.7334   9.7344   9.7349   9.7381   9.7403   9.7459   9.7498   9.7555
     9.7700   9.7701   9.7797   9.8260   9.8537   9.8551   9.8854   9.9708
     9.9774   9.9893   9.9929   9.9962   9.9987  10.0033  10.0040  10.0127
    10.0170  10.0179  10.0216  10.0242  10.0291  10.0338  10.0342  10.0378
    10.0386  10.0401  10.0417  10.0420  10.0447  10.0454  10.0454  10.0467
    10.0507  10.0508  10.0511  10.0535  10.0684  10.0712  10.0757  10.1485
    10.1492  10.1624  10.1923  10.1960  10.1976  10.1981  10.2004  10.2005
    10.2014  10.2025  10.2028  10.2052  10.2080  10.2092  10.2730  10.2832
    10.2984  10.3060  10.3070  10.3088  10.3110  10.3175  10.3177  10.3182
    10.3185  10.3219  10.3222  10.3227  10.3247  10.3256  10.3266  10.3282
    10.3307  10.3309  10.3331  10.3331  10.3335  10.3384  10.3422  10.3470
    10.3498  10.3518  10.3528  10.3536  10.3607  10.3636  10.3693  10.3733
    10.3819  10.3922  10.3989  10.4141  10.4224  10.4279  10.4337  10.4381
    10.4526  10.4568  10.4786  10.4997  10.4997  10.5132  10.5314  10.5762
    10.6150  10.6436  10.7531  11.2110  11.3437  11.3451  11.4560  11.4602
    11.4792  11.4802  11.4878  11.4889  11.4898  11.4908  11.4933  11.4947
    11.4963  11.4980  11.5032  11.5055  11.5074  11.5103  11.5248  11.5251
    11.5306  11.5462  11.5486  11.5557  11.5705  11.5882  11.5921  11.7250
    11.8815  11.8842  11.8966  11.9217  11.9232  12.2054  12.3595  12.3630
    12.4556  12.4646  12.4687  12.4766  12.4891  12.4944  12.5157  12.5163
    12.5364  12.5545  13.1972  13.2029  13.2136  14.8488  16.4821  16.5755
    17.4040  17.4057  17.4057  17.4218  17.4230  17.4350  17.7124  17.7156

     occupation numbers 
     1.0000   1.0000   1.0000   1.0000   1.0000   1.0000   1.0000   1.0000
     1.0000   1.0000   1.0000   1.0000   1.0000   1.0000   1.0000   1.0000
     1.0000   1.0000   1.0000   1.0000   1.0000   1.0000   1.0000   1.0000
     1.0000   1.0000   1.0000   1.0000   1.0000   1.0000   1.0000   1.0000
     1.0000   1.0000   1.0000   1.0000   1.0000   1.0000   1.0000   1.0000
     1.0000   1.0000   1.0000   1.0000   1.0000   1.0000   1.0000   1.0000
     1.0000   1.0000   1.0000   1.0000   1.0000   1.0000   1.0000   1.0000
     1.0000   1.0000   1.0000   1.0000   1.0000   1.0000   1.0000   1.0000
     1.0000   1.0000   1.0000   1.0000   1.0000   1.0000   1.0000   1.0000
     1.0000   1.0000   1.0000   1.0000   1.0000   1.0000   1.0000   1.0000
     1.0000   1.0000   1.0000   1.0000   1.0000   1.0000   1.0000   1.0000
     1.0000   1.0000   1.0000   1.0000   1.0000   1.0000   1.0000   1.0000
     1.0000   1.0000   1.0000   1.0000   1.0000   1.0000   1.0000   1.0000
     1.0000   1.0000   1.0000   1.0000   1.0000   1.0000   1.0000   1.0000
     1.0000   1.0000   1.0000   1.0000   1.0000   1.0000   1.0000   1.0000
     1.0000   1.0000   1.0000   1.0000   1.0000   1.0000   1.0000   1.0000
     1.0000   1.0000   1.0000   1.0000   1.0000   1.0000   1.0000   1.0000
     1.0000   1.0000   1.0000   1.0000   1.0000   1.0000   1.0000   1.0000
     1.0000   1.0000   1.0000   1.0000   1.0000   1.0000   1.0000   1.0000
     1.0000   1.0000   1.0000   1.0000   1.0000   1.0000   1.0000   1.0000
     1.0000   1.0000   1.0000   1.0000   1.0000   1.0000   1.0000   1.0000
     1.0000   1.0000   1.0000   1.0000   1.0000   1.0000   1.0000   1.0000
     1.0000   1.0000   1.0000   1.0000   1.0000   1.0000   1.0000   1.0000
     1.0000   1.0000   1.0000   1.0000   1.0000   1.0000   1.0000   1.0000
     1.0000   1.0000   1.0000   1.0000   1.0000   1.0000   1.0000   1.0000
     1.0000   1.0000   1.0000   1.0000   1.0000   1.0000   1.0000   1.0000
     1.0000   1.0000   1.0000   1.0000   1.0000   1.0000   1.0000   1.0000
     1.0000   1.0000   1.0000   1.0000   1.0000   1.0000   1.0000   1.0000
     1.0000   1.0000   1.0000   1.0000   1.0000   1.0000   1.0000   1.0000
     1.0000   1.0000   1.0000   1.0000   1.0000   1.0000   1.0000   1.0000
     1.0000   1.0000   1.0000   1.0000   1.0000   1.0000   1.0000   1.0000
     1.0000   1.0000   1.0000   1.0000   1.0000   1.0000   1.0000   1.0000
     1.0000   1.0000   1.0000   1.0000   1.0000   1.0000   1.0000   1.0000
     1.0000   1.0000   1.0000   1.0000   1.0000   1.0000   1.0000   1.0000
     1.0000   1.0000   1.0000   1.0000   1.0000   1.0000   1.0000   1.0000
     1.0000   1.0000   1.0000   1.0000   1.0000   1.0000   1.0000   1.0000
     1.0000   1.0000   1.0000   1.0000   1.0000   1.0000   1.0000   1.0000
     1.0000   1.0000   1.0000   1.0000   1.0000   1.0000   1.0000   1.0000
     1.0000   1.0000   1.0000   1.0000   1.0000   1.0000   1.0000   1.0000
     1.0000   1.0000   1.0000   1.0000   1.0000   1.0000   1.0000   1.0000
     1.0000   1.0000   1.0000   1.0000   1.0000   1.0000   1.0000   1.0000
     1.0000   1.0000   1.0000   1.0000   1.0000   1.0000   1.0000   1.0000
     1.0000   1.0000   1.0000   1.0000   1.0000   1.0000   1.0000   1.0000
     1.0000   1.0000   1.0000   1.0000   1.0000   1.0000   1.0000   1.0000
     1.0000   1.0000   1.0000   1.0000   1.0000   1.0000   1.0000   1.0000
     1.0000   1.0000   1.0000   1.0000   1.0000   1.0000   1.0000   1.0000
     1.0000   1.0000   1.0000   1.0000   1.0000   1.0000   1.0000   1.0000
     1.0000   1.0000   1.0000   1.0000   1.0000   1.0000   1.0000   1.0000
     1.0000   1.0000   1.0000   1.0000   1.0000   1.0000   1.0000   1.0000
     1.0000   1.0000   1.0000   1.0000   1.0000   1.0000   1.0000   1.0000
     1.0000   1.0000   1.0000   1.0000   1.0000   1.0000   1.0000   1.0000
     1.0000   1.0000   1.0000   1.0000   1.0000   1.0000   1.0000   1.0000
     1.0000   1.0000   1.0000   1.0000   1.0000   1.0000   1.0000   1.0000
     1.0000   1.0000   1.0000   1.0000   1.0000   1.0000   1.0000   1.0000
     1.0000   1.0000   1.0000   1.0000   1.0000   1.0000   1.0000   1.0000
     1.0000   1.0000   1.0000   1.0000   1.0000   1.0000   1.0000   1.0000
     1.0000   1.0000   1.0000   1.0000   1.0000   1.0000   1.0000   1.0000
     1.0000   1.0000   1.0000   1.0000   1.0000   1.0000   1.0000   1.0000
     1.0000   1.0000   1.0000   1.0000   1.0000   1.0000   1.0000   1.0000
     1.0000   1.0000   1.0000   1.0000   1.0000   1.0000   1.0000   1.0000
     1.0000   1.0000   1.0000   1.0000   1.0000   1.0000   1.0000   1.0000
     1.0000   1.0000   1.0000   1.0000   1.0000   1.0000   1.0000   1.0000
     1.0000   1.0000   1.0000   1.0000   1.0000   1.0000   1.0000   1.0000
     1.0000   1.0000   1.0000   1.0000   1.0000   1.0000   1.0000   1.0000
     1.0000   1.0000   1.0000   1.0000   1.0000   1.0000   1.0000   1.0000
     1.0000   1.0000   1.0000   1.0000   1.0000   1.0000   1.0000   1.0000
     1.0000   1.0000   1.0000   1.0000   1.0000   1.0000   1.0000   1.0000
     1.0000   1.0000   1.0000   1.0000   1.0000   1.0000   1.0000   1.0000
     1.0000   1.0000   1.0000   1.0000   1.0000   1.0000   1.0000   1.0000
     1.0000   1.0000   1.0000   1.0000   1.0000   1.0000   1.0000   1.0000
     1.0000   1.0000   1.0000   1.0000   1.0000   1.0000   1.0000   1.0000
     1.0000   1.0000   1.0000   1.0000   1.0000   1.0000   1.0000   1.0000
     1.0000   1.0000   1.0000   1.0000   1.0000   1.0000   1.0000   1.0000
     1.0000   1.0000   1.0000   1.0000   1.0000   1.0000   1.0000   1.0000
     1.0000   1.0000   1.0000   1.0000   1.0000   1.0000   1.0000   1.0000
     1.0000   1.0000   1.0000   1.0000   1.0000   1.0000   1.0000   1.0000
     1.0000   1.0000   1.0000   1.0000   1.0000   1.0000   1.0000   1.0000
     1.0000   1.0000   1.0000   1.0000   1.0000   1.0000   1.0000   1.0000
     1.0000   1.0000   1.0000   1.0000   1.0000   1.0000   1.0000   1.0000
     1.0000   1.0000   1.0000   1.0000   1.0000   1.0000   1.0000   1.0000
     1.0000   1.0000   1.0000   1.0000   1.0000   1.0000   1.0000   1.0000
     1.0000   1.0000   1.0000   1.0000   1.0000   1.0000   1.0000   1.0000
     1.0000   1.0000   1.0000   1.0000   1.0000   1.0000   1.0000   1.0000
     1.0000   1.0000   1.0000   1.0000   1.0000   1.0000   1.0000   1.0000
     1.0000   1.0000   1.0000   1.0000   1.0000   1.0000   1.0000   1.0000
     1.0000   1.0000   1.0000   1.0000   1.0000   1.0000   1.0000   1.0000
     1.0000   1.0000   1.0000   1.0000   1.0000   1.0000   1.0000   1.0000
     1.0000   1.0000   1.0000   1.0000   1.0000   1.0000   1.0000   1.0000
     1.0000   1.0000   1.0000   1.0000   1.0000   1.0000   1.0000   1.0000
     1.0000   1.0000   1.0000   1.0000   1.0000   1.0000   1.0000   1.0000
     1.0000   1.0000   1.0000   1.0000   1.0000   1.0000   1.0000   1.0000
     1.0000   1.0000   1.0000   1.0000   1.0000   1.0000   1.0000   1.0000
     1.0000   1.0000   1.0000   1.0000   1.0000   1.0000   1.0000   1.0000
     1.0000   1.0000   1.0000   1.0000   1.0000   1.0000   1.0000   1.0000
     1.0000   1.0000   1.0000   1.0000   1.0000   1.0000   1.0000   1.0000
     1.0000   1.0000   1.0000   1.0000   1.0000   1.0000   1.0000   1.0000
     1.0000   1.0000   1.0000   1.0000   1.0000   1.0000   1.0000   1.0000
     1.0000   1.0000   1.0000   1.0000   1.0000   1.0000   1.0000   1.0000
     1.0000   1.0000   1.0000   1.0000   1.0000   1.0000   1.0000   1.0000
     1.0000   1.0000   1.0000   1.0000   1.0000   1.0000   1.0000   1.0000
     1.0000   1.0000   1.0000   1.0000   1.0000   1.0000   1.0000   1.0000
     1.0000   1.0000   1.0000   1.0000   1.0000   1.0000   1.0000   1.0000
     1.0000   1.0000   1.0000   1.0000   1.0000   1.0000   1.0000   1.0000
     1.0000   1.0000   1.0000   1.0000   1.0000   1.0000   1.0000   1.0000
     1.0000   1.0000   1.0000   1.0000   1.0000   1.0000   1.0000   1.0000
     1.0000   1.0000   1.0000   1.0000   1.0000   1.0000   1.0000   1.0000
     1.0000   1.0000   1.0000   1.0000   1.0000   1.0000   1.0000   1.0000
     1.0000   1.0000   1.0000   1.0000   1.0000   1.0000   1.0000   1.0000
     1.0000   1.0000   1.0000   1.0000   1.0000   1.0000   1.0000   1.0000
     1.0000   1.0000   1.0000   1.0000   1.0000   1.0000   1.0000   1.0000
     1.0000   1.0000   1.0000   1.0000   1.0000   1.0000   1.0000   1.0000
     1.0000   1.0000   1.0000   1.0000   1.0000   1.0000   1.0000   1.0000
     1.0000   1.0000   1.0000   1.0000   1.0000   1.0000   1.0000   1.0000
     1.0000   1.0000   1.0000   1.0000   1.0000   1.0000   1.0000   1.0000
     1.0000   1.0000   1.0000   1.0000   1.0000   1.0000   1.0000   1.0000
     1.0000   1.0000   1.0000   1.0000   1.0000   1.0000   1.0000   1.0000
     1.0000   1.0000   1.0000   1.0000   1.0000   1.0000   1.0000   1.0000
     1.0000   1.0000   1.0000   1.0000   1.0000   1.0000   1.0000   1.0000
     1.0000   1.0000   1.0000   1.0000   1.0000   1.0000   1.0000   1.0000
     1.0000   1.0000   1.0000   1.0000   1.0000   1.0000   1.0000   1.0000
     1.0000   1.0000   1.0000   1.0000   1.0000   1.0000   1.0000   1.0000
     1.0000   1.0000   1.0000   1.0000   1.0000   1.0000   1.0000   1.0000
     1.0000   1.0000   1.0000   1.0000   1.0000   1.0000   1.0000   1.0000
     1.0000   1.0000   1.0000   1.0000   1.0000   1.0000   1.0000   1.0000
     1.0000   1.0000   1.0000   1.0000   1.0000   1.0000   1.0000   1.0000
     1.0000   1.0000   1.0000   1.0000   1.0000   1.0000   1.0000   1.0000
     1.0000   1.0000   1.0000   1.0000   1.0000   1.0000   1.0000   1.0000
     1.0000   1.0000   1.0000   1.0000   1.0000   0.0000   1.0000   0.0000
     0.0000   0.0000   0.0000   0.0000   0.0000   0.0000   0.0000   0.0000

     highest occupied, lowest unoccupied level (ev):    15.7451   14.8488

!    total energy              =   -5828.97653801 Ry
     estimated scf accuracy    <          1.3E-11 Ry

     The total energy is the sum of the following terms:
     one-electron contribution =    2011.86804642 Ry
     hartree contribution      =     505.24398018 Ry
     xc contribution           =   -1820.30572875 Ry
     ewald contribution        =   -6525.78283587 Ry

     total magnetization       =     2.00 Bohr mag/cell
     absolute magnetization    =     2.27 Bohr mag/cell

     convergence has been achieved in  30 iterations

 %%%%%%%%%%%%%%%%%%%%%%%%%%%%%%%%%%%%%%%%%%%%%%%%%%%%%%%%%%%%%%%%%%%%%%%%%%%%%%
     Error in routine write_rhog (2):
     error writing file ./pwscf.save/charge-density
 %%%%%%%%%%%%%%%%%%%%%%%%%%%%%%%%%%%%%%%%%%%%%%%%%%%%%%%%%%%%%%%%%%%%%%%%%%%%%%

     stopping ...

 %%%%%%%%%%%%%%%%%%%%%%%%%%%%%%%%%%%%%%%%%%%%%%%%%%%%%%%%%%%%%%%%%%%%%%%%%%%%%%
     Error in routine write_rhog (2):
     error writing file ./pwscf.save/charge-density
 %%%%%%%%%%%%%%%%%%%%%%%%%%%%%%%%%%%%%%%%%%%%%%%%%%%%%%%%%%%%%%%%%%%%%%%%%%%%%%

     stopping ...

 %%%%%%%%%%%%%%%%%%%%%%%%%%%%%%%%%%%%%%%%%%%%%%%%%%%%%%%%%%%%%%%%%%%%%%%%%%%%%%
     Error in routine write_rhog (2):
     error writing file ./pwscf.save/charge-density
 %%%%%%%%%%%%%%%%%%%%%%%%%%%%%%%%%%%%%%%%%%%%%%%%%%%%%%%%%%%%%%%%%%%%%%%%%%%%%%

     stopping ...

 %%%%%%%%%%%%%%%%%%%%%%%%%%%%%%%%%%%%%%%%%%%%%%%%%%%%%%%%%%%%%%%%%%%%%%%%%%%%%%
     Error in routine write_rhog (2):
     error writing file ./pwscf.save/charge-density
 %%%%%%%%%%%%%%%%%%%%%%%%%%%%%%%%%%%%%%%%%%%%%%%%%%%%%%%%%%%%%%%%%%%%%%%%%%%%%%

     stopping ...

 %%%%%%%%%%%%%%%%%%%%%%%%%%%%%%%%%%%%%%%%%%%%%%%%%%%%%%%%%%%%%%%%%%%%%%%%%%%%%%
     Error in routine write_rhog (2):
     error writing file ./pwscf.save/charge-density
 %%%%%%%%%%%%%%%%%%%%%%%%%%%%%%%%%%%%%%%%%%%%%%%%%%%%%%%%%%%%%%%%%%%%%%%%%%%%%%

     stopping ...

 %%%%%%%%%%%%%%%%%%%%%%%%%%%%%%%%%%%%%%%%%%%%%%%%%%%%%%%%%%%%%%%%%%%%%%%%%%%%%%
     Error in routine write_rhog (2):
     error writing file ./pwscf.save/charge-density
 %%%%%%%%%%%%%%%%%%%%%%%%%%%%%%%%%%%%%%%%%%%%%%%%%%%%%%%%%%%%%%%%%%%%%%%%%%%%%%

     stopping ...

 %%%%%%%%%%%%%%%%%%%%%%%%%%%%%%%%%%%%%%%%%%%%%%%%%%%%%%%%%%%%%%%%%%%%%%%%%%%%%%
     Error in routine write_rhog (2):
     error writing file ./pwscf.save/charge-density
 %%%%%%%%%%%%%%%%%%%%%%%%%%%%%%%%%%%%%%%%%%%%%%%%%%%%%%%%%%%%%%%%%%%%%%%%%%%%%%

     stopping ...

 %%%%%%%%%%%%%%%%%%%%%%%%%%%%%%%%%%%%%%%%%%%%%%%%%%%%%%%%%%%%%%%%%%%%%%%%%%%%%%
     Error in routine write_rhog (2):
     error writing file ./pwscf.save/charge-density
 %%%%%%%%%%%%%%%%%%%%%%%%%%%%%%%%%%%%%%%%%%%%%%%%%%%%%%%%%%%%%%%%%%%%%%%%%%%%%%

     stopping ...

 %%%%%%%%%%%%%%%%%%%%%%%%%%%%%%%%%%%%%%%%%%%%%%%%%%%%%%%%%%%%%%%%%%%%%%%%%%%%%%
     Error in routine write_rhog (2):
     error writing file ./pwscf.save/charge-density
 %%%%%%%%%%%%%%%%%%%%%%%%%%%%%%%%%%%%%%%%%%%%%%%%%%%%%%%%%%%%%%%%%%%%%%%%%%%%%%

     stopping ...

 %%%%%%%%%%%%%%%%%%%%%%%%%%%%%%%%%%%%%%%%%%%%%%%%%%%%%%%%%%%%%%%%%%%%%%%%%%%%%%
     Error in routine write_rhog (2):
     error writing file ./pwscf.save/charge-density
 %%%%%%%%%%%%%%%%%%%%%%%%%%%%%%%%%%%%%%%%%%%%%%%%%%%%%%%%%%%%%%%%%%%%%%%%%%%%%%

     stopping ...

 %%%%%%%%%%%%%%%%%%%%%%%%%%%%%%%%%%%%%%%%%%%%%%%%%%%%%%%%%%%%%%%%%%%%%%%%%%%%%%
     Error in routine write_rhog (2):
     error writing file ./pwscf.save/charge-density
 %%%%%%%%%%%%%%%%%%%%%%%%%%%%%%%%%%%%%%%%%%%%%%%%%%%%%%%%%%%%%%%%%%%%%%%%%%%%%%

     stopping ...

 %%%%%%%%%%%%%%%%%%%%%%%%%%%%%%%%%%%%%%%%%%%%%%%%%%%%%%%%%%%%%%%%%%%%%%%%%%%%%%
     Error in routine write_rhog (2):
     error writing file ./pwscf.save/charge-density
 %%%%%%%%%%%%%%%%%%%%%%%%%%%%%%%%%%%%%%%%%%%%%%%%%%%%%%%%%%%%%%%%%%%%%%%%%%%%%%

     stopping ...

 %%%%%%%%%%%%%%%%%%%%%%%%%%%%%%%%%%%%%%%%%%%%%%%%%%%%%%%%%%%%%%%%%%%%%%%%%%%%%%
     Error in routine write_rhog (2):
     error writing file ./pwscf.save/charge-density
 %%%%%%%%%%%%%%%%%%%%%%%%%%%%%%%%%%%%%%%%%%%%%%%%%%%%%%%%%%%%%%%%%%%%%%%%%%%%%%

     stopping ...

 %%%%%%%%%%%%%%%%%%%%%%%%%%%%%%%%%%%%%%%%%%%%%%%%%%%%%%%%%%%%%%%%%%%%%%%%%%%%%%
     Error in routine write_rhog (2):
     error writing file ./pwscf.save/charge-density
 %%%%%%%%%%%%%%%%%%%%%%%%%%%%%%%%%%%%%%%%%%%%%%%%%%%%%%%%%%%%%%%%%%%%%%%%%%%%%%

     stopping ...

 %%%%%%%%%%%%%%%%%%%%%%%%%%%%%%%%%%%%%%%%%%%%%%%%%%%%%%%%%%%%%%%%%%%%%%%%%%%%%%
     Error in routine write_rhog (2):
     error writing file ./pwscf.save/charge-density
 %%%%%%%%%%%%%%%%%%%%%%%%%%%%%%%%%%%%%%%%%%%%%%%%%%%%%%%%%%%%%%%%%%%%%%%%%%%%%%

     stopping ...

 %%%%%%%%%%%%%%%%%%%%%%%%%%%%%%%%%%%%%%%%%%%%%%%%%%%%%%%%%%%%%%%%%%%%%%%%%%%%%%
     Error in routine write_rhog (2):
     error writing file ./pwscf.save/charge-density
 %%%%%%%%%%%%%%%%%%%%%%%%%%%%%%%%%%%%%%%%%%%%%%%%%%%%%%%%%%%%%%%%%%%%%%%%%%%%%%

     stopping ...

 %%%%%%%%%%%%%%%%%%%%%%%%%%%%%%%%%%%%%%%%%%%%%%%%%%%%%%%%%%%%%%%%%%%%%%%%%%%%%%
     Error in routine write_rhog (2):
     error writing file ./pwscf.save/charge-density
 %%%%%%%%%%%%%%%%%%%%%%%%%%%%%%%%%%%%%%%%%%%%%%%%%%%%%%%%%%%%%%%%%%%%%%%%%%%%%%

     stopping ...

 %%%%%%%%%%%%%%%%%%%%%%%%%%%%%%%%%%%%%%%%%%%%%%%%%%%%%%%%%%%%%%%%%%%%%%%%%%%%%%
     Error in routine write_rhog (2):
     error writing file ./pwscf.save/charge-density
 %%%%%%%%%%%%%%%%%%%%%%%%%%%%%%%%%%%%%%%%%%%%%%%%%%%%%%%%%%%%%%%%%%%%%%%%%%%%%%

     stopping ...

 %%%%%%%%%%%%%%%%%%%%%%%%%%%%%%%%%%%%%%%%%%%%%%%%%%%%%%%%%%%%%%%%%%%%%%%%%%%%%%
     Error in routine write_rhog (2):
     error writing file ./pwscf.save/charge-density
 %%%%%%%%%%%%%%%%%%%%%%%%%%%%%%%%%%%%%%%%%%%%%%%%%%%%%%%%%%%%%%%%%%%%%%%%%%%%%%

     stopping ...

 %%%%%%%%%%%%%%%%%%%%%%%%%%%%%%%%%%%%%%%%%%%%%%%%%%%%%%%%%%%%%%%%%%%%%%%%%%%%%%
     Error in routine write_rhog (2):
     error writing file ./pwscf.save/charge-density
 %%%%%%%%%%%%%%%%%%%%%%%%%%%%%%%%%%%%%%%%%%%%%%%%%%%%%%%%%%%%%%%%%%%%%%%%%%%%%%

     stopping ...

 %%%%%%%%%%%%%%%%%%%%%%%%%%%%%%%%%%%%%%%%%%%%%%%%%%%%%%%%%%%%%%%%%%%%%%%%%%%%%%
     Error in routine write_rhog (2):
     error writing file ./pwscf.save/charge-density
 %%%%%%%%%%%%%%%%%%%%%%%%%%%%%%%%%%%%%%%%%%%%%%%%%%%%%%%%%%%%%%%%%%%%%%%%%%%%%%

     stopping ...

 %%%%%%%%%%%%%%%%%%%%%%%%%%%%%%%%%%%%%%%%%%%%%%%%%%%%%%%%%%%%%%%%%%%%%%%%%%%%%%
     Error in routine write_rhog (2):
     error writing file ./pwscf.save/charge-density
 %%%%%%%%%%%%%%%%%%%%%%%%%%%%%%%%%%%%%%%%%%%%%%%%%%%%%%%%%%%%%%%%%%%%%%%%%%%%%%

     stopping ...

 %%%%%%%%%%%%%%%%%%%%%%%%%%%%%%%%%%%%%%%%%%%%%%%%%%%%%%%%%%%%%%%%%%%%%%%%%%%%%%
     Error in routine write_rhog (2):
     error writing file ./pwscf.save/charge-density
 %%%%%%%%%%%%%%%%%%%%%%%%%%%%%%%%%%%%%%%%%%%%%%%%%%%%%%%%%%%%%%%%%%%%%%%%%%%%%%

     stopping ...

 %%%%%%%%%%%%%%%%%%%%%%%%%%%%%%%%%%%%%%%%%%%%%%%%%%%%%%%%%%%%%%%%%%%%%%%%%%%%%%
     Error in routine write_rhog (2):
     error writing file ./pwscf.save/charge-density
 %%%%%%%%%%%%%%%%%%%%%%%%%%%%%%%%%%%%%%%%%%%%%%%%%%%%%%%%%%%%%%%%%%%%%%%%%%%%%%

     stopping ...

 %%%%%%%%%%%%%%%%%%%%%%%%%%%%%%%%%%%%%%%%%%%%%%%%%%%%%%%%%%%%%%%%%%%%%%%%%%%%%%
     Error in routine write_rhog (2):
     error writing file ./pwscf.save/charge-density
 %%%%%%%%%%%%%%%%%%%%%%%%%%%%%%%%%%%%%%%%%%%%%%%%%%%%%%%%%%%%%%%%%%%%%%%%%%%%%%

     stopping ...

 %%%%%%%%%%%%%%%%%%%%%%%%%%%%%%%%%%%%%%%%%%%%%%%%%%%%%%%%%%%%%%%%%%%%%%%%%%%%%%
     Error in routine write_rhog (2):
     error writing file ./pwscf.save/charge-density
 %%%%%%%%%%%%%%%%%%%%%%%%%%%%%%%%%%%%%%%%%%%%%%%%%%%%%%%%%%%%%%%%%%%%%%%%%%%%%%

     stopping ...

 %%%%%%%%%%%%%%%%%%%%%%%%%%%%%%%%%%%%%%%%%%%%%%%%%%%%%%%%%%%%%%%%%%%%%%%%%%%%%%
     Error in routine write_rhog (2):
     error writing file ./pwscf.save/charge-density
 %%%%%%%%%%%%%%%%%%%%%%%%%%%%%%%%%%%%%%%%%%%%%%%%%%%%%%%%%%%%%%%%%%%%%%%%%%%%%%

     stopping ...

 %%%%%%%%%%%%%%%%%%%%%%%%%%%%%%%%%%%%%%%%%%%%%%%%%%%%%%%%%%%%%%%%%%%%%%%%%%%%%%
     Error in routine write_rhog (2):
     error writing file ./pwscf.save/charge-density
 %%%%%%%%%%%%%%%%%%%%%%%%%%%%%%%%%%%%%%%%%%%%%%%%%%%%%%%%%%%%%%%%%%%%%%%%%%%%%%

     stopping ...

 %%%%%%%%%%%%%%%%%%%%%%%%%%%%%%%%%%%%%%%%%%%%%%%%%%%%%%%%%%%%%%%%%%%%%%%%%%%%%%
     Error in routine write_rhog (2):
     error writing file ./pwscf.save/charge-density
 %%%%%%%%%%%%%%%%%%%%%%%%%%%%%%%%%%%%%%%%%%%%%%%%%%%%%%%%%%%%%%%%%%%%%%%%%%%%%%

     stopping ...

 %%%%%%%%%%%%%%%%%%%%%%%%%%%%%%%%%%%%%%%%%%%%%%%%%%%%%%%%%%%%%%%%%%%%%%%%%%%%%%
     Error in routine write_rhog (2):
     error writing file ./pwscf.save/charge-density
 %%%%%%%%%%%%%%%%%%%%%%%%%%%%%%%%%%%%%%%%%%%%%%%%%%%%%%%%%%%%%%%%%%%%%%%%%%%%%%

     stopping ...

 %%%%%%%%%%%%%%%%%%%%%%%%%%%%%%%%%%%%%%%%%%%%%%%%%%%%%%%%%%%%%%%%%%%%%%%%%%%%%%
     Error in routine write_rhog (2):
     error writing file ./pwscf.save/charge-density
 %%%%%%%%%%%%%%%%%%%%%%%%%%%%%%%%%%%%%%%%%%%%%%%%%%%%%%%%%%%%%%%%%%%%%%%%%%%%%%

     stopping ...

 %%%%%%%%%%%%%%%%%%%%%%%%%%%%%%%%%%%%%%%%%%%%%%%%%%%%%%%%%%%%%%%%%%%%%%%%%%%%%%
     Error in routine write_rhog (2):
     error writing file ./pwscf.save/charge-density
 %%%%%%%%%%%%%%%%%%%%%%%%%%%%%%%%%%%%%%%%%%%%%%%%%%%%%%%%%%%%%%%%%%%%%%%%%%%%%%

     stopping ...

 %%%%%%%%%%%%%%%%%%%%%%%%%%%%%%%%%%%%%%%%%%%%%%%%%%%%%%%%%%%%%%%%%%%%%%%%%%%%%%
     Error in routine write_rhog (2):
     error writing file ./pwscf.save/charge-density
 %%%%%%%%%%%%%%%%%%%%%%%%%%%%%%%%%%%%%%%%%%%%%%%%%%%%%%%%%%%%%%%%%%%%%%%%%%%%%%

     stopping ...

 %%%%%%%%%%%%%%%%%%%%%%%%%%%%%%%%%%%%%%%%%%%%%%%%%%%%%%%%%%%%%%%%%%%%%%%%%%%%%%
     Error in routine write_rhog (2):
     error writing file ./pwscf.save/charge-density
 %%%%%%%%%%%%%%%%%%%%%%%%%%%%%%%%%%%%%%%%%%%%%%%%%%%%%%%%%%%%%%%%%%%%%%%%%%%%%%

     stopping ...

 %%%%%%%%%%%%%%%%%%%%%%%%%%%%%%%%%%%%%%%%%%%%%%%%%%%%%%%%%%%%%%%%%%%%%%%%%%%%%%
     Error in routine write_rhog (2):
     error writing file ./pwscf.save/charge-density
 %%%%%%%%%%%%%%%%%%%%%%%%%%%%%%%%%%%%%%%%%%%%%%%%%%%%%%%%%%%%%%%%%%%%%%%%%%%%%%

     stopping ...

 %%%%%%%%%%%%%%%%%%%%%%%%%%%%%%%%%%%%%%%%%%%%%%%%%%%%%%%%%%%%%%%%%%%%%%%%%%%%%%
     Error in routine write_rhog (2):
     error writing file ./pwscf.save/charge-density
 %%%%%%%%%%%%%%%%%%%%%%%%%%%%%%%%%%%%%%%%%%%%%%%%%%%%%%%%%%%%%%%%%%%%%%%%%%%%%%

     stopping ...

 %%%%%%%%%%%%%%%%%%%%%%%%%%%%%%%%%%%%%%%%%%%%%%%%%%%%%%%%%%%%%%%%%%%%%%%%%%%%%%
     Error in routine write_rhog (2):
     error writing file ./pwscf.save/charge-density
 %%%%%%%%%%%%%%%%%%%%%%%%%%%%%%%%%%%%%%%%%%%%%%%%%%%%%%%%%%%%%%%%%%%%%%%%%%%%%%

     stopping ...

 %%%%%%%%%%%%%%%%%%%%%%%%%%%%%%%%%%%%%%%%%%%%%%%%%%%%%%%%%%%%%%%%%%%%%%%%%%%%%%
     Error in routine write_rhog (2):
     error writing file ./pwscf.save/charge-density
 %%%%%%%%%%%%%%%%%%%%%%%%%%%%%%%%%%%%%%%%%%%%%%%%%%%%%%%%%%%%%%%%%%%%%%%%%%%%%%

     stopping ...

 %%%%%%%%%%%%%%%%%%%%%%%%%%%%%%%%%%%%%%%%%%%%%%%%%%%%%%%%%%%%%%%%%%%%%%%%%%%%%%
     Error in routine write_rhog (2):
     error writing file ./pwscf.save/charge-density
 %%%%%%%%%%%%%%%%%%%%%%%%%%%%%%%%%%%%%%%%%%%%%%%%%%%%%%%%%%%%%%%%%%%%%%%%%%%%%%

     stopping ...

 %%%%%%%%%%%%%%%%%%%%%%%%%%%%%%%%%%%%%%%%%%%%%%%%%%%%%%%%%%%%%%%%%%%%%%%%%%%%%%
     Error in routine write_rhog (2):
     error writing file ./pwscf.save/charge-density
 %%%%%%%%%%%%%%%%%%%%%%%%%%%%%%%%%%%%%%%%%%%%%%%%%%%%%%%%%%%%%%%%%%%%%%%%%%%%%%

     stopping ...

 %%%%%%%%%%%%%%%%%%%%%%%%%%%%%%%%%%%%%%%%%%%%%%%%%%%%%%%%%%%%%%%%%%%%%%%%%%%%%%
     Error in routine write_rhog (2):
     error writing file ./pwscf.save/charge-density
 %%%%%%%%%%%%%%%%%%%%%%%%%%%%%%%%%%%%%%%%%%%%%%%%%%%%%%%%%%%%%%%%%%%%%%%%%%%%%%

     stopping ...

 %%%%%%%%%%%%%%%%%%%%%%%%%%%%%%%%%%%%%%%%%%%%%%%%%%%%%%%%%%%%%%%%%%%%%%%%%%%%%%
     Error in routine write_rhog (2):
     error writing file ./pwscf.save/charge-density
 %%%%%%%%%%%%%%%%%%%%%%%%%%%%%%%%%%%%%%%%%%%%%%%%%%%%%%%%%%%%%%%%%%%%%%%%%%%%%%

     stopping ...

 %%%%%%%%%%%%%%%%%%%%%%%%%%%%%%%%%%%%%%%%%%%%%%%%%%%%%%%%%%%%%%%%%%%%%%%%%%%%%%
     Error in routine write_rhog (2):
     error writing file ./pwscf.save/charge-density
 %%%%%%%%%%%%%%%%%%%%%%%%%%%%%%%%%%%%%%%%%%%%%%%%%%%%%%%%%%%%%%%%%%%%%%%%%%%%%%

     stopping ...

 %%%%%%%%%%%%%%%%%%%%%%%%%%%%%%%%%%%%%%%%%%%%%%%%%%%%%%%%%%%%%%%%%%%%%%%%%%%%%%
     Error in routine write_rhog (2):
     error writing file ./pwscf.save/charge-density
 %%%%%%%%%%%%%%%%%%%%%%%%%%%%%%%%%%%%%%%%%%%%%%%%%%%%%%%%%%%%%%%%%%%%%%%%%%%%%%

     stopping ...

 %%%%%%%%%%%%%%%%%%%%%%%%%%%%%%%%%%%%%%%%%%%%%%%%%%%%%%%%%%%%%%%%%%%%%%%%%%%%%%
     Error in routine write_rhog (2):
     error writing file ./pwscf.save/charge-density
 %%%%%%%%%%%%%%%%%%%%%%%%%%%%%%%%%%%%%%%%%%%%%%%%%%%%%%%%%%%%%%%%%%%%%%%%%%%%%%

     stopping ...

 %%%%%%%%%%%%%%%%%%%%%%%%%%%%%%%%%%%%%%%%%%%%%%%%%%%%%%%%%%%%%%%%%%%%%%%%%%%%%%
     Error in routine write_rhog (2):
     error writing file ./pwscf.save/charge-density
 %%%%%%%%%%%%%%%%%%%%%%%%%%%%%%%%%%%%%%%%%%%%%%%%%%%%%%%%%%%%%%%%%%%%%%%%%%%%%%

     stopping ...

 %%%%%%%%%%%%%%%%%%%%%%%%%%%%%%%%%%%%%%%%%%%%%%%%%%%%%%%%%%%%%%%%%%%%%%%%%%%%%%
     Error in routine write_rhog (2):
     error writing file ./pwscf.save/charge-density
 %%%%%%%%%%%%%%%%%%%%%%%%%%%%%%%%%%%%%%%%%%%%%%%%%%%%%%%%%%%%%%%%%%%%%%%%%%%%%%

     stopping ...

 %%%%%%%%%%%%%%%%%%%%%%%%%%%%%%%%%%%%%%%%%%%%%%%%%%%%%%%%%%%%%%%%%%%%%%%%%%%%%%
     Error in routine write_rhog (2):
     error writing file ./pwscf.save/charge-density
 %%%%%%%%%%%%%%%%%%%%%%%%%%%%%%%%%%%%%%%%%%%%%%%%%%%%%%%%%%%%%%%%%%%%%%%%%%%%%%

     stopping ...
