&CONTROL
   calculation      = 'relax'
   verbosity        = 'high'
   wf_collect       = .true.
   nstep            = 100
   tstress          = .true.
   tprnfor          = .true.
   outdir           = './'
   !prefix           = 'pwscf'
   forc_conv_thr    = 0.00039
   !pseudo_dir       = './'
/
&SYSTEM
   ibrav            = 0
   nat              = 63
   ntyp             = 2
   nbnd             = 152
   tot_charge       = -1
   tot_magnetization = 2.0
   ecutwfc          = 60 ! can lower to 60 or 50 for test calcuulations
   nspin            = 2
   occupations = 'from_input'

/
&ELECTRONS
   conv_thr         = 1e-08
   diago_full_acc   = .true.
   scf_must_converge = .false.

/
&IONS
   ion_dynamics     = 'bfgs'
/
&CELL
/
&FCP
/
&RISM
/
ATOMIC_SPECIES
N  14.007 N_ONCV_PBE-1.2.upf
C  12.011 C_ONCV_PBE-1.2.upf

K_POINTS gamma

CELL_PARAMETERS angstrom
7.13400000000000 0.00000000000000 0.00000000000000
0.00000000000000 7.13400000000000 0.00000000000000
0.00000000000000 0.00000000000000 7.13400000000000


OCCUPATIONS
1 1 1 1 1 1 1 1 1 1
1 1 1 1 1 1 1 1 1 1
1 1 1 1 1 1 1 1 1 1
1 1 1 1 1 1 1 1 1 1
1 1 1 1 1 1 1 1 1 1
1 1 1 1 1 1 1 1 1 1
1 1 1 1 1 1 1 1 1 1
1 1 1 1 1 1 1 1 1 1
1 1 1 1 1 1 1 1 1 1
1 1 1 1 1 1 1 1 1 1
1 1 1 1 1 1 1 1 1 1
1 1 1 1 1 1 1 1 1 1
1 1 1 1 1 1 1 1 0 0
0 0 0 0 0 0 0 0 0 0
0 0 0 0 0 0 0 0 0 0
0 0
1 1 1 1 1 1 1 1 1 1
1 1 1 1 1 1 1 1 1 1
1 1 1 1 1 1 1 1 1 1
1 1 1 1 1 1 1 1 1 1
1 1 1 1 1 1 1 1 1 1
1 1 1 1 1 1 1 1 1 1
1 1 1 1 1 1 1 1 1 1
1 1 1 1 1 1 1 1 1 1
1 1 1 1 1 1 1 1 1 1
1 1 1 1 1 1 1 1 1 1
1 1 1 1 1 1 1 1 1 1
1 1 1 1 1 1 1 1 1 1
1 1 1 1 1 0 1 0 0 0
0 0 0 0 0 0 0 0 0 0
0 0 0 0 0 0 0 0 0 0
0 0

ATOMIC_POSITIONS (angstrom)
N               -0.0932536408       -0.0932536408       -0.0932536408
C               -0.0560803994        1.8602797873        1.8602797873
C                0.8824624526        2.6730014749        2.6730014749
C                1.8602797873       -0.0560803994        1.8602797873
C                2.6730014749        0.8824624526        2.6730014749
C                1.8602797873        1.8602797873       -0.0560803994
C                2.6730014749        2.6730014749        0.8824624526
C                0.0053628077        0.0053628077        3.5588578671
C                0.8926710942        0.8926710942        4.4591182377
C                0.0102530769        1.7668116086        5.3661348020
C                0.9033993912        2.6615135122        6.2601310315
C                1.7668116086        0.0102530769        5.3661348020
C                2.6615135122        0.9033993912        6.2601310315
C                1.7824063555        1.7824063555        3.5643365787
C                2.6748670259        2.6748670259        4.4582362930
C                0.0053628077        3.5588578671        0.0053628077
C                0.8926710942        4.4591182377        0.8926710942
C                0.0102530769        5.3661348020        1.7668116086
C                0.9033993912        6.2601310315        2.6615135122
C                1.7824063555        3.5643365787        1.7824063555
C                2.6748670259        4.4582362930        2.6748670259
C                1.7668116086        5.3661348020        0.0102530769
C                2.6615135122        6.2601310315        0.9033993912
C                0.0072170168        3.5771757048        3.5771757048
C                0.8920215306        4.4593578100        4.4593578100
C               -0.0021824840        5.3389464583        5.3389464583
C                0.8487459898        6.2433810610        6.2433810610
C                1.7808533714        3.5740643721        5.3468060753
C                2.6684846133        4.4668356410        6.2452673284
C                1.7808533714        5.3468060753        3.5740643721
C                2.6684846133        6.2452673284        4.4668356410
C                3.5588578671        0.0053628077        0.0053628077
C                4.4591182377        0.8926710942        0.8926710942
C                3.5643365787        1.7824063555        1.7824063555
C                4.4582362930        2.6748670259        2.6748670259
C                5.3661348020        0.0102530769        1.7668116086
C                6.2601310315        0.9033993912        2.6615135122
C                5.3661348020        1.7668116086        0.0102530769
C                6.2601310315        2.6615135122        0.9033993912
C                3.5771757048        0.0072170168        3.5771757048
C                4.4593578100        0.8920215306        4.4593578100
C                3.5740643721        1.7808533714        5.3468060753
C                4.4668356410        2.6684846133        6.2452673284
C                5.3389464583       -0.0021824840        5.3389464583
C                6.2433810610        0.8487459898        6.2433810610
C                5.3468060753        1.7808533714        3.5740643721
C                6.2452673284        2.6684846133        4.4668356410
C                3.5771757048        3.5771757048        0.0072170168
C                4.4593578100        4.4593578100        0.8920215306
C                3.5740643721        5.3468060753        1.7808533714
C                4.4668356410        6.2452673284        2.6684846133
C                5.3468060753        3.5740643721        1.7808533714
C                6.2452673284        4.4668356410        2.6684846133
C                5.3389464583        5.3389464583       -0.0021824840
C                6.2433810610        6.2433810610        0.8487459898
C                3.5668266124        3.5668266124        3.5668266124
C                4.4584193037        4.4584193037        4.4584193037
C                3.5605487458        5.3532123240        5.3532123240
C                4.4482864204        6.2421280102        6.2421280102
C                5.3532123240        3.5605487458        5.3532123240
C                6.2421280102        4.4482864204        6.2421280102
C                5.3532123240        5.3532123240        3.5605487458
C                6.2421280102        6.2421280102        4.4482864204