
     Program PWSCF v.7.5 starts on  4Dec2025 at 23:26:23 

     This program is part of the open-source Quantum ESPRESSO suite
     for quantum simulation of materials; please cite
         "P. Giannozzi et al., J. Phys.:Condens. Matter 21 395502 (2009);
         "P. Giannozzi et al., J. Phys.:Condens. Matter 29 465901 (2017);
         "P. Giannozzi et al., J. Chem. Phys. 152 154105 (2020);
          URL http://www.quantum-espresso.org", 
     in publications or presentations arising from this work. More details at
     http://www.quantum-espresso.org/quote

     Parallel version (MPI), running on    96 processors

     MPI processes distributed on     2 nodes
     171637 MiB available memory on the printing compute node when the environment starts
 
     Reading input from pw.in

     Current dimensions of program PWSCF are:
     Max number of different atomic species (ntypx) = 10
     Max number of k-points (npk) =  40000
     Max angular momentum in pseudopotentials (lmaxx) =  4

     gamma-point specific algorithms are used
 
     K-points division:     npool     =       2
     R & G space division:  proc/nbgrp/npool/nimage =      48
     Subspace diagonalization in iterative solution of the eigenvalue problem:
     one sub-group per band group will be used
     scalapack distributed-memory algorithm (size of sub-group:  6*  6 procs)

 
     Parallelization info
     --------------------
     sticks:   dense  smooth     PW     G-vecs:    dense   smooth      PW
     Min         384     384     96                39496    39496    4936
     Max         386     386     98                39521    39521    4949
     Sum       18505   18505   4637              1896521  1896521  237129
 
     Using Slab Decomposition
 


     bravais-lattice index     =            0
     lattice parameter (alat)  =      26.9702  a.u.
     unit-cell volume          =   19617.8366 (a.u.)^3
     number of atoms/cell      =          511
     number of atomic types    =            2
     number of electrons       =      2046.00 (up:1024.00, down:1022.00)
     number of Kohn-Sham states=         1032
     kinetic-energy cutoff     =      80.0000  Ry
     charge density cutoff     =     320.0000  Ry
     scf convergence threshold =      1.0E-10
     mixing beta               =       0.7000
     number of iterations used =            8  plain     mixing
     Exchange-correlation= PBE
                           (   1   4   3   4   0   0   0)

     celldm(1)=  26.970171  celldm(2)=   0.000000  celldm(3)=   0.000000
     celldm(4)=   0.000000  celldm(5)=   0.000000  celldm(6)=   0.000000

     crystal axes: (cart. coord. in units of alat)
               a(1) = (   1.000000   0.000000   0.000000 )  
               a(2) = (   0.000000   1.000000   0.000000 )  
               a(3) = (   0.000000   0.000000   1.000000 )  

     reciprocal axes: (cart. coord. in units 2 pi/alat)
               b(1) = (  1.000000  0.000000  0.000000 )  
               b(2) = (  0.000000  1.000000  0.000000 )  
               b(3) = (  0.000000  0.000000  1.000000 )  


     PseudoPot. # 1 for C  read from file:
     ./C_ONCV_PBE-1.2.upf
     MD5 check sum: d60b57d9bdca4133f5fde4b584ee909d
     Pseudo is Norm-conserving, Zval =  4.0
     Generated using ONCVPSP code by D. R. Hamann
     Using radial grid of  602 points,  4 beta functions with: 
                l(1) =   0
                l(2) =   0
                l(3) =   1
                l(4) =   1

     PseudoPot. # 2 for N  read from file:
     ./N_ONCV_PBE-1.2.upf
     MD5 check sum: 5312fdf34e96954e02a33bdc911c617a
     Pseudo is Norm-conserving, Zval =  5.0
     Generated using ONCVPSP code by D. R. Hamann
     Using radial grid of  602 points,  4 beta functions with: 
                l(1) =   0
                l(2) =   0
                l(3) =   1
                l(4) =   1

     atomic species   valence    mass     pseudopotential
     C                 4.00    12.01100     C ( 1.00)
     N                 5.00    14.00670     N ( 1.00)

     Starting magnetic structure 
     atomic species   magnetization
     C               0.000
     N               0.000

     No symmetry found


                                    s                        frac. trans.

      isym =  1     identity                                     

 cryst.   s( 1) = (     1          0          0      )
                  (     0          1          0      )
                  (     0          0          1      )

 cart.    s( 1) = (  1.0000000  0.0000000  0.0000000 )
                  (  0.0000000  1.0000000  0.0000000 )
                  (  0.0000000  0.0000000  1.0000000 )


   Cartesian axes

     site n.     atom                  positions (alat units)
         1        C      tau(   1) = (  -0.0000241  -0.0000171   0.0000022  )
         2        C      tau(   2) = (  -0.0000513   0.0000021   0.2500138  )
         3        C      tau(   3) = (  -0.0001075  -0.0000382   0.5000078  )
         4        C      tau(   4) = (  -0.0000024  -0.0000387   0.7499947  )
         5        C      tau(   5) = (  -0.0000522   0.2499946   0.0000226  )
         6        C      tau(   6) = (  -0.0000118   0.2500178   0.2500379  )
         7        C      tau(   7) = (  -0.0000621   0.2500409   0.5000372  )
         8        C      tau(   8) = (  -0.0001141   0.2499798   0.7500170  )
         9        C      tau(   9) = (  -0.0001076   0.4999882  -0.0000152  )
        10        C      tau(  10) = (  -0.0000625   0.5000162   0.2500633  )
        11        C      tau(  11) = (   0.0000235   0.4999884   0.5000108  )
        12        C      tau(  12) = (   0.0000194   0.4999643   0.7499575  )
        13        C      tau(  13) = (  -0.0000020   0.7499753  -0.0000164  )
        14        C      tau(  14) = (  -0.0001135   0.7499952   0.2500023  )
        15        C      tau(  15) = (   0.0000194   0.7499353   0.4999855  )
        16        C      tau(  16) = (   0.0001063   0.7499431   0.7499646  )
        17        C      tau(  17) = (   0.2499619  -0.0000475  -0.0000230  )
        18        C      tau(  18) = (   0.2499209   0.0000575   0.2499656  )
        19        C      tau(  19) = (   0.2499794  -0.0000776   0.4999984  )
        20        C      tau(  20) = (   0.2499725  -0.0001902   0.7499975  )
        21        C      tau(  21) = (   0.2499191   0.2499408   0.0000832  )
        22        C      tau(  22) = (   0.2500953   0.2501608   0.2501855  )
        23        C      tau(  23) = (   0.2495579   0.2494857   0.5002516  )
        24        C      tau(  24) = (   0.2499370   0.2498562   0.7500946  )
        25        C      tau(  25) = (   0.2499798   0.4999752  -0.0000519  )
        26        C      tau(  26) = (   0.2495581   0.5002242   0.2495122  )
        27        C      tau(  27) = (   0.2507601   0.4998948   0.4999232  )
        28        C      tau(  28) = (   0.2497112   0.4996508   0.7503513  )
        29        C      tau(  29) = (   0.2499741   0.7499724  -0.0001593  )
        30        C      tau(  30) = (   0.2499401   0.7500651   0.2498872  )
        31        C      tau(  31) = (   0.2497109   0.7503236   0.4996783  )
        32        C      tau(  32) = (   0.2503050   0.7496588   0.7496873  )
        33        C      tau(  33) = (   0.4999633  -0.0000426  -0.0000182  )
        34        C      tau(  34) = (   0.4999634   0.0000103   0.2500058  )
        35        C      tau(  35) = (   0.4999785  -0.0000286   0.5000114  )
        36        C      tau(  36) = (   0.4999864  -0.0000878   0.7500131  )
        37        C      tau(  37) = (   0.4999627   0.2499836   0.0000327  )
        38        C      tau(  38) = (   0.4999439   0.2497273   0.2497511  )
        39        C      tau(  39) = (   0.4998803   0.2502206   0.5000952  )
        40        C      tau(  40) = (   0.4997568   0.2492403   0.7507567  )
        41        C      tau(  41) = (   0.4999791   0.4999897  -0.0000059  )
        42        C      tau(  42) = (   0.4998816   0.5000676   0.2502478  )
        43        C      tau(  43) = (   0.5000355   0.4998841   0.7497427  )
        44        C      tau(  44) = (   0.4999876   0.7499895  -0.0000612  )
        45        C      tau(  45) = (   0.4997589   0.7507323   0.2492653  )
        46        C      tau(  46) = (   0.5000365   0.7497179   0.4999094  )
        47        C      tau(  47) = (   0.5001194   0.7500606   0.7500847  )
        48        C      tau(  48) = (   0.7499833   0.0000079   0.0000271  )
        49        C      tau(  49) = (   0.7499683  -0.0000298   0.2500274  )
        50        C      tau(  50) = (   0.7499689   0.0000067   0.5000237  )
        51        C      tau(  51) = (   0.7500056   0.0000328   0.7500288  )
        52        C      tau(  52) = (   0.7499680   0.2500089  -0.0000105  )
        53        C      tau(  53) = (   0.7499440   0.2500052   0.2500249  )
        54        C      tau(  54) = (   0.7501148   0.2497761   0.4999957  )
        55        C      tau(  55) = (   0.7497783   0.2501859   0.7498829  )
        56        C      tau(  56) = (   0.7499690   0.5000051   0.0000267  )
        57        C      tau(  57) = (   0.7501143   0.4999718   0.2498012  )
        58        C      tau(  58) = (   0.7495655   0.5000522   0.5000777  )
        59        C      tau(  59) = (   0.7501263   0.5000919   0.7502182  )
        60        C      tau(  60) = (   0.7500059   0.7500097   0.0000531  )
        61        C      tau(  61) = (   0.7497767   0.7498594   0.2502101  )
        62        C      tau(  62) = (   0.7501255   0.7501958   0.5001141  )
        63        C      tau(  63) = (   0.7501092   0.7500938   0.7501138  )
        64        C      tau(  64) = (  -0.0000300   0.1250053   0.1250245  )
        65        C      tau(  65) = (  -0.0000389   0.1250122   0.3750202  )
        66        C      tau(  66) = (  -0.0001168   0.1249945   0.6250298  )
        67        C      tau(  67) = (  -0.0000528   0.1249807   0.8750066  )
        68        C      tau(  68) = (  -0.0000396   0.3750009   0.1250334  )
        69        C      tau(  69) = (  -0.0000246   0.3750402   0.3750620  )
        70        C      tau(  70) = (  -0.0000296   0.3750020   0.6249972  )
        71        C      tau(  71) = (  -0.0000969   0.3749750   0.8750037  )
        72        C      tau(  72) = (  -0.0001164   0.6250092   0.1250181  )
        73        C      tau(  73) = (  -0.0000299   0.6249753   0.3750243  )
        74        C      tau(  74) = (   0.0000833   0.6249350   0.6249573  )
        75        C      tau(  75) = (   0.0000469   0.6249732   0.8749577  )
        76        C      tau(  76) = (  -0.0000519   0.8749866   0.1250014  )
        77        C      tau(  77) = (  -0.0000960   0.8749815   0.3749955  )
        78        C      tau(  78) = (   0.0000466   0.8749350   0.6249931  )
        79        C      tau(  79) = (   0.0000402   0.8749584   0.8749786  )
        80        C      tau(  80) = (   0.2499577   0.1250362   0.1250597  )
        81        C      tau(  81) = (   0.2499925   0.1250009   0.3750607  )
        82        C      tau(  82) = (   0.2498540   0.1247678   0.6250922  )
        83        C      tau(  83) = (   0.2499376   0.1248850   0.8750483  )
        84        C      tau(  84) = (   0.2499929   0.3750370   0.1250248  )
        85        C      tau(  85) = (   0.2505368   0.3753585   0.3753853  )
        86        C      tau(  86) = (   0.2499807   0.3747944   0.6251175  )
        87        C      tau(  87) = (   0.2498614   0.3748673   0.8751570  )
        88        C      tau(  88) = (   0.2498567   0.6250645   0.1247987  )
        89        C      tau(  89) = (   0.2499822   0.6250875   0.3748247  )
        90        C      tau(  90) = (   0.2507673   0.6244220   0.6244495  )
        91        C      tau(  91) = (   0.2502131   0.6248792   0.8747512  )
        92        C      tau(  92) = (   0.2499402   0.8750222   0.1249136  )
        93        C      tau(  93) = (   0.2498638   0.8751285   0.3748950  )
        94        C      tau(  94) = (   0.2502132   0.8747219   0.6249047  )
        95        C      tau(  95) = (   0.2500261   0.8748470   0.8748738  )
        96        C      tau(  96) = (   0.4999738   0.1249026   0.1249243  )
        97        C      tau(  97) = (   0.4999581   0.1250249   0.3750536  )
        98        C      tau(  98) = (   0.4999221   0.1249453   0.6250451  )
        99        C      tau(  99) = (   0.4999114   0.1246964   0.8752800  )
       100        C      tau( 100) = (   0.4999584   0.3750311   0.1250476  )
       101        C      tau( 101) = (   0.4999795   0.3754166   0.3754442  )
       102        C      tau( 102) = (   0.4986102   0.3747931   0.6250663  )
       103        C      tau( 103) = (   0.4999576   0.3749902   0.8749822  )
       104        C      tau( 104) = (   0.4999249   0.6250189   0.1249726  )
       105        C      tau( 105) = (   0.4986116   0.6250414   0.3748185  )
       106        C      tau( 106) = (   0.5020224   0.6242313   0.6242559  )
       107        C      tau( 107) = (   0.5000494   0.6249313   0.8749416  )
       108        C      tau( 108) = (   0.4999129   0.8752547   0.1247228  )
       109        C      tau( 109) = (   0.4999588   0.8749588   0.3750141  )
       110        C      tau( 110) = (   0.5000491   0.8749175   0.6249540  )
       111        C      tau( 111) = (   0.5000238   0.8749821   0.8750060  )
       112        C      tau( 112) = (   0.7499731   0.1249989   0.1250173  )
       113        C      tau( 113) = (   0.7499935   0.1249532   0.3750163  )
       114        C      tau( 114) = (   0.7498887   0.1250445   0.6250082  )
       115        C      tau( 115) = (   0.7499443   0.1250582   0.8749744  )
       116        C      tau( 116) = (   0.7499930   0.3749971   0.1249735  )
       117        C      tau( 117) = (   0.7499704   0.3749667   0.3749900  )
       118        C      tau( 118) = (   0.7492057   0.3755799   0.6249057  )
       119        C      tau( 119) = (   0.7499022   0.3750344   0.8749576  )
       120        C      tau( 120) = (   0.7498887   0.6249872   0.1250667  )
       121        C      tau( 121) = (   0.7492066   0.6248810   0.3756049  )
       122        C      tau( 122) = (   0.7502509   0.6252007   0.6252241  )
       123        C      tau( 123) = (   0.7500799   0.6250504   0.8751230  )
       124        C      tau( 124) = (   0.7499443   0.8749543   0.1250786  )
       125        C      tau( 125) = (   0.7499018   0.8749369   0.3750545  )
       126        C      tau( 126) = (   0.7500792   0.8751026   0.6250694  )
       127        C      tau( 127) = (   0.7500351   0.8750314   0.8750505  )
       128        C      tau( 128) = (   0.1249551   0.0000068   0.1249950  )
       129        C      tau( 129) = (   0.1249109   0.0000161   0.3749904  )
       130        C      tau( 130) = (   0.1249754  -0.0001397   0.6250076  )
       131        C      tau( 131) = (   0.1249849  -0.0000826   0.8749800  )
       132        C      tau( 132) = (   0.1249861   0.2500237   0.1250799  )
       133        C      tau( 133) = (   0.1250369   0.2500914   0.3750811  )
       134        C      tau( 134) = (   0.1248709   0.2498679   0.6250710  )
       135        C      tau( 135) = (   0.1249207   0.2499394   0.8750387  )
       136        C      tau( 136) = (   0.1247718   0.5000503   0.1248173  )
       137        C      tau( 137) = (   0.1251405   0.5000322   0.3750467  )
       138        C      tau( 138) = (   0.1252064   0.4998761   0.6248988  )
       139        C      tau( 139) = (   0.1248442   0.4998966   0.8751148  )
       140        C      tau( 140) = (   0.1249365   0.7500033   0.1249378  )
       141        C      tau( 141) = (   0.1249027   0.7500572   0.3749249  )
       142        C      tau( 142) = (   0.1251856   0.7497736   0.6248714  )
       143        C      tau( 143) = (   0.1251014   0.7498887   0.8748550  )
       144        C      tau( 144) = (   0.3749394   0.0000428   0.1249457  )
       145        C      tau( 145) = (   0.3749695  -0.0000075   0.3749992  )
       146        C      tau( 146) = (   0.3749887  -0.0001171   0.6250010  )
       147        C      tau( 147) = (   0.3749639  -0.0001566   0.8750057  )
       148        C      tau( 148) = (   0.3749608   0.2500448   0.1250501  )
       149        C      tau( 149) = (   0.3751583   0.2502431   0.3753444  )
       150        C      tau( 150) = (   0.3748823   0.2496201   0.6252913  )
       151        C      tau( 151) = (   0.3749034   0.2497674   0.8752317  )
       152        C      tau( 152) = (   0.3749687   0.5000490   0.1249957  )
       153        C      tau( 153) = (   0.3758493   0.5010846   0.3753829  )
       154        C      tau( 154) = (   0.3761368   0.4984580   0.6241940  )
       155        C      tau( 155) = (   0.3750758   0.4998933   0.8748963  )
       156        C      tau( 156) = (   0.3749155   0.7501615   0.1247524  )
       157        C      tau( 157) = (   0.3749001   0.7503158   0.3746705  )
       158        C      tau( 158) = (   0.3756832   0.7492083   0.6246420  )
       159        C      tau( 159) = (   0.3750652   0.7498307   0.8748152  )
       160        C      tau( 160) = (   0.6249873  -0.0000211   0.1250259  )
       161        C      tau( 161) = (   0.6249668  -0.0000037   0.3750249  )
       162        C      tau( 162) = (   0.6249852  -0.0000062   0.6250162  )
       163        C      tau( 163) = (   0.6250027  -0.0000112   0.8750274  )
       164        C      tau( 164) = (   0.6249671   0.2499566   0.1249637  )
       165        C      tau( 165) = (   0.6249243   0.2498921   0.3749998  )
       166        C      tau( 166) = (   0.6245874   0.2502436   0.6248387  )
       167        C      tau( 167) = (   0.6249546   0.2501223   0.8749352  )
       168        C      tau( 168) = (   0.6249179   0.5000011   0.1250477  )
       169        C      tau( 169) = (   0.6240495   0.4995852   0.3755164  )
       170        C      tau( 170) = (   0.6242674   0.5020267   0.6245380  )
       171        C      tau( 171) = (   0.6249812   0.5000096   0.8750064  )
       172        C      tau( 172) = (   0.6249392   0.7499708   0.1249974  )
       173        C      tau( 173) = (   0.6247431   0.7494510   0.3755345  )
       174        C      tau( 174) = (   0.6251827   0.7503095   0.6251820  )
       175        C      tau( 175) = (   0.6250606   0.7500602   0.8750999  )
       176        C      tau( 176) = (   0.8749643  -0.0000132   0.1250243  )
       177        C      tau( 177) = (   0.8749496  -0.0000241   0.3750182  )
       178        C      tau( 178) = (   0.8749847   0.0000148   0.6250219  )
       179        C      tau( 179) = (   0.8749915   0.0000159   0.8750107  )
       180        C      tau( 180) = (   0.8749652   0.2500051   0.1250190  )
       181        C      tau( 181) = (   0.8749957   0.2499757   0.3750211  )
       182        C      tau( 182) = (   0.8747566   0.2502005   0.6250147  )
       183        C      tau( 183) = (   0.8749070   0.2500229   0.8749731  )
       184        C      tau( 184) = (   0.8750088   0.4999860   0.1249714  )
       185        C      tau( 185) = (   0.8748152   0.5000083   0.3751213  )
       186        C      tau( 186) = (   0.8749224   0.5000317   0.6249987  )
       187        C      tau( 187) = (   0.8750213   0.5000214   0.8750428  )
       188        C      tau( 188) = (   0.8749064   0.7499698   0.1250813  )
       189        C      tau( 189) = (   0.8748547   0.7499093   0.3750641  )
       190        C      tau( 190) = (   0.8751174   0.7500539   0.6250577  )
       191        C      tau( 191) = (   0.8750598   0.7500093   0.8750369  )
       192        C      tau( 192) = (   0.1249540   0.1249733   0.0000286  )
       193        C      tau( 193) = (   0.1249865   0.1250574   0.2500449  )
       194        C      tau( 194) = (   0.1247705   0.1247911   0.5000741  )
       195        C      tau( 195) = (   0.1249343   0.1249114   0.7500265  )
       196        C      tau( 196) = (   0.1249096   0.3749684   0.0000404  )
       197        C      tau( 197) = (   0.1250368   0.3750581   0.2501151  )
       198        C      tau( 198) = (   0.1251406   0.3750217   0.5000572  )
       199        C      tau( 199) = (   0.1249006   0.3748990   0.7500834  )
       200        C      tau( 200) = (   0.1249764   0.6249853  -0.0001123  )
       201        C      tau( 201) = (   0.1248730   0.6250457   0.2498949  )
       202        C      tau( 202) = (   0.1252062   0.6248727   0.4999019  )
       203        C      tau( 203) = (   0.1251856   0.6248461   0.7498005  )
       204        C      tau( 204) = (   0.1249858   0.8749583  -0.0000589  )
       205        C      tau( 205) = (   0.1249231   0.8750147   0.2499635  )
       206        C      tau( 206) = (   0.1248457   0.8750882   0.4999207  )
       207        C      tau( 207) = (   0.1251012   0.8748285   0.7499120  )
       208        C      tau( 208) = (   0.3749383   0.1249193   0.0000687  )
       209        C      tau( 209) = (   0.3749610   0.1250271   0.2500676  )
       210        C      tau( 210) = (   0.3749669   0.1249697   0.5000749  )
       211        C      tau( 211) = (   0.3749130   0.1247210   0.7501902  )
       212        C      tau( 212) = (   0.3749691   0.3749761   0.0000162  )
       213        C      tau( 213) = (   0.3751588   0.3753169   0.2502704  )
       214        C      tau( 214) = (   0.3758483   0.3753561   0.5011115  )
       215        C      tau( 215) = (   0.3748984   0.3746430   0.7503424  )
       216        C      tau( 216) = (   0.3749902   0.6249768  -0.0000891  )
       217        C      tau( 217) = (   0.3748845   0.6252632   0.2496485  )
       218        C      tau( 218) = (   0.3761375   0.6241683   0.4984842  )
       219        C      tau( 219) = (   0.3756833   0.6246156   0.7492350  )
       220        C      tau( 220) = (   0.3749650   0.8749794  -0.0001271  )
       221        C      tau( 221) = (   0.3749056   0.8752035   0.2497964  )
       222        C      tau( 222) = (   0.3750761   0.8748710   0.4999184  )
       223        C      tau( 223) = (   0.3750649   0.8747865   0.7498564  )
       224        C      tau( 224) = (   0.6249871   0.1250057  -0.0000008  )
       225        C      tau( 225) = (   0.6249674   0.1249434   0.2499764  )
       226        C      tau( 226) = (   0.6249171   0.1250253   0.5000231  )
       227        C      tau( 227) = (   0.6249378   0.1249731   0.7499942  )
       228        C      tau( 228) = (   0.6249666   0.3750050   0.0000167  )
       229        C      tau( 229) = (   0.6249246   0.3749764   0.2499158  )
       230        C      tau( 230) = (   0.6240477   0.3754909   0.4996111  )
       231        C      tau( 231) = (   0.6247419   0.3755107   0.7494743  )
       232        C      tau( 232) = (   0.6249860   0.6249960   0.0000154  )
       233        C      tau( 233) = (   0.6245883   0.6248119   0.2502707  )
       234        C      tau( 234) = (   0.6242684   0.6245144   0.5020504  )
       235        C      tau( 235) = (   0.6251831   0.6251587   0.7503337  )
       236        C      tau( 236) = (   0.6250029   0.8750061   0.0000108  )
       237        C      tau( 237) = (   0.6249552   0.8749138   0.2501444  )
       238        C      tau( 238) = (   0.6249811   0.8749850   0.5000306  )
       239        C      tau( 239) = (   0.6250604   0.8750787   0.7500804  )
       240        C      tau( 240) = (   0.8749641   0.1250059   0.0000056  )
       241        C      tau( 241) = (   0.8749655   0.1250002   0.2500232  )
       242        C      tau( 242) = (   0.8750098   0.1249498   0.5000053  )
       243        C      tau( 243) = (   0.8749068   0.1250596   0.7499899  )
       244        C      tau( 244) = (   0.8749492   0.3750002  -0.0000041  )
       245        C      tau( 245) = (   0.8749955   0.3750009   0.2499967  )
       246        C      tau( 246) = (   0.8748156   0.3750972   0.5000316  )
       247        C      tau( 247) = (   0.8748560   0.3750420   0.7499313  )
       248        C      tau( 248) = (   0.8749850   0.6250035   0.0000356  )
       249        C      tau( 249) = (   0.8747549   0.6249920   0.2502248  )
       250        C      tau( 250) = (   0.8749220   0.6249764   0.5000543  )
       251        C      tau( 251) = (   0.8751177   0.6250378   0.7500744  )
       252        C      tau( 252) = (   0.8749917   0.8749920   0.0000353  )
       253        C      tau( 253) = (   0.8749068   0.8749525   0.2500427  )
       254        C      tau( 254) = (   0.8750208   0.8750223   0.5000401  )
       255        C      tau( 255) = (   0.8750595   0.8750174   0.7500278  )
       256        C      tau( 256) = (   0.1874491   0.0625463   0.1875174  )
       257        C      tau( 257) = (   0.1874197   0.0624433   0.4375205  )
       258        C      tau( 258) = (   0.1874308   0.0623227   0.6875271  )
       259        C      tau( 259) = (   0.1874559   0.0624340   0.9375105  )
       260        C      tau( 260) = (   0.1875225   0.3125542   0.1876000  )
       261        C      tau( 261) = (   0.1876362   0.3125294   0.4376093  )
       262        C      tau( 262) = (   0.1874054   0.3123907   0.6875686  )
       263        C      tau( 263) = (   0.1873980   0.3124347   0.9375979  )
       264        C      tau( 264) = (   0.1871447   0.5624947   0.1871390  )
       265        C      tau( 265) = (   0.1877695   0.5624389   0.4374619  )
       266        C      tau( 266) = (   0.1877911   0.5622883   0.6873322  )
       267        C      tau( 267) = (   0.1875279   0.5624341   0.9373928  )
       268        C      tau( 268) = (   0.1874366   0.8125217   0.1874321  )
       269        C      tau( 269) = (   0.1872182   0.8127714   0.4374720  )
       270        C      tau( 270) = (   0.1876914   0.8122455   0.6873496  )
       271        C      tau( 271) = (   0.1875112   0.8124195   0.9373766  )
       272        C      tau( 272) = (   0.4374498   0.0625030   0.1874972  )
       273        C      tau( 273) = (   0.4374470   0.0624816   0.4375258  )
       274        C      tau( 274) = (   0.4374577   0.0623776   0.6875508  )
       275        C      tau( 275) = (   0.4374808   0.0623177   0.9376191  )
       276        C      tau( 276) = (   0.4374234   0.3125611   0.1875554  )
       277        C      tau( 277) = (   0.4375878   0.3128513   0.4379744  )
       278        C      tau( 278) = (   0.4377097   0.3112065   0.6888302  )
       279        C      tau( 279) = (   0.4374521   0.3124355   0.9375464  )
       280        C      tau( 280) = (   0.4374280   0.5625676   0.1874552  )
       281        C      tau( 281) = (   0.4384224   0.5615784   0.6864372  )
       282        C      tau( 282) = (   0.4374940   0.5624544   0.9374484  )
       283        C      tau( 283) = (   0.4374993   0.8130010   0.1869841  )
       284        C      tau( 284) = (   0.4374803   0.8124692   0.4373902  )
       285        C      tau( 285) = (   0.4376372   0.8122496   0.6873355  )
       286        C      tau( 286) = (   0.4375076   0.8124281   0.9373937  )
       287        C      tau( 287) = (   0.6874767   0.0624703   0.1875121  )
       288        C      tau( 288) = (   0.6874548   0.0625027   0.4375373  )
       289        C      tau( 289) = (   0.6874770   0.0624948   0.6875398  )
       290        C      tau( 290) = (   0.6874764   0.0625214   0.9375036  )
       291        C      tau( 291) = (   0.6874630   0.3124966   0.1874496  )
       292        C      tau( 292) = (   0.6879670   0.3119298   0.4376664  )
       293        C      tau( 293) = (   0.6870993   0.3127657   0.6873196  )
       294        C      tau( 294) = (   0.6874581   0.3125148   0.9374960  )
       295        C      tau( 295) = (   0.6873622   0.5625394   0.1875647  )
       296        C      tau( 296) = (   0.6863547   0.5619621   0.4384268  )
       297        C      tau( 297) = (   0.6879555   0.5627529   0.6880761  )
       298        C      tau( 298) = (   0.6875003   0.5625074   0.9375374  )
       299        C      tau( 299) = (   0.6873998   0.8124227   0.1876049  )
       300        C      tau( 300) = (   0.6874095   0.8124119   0.4375819  )
       301        C      tau( 301) = (   0.6876347   0.8126911   0.6876376  )
       302        C      tau( 302) = (   0.6875342   0.8125402   0.9375655  )
       303        C      tau( 303) = (   0.9374615   0.0624999   0.1875211  )
       304        C      tau( 304) = (   0.9374669   0.0624722   0.4375316  )
       305        C      tau( 305) = (   0.9374404   0.0625127   0.6875079  )
       306        C      tau( 306) = (   0.9374721   0.0624979   0.9375107  )
       307        C      tau( 307) = (   0.9374837   0.3125020   0.1875226  )
       308        C      tau( 308) = (   0.9374207   0.3125411   0.4375417  )
       309        C      tau( 309) = (   0.9373929   0.3125443   0.6874885  )
       310        C      tau( 310) = (   0.9374233   0.3125018   0.9374959  )
       311        C      tau( 311) = (   0.9373702   0.5624873   0.1876019  )
       312        C      tau( 312) = (   0.9374432   0.5624903   0.4375386  )
       313        C      tau( 313) = (   0.9375317   0.5624944   0.6874915  )
       314        C      tau( 314) = (   0.9374913   0.5624934   0.9375004  )
       315        C      tau( 315) = (   0.9374141   0.8124788   0.1875294  )
       316        C      tau( 316) = (   0.9374412   0.8124436   0.4375319  )
       317        C      tau( 317) = (   0.9375944   0.8124995   0.6875232  )
       318        C      tau( 318) = (   0.9375254   0.8124910   0.9375151  )
       319        C      tau( 319) = (   0.0624608   0.0624927   0.0625131  )
       320        C      tau( 320) = (   0.0624564   0.0625326   0.3125195  )
       321        C      tau( 321) = (   0.0623454   0.0623681   0.5625006  )
       322        C      tau( 322) = (   0.0624660   0.0624465   0.8125048  )
       323        C      tau( 323) = (   0.0624554   0.3124993   0.0625549  )
       324        C      tau( 324) = (   0.0624894   0.3125245   0.3125465  )
       325        C      tau( 325) = (   0.0625015   0.3124953   0.5625153  )
       326        C      tau( 326) = (   0.0623936   0.3124593   0.8125261  )
       327        C      tau( 327) = (   0.0623464   0.5624787   0.0623938  )
       328        C      tau( 328) = (   0.0625015   0.5624925   0.3125190  )
       329        C      tau( 329) = (   0.0626257   0.5624368   0.5624611  )
       330        C      tau( 330) = (   0.0625469   0.5624423   0.8124411  )
       331        C      tau( 331) = (   0.0624675   0.8124838   0.0624697  )
       332        C      tau( 332) = (   0.0623956   0.8125025   0.3124825  )
       333        C      tau( 333) = (   0.0625472   0.8124167   0.5624649  )
       334        C      tau( 334) = (   0.0625855   0.8124118   0.8124348  )
       335        C      tau( 335) = (   0.3124477   0.0625001   0.0625252  )
       336        C      tau( 336) = (   0.3124376   0.0625031   0.3125089  )
       337        C      tau( 337) = (   0.3124492   0.0623984   0.5625275  )
       338        C      tau( 338) = (   0.3124428   0.0622926   0.8125563  )
       339        C      tau( 339) = (   0.3124371   0.3124858   0.0625267  )
       340        C      tau( 340) = (   0.3126759   0.3127387   0.3127661  )
       341        C      tau( 341) = (   0.3118440   0.3115983   0.5624459  )
       342        C      tau( 342) = (   0.3124050   0.3123106   0.8127719  )
       343        C      tau( 343) = (   0.3124510   0.5625024   0.0624261  )
       344        C      tau( 344) = (   0.3118447   0.5624179   0.3116254  )
       345        C      tau( 345) = (   0.3137216   0.5617891   0.5618156  )
       346        C      tau( 346) = (   0.3127509   0.5622427   0.8121853  )
       347        C      tau( 347) = (   0.3124456   0.8125286   0.0623243  )
       348        C      tau( 348) = (   0.3124076   0.8127429   0.3123403  )
       349        C      tau( 349) = (   0.3127512   0.8121574   0.5622693  )
       350        C      tau( 350) = (   0.3125860   0.8122801   0.8123079  )
       351        C      tau( 351) = (   0.5624670   0.0624444   0.0624654  )
       352        C      tau( 352) = (   0.5624492   0.0625020   0.3125238  )
       353        C      tau( 353) = (   0.5624592   0.0624806   0.5625417  )
       354        C      tau( 354) = (   0.5624735   0.0624105   0.8125691  )
       355        C      tau( 355) = (   0.5624490   0.3125030   0.0625230  )
       356        C      tau( 356) = (   0.5622981   0.3119201   0.3119450  )
       357        C      tau( 357) = (   0.5618973   0.3128075   0.5625338  )
       358        C      tau( 358) = (   0.5623367   0.3125540   0.8124096  )
       359        C      tau( 359) = (   0.5624606   0.5625196   0.0625035  )
       360        C      tau( 360) = (   0.5618985   0.5625065   0.3128346  )
       361        C      tau( 361) = (   0.5625233   0.5624469   0.8125240  )
       362        C      tau( 362) = (   0.5624750   0.8125453   0.0624359  )
       363        C      tau( 363) = (   0.5623383   0.8123864   0.3125777  )
       364        C      tau( 364) = (   0.5625236   0.8125008   0.5624699  )
       365        C      tau( 365) = (   0.5625686   0.8125678   0.8125895  )
       366        C      tau( 366) = (   0.8124733   0.0625022   0.0625206  )
       367        C      tau( 367) = (   0.8124683   0.0624708   0.3125210  )
       368        C      tau( 368) = (   0.8124603   0.0625144   0.5625278  )
       369        C      tau( 369) = (   0.8124639   0.0625464   0.8125058  )
       370        C      tau( 370) = (   0.8124679   0.3125030   0.0624901  )
       371        C      tau( 371) = (   0.8125144   0.3124912   0.3125121  )
       372        C      tau( 372) = (   0.8121206   0.3127730   0.5624592  )
       373        C      tau( 373) = (   0.8123685   0.3125493   0.8124409  )
       374        C      tau( 374) = (   0.8124602   0.5625089   0.0625352  )
       375        C      tau( 375) = (   0.8121199   0.5624347   0.3127985  )
       376        C      tau( 376) = (   0.8124245   0.5625348   0.5625580  )
       377        C      tau( 377) = (   0.8126195   0.5625547   0.8126418  )
       378        C      tau( 378) = (   0.8124640   0.8124866   0.0625665  )
       379        C      tau( 379) = (   0.8123674   0.8124192   0.3125707  )
       380        C      tau( 380) = (   0.8126190   0.8126213   0.5625741  )
       381        C      tau( 381) = (   0.8125810   0.8125532   0.8125721  )
       382        C      tau( 382) = (   0.0624800   0.1875230   0.1875436  )
       383        C      tau( 383) = (   0.0624450   0.1875005   0.4375377  )
       384        C      tau( 384) = (   0.0623860   0.1874479   0.6875294  )
       385        C      tau( 385) = (   0.0624420   0.1874743   0.9375249  )
       386        C      tau( 386) = (   0.0624448   0.4375160   0.1875236  )
       387        C      tau( 387) = (   0.0625656   0.4375036   0.4375269  )
       388        C      tau( 388) = (   0.0625456   0.4374642   0.6874719  )
       389        C      tau( 389) = (   0.0623576   0.4374912   0.9375647  )
       390        C      tau( 390) = (   0.0623878   0.6875067   0.1874730  )
       391        C      tau( 391) = (   0.0625458   0.6874481   0.4374878  )
       392        C      tau( 392) = (   0.0626212   0.6874073   0.6874316  )
       393        C      tau( 393) = (   0.0625338   0.6874567   0.9374149  )
       394        C      tau( 394) = (   0.0624437   0.9375033   0.1874956  )
       395        C      tau( 395) = (   0.0623591   0.9375404   0.4375130  )
       396        C      tau( 396) = (   0.0625333   0.9373897   0.6874778  )
       397        C      tau( 397) = (   0.0624935   0.9374600   0.9374811  )
       398        C      tau( 398) = (   0.3124752   0.1875722   0.1875954  )
       399        C      tau( 399) = (   0.3124219   0.1874687   0.4376170  )
       400        C      tau( 400) = (   0.3124104   0.1871898   0.6876442  )
       401        C      tau( 401) = (   0.3124182   0.1873804   0.9376317  )
       402        C      tau( 402) = (   0.3124232   0.4375901   0.1874946  )
       403        C      tau( 403) = (   0.3135354   0.4379245   0.4379514  )
       404        C      tau( 404) = (   0.3119500   0.4374836   0.6883229  )
       405        C      tau( 405) = (   0.3124680   0.4374439   0.9374858  )
       406        C      tau( 406) = (   0.3124132   0.6876147   0.1872214  )
       407        C      tau( 407) = (   0.3119505   0.6882963   0.4375111  )
       408        C      tau( 408) = (   0.3129692   0.6870155   0.6870432  )
       409        C      tau( 409) = (   0.3125316   0.6874210   0.9373486  )
       410        C      tau( 410) = (   0.3124210   0.9376041   0.1874089  )
       411        C      tau( 411) = (   0.3124689   0.9374607   0.4374681  )
       412        C      tau( 412) = (   0.3125310   0.9373188   0.6874457  )
       413        C      tau( 413) = (   0.3124759   0.9373965   0.9374235  )
       414        C      tau( 414) = (   0.5624317   0.1873208   0.1873422  )
       415        C      tau( 415) = (   0.5623828   0.1875244   0.4375999  )
       416        C      tau( 416) = (   0.5623629   0.1874042   0.6876436  )
       417        C      tau( 417) = (   0.5624513   0.1874799   0.9375247  )
       418        C      tau( 418) = (   0.5623839   0.4375759   0.1875480  )
       419        C      tau( 419) = (   0.5617236   0.4380600   0.6866849  )
       420        C      tau( 420) = (   0.5624755   0.4374742   0.9375078  )
       421        C      tau( 421) = (   0.5623659   0.6876167   0.1874316  )
       422        C      tau( 422) = (   0.5617254   0.6866615   0.4380843  )
       423        C      tau( 423) = (   0.5628008   0.6878977   0.6879226  )
       424        C      tau( 424) = (   0.5625096   0.6874889   0.9374921  )
       425        C      tau( 425) = (   0.5624523   0.9375028   0.1875023  )
       426        C      tau( 426) = (   0.5624759   0.9374863   0.4374954  )
       427        C      tau( 427) = (   0.5625091   0.9374692   0.6875100  )
       428        C      tau( 428) = (   0.5624987   0.9374870   0.9375095  )
       429        C      tau( 429) = (   0.8124623   0.1875047   0.1875232  )
       430        C      tau( 430) = (   0.8126028   0.1873577   0.4375527  )
       431        C      tau( 431) = (   0.8123357   0.1876175   0.6874779  )
       432        C      tau( 432) = (   0.8124479   0.1875192   0.9374875  )
       433        C      tau( 433) = (   0.8126018   0.4375320   0.1873802  )
       434        C      tau( 434) = (   0.8122935   0.4375389   0.4375633  )
       435        C      tau( 435) = (   0.8122902   0.4376269   0.6874657  )
       436        C      tau( 436) = (   0.8124531   0.4375157   0.9374943  )
       437        C      tau( 437) = (   0.8123345   0.6874562   0.1876408  )
       438        C      tau( 438) = (   0.8122892   0.6874426   0.4376505  )
       439        C      tau( 439) = (   0.8127008   0.6876208   0.6876416  )
       440        C      tau( 440) = (   0.8125445   0.6875288   0.9375745  )
       441        C      tau( 441) = (   0.8124481   0.9374681   0.1875381  )
       442        C      tau( 442) = (   0.8124531   0.9374744   0.4375341  )
       443        C      tau( 443) = (   0.8125440   0.9375546   0.6875471  )
       444        C      tau( 444) = (   0.8125042   0.9375177   0.9375365  )
       445        C      tau( 445) = (   0.1874479   0.1874946   0.0625700  )
       446        C      tau( 446) = (   0.1875223   0.1875762   0.3125771  )
       447        C      tau( 447) = (   0.1871437   0.1871109   0.5625217  )
       448        C      tau( 448) = (   0.1874334   0.1874038   0.8125481  )
       449        C      tau( 449) = (   0.1874201   0.4374977   0.0624678  )
       450        C      tau( 450) = (   0.1876361   0.4375829   0.3125554  )
       451        C      tau( 451) = (   0.1877697   0.4374336   0.5624672  )
       452        C      tau( 452) = (   0.1872169   0.4374447   0.8127992  )
       453        C      tau( 453) = (   0.1874333   0.6875019   0.0623529  )
       454        C      tau( 454) = (   0.1874081   0.6875397   0.3124203  )
       455        C      tau( 455) = (   0.1877910   0.6873041   0.5623158  )
       456        C      tau( 456) = (   0.1876911   0.6873235   0.8122742  )
       457        C      tau( 457) = (   0.1874576   0.9374867   0.0624589  )
       458        C      tau( 458) = (   0.1874008   0.9375715   0.3124600  )
       459        C      tau( 459) = (   0.1875283   0.9373658   0.5624575  )
       460        C      tau( 460) = (   0.1875103   0.9373489   0.8124438  )
       461        C      tau( 461) = (   0.4374493   0.1874745   0.0625257  )
       462        C      tau( 462) = (   0.4374229   0.1875317   0.3125850  )
       463        C      tau( 463) = (   0.4374254   0.1874272   0.5625957  )
       464        C      tau( 464) = (   0.4374971   0.1869575   0.8130264  )
       465        C      tau( 465) = (   0.4374477   0.4375031   0.0625048  )
       466        C      tau( 466) = (   0.4375885   0.4379463   0.3128793  )
       467        C      tau( 467) = (   0.4374787   0.4373638   0.8124945  )
       468        C      tau( 468) = (   0.4374603   0.6875249   0.0624067  )
       469        C      tau( 469) = (   0.4377117   0.6888048   0.3112326  )
       470        C      tau( 470) = (   0.4384229   0.6864121   0.5616039  )
       471        C      tau( 471) = (   0.4376370   0.6873107   0.8122761  )
       472        C      tau( 472) = (   0.4374824   0.9375927   0.0623458  )
       473        C      tau( 473) = (   0.4374536   0.9375220   0.3124601  )
       474        C      tau( 474) = (   0.4374938   0.9374240   0.5624772  )
       475        C      tau( 475) = (   0.4375069   0.9373664   0.8124525  )
       476        C      tau( 476) = (   0.6874764   0.1874932   0.0624895  )
       477        C      tau( 477) = (   0.6874632   0.1874290   0.3125169  )
       478        C      tau( 478) = (   0.6873614   0.1875410   0.5625627  )
       479        C      tau( 479) = (   0.6873996   0.1875823   0.8124447  )
       480        C      tau( 480) = (   0.6874549   0.4375178   0.0625230  )
       481        C      tau( 481) = (   0.6879677   0.4376419   0.3119536  )
       482        C      tau( 482) = (   0.6863534   0.4384020   0.5619869  )
       483        C      tau( 483) = (   0.6874096   0.4375603   0.8124336  )
       484        C      tau( 484) = (   0.6874778   0.6875193   0.0625166  )
       485        C      tau( 485) = (   0.6870995   0.6872939   0.3127917  )
       486        C      tau( 486) = (   0.6879556   0.6880522   0.5627770  )
       487        C      tau( 487) = (   0.6876351   0.6876173   0.8127126  )
       488        C      tau( 488) = (   0.6874765   0.9374837   0.0625415  )
       489        C      tau( 489) = (   0.6874585   0.9374760   0.3125345  )
       490        C      tau( 490) = (   0.6875000   0.9375170   0.5625266  )
       491        C      tau( 491) = (   0.6875340   0.9375452   0.8125596  )
       492        C      tau( 492) = (   0.9374610   0.1875027   0.0625190  )
       493        C      tau( 493) = (   0.9374841   0.1875026   0.3125211  )
       494        C      tau( 494) = (   0.9373712   0.1875791   0.5625077  )
       495        C      tau( 495) = (   0.9374136   0.1875086   0.8124991  )
       496        C      tau( 496) = (   0.9374662   0.4375129   0.0624934  )
       497        C      tau( 497) = (   0.9374205   0.4375205   0.3125631  )
       498        C      tau( 498) = (   0.9374434   0.4375162   0.5625121  )
       499        C      tau( 499) = (   0.9374415   0.4375117   0.8124650  )
       500        C      tau( 500) = (   0.9374407   0.6874886   0.0625346  )
       501        C      tau( 501) = (   0.9373920   0.6874670   0.3125667  )
       502        C      tau( 502) = (   0.9375317   0.6874701   0.5625155  )
       503        C      tau( 503) = (   0.9375946   0.6875036   0.8125204  )
       504        C      tau( 504) = (   0.9374725   0.9374918   0.0625170  )
       505        C      tau( 505) = (   0.9374240   0.9374753   0.3125209  )
       506        C      tau( 506) = (   0.9374910   0.9374789   0.5625122  )
       507        C      tau( 507) = (   0.9375251   0.9374951   0.8125099  )
       508        C      tau( 508) = (   0.5678019   0.4317736   0.4317984  )
       509        C      tau( 509) = (   0.4328435   0.4309307   0.5686902  )
       510        C      tau( 510) = (   0.4328444   0.5686656   0.4309557  )
       511        N      tau( 511) = (   0.5666420   0.5664804   0.5665039  )

   Crystallographic axes

     site n.     atom                  positions (cryst. coord.)
         1        C      tau(   1) = ( -0.0000241 -0.0000171  0.0000022  )
         2        C      tau(   2) = ( -0.0000513  0.0000021  0.2500138  )
         3        C      tau(   3) = ( -0.0001075 -0.0000382  0.5000078  )
         4        C      tau(   4) = ( -0.0000024 -0.0000387  0.7499947  )
         5        C      tau(   5) = ( -0.0000522  0.2499946  0.0000226  )
         6        C      tau(   6) = ( -0.0000118  0.2500178  0.2500379  )
         7        C      tau(   7) = ( -0.0000621  0.2500409  0.5000372  )
         8        C      tau(   8) = ( -0.0001141  0.2499798  0.7500170  )
         9        C      tau(   9) = ( -0.0001076  0.4999882 -0.0000152  )
        10        C      tau(  10) = ( -0.0000625  0.5000162  0.2500633  )
        11        C      tau(  11) = (  0.0000235  0.4999884  0.5000108  )
        12        C      tau(  12) = (  0.0000194  0.4999643  0.7499575  )
        13        C      tau(  13) = ( -0.0000020  0.7499753 -0.0000164  )
        14        C      tau(  14) = ( -0.0001135  0.7499952  0.2500023  )
        15        C      tau(  15) = (  0.0000194  0.7499353  0.4999855  )
        16        C      tau(  16) = (  0.0001063  0.7499431  0.7499646  )
        17        C      tau(  17) = (  0.2499619 -0.0000475 -0.0000230  )
        18        C      tau(  18) = (  0.2499209  0.0000575  0.2499656  )
        19        C      tau(  19) = (  0.2499794 -0.0000776  0.4999984  )
        20        C      tau(  20) = (  0.2499725 -0.0001902  0.7499975  )
        21        C      tau(  21) = (  0.2499191  0.2499408  0.0000832  )
        22        C      tau(  22) = (  0.2500953  0.2501608  0.2501855  )
        23        C      tau(  23) = (  0.2495579  0.2494857  0.5002516  )
        24        C      tau(  24) = (  0.2499370  0.2498562  0.7500946  )
        25        C      tau(  25) = (  0.2499798  0.4999752 -0.0000519  )
        26        C      tau(  26) = (  0.2495581  0.5002242  0.2495122  )
        27        C      tau(  27) = (  0.2507601  0.4998948  0.4999232  )
        28        C      tau(  28) = (  0.2497112  0.4996508  0.7503513  )
        29        C      tau(  29) = (  0.2499741  0.7499724 -0.0001593  )
        30        C      tau(  30) = (  0.2499401  0.7500651  0.2498872  )
        31        C      tau(  31) = (  0.2497109  0.7503236  0.4996783  )
        32        C      tau(  32) = (  0.2503050  0.7496588  0.7496873  )
        33        C      tau(  33) = (  0.4999633 -0.0000426 -0.0000182  )
        34        C      tau(  34) = (  0.4999634  0.0000103  0.2500058  )
        35        C      tau(  35) = (  0.4999785 -0.0000286  0.5000114  )
        36        C      tau(  36) = (  0.4999864 -0.0000878  0.7500131  )
        37        C      tau(  37) = (  0.4999627  0.2499836  0.0000327  )
        38        C      tau(  38) = (  0.4999439  0.2497273  0.2497511  )
        39        C      tau(  39) = (  0.4998803  0.2502206  0.5000952  )
        40        C      tau(  40) = (  0.4997568  0.2492403  0.7507567  )
        41        C      tau(  41) = (  0.4999791  0.4999897 -0.0000059  )
        42        C      tau(  42) = (  0.4998816  0.5000676  0.2502478  )
        43        C      tau(  43) = (  0.5000355  0.4998841  0.7497427  )
        44        C      tau(  44) = (  0.4999876  0.7499895 -0.0000612  )
        45        C      tau(  45) = (  0.4997589  0.7507323  0.2492653  )
        46        C      tau(  46) = (  0.5000365  0.7497179  0.4999094  )
        47        C      tau(  47) = (  0.5001194  0.7500606  0.7500847  )
        48        C      tau(  48) = (  0.7499833  0.0000079  0.0000271  )
        49        C      tau(  49) = (  0.7499683 -0.0000298  0.2500274  )
        50        C      tau(  50) = (  0.7499689  0.0000067  0.5000237  )
        51        C      tau(  51) = (  0.7500056  0.0000328  0.7500288  )
        52        C      tau(  52) = (  0.7499680  0.2500089 -0.0000105  )
        53        C      tau(  53) = (  0.7499440  0.2500052  0.2500249  )
        54        C      tau(  54) = (  0.7501148  0.2497761  0.4999957  )
        55        C      tau(  55) = (  0.7497783  0.2501859  0.7498829  )
        56        C      tau(  56) = (  0.7499690  0.5000051  0.0000267  )
        57        C      tau(  57) = (  0.7501143  0.4999718  0.2498012  )
        58        C      tau(  58) = (  0.7495655  0.5000522  0.5000777  )
        59        C      tau(  59) = (  0.7501263  0.5000919  0.7502182  )
        60        C      tau(  60) = (  0.7500059  0.7500097  0.0000531  )
        61        C      tau(  61) = (  0.7497767  0.7498594  0.2502101  )
        62        C      tau(  62) = (  0.7501255  0.7501958  0.5001141  )
        63        C      tau(  63) = (  0.7501092  0.7500938  0.7501138  )
        64        C      tau(  64) = ( -0.0000300  0.1250053  0.1250245  )
        65        C      tau(  65) = ( -0.0000389  0.1250122  0.3750202  )
        66        C      tau(  66) = ( -0.0001168  0.1249945  0.6250298  )
        67        C      tau(  67) = ( -0.0000528  0.1249807  0.8750066  )
        68        C      tau(  68) = ( -0.0000396  0.3750009  0.1250334  )
        69        C      tau(  69) = ( -0.0000246  0.3750402  0.3750620  )
        70        C      tau(  70) = ( -0.0000296  0.3750020  0.6249972  )
        71        C      tau(  71) = ( -0.0000969  0.3749750  0.8750037  )
        72        C      tau(  72) = ( -0.0001164  0.6250092  0.1250181  )
        73        C      tau(  73) = ( -0.0000299  0.6249753  0.3750243  )
        74        C      tau(  74) = (  0.0000833  0.6249350  0.6249573  )
        75        C      tau(  75) = (  0.0000469  0.6249732  0.8749577  )
        76        C      tau(  76) = ( -0.0000519  0.8749866  0.1250014  )
        77        C      tau(  77) = ( -0.0000960  0.8749815  0.3749955  )
        78        C      tau(  78) = (  0.0000466  0.8749350  0.6249931  )
        79        C      tau(  79) = (  0.0000402  0.8749584  0.8749786  )
        80        C      tau(  80) = (  0.2499577  0.1250362  0.1250597  )
        81        C      tau(  81) = (  0.2499925  0.1250009  0.3750607  )
        82        C      tau(  82) = (  0.2498540  0.1247678  0.6250922  )
        83        C      tau(  83) = (  0.2499376  0.1248850  0.8750483  )
        84        C      tau(  84) = (  0.2499929  0.3750370  0.1250248  )
        85        C      tau(  85) = (  0.2505368  0.3753585  0.3753853  )
        86        C      tau(  86) = (  0.2499807  0.3747944  0.6251175  )
        87        C      tau(  87) = (  0.2498614  0.3748673  0.8751570  )
        88        C      tau(  88) = (  0.2498567  0.6250645  0.1247987  )
        89        C      tau(  89) = (  0.2499822  0.6250875  0.3748247  )
        90        C      tau(  90) = (  0.2507673  0.6244220  0.6244495  )
        91        C      tau(  91) = (  0.2502131  0.6248792  0.8747512  )
        92        C      tau(  92) = (  0.2499402  0.8750222  0.1249136  )
        93        C      tau(  93) = (  0.2498638  0.8751285  0.3748950  )
        94        C      tau(  94) = (  0.2502132  0.8747219  0.6249047  )
        95        C      tau(  95) = (  0.2500261  0.8748470  0.8748738  )
        96        C      tau(  96) = (  0.4999738  0.1249026  0.1249243  )
        97        C      tau(  97) = (  0.4999581  0.1250249  0.3750536  )
        98        C      tau(  98) = (  0.4999221  0.1249453  0.6250451  )
        99        C      tau(  99) = (  0.4999114  0.1246964  0.8752800  )
       100        C      tau( 100) = (  0.4999584  0.3750311  0.1250476  )
       101        C      tau( 101) = (  0.4999795  0.3754166  0.3754442  )
       102        C      tau( 102) = (  0.4986102  0.3747931  0.6250663  )
       103        C      tau( 103) = (  0.4999576  0.3749902  0.8749822  )
       104        C      tau( 104) = (  0.4999249  0.6250189  0.1249726  )
       105        C      tau( 105) = (  0.4986116  0.6250414  0.3748185  )
       106        C      tau( 106) = (  0.5020224  0.6242313  0.6242559  )
       107        C      tau( 107) = (  0.5000494  0.6249313  0.8749416  )
       108        C      tau( 108) = (  0.4999129  0.8752547  0.1247228  )
       109        C      tau( 109) = (  0.4999588  0.8749588  0.3750141  )
       110        C      tau( 110) = (  0.5000491  0.8749175  0.6249540  )
       111        C      tau( 111) = (  0.5000238  0.8749821  0.8750060  )
       112        C      tau( 112) = (  0.7499731  0.1249989  0.1250173  )
       113        C      tau( 113) = (  0.7499935  0.1249532  0.3750163  )
       114        C      tau( 114) = (  0.7498887  0.1250445  0.6250082  )
       115        C      tau( 115) = (  0.7499443  0.1250582  0.8749744  )
       116        C      tau( 116) = (  0.7499930  0.3749971  0.1249735  )
       117        C      tau( 117) = (  0.7499704  0.3749667  0.3749900  )
       118        C      tau( 118) = (  0.7492057  0.3755799  0.6249057  )
       119        C      tau( 119) = (  0.7499022  0.3750344  0.8749576  )
       120        C      tau( 120) = (  0.7498887  0.6249872  0.1250667  )
       121        C      tau( 121) = (  0.7492066  0.6248810  0.3756049  )
       122        C      tau( 122) = (  0.7502509  0.6252007  0.6252241  )
       123        C      tau( 123) = (  0.7500799  0.6250504  0.8751230  )
       124        C      tau( 124) = (  0.7499443  0.8749543  0.1250786  )
       125        C      tau( 125) = (  0.7499018  0.8749369  0.3750545  )
       126        C      tau( 126) = (  0.7500792  0.8751026  0.6250694  )
       127        C      tau( 127) = (  0.7500351  0.8750314  0.8750505  )
       128        C      tau( 128) = (  0.1249551  0.0000068  0.1249950  )
       129        C      tau( 129) = (  0.1249109  0.0000161  0.3749904  )
       130        C      tau( 130) = (  0.1249754 -0.0001397  0.6250076  )
       131        C      tau( 131) = (  0.1249849 -0.0000826  0.8749800  )
       132        C      tau( 132) = (  0.1249861  0.2500237  0.1250799  )
       133        C      tau( 133) = (  0.1250369  0.2500914  0.3750811  )
       134        C      tau( 134) = (  0.1248709  0.2498679  0.6250710  )
       135        C      tau( 135) = (  0.1249207  0.2499394  0.8750387  )
       136        C      tau( 136) = (  0.1247718  0.5000503  0.1248173  )
       137        C      tau( 137) = (  0.1251405  0.5000322  0.3750467  )
       138        C      tau( 138) = (  0.1252064  0.4998761  0.6248988  )
       139        C      tau( 139) = (  0.1248442  0.4998966  0.8751148  )
       140        C      tau( 140) = (  0.1249365  0.7500033  0.1249378  )
       141        C      tau( 141) = (  0.1249027  0.7500572  0.3749249  )
       142        C      tau( 142) = (  0.1251856  0.7497736  0.6248714  )
       143        C      tau( 143) = (  0.1251014  0.7498887  0.8748550  )
       144        C      tau( 144) = (  0.3749394  0.0000428  0.1249457  )
       145        C      tau( 145) = (  0.3749695 -0.0000075  0.3749992  )
       146        C      tau( 146) = (  0.3749887 -0.0001171  0.6250010  )
       147        C      tau( 147) = (  0.3749639 -0.0001566  0.8750057  )
       148        C      tau( 148) = (  0.3749608  0.2500448  0.1250501  )
       149        C      tau( 149) = (  0.3751583  0.2502431  0.3753444  )
       150        C      tau( 150) = (  0.3748823  0.2496201  0.6252913  )
       151        C      tau( 151) = (  0.3749034  0.2497674  0.8752317  )
       152        C      tau( 152) = (  0.3749687  0.5000490  0.1249957  )
       153        C      tau( 153) = (  0.3758493  0.5010846  0.3753829  )
       154        C      tau( 154) = (  0.3761368  0.4984580  0.6241940  )
       155        C      tau( 155) = (  0.3750758  0.4998933  0.8748963  )
       156        C      tau( 156) = (  0.3749155  0.7501615  0.1247524  )
       157        C      tau( 157) = (  0.3749001  0.7503158  0.3746705  )
       158        C      tau( 158) = (  0.3756832  0.7492083  0.6246420  )
       159        C      tau( 159) = (  0.3750652  0.7498307  0.8748152  )
       160        C      tau( 160) = (  0.6249873 -0.0000211  0.1250259  )
       161        C      tau( 161) = (  0.6249668 -0.0000037  0.3750249  )
       162        C      tau( 162) = (  0.6249852 -0.0000062  0.6250162  )
       163        C      tau( 163) = (  0.6250027 -0.0000112  0.8750274  )
       164        C      tau( 164) = (  0.6249671  0.2499566  0.1249637  )
       165        C      tau( 165) = (  0.6249243  0.2498921  0.3749998  )
       166        C      tau( 166) = (  0.6245874  0.2502436  0.6248387  )
       167        C      tau( 167) = (  0.6249546  0.2501223  0.8749352  )
       168        C      tau( 168) = (  0.6249179  0.5000011  0.1250477  )
       169        C      tau( 169) = (  0.6240495  0.4995852  0.3755164  )
       170        C      tau( 170) = (  0.6242674  0.5020267  0.6245380  )
       171        C      tau( 171) = (  0.6249812  0.5000096  0.8750064  )
       172        C      tau( 172) = (  0.6249392  0.7499708  0.1249974  )
       173        C      tau( 173) = (  0.6247431  0.7494510  0.3755345  )
       174        C      tau( 174) = (  0.6251827  0.7503095  0.6251820  )
       175        C      tau( 175) = (  0.6250606  0.7500602  0.8750999  )
       176        C      tau( 176) = (  0.8749643 -0.0000132  0.1250243  )
       177        C      tau( 177) = (  0.8749496 -0.0000241  0.3750182  )
       178        C      tau( 178) = (  0.8749847  0.0000148  0.6250219  )
       179        C      tau( 179) = (  0.8749915  0.0000159  0.8750107  )
       180        C      tau( 180) = (  0.8749652  0.2500051  0.1250190  )
       181        C      tau( 181) = (  0.8749957  0.2499757  0.3750211  )
       182        C      tau( 182) = (  0.8747566  0.2502005  0.6250147  )
       183        C      tau( 183) = (  0.8749070  0.2500229  0.8749731  )
       184        C      tau( 184) = (  0.8750088  0.4999860  0.1249714  )
       185        C      tau( 185) = (  0.8748152  0.5000083  0.3751213  )
       186        C      tau( 186) = (  0.8749224  0.5000317  0.6249987  )
       187        C      tau( 187) = (  0.8750213  0.5000214  0.8750428  )
       188        C      tau( 188) = (  0.8749064  0.7499698  0.1250813  )
       189        C      tau( 189) = (  0.8748547  0.7499093  0.3750641  )
       190        C      tau( 190) = (  0.8751174  0.7500539  0.6250577  )
       191        C      tau( 191) = (  0.8750598  0.7500093  0.8750369  )
       192        C      tau( 192) = (  0.1249540  0.1249733  0.0000286  )
       193        C      tau( 193) = (  0.1249865  0.1250574  0.2500449  )
       194        C      tau( 194) = (  0.1247705  0.1247911  0.5000741  )
       195        C      tau( 195) = (  0.1249343  0.1249114  0.7500265  )
       196        C      tau( 196) = (  0.1249096  0.3749684  0.0000404  )
       197        C      tau( 197) = (  0.1250368  0.3750581  0.2501151  )
       198        C      tau( 198) = (  0.1251406  0.3750217  0.5000572  )
       199        C      tau( 199) = (  0.1249006  0.3748990  0.7500834  )
       200        C      tau( 200) = (  0.1249764  0.6249853 -0.0001123  )
       201        C      tau( 201) = (  0.1248730  0.6250457  0.2498949  )
       202        C      tau( 202) = (  0.1252062  0.6248727  0.4999019  )
       203        C      tau( 203) = (  0.1251856  0.6248461  0.7498005  )
       204        C      tau( 204) = (  0.1249858  0.8749583 -0.0000589  )
       205        C      tau( 205) = (  0.1249231  0.8750147  0.2499635  )
       206        C      tau( 206) = (  0.1248457  0.8750882  0.4999207  )
       207        C      tau( 207) = (  0.1251012  0.8748285  0.7499120  )
       208        C      tau( 208) = (  0.3749383  0.1249193  0.0000687  )
       209        C      tau( 209) = (  0.3749610  0.1250271  0.2500676  )
       210        C      tau( 210) = (  0.3749669  0.1249697  0.5000749  )
       211        C      tau( 211) = (  0.3749130  0.1247210  0.7501902  )
       212        C      tau( 212) = (  0.3749691  0.3749761  0.0000162  )
       213        C      tau( 213) = (  0.3751588  0.3753169  0.2502704  )
       214        C      tau( 214) = (  0.3758483  0.3753561  0.5011115  )
       215        C      tau( 215) = (  0.3748984  0.3746430  0.7503424  )
       216        C      tau( 216) = (  0.3749902  0.6249768 -0.0000891  )
       217        C      tau( 217) = (  0.3748845  0.6252632  0.2496485  )
       218        C      tau( 218) = (  0.3761375  0.6241683  0.4984842  )
       219        C      tau( 219) = (  0.3756833  0.6246156  0.7492350  )
       220        C      tau( 220) = (  0.3749650  0.8749794 -0.0001271  )
       221        C      tau( 221) = (  0.3749056  0.8752035  0.2497964  )
       222        C      tau( 222) = (  0.3750761  0.8748710  0.4999184  )
       223        C      tau( 223) = (  0.3750649  0.8747865  0.7498564  )
       224        C      tau( 224) = (  0.6249871  0.1250057 -0.0000008  )
       225        C      tau( 225) = (  0.6249674  0.1249434  0.2499764  )
       226        C      tau( 226) = (  0.6249171  0.1250253  0.5000231  )
       227        C      tau( 227) = (  0.6249378  0.1249731  0.7499942  )
       228        C      tau( 228) = (  0.6249666  0.3750050  0.0000167  )
       229        C      tau( 229) = (  0.6249246  0.3749764  0.2499158  )
       230        C      tau( 230) = (  0.6240477  0.3754909  0.4996111  )
       231        C      tau( 231) = (  0.6247419  0.3755107  0.7494743  )
       232        C      tau( 232) = (  0.6249860  0.6249960  0.0000154  )
       233        C      tau( 233) = (  0.6245883  0.6248119  0.2502707  )
       234        C      tau( 234) = (  0.6242684  0.6245144  0.5020504  )
       235        C      tau( 235) = (  0.6251831  0.6251587  0.7503337  )
       236        C      tau( 236) = (  0.6250029  0.8750061  0.0000108  )
       237        C      tau( 237) = (  0.6249552  0.8749138  0.2501444  )
       238        C      tau( 238) = (  0.6249811  0.8749850  0.5000306  )
       239        C      tau( 239) = (  0.6250604  0.8750787  0.7500804  )
       240        C      tau( 240) = (  0.8749641  0.1250059  0.0000056  )
       241        C      tau( 241) = (  0.8749655  0.1250002  0.2500232  )
       242        C      tau( 242) = (  0.8750098  0.1249498  0.5000053  )
       243        C      tau( 243) = (  0.8749068  0.1250596  0.7499899  )
       244        C      tau( 244) = (  0.8749492  0.3750002 -0.0000041  )
       245        C      tau( 245) = (  0.8749955  0.3750009  0.2499967  )
       246        C      tau( 246) = (  0.8748156  0.3750972  0.5000316  )
       247        C      tau( 247) = (  0.8748560  0.3750420  0.7499313  )
       248        C      tau( 248) = (  0.8749850  0.6250035  0.0000356  )
       249        C      tau( 249) = (  0.8747549  0.6249920  0.2502248  )
       250        C      tau( 250) = (  0.8749220  0.6249764  0.5000543  )
       251        C      tau( 251) = (  0.8751177  0.6250378  0.7500744  )
       252        C      tau( 252) = (  0.8749917  0.8749920  0.0000353  )
       253        C      tau( 253) = (  0.8749068  0.8749525  0.2500427  )
       254        C      tau( 254) = (  0.8750208  0.8750223  0.5000401  )
       255        C      tau( 255) = (  0.8750595  0.8750174  0.7500278  )
       256        C      tau( 256) = (  0.1874491  0.0625463  0.1875174  )
       257        C      tau( 257) = (  0.1874197  0.0624433  0.4375205  )
       258        C      tau( 258) = (  0.1874308  0.0623227  0.6875271  )
       259        C      tau( 259) = (  0.1874559  0.0624340  0.9375105  )
       260        C      tau( 260) = (  0.1875225  0.3125542  0.1876000  )
       261        C      tau( 261) = (  0.1876362  0.3125294  0.4376093  )
       262        C      tau( 262) = (  0.1874054  0.3123907  0.6875686  )
       263        C      tau( 263) = (  0.1873980  0.3124347  0.9375979  )
       264        C      tau( 264) = (  0.1871447  0.5624947  0.1871390  )
       265        C      tau( 265) = (  0.1877695  0.5624389  0.4374619  )
       266        C      tau( 266) = (  0.1877911  0.5622883  0.6873322  )
       267        C      tau( 267) = (  0.1875279  0.5624341  0.9373928  )
       268        C      tau( 268) = (  0.1874366  0.8125217  0.1874321  )
       269        C      tau( 269) = (  0.1872182  0.8127714  0.4374720  )
       270        C      tau( 270) = (  0.1876914  0.8122455  0.6873496  )
       271        C      tau( 271) = (  0.1875112  0.8124195  0.9373766  )
       272        C      tau( 272) = (  0.4374498  0.0625030  0.1874972  )
       273        C      tau( 273) = (  0.4374470  0.0624816  0.4375258  )
       274        C      tau( 274) = (  0.4374577  0.0623776  0.6875508  )
       275        C      tau( 275) = (  0.4374808  0.0623177  0.9376191  )
       276        C      tau( 276) = (  0.4374234  0.3125611  0.1875554  )
       277        C      tau( 277) = (  0.4375878  0.3128513  0.4379744  )
       278        C      tau( 278) = (  0.4377097  0.3112065  0.6888302  )
       279        C      tau( 279) = (  0.4374521  0.3124355  0.9375464  )
       280        C      tau( 280) = (  0.4374280  0.5625676  0.1874552  )
       281        C      tau( 281) = (  0.4384224  0.5615784  0.6864372  )
       282        C      tau( 282) = (  0.4374940  0.5624544  0.9374484  )
       283        C      tau( 283) = (  0.4374993  0.8130010  0.1869841  )
       284        C      tau( 284) = (  0.4374803  0.8124692  0.4373902  )
       285        C      tau( 285) = (  0.4376372  0.8122496  0.6873355  )
       286        C      tau( 286) = (  0.4375076  0.8124281  0.9373937  )
       287        C      tau( 287) = (  0.6874767  0.0624703  0.1875121  )
       288        C      tau( 288) = (  0.6874548  0.0625027  0.4375373  )
       289        C      tau( 289) = (  0.6874770  0.0624948  0.6875398  )
       290        C      tau( 290) = (  0.6874764  0.0625214  0.9375036  )
       291        C      tau( 291) = (  0.6874630  0.3124966  0.1874496  )
       292        C      tau( 292) = (  0.6879670  0.3119298  0.4376664  )
       293        C      tau( 293) = (  0.6870993  0.3127657  0.6873196  )
       294        C      tau( 294) = (  0.6874581  0.3125148  0.9374960  )
       295        C      tau( 295) = (  0.6873622  0.5625394  0.1875647  )
       296        C      tau( 296) = (  0.6863547  0.5619621  0.4384268  )
       297        C      tau( 297) = (  0.6879555  0.5627529  0.6880761  )
       298        C      tau( 298) = (  0.6875003  0.5625074  0.9375374  )
       299        C      tau( 299) = (  0.6873998  0.8124227  0.1876049  )
       300        C      tau( 300) = (  0.6874095  0.8124119  0.4375819  )
       301        C      tau( 301) = (  0.6876347  0.8126911  0.6876376  )
       302        C      tau( 302) = (  0.6875342  0.8125402  0.9375655  )
       303        C      tau( 303) = (  0.9374615  0.0624999  0.1875211  )
       304        C      tau( 304) = (  0.9374669  0.0624722  0.4375316  )
       305        C      tau( 305) = (  0.9374404  0.0625127  0.6875079  )
       306        C      tau( 306) = (  0.9374721  0.0624979  0.9375107  )
       307        C      tau( 307) = (  0.9374837  0.3125020  0.1875226  )
       308        C      tau( 308) = (  0.9374207  0.3125411  0.4375417  )
       309        C      tau( 309) = (  0.9373929  0.3125443  0.6874885  )
       310        C      tau( 310) = (  0.9374233  0.3125018  0.9374959  )
       311        C      tau( 311) = (  0.9373702  0.5624873  0.1876019  )
       312        C      tau( 312) = (  0.9374432  0.5624903  0.4375386  )
       313        C      tau( 313) = (  0.9375317  0.5624944  0.6874915  )
       314        C      tau( 314) = (  0.9374913  0.5624934  0.9375004  )
       315        C      tau( 315) = (  0.9374141  0.8124788  0.1875294  )
       316        C      tau( 316) = (  0.9374412  0.8124436  0.4375319  )
       317        C      tau( 317) = (  0.9375944  0.8124995  0.6875232  )
       318        C      tau( 318) = (  0.9375254  0.8124910  0.9375151  )
       319        C      tau( 319) = (  0.0624608  0.0624927  0.0625131  )
       320        C      tau( 320) = (  0.0624564  0.0625326  0.3125195  )
       321        C      tau( 321) = (  0.0623454  0.0623681  0.5625006  )
       322        C      tau( 322) = (  0.0624660  0.0624465  0.8125048  )
       323        C      tau( 323) = (  0.0624554  0.3124993  0.0625549  )
       324        C      tau( 324) = (  0.0624894  0.3125245  0.3125465  )
       325        C      tau( 325) = (  0.0625015  0.3124953  0.5625153  )
       326        C      tau( 326) = (  0.0623936  0.3124593  0.8125261  )
       327        C      tau( 327) = (  0.0623464  0.5624787  0.0623938  )
       328        C      tau( 328) = (  0.0625015  0.5624925  0.3125190  )
       329        C      tau( 329) = (  0.0626257  0.5624368  0.5624611  )
       330        C      tau( 330) = (  0.0625469  0.5624423  0.8124411  )
       331        C      tau( 331) = (  0.0624675  0.8124838  0.0624697  )
       332        C      tau( 332) = (  0.0623956  0.8125025  0.3124825  )
       333        C      tau( 333) = (  0.0625472  0.8124167  0.5624649  )
       334        C      tau( 334) = (  0.0625855  0.8124118  0.8124348  )
       335        C      tau( 335) = (  0.3124477  0.0625001  0.0625252  )
       336        C      tau( 336) = (  0.3124376  0.0625031  0.3125089  )
       337        C      tau( 337) = (  0.3124492  0.0623984  0.5625275  )
       338        C      tau( 338) = (  0.3124428  0.0622926  0.8125563  )
       339        C      tau( 339) = (  0.3124371  0.3124858  0.0625267  )
       340        C      tau( 340) = (  0.3126759  0.3127387  0.3127661  )
       341        C      tau( 341) = (  0.3118440  0.3115983  0.5624459  )
       342        C      tau( 342) = (  0.3124050  0.3123106  0.8127719  )
       343        C      tau( 343) = (  0.3124510  0.5625024  0.0624261  )
       344        C      tau( 344) = (  0.3118447  0.5624179  0.3116254  )
       345        C      tau( 345) = (  0.3137216  0.5617891  0.5618156  )
       346        C      tau( 346) = (  0.3127509  0.5622427  0.8121853  )
       347        C      tau( 347) = (  0.3124456  0.8125286  0.0623243  )
       348        C      tau( 348) = (  0.3124076  0.8127429  0.3123403  )
       349        C      tau( 349) = (  0.3127512  0.8121574  0.5622693  )
       350        C      tau( 350) = (  0.3125860  0.8122801  0.8123079  )
       351        C      tau( 351) = (  0.5624670  0.0624444  0.0624654  )
       352        C      tau( 352) = (  0.5624492  0.0625020  0.3125238  )
       353        C      tau( 353) = (  0.5624592  0.0624806  0.5625417  )
       354        C      tau( 354) = (  0.5624735  0.0624105  0.8125691  )
       355        C      tau( 355) = (  0.5624490  0.3125030  0.0625230  )
       356        C      tau( 356) = (  0.5622981  0.3119201  0.3119450  )
       357        C      tau( 357) = (  0.5618973  0.3128075  0.5625338  )
       358        C      tau( 358) = (  0.5623367  0.3125540  0.8124096  )
       359        C      tau( 359) = (  0.5624606  0.5625196  0.0625035  )
       360        C      tau( 360) = (  0.5618985  0.5625065  0.3128346  )
       361        C      tau( 361) = (  0.5625233  0.5624469  0.8125240  )
       362        C      tau( 362) = (  0.5624750  0.8125453  0.0624359  )
       363        C      tau( 363) = (  0.5623383  0.8123864  0.3125777  )
       364        C      tau( 364) = (  0.5625236  0.8125008  0.5624699  )
       365        C      tau( 365) = (  0.5625686  0.8125678  0.8125895  )
       366        C      tau( 366) = (  0.8124733  0.0625022  0.0625206  )
       367        C      tau( 367) = (  0.8124683  0.0624708  0.3125210  )
       368        C      tau( 368) = (  0.8124603  0.0625144  0.5625278  )
       369        C      tau( 369) = (  0.8124639  0.0625464  0.8125058  )
       370        C      tau( 370) = (  0.8124679  0.3125030  0.0624901  )
       371        C      tau( 371) = (  0.8125144  0.3124912  0.3125121  )
       372        C      tau( 372) = (  0.8121206  0.3127730  0.5624592  )
       373        C      tau( 373) = (  0.8123685  0.3125493  0.8124409  )
       374        C      tau( 374) = (  0.8124602  0.5625089  0.0625352  )
       375        C      tau( 375) = (  0.8121199  0.5624347  0.3127985  )
       376        C      tau( 376) = (  0.8124245  0.5625348  0.5625580  )
       377        C      tau( 377) = (  0.8126195  0.5625547  0.8126418  )
       378        C      tau( 378) = (  0.8124640  0.8124866  0.0625665  )
       379        C      tau( 379) = (  0.8123674  0.8124192  0.3125707  )
       380        C      tau( 380) = (  0.8126190  0.8126213  0.5625741  )
       381        C      tau( 381) = (  0.8125810  0.8125532  0.8125721  )
       382        C      tau( 382) = (  0.0624800  0.1875230  0.1875436  )
       383        C      tau( 383) = (  0.0624450  0.1875005  0.4375377  )
       384        C      tau( 384) = (  0.0623860  0.1874479  0.6875294  )
       385        C      tau( 385) = (  0.0624420  0.1874743  0.9375249  )
       386        C      tau( 386) = (  0.0624448  0.4375160  0.1875236  )
       387        C      tau( 387) = (  0.0625656  0.4375036  0.4375269  )
       388        C      tau( 388) = (  0.0625456  0.4374642  0.6874719  )
       389        C      tau( 389) = (  0.0623576  0.4374912  0.9375647  )
       390        C      tau( 390) = (  0.0623878  0.6875067  0.1874730  )
       391        C      tau( 391) = (  0.0625458  0.6874481  0.4374878  )
       392        C      tau( 392) = (  0.0626212  0.6874073  0.6874316  )
       393        C      tau( 393) = (  0.0625338  0.6874567  0.9374149  )
       394        C      tau( 394) = (  0.0624437  0.9375033  0.1874956  )
       395        C      tau( 395) = (  0.0623591  0.9375404  0.4375130  )
       396        C      tau( 396) = (  0.0625333  0.9373897  0.6874778  )
       397        C      tau( 397) = (  0.0624935  0.9374600  0.9374811  )
       398        C      tau( 398) = (  0.3124752  0.1875722  0.1875954  )
       399        C      tau( 399) = (  0.3124219  0.1874687  0.4376170  )
       400        C      tau( 400) = (  0.3124104  0.1871898  0.6876442  )
       401        C      tau( 401) = (  0.3124182  0.1873804  0.9376317  )
       402        C      tau( 402) = (  0.3124232  0.4375901  0.1874946  )
       403        C      tau( 403) = (  0.3135354  0.4379245  0.4379514  )
       404        C      tau( 404) = (  0.3119500  0.4374836  0.6883229  )
       405        C      tau( 405) = (  0.3124680  0.4374439  0.9374858  )
       406        C      tau( 406) = (  0.3124132  0.6876147  0.1872214  )
       407        C      tau( 407) = (  0.3119505  0.6882963  0.4375111  )
       408        C      tau( 408) = (  0.3129692  0.6870155  0.6870432  )
       409        C      tau( 409) = (  0.3125316  0.6874210  0.9373486  )
       410        C      tau( 410) = (  0.3124210  0.9376041  0.1874089  )
       411        C      tau( 411) = (  0.3124689  0.9374607  0.4374681  )
       412        C      tau( 412) = (  0.3125310  0.9373188  0.6874457  )
       413        C      tau( 413) = (  0.3124759  0.9373965  0.9374235  )
       414        C      tau( 414) = (  0.5624317  0.1873208  0.1873422  )
       415        C      tau( 415) = (  0.5623828  0.1875244  0.4375999  )
       416        C      tau( 416) = (  0.5623629  0.1874042  0.6876436  )
       417        C      tau( 417) = (  0.5624513  0.1874799  0.9375247  )
       418        C      tau( 418) = (  0.5623839  0.4375759  0.1875480  )
       419        C      tau( 419) = (  0.5617236  0.4380600  0.6866849  )
       420        C      tau( 420) = (  0.5624755  0.4374742  0.9375078  )
       421        C      tau( 421) = (  0.5623659  0.6876167  0.1874316  )
       422        C      tau( 422) = (  0.5617254  0.6866615  0.4380843  )
       423        C      tau( 423) = (  0.5628008  0.6878977  0.6879226  )
       424        C      tau( 424) = (  0.5625096  0.6874889  0.9374921  )
       425        C      tau( 425) = (  0.5624523  0.9375028  0.1875023  )
       426        C      tau( 426) = (  0.5624759  0.9374863  0.4374954  )
       427        C      tau( 427) = (  0.5625091  0.9374692  0.6875100  )
       428        C      tau( 428) = (  0.5624987  0.9374870  0.9375095  )
       429        C      tau( 429) = (  0.8124623  0.1875047  0.1875232  )
       430        C      tau( 430) = (  0.8126028  0.1873577  0.4375527  )
       431        C      tau( 431) = (  0.8123357  0.1876175  0.6874779  )
       432        C      tau( 432) = (  0.8124479  0.1875192  0.9374875  )
       433        C      tau( 433) = (  0.8126018  0.4375320  0.1873802  )
       434        C      tau( 434) = (  0.8122935  0.4375389  0.4375633  )
       435        C      tau( 435) = (  0.8122902  0.4376269  0.6874657  )
       436        C      tau( 436) = (  0.8124531  0.4375157  0.9374943  )
       437        C      tau( 437) = (  0.8123345  0.6874562  0.1876408  )
       438        C      tau( 438) = (  0.8122892  0.6874426  0.4376505  )
       439        C      tau( 439) = (  0.8127008  0.6876208  0.6876416  )
       440        C      tau( 440) = (  0.8125445  0.6875288  0.9375745  )
       441        C      tau( 441) = (  0.8124481  0.9374681  0.1875381  )
       442        C      tau( 442) = (  0.8124531  0.9374744  0.4375341  )
       443        C      tau( 443) = (  0.8125440  0.9375546  0.6875471  )
       444        C      tau( 444) = (  0.8125042  0.9375177  0.9375365  )
       445        C      tau( 445) = (  0.1874479  0.1874946  0.0625700  )
       446        C      tau( 446) = (  0.1875223  0.1875762  0.3125771  )
       447        C      tau( 447) = (  0.1871437  0.1871109  0.5625217  )
       448        C      tau( 448) = (  0.1874334  0.1874038  0.8125481  )
       449        C      tau( 449) = (  0.1874201  0.4374977  0.0624678  )
       450        C      tau( 450) = (  0.1876361  0.4375829  0.3125554  )
       451        C      tau( 451) = (  0.1877697  0.4374336  0.5624672  )
       452        C      tau( 452) = (  0.1872169  0.4374447  0.8127992  )
       453        C      tau( 453) = (  0.1874333  0.6875019  0.0623529  )
       454        C      tau( 454) = (  0.1874081  0.6875397  0.3124203  )
       455        C      tau( 455) = (  0.1877910  0.6873041  0.5623158  )
       456        C      tau( 456) = (  0.1876911  0.6873235  0.8122742  )
       457        C      tau( 457) = (  0.1874576  0.9374867  0.0624589  )
       458        C      tau( 458) = (  0.1874008  0.9375715  0.3124600  )
       459        C      tau( 459) = (  0.1875283  0.9373658  0.5624575  )
       460        C      tau( 460) = (  0.1875103  0.9373489  0.8124438  )
       461        C      tau( 461) = (  0.4374493  0.1874745  0.0625257  )
       462        C      tau( 462) = (  0.4374229  0.1875317  0.3125850  )
       463        C      tau( 463) = (  0.4374254  0.1874272  0.5625957  )
       464        C      tau( 464) = (  0.4374971  0.1869575  0.8130264  )
       465        C      tau( 465) = (  0.4374477  0.4375031  0.0625048  )
       466        C      tau( 466) = (  0.4375885  0.4379463  0.3128793  )
       467        C      tau( 467) = (  0.4374787  0.4373638  0.8124945  )
       468        C      tau( 468) = (  0.4374603  0.6875249  0.0624067  )
       469        C      tau( 469) = (  0.4377117  0.6888048  0.3112326  )
       470        C      tau( 470) = (  0.4384229  0.6864121  0.5616039  )
       471        C      tau( 471) = (  0.4376370  0.6873107  0.8122761  )
       472        C      tau( 472) = (  0.4374824  0.9375927  0.0623458  )
       473        C      tau( 473) = (  0.4374536  0.9375220  0.3124601  )
       474        C      tau( 474) = (  0.4374938  0.9374240  0.5624772  )
       475        C      tau( 475) = (  0.4375069  0.9373664  0.8124525  )
       476        C      tau( 476) = (  0.6874764  0.1874932  0.0624895  )
       477        C      tau( 477) = (  0.6874632  0.1874290  0.3125169  )
       478        C      tau( 478) = (  0.6873614  0.1875410  0.5625627  )
       479        C      tau( 479) = (  0.6873996  0.1875823  0.8124447  )
       480        C      tau( 480) = (  0.6874549  0.4375178  0.0625230  )
       481        C      tau( 481) = (  0.6879677  0.4376419  0.3119536  )
       482        C      tau( 482) = (  0.6863534  0.4384020  0.5619869  )
       483        C      tau( 483) = (  0.6874096  0.4375603  0.8124336  )
       484        C      tau( 484) = (  0.6874778  0.6875193  0.0625166  )
       485        C      tau( 485) = (  0.6870995  0.6872939  0.3127917  )
       486        C      tau( 486) = (  0.6879556  0.6880522  0.5627770  )
       487        C      tau( 487) = (  0.6876351  0.6876173  0.8127126  )
       488        C      tau( 488) = (  0.6874765  0.9374837  0.0625415  )
       489        C      tau( 489) = (  0.6874585  0.9374760  0.3125345  )
       490        C      tau( 490) = (  0.6875000  0.9375170  0.5625266  )
       491        C      tau( 491) = (  0.6875340  0.9375452  0.8125596  )
       492        C      tau( 492) = (  0.9374610  0.1875027  0.0625190  )
       493        C      tau( 493) = (  0.9374841  0.1875026  0.3125211  )
       494        C      tau( 494) = (  0.9373712  0.1875791  0.5625077  )
       495        C      tau( 495) = (  0.9374136  0.1875086  0.8124991  )
       496        C      tau( 496) = (  0.9374662  0.4375129  0.0624934  )
       497        C      tau( 497) = (  0.9374205  0.4375205  0.3125631  )
       498        C      tau( 498) = (  0.9374434  0.4375162  0.5625121  )
       499        C      tau( 499) = (  0.9374415  0.4375117  0.8124650  )
       500        C      tau( 500) = (  0.9374407  0.6874886  0.0625346  )
       501        C      tau( 501) = (  0.9373920  0.6874670  0.3125667  )
       502        C      tau( 502) = (  0.9375317  0.6874701  0.5625155  )
       503        C      tau( 503) = (  0.9375946  0.6875036  0.8125204  )
       504        C      tau( 504) = (  0.9374725  0.9374918  0.0625170  )
       505        C      tau( 505) = (  0.9374240  0.9374753  0.3125209  )
       506        C      tau( 506) = (  0.9374910  0.9374789  0.5625122  )
       507        C      tau( 507) = (  0.9375251  0.9374951  0.8125099  )
       508        C      tau( 508) = (  0.5678019  0.4317736  0.4317984  )
       509        C      tau( 509) = (  0.4328435  0.4309307  0.5686902  )
       510        C      tau( 510) = (  0.4328444  0.5686656  0.4309557  )
       511        N      tau( 511) = (  0.5666420  0.5664804  0.5665039  )

     number of k points=     1
                       cart. coord. in units 2pi/alat
        k(    1) = (   0.0000000   0.0000000   0.0000000), wk =   1.0000000

                       cryst. coord.
        k(    1) = (   0.0000000   0.0000000   0.0000000), wk =   1.0000000

     Dense  grid:   948261 G-vectors     FFT dimensions: ( 160, 160, 160)

     Occupations read from input 

      Spin-up

        1.0000   1.0000   1.0000   1.0000   1.0000   1.0000   1.0000   1.0000
        1.0000   1.0000   1.0000   1.0000   1.0000   1.0000   1.0000   1.0000
        1.0000   1.0000   1.0000   1.0000   1.0000   1.0000   1.0000   1.0000
        1.0000   1.0000   1.0000   1.0000   1.0000   1.0000   1.0000   1.0000
        1.0000   1.0000   1.0000   1.0000   1.0000   1.0000   1.0000   1.0000
        1.0000   1.0000   1.0000   1.0000   1.0000   1.0000   1.0000   1.0000
        1.0000   1.0000   1.0000   1.0000   1.0000   1.0000   1.0000   1.0000
        1.0000   1.0000   1.0000   1.0000   1.0000   1.0000   1.0000   1.0000
        1.0000   1.0000   1.0000   1.0000   1.0000   1.0000   1.0000   1.0000
        1.0000   1.0000   1.0000   1.0000   1.0000   1.0000   1.0000   1.0000
        1.0000   1.0000   1.0000   1.0000   1.0000   1.0000   1.0000   1.0000
        1.0000   1.0000   1.0000   1.0000   1.0000   1.0000   1.0000   1.0000
        1.0000   1.0000   1.0000   1.0000   1.0000   1.0000   1.0000   1.0000
        1.0000   1.0000   1.0000   1.0000   1.0000   1.0000   1.0000   1.0000
        1.0000   1.0000   1.0000   1.0000   1.0000   1.0000   1.0000   1.0000
        1.0000   1.0000   1.0000   1.0000   1.0000   1.0000   1.0000   1.0000
        1.0000   1.0000   1.0000   1.0000   1.0000   1.0000   1.0000   1.0000
        1.0000   1.0000   1.0000   1.0000   1.0000   1.0000   1.0000   1.0000
        1.0000   1.0000   1.0000   1.0000   1.0000   1.0000   1.0000   1.0000
        1.0000   1.0000   1.0000   1.0000   1.0000   1.0000   1.0000   1.0000
        1.0000   1.0000   1.0000   1.0000   1.0000   1.0000   1.0000   1.0000
        1.0000   1.0000   1.0000   1.0000   1.0000   1.0000   1.0000   1.0000
        1.0000   1.0000   1.0000   1.0000   1.0000   1.0000   1.0000   1.0000
        1.0000   1.0000   1.0000   1.0000   1.0000   1.0000   1.0000   1.0000
        1.0000   1.0000   1.0000   1.0000   1.0000   1.0000   1.0000   1.0000
        1.0000   1.0000   1.0000   1.0000   1.0000   1.0000   1.0000   1.0000
        1.0000   1.0000   1.0000   1.0000   1.0000   1.0000   1.0000   1.0000
        1.0000   1.0000   1.0000   1.0000   1.0000   1.0000   1.0000   1.0000
        1.0000   1.0000   1.0000   1.0000   1.0000   1.0000   1.0000   1.0000
        1.0000   1.0000   1.0000   1.0000   1.0000   1.0000   1.0000   1.0000
        1.0000   1.0000   1.0000   1.0000   1.0000   1.0000   1.0000   1.0000
        1.0000   1.0000   1.0000   1.0000   1.0000   1.0000   1.0000   1.0000
        1.0000   1.0000   1.0000   1.0000   1.0000   1.0000   1.0000   1.0000
        1.0000   1.0000   1.0000   1.0000   1.0000   1.0000   1.0000   1.0000
        1.0000   1.0000   1.0000   1.0000   1.0000   1.0000   1.0000   1.0000
        1.0000   1.0000   1.0000   1.0000   1.0000   1.0000   1.0000   1.0000
        1.0000   1.0000   1.0000   1.0000   1.0000   1.0000   1.0000   1.0000
        1.0000   1.0000   1.0000   1.0000   1.0000   1.0000   1.0000   1.0000
        1.0000   1.0000   1.0000   1.0000   1.0000   1.0000   1.0000   1.0000
        1.0000   1.0000   1.0000   1.0000   1.0000   1.0000   1.0000   1.0000
        1.0000   1.0000   1.0000   1.0000   1.0000   1.0000   1.0000   1.0000
        1.0000   1.0000   1.0000   1.0000   1.0000   1.0000   1.0000   1.0000
        1.0000   1.0000   1.0000   1.0000   1.0000   1.0000   1.0000   1.0000
        1.0000   1.0000   1.0000   1.0000   1.0000   1.0000   1.0000   1.0000
        1.0000   1.0000   1.0000   1.0000   1.0000   1.0000   1.0000   1.0000
        1.0000   1.0000   1.0000   1.0000   1.0000   1.0000   1.0000   1.0000
        1.0000   1.0000   1.0000   1.0000   1.0000   1.0000   1.0000   1.0000
        1.0000   1.0000   1.0000   1.0000   1.0000   1.0000   1.0000   1.0000
        1.0000   1.0000   1.0000   1.0000   1.0000   1.0000   1.0000   1.0000
        1.0000   1.0000   1.0000   1.0000   1.0000   1.0000   1.0000   1.0000
        1.0000   1.0000   1.0000   1.0000   1.0000   1.0000   1.0000   1.0000
        1.0000   1.0000   1.0000   1.0000   1.0000   1.0000   1.0000   1.0000
        1.0000   1.0000   1.0000   1.0000   1.0000   1.0000   1.0000   1.0000
        1.0000   1.0000   1.0000   1.0000   1.0000   1.0000   1.0000   1.0000
        1.0000   1.0000   1.0000   1.0000   1.0000   1.0000   1.0000   1.0000
        1.0000   1.0000   1.0000   1.0000   1.0000   1.0000   1.0000   1.0000
        1.0000   1.0000   1.0000   1.0000   1.0000   1.0000   1.0000   1.0000
        1.0000   1.0000   1.0000   1.0000   1.0000   1.0000   1.0000   1.0000
        1.0000   1.0000   1.0000   1.0000   1.0000   1.0000   1.0000   1.0000
        1.0000   1.0000   1.0000   1.0000   1.0000   1.0000   1.0000   1.0000
        1.0000   1.0000   1.0000   1.0000   1.0000   1.0000   1.0000   1.0000
        1.0000   1.0000   1.0000   1.0000   1.0000   1.0000   1.0000   1.0000
        1.0000   1.0000   1.0000   1.0000   1.0000   1.0000   1.0000   1.0000
        1.0000   1.0000   1.0000   1.0000   1.0000   1.0000   1.0000   1.0000
        1.0000   1.0000   1.0000   1.0000   1.0000   1.0000   1.0000   1.0000
        1.0000   1.0000   1.0000   1.0000   1.0000   1.0000   1.0000   1.0000
        1.0000   1.0000   1.0000   1.0000   1.0000   1.0000   1.0000   1.0000
        1.0000   1.0000   1.0000   1.0000   1.0000   1.0000   1.0000   1.0000
        1.0000   1.0000   1.0000   1.0000   1.0000   1.0000   1.0000   1.0000
        1.0000   1.0000   1.0000   1.0000   1.0000   1.0000   1.0000   1.0000
        1.0000   1.0000   1.0000   1.0000   1.0000   1.0000   1.0000   1.0000
        1.0000   1.0000   1.0000   1.0000   1.0000   1.0000   1.0000   1.0000
        1.0000   1.0000   1.0000   1.0000   1.0000   1.0000   1.0000   1.0000
        1.0000   1.0000   1.0000   1.0000   1.0000   1.0000   1.0000   1.0000
        1.0000   1.0000   1.0000   1.0000   1.0000   1.0000   1.0000   1.0000
        1.0000   1.0000   1.0000   1.0000   1.0000   1.0000   1.0000   1.0000
        1.0000   1.0000   1.0000   1.0000   1.0000   1.0000   1.0000   1.0000
        1.0000   1.0000   1.0000   1.0000   1.0000   1.0000   1.0000   1.0000
        1.0000   1.0000   1.0000   1.0000   1.0000   1.0000   1.0000   1.0000
        1.0000   1.0000   1.0000   1.0000   1.0000   1.0000   1.0000   1.0000
        1.0000   1.0000   1.0000   1.0000   1.0000   1.0000   1.0000   1.0000
        1.0000   1.0000   1.0000   1.0000   1.0000   1.0000   1.0000   1.0000
        1.0000   1.0000   1.0000   1.0000   1.0000   1.0000   1.0000   1.0000
        1.0000   1.0000   1.0000   1.0000   1.0000   1.0000   1.0000   1.0000
        1.0000   1.0000   1.0000   1.0000   1.0000   1.0000   1.0000   1.0000
        1.0000   1.0000   1.0000   1.0000   1.0000   1.0000   1.0000   1.0000
        1.0000   1.0000   1.0000   1.0000   1.0000   1.0000   1.0000   1.0000
        1.0000   1.0000   1.0000   1.0000   1.0000   1.0000   1.0000   1.0000
        1.0000   1.0000   1.0000   1.0000   1.0000   1.0000   1.0000   1.0000
        1.0000   1.0000   1.0000   1.0000   1.0000   1.0000   1.0000   1.0000
        1.0000   1.0000   1.0000   1.0000   1.0000   1.0000   1.0000   1.0000
        1.0000   1.0000   1.0000   1.0000   1.0000   1.0000   1.0000   1.0000
        1.0000   1.0000   1.0000   1.0000   1.0000   1.0000   1.0000   1.0000
        1.0000   1.0000   1.0000   1.0000   1.0000   1.0000   1.0000   1.0000
        1.0000   1.0000   1.0000   1.0000   1.0000   1.0000   1.0000   1.0000
        1.0000   1.0000   1.0000   1.0000   1.0000   1.0000   1.0000   1.0000
        1.0000   1.0000   1.0000   1.0000   1.0000   1.0000   1.0000   1.0000
        1.0000   1.0000   1.0000   1.0000   1.0000   1.0000   1.0000   1.0000
        1.0000   1.0000   1.0000   1.0000   1.0000   1.0000   1.0000   1.0000
        1.0000   1.0000   1.0000   1.0000   1.0000   1.0000   1.0000   1.0000
        1.0000   1.0000   1.0000   1.0000   1.0000   1.0000   1.0000   1.0000
        1.0000   1.0000   1.0000   1.0000   1.0000   1.0000   1.0000   1.0000
        1.0000   1.0000   1.0000   1.0000   1.0000   1.0000   1.0000   1.0000
        1.0000   1.0000   1.0000   1.0000   1.0000   1.0000   1.0000   1.0000
        1.0000   1.0000   1.0000   1.0000   1.0000   1.0000   1.0000   1.0000
        1.0000   1.0000   1.0000   1.0000   1.0000   1.0000   1.0000   1.0000
        1.0000   1.0000   1.0000   1.0000   1.0000   1.0000   1.0000   1.0000
        1.0000   1.0000   1.0000   1.0000   1.0000   1.0000   1.0000   1.0000
        1.0000   1.0000   1.0000   1.0000   1.0000   1.0000   1.0000   1.0000
        1.0000   1.0000   1.0000   1.0000   1.0000   1.0000   1.0000   1.0000
        1.0000   1.0000   1.0000   1.0000   1.0000   1.0000   1.0000   1.0000
        1.0000   1.0000   1.0000   1.0000   1.0000   1.0000   1.0000   1.0000
        1.0000   1.0000   1.0000   1.0000   1.0000   1.0000   1.0000   1.0000
        1.0000   1.0000   1.0000   1.0000   1.0000   1.0000   1.0000   1.0000
        1.0000   1.0000   1.0000   1.0000   1.0000   1.0000   1.0000   1.0000
        1.0000   1.0000   1.0000   1.0000   1.0000   1.0000   1.0000   1.0000
        1.0000   1.0000   1.0000   1.0000   1.0000   1.0000   1.0000   1.0000
        1.0000   1.0000   1.0000   1.0000   1.0000   1.0000   1.0000   1.0000
        1.0000   1.0000   1.0000   1.0000   1.0000   1.0000   1.0000   1.0000
        1.0000   1.0000   1.0000   1.0000   1.0000   1.0000   1.0000   1.0000
        1.0000   1.0000   1.0000   1.0000   1.0000   1.0000   1.0000   1.0000
        1.0000   1.0000   1.0000   1.0000   1.0000   1.0000   1.0000   1.0000
        1.0000   1.0000   1.0000   1.0000   1.0000   1.0000   1.0000   1.0000
        1.0000   1.0000   1.0000   1.0000   1.0000   1.0000   1.0000   1.0000
        1.0000   1.0000   1.0000   1.0000   1.0000   1.0000   1.0000   1.0000
        1.0000   1.0000   1.0000   1.0000   1.0000   1.0000   1.0000   1.0000
        1.0000   1.0000   1.0000   1.0000   1.0000   1.0000   1.0000   1.0000
        1.0000   1.0000   1.0000   1.0000   1.0000   1.0000   1.0000   1.0000
        0.0000   0.0000   0.0000   0.0000   0.0000   0.0000   0.0000   0.0000

      Spin-down

        1.0000   1.0000   1.0000   1.0000   1.0000   1.0000   1.0000   1.0000
        1.0000   1.0000   1.0000   1.0000   1.0000   1.0000   1.0000   1.0000
        1.0000   1.0000   1.0000   1.0000   1.0000   1.0000   1.0000   1.0000
        1.0000   1.0000   1.0000   1.0000   1.0000   1.0000   1.0000   1.0000
        1.0000   1.0000   1.0000   1.0000   1.0000   1.0000   1.0000   1.0000
        1.0000   1.0000   1.0000   1.0000   1.0000   1.0000   1.0000   1.0000
        1.0000   1.0000   1.0000   1.0000   1.0000   1.0000   1.0000   1.0000
        1.0000   1.0000   1.0000   1.0000   1.0000   1.0000   1.0000   1.0000
        1.0000   1.0000   1.0000   1.0000   1.0000   1.0000   1.0000   1.0000
        1.0000   1.0000   1.0000   1.0000   1.0000   1.0000   1.0000   1.0000
        1.0000   1.0000   1.0000   1.0000   1.0000   1.0000   1.0000   1.0000
        1.0000   1.0000   1.0000   1.0000   1.0000   1.0000   1.0000   1.0000
        1.0000   1.0000   1.0000   1.0000   1.0000   1.0000   1.0000   1.0000
        1.0000   1.0000   1.0000   1.0000   1.0000   1.0000   1.0000   1.0000
        1.0000   1.0000   1.0000   1.0000   1.0000   1.0000   1.0000   1.0000
        1.0000   1.0000   1.0000   1.0000   1.0000   1.0000   1.0000   1.0000
        1.0000   1.0000   1.0000   1.0000   1.0000   1.0000   1.0000   1.0000
        1.0000   1.0000   1.0000   1.0000   1.0000   1.0000   1.0000   1.0000
        1.0000   1.0000   1.0000   1.0000   1.0000   1.0000   1.0000   1.0000
        1.0000   1.0000   1.0000   1.0000   1.0000   1.0000   1.0000   1.0000
        1.0000   1.0000   1.0000   1.0000   1.0000   1.0000   1.0000   1.0000
        1.0000   1.0000   1.0000   1.0000   1.0000   1.0000   1.0000   1.0000
        1.0000   1.0000   1.0000   1.0000   1.0000   1.0000   1.0000   1.0000
        1.0000   1.0000   1.0000   1.0000   1.0000   1.0000   1.0000   1.0000
        1.0000   1.0000   1.0000   1.0000   1.0000   1.0000   1.0000   1.0000
        1.0000   1.0000   1.0000   1.0000   1.0000   1.0000   1.0000   1.0000
        1.0000   1.0000   1.0000   1.0000   1.0000   1.0000   1.0000   1.0000
        1.0000   1.0000   1.0000   1.0000   1.0000   1.0000   1.0000   1.0000
        1.0000   1.0000   1.0000   1.0000   1.0000   1.0000   1.0000   1.0000
        1.0000   1.0000   1.0000   1.0000   1.0000   1.0000   1.0000   1.0000
        1.0000   1.0000   1.0000   1.0000   1.0000   1.0000   1.0000   1.0000
        1.0000   1.0000   1.0000   1.0000   1.0000   1.0000   1.0000   1.0000
        1.0000   1.0000   1.0000   1.0000   1.0000   1.0000   1.0000   1.0000
        1.0000   1.0000   1.0000   1.0000   1.0000   1.0000   1.0000   1.0000
        1.0000   1.0000   1.0000   1.0000   1.0000   1.0000   1.0000   1.0000
        1.0000   1.0000   1.0000   1.0000   1.0000   1.0000   1.0000   1.0000
        1.0000   1.0000   1.0000   1.0000   1.0000   1.0000   1.0000   1.0000
        1.0000   1.0000   1.0000   1.0000   1.0000   1.0000   1.0000   1.0000
        1.0000   1.0000   1.0000   1.0000   1.0000   1.0000   1.0000   1.0000
        1.0000   1.0000   1.0000   1.0000   1.0000   1.0000   1.0000   1.0000
        1.0000   1.0000   1.0000   1.0000   1.0000   1.0000   1.0000   1.0000
        1.0000   1.0000   1.0000   1.0000   1.0000   1.0000   1.0000   1.0000
        1.0000   1.0000   1.0000   1.0000   1.0000   1.0000   1.0000   1.0000
        1.0000   1.0000   1.0000   1.0000   1.0000   1.0000   1.0000   1.0000
        1.0000   1.0000   1.0000   1.0000   1.0000   1.0000   1.0000   1.0000
        1.0000   1.0000   1.0000   1.0000   1.0000   1.0000   1.0000   1.0000
        1.0000   1.0000   1.0000   1.0000   1.0000   1.0000   1.0000   1.0000
        1.0000   1.0000   1.0000   1.0000   1.0000   1.0000   1.0000   1.0000
        1.0000   1.0000   1.0000   1.0000   1.0000   1.0000   1.0000   1.0000
        1.0000   1.0000   1.0000   1.0000   1.0000   1.0000   1.0000   1.0000
        1.0000   1.0000   1.0000   1.0000   1.0000   1.0000   1.0000   1.0000
        1.0000   1.0000   1.0000   1.0000   1.0000   1.0000   1.0000   1.0000
        1.0000   1.0000   1.0000   1.0000   1.0000   1.0000   1.0000   1.0000
        1.0000   1.0000   1.0000   1.0000   1.0000   1.0000   1.0000   1.0000
        1.0000   1.0000   1.0000   1.0000   1.0000   1.0000   1.0000   1.0000
        1.0000   1.0000   1.0000   1.0000   1.0000   1.0000   1.0000   1.0000
        1.0000   1.0000   1.0000   1.0000   1.0000   1.0000   1.0000   1.0000
        1.0000   1.0000   1.0000   1.0000   1.0000   1.0000   1.0000   1.0000
        1.0000   1.0000   1.0000   1.0000   1.0000   1.0000   1.0000   1.0000
        1.0000   1.0000   1.0000   1.0000   1.0000   1.0000   1.0000   1.0000
        1.0000   1.0000   1.0000   1.0000   1.0000   1.0000   1.0000   1.0000
        1.0000   1.0000   1.0000   1.0000   1.0000   1.0000   1.0000   1.0000
        1.0000   1.0000   1.0000   1.0000   1.0000   1.0000   1.0000   1.0000
        1.0000   1.0000   1.0000   1.0000   1.0000   1.0000   1.0000   1.0000
        1.0000   1.0000   1.0000   1.0000   1.0000   1.0000   1.0000   1.0000
        1.0000   1.0000   1.0000   1.0000   1.0000   1.0000   1.0000   1.0000
        1.0000   1.0000   1.0000   1.0000   1.0000   1.0000   1.0000   1.0000
        1.0000   1.0000   1.0000   1.0000   1.0000   1.0000   1.0000   1.0000
        1.0000   1.0000   1.0000   1.0000   1.0000   1.0000   1.0000   1.0000
        1.0000   1.0000   1.0000   1.0000   1.0000   1.0000   1.0000   1.0000
        1.0000   1.0000   1.0000   1.0000   1.0000   1.0000   1.0000   1.0000
        1.0000   1.0000   1.0000   1.0000   1.0000   1.0000   1.0000   1.0000
        1.0000   1.0000   1.0000   1.0000   1.0000   1.0000   1.0000   1.0000
        1.0000   1.0000   1.0000   1.0000   1.0000   1.0000   1.0000   1.0000
        1.0000   1.0000   1.0000   1.0000   1.0000   1.0000   1.0000   1.0000
        1.0000   1.0000   1.0000   1.0000   1.0000   1.0000   1.0000   1.0000
        1.0000   1.0000   1.0000   1.0000   1.0000   1.0000   1.0000   1.0000
        1.0000   1.0000   1.0000   1.0000   1.0000   1.0000   1.0000   1.0000
        1.0000   1.0000   1.0000   1.0000   1.0000   1.0000   1.0000   1.0000
        1.0000   1.0000   1.0000   1.0000   1.0000   1.0000   1.0000   1.0000
        1.0000   1.0000   1.0000   1.0000   1.0000   1.0000   1.0000   1.0000
        1.0000   1.0000   1.0000   1.0000   1.0000   1.0000   1.0000   1.0000
        1.0000   1.0000   1.0000   1.0000   1.0000   1.0000   1.0000   1.0000
        1.0000   1.0000   1.0000   1.0000   1.0000   1.0000   1.0000   1.0000
        1.0000   1.0000   1.0000   1.0000   1.0000   1.0000   1.0000   1.0000
        1.0000   1.0000   1.0000   1.0000   1.0000   1.0000   1.0000   1.0000
        1.0000   1.0000   1.0000   1.0000   1.0000   1.0000   1.0000   1.0000
        1.0000   1.0000   1.0000   1.0000   1.0000   1.0000   1.0000   1.0000
        1.0000   1.0000   1.0000   1.0000   1.0000   1.0000   1.0000   1.0000
        1.0000   1.0000   1.0000   1.0000   1.0000   1.0000   1.0000   1.0000
        1.0000   1.0000   1.0000   1.0000   1.0000   1.0000   1.0000   1.0000
        1.0000   1.0000   1.0000   1.0000   1.0000   1.0000   1.0000   1.0000
        1.0000   1.0000   1.0000   1.0000   1.0000   1.0000   1.0000   1.0000
        1.0000   1.0000   1.0000   1.0000   1.0000   1.0000   1.0000   1.0000
        1.0000   1.0000   1.0000   1.0000   1.0000   1.0000   1.0000   1.0000
        1.0000   1.0000   1.0000   1.0000   1.0000   1.0000   1.0000   1.0000
        1.0000   1.0000   1.0000   1.0000   1.0000   1.0000   1.0000   1.0000
        1.0000   1.0000   1.0000   1.0000   1.0000   1.0000   1.0000   1.0000
        1.0000   1.0000   1.0000   1.0000   1.0000   1.0000   1.0000   1.0000
        1.0000   1.0000   1.0000   1.0000   1.0000   1.0000   1.0000   1.0000
        1.0000   1.0000   1.0000   1.0000   1.0000   1.0000   1.0000   1.0000
        1.0000   1.0000   1.0000   1.0000   1.0000   1.0000   1.0000   1.0000
        1.0000   1.0000   1.0000   1.0000   1.0000   1.0000   1.0000   1.0000
        1.0000   1.0000   1.0000   1.0000   1.0000   1.0000   1.0000   1.0000
        1.0000   1.0000   1.0000   1.0000   1.0000   1.0000   1.0000   1.0000
        1.0000   1.0000   1.0000   1.0000   1.0000   1.0000   1.0000   1.0000
        1.0000   1.0000   1.0000   1.0000   1.0000   1.0000   1.0000   1.0000
        1.0000   1.0000   1.0000   1.0000   1.0000   1.0000   1.0000   1.0000
        1.0000   1.0000   1.0000   1.0000   1.0000   1.0000   1.0000   1.0000
        1.0000   1.0000   1.0000   1.0000   1.0000   1.0000   1.0000   1.0000
        1.0000   1.0000   1.0000   1.0000   1.0000   1.0000   1.0000   1.0000
        1.0000   1.0000   1.0000   1.0000   1.0000   1.0000   1.0000   1.0000
        1.0000   1.0000   1.0000   1.0000   1.0000   1.0000   1.0000   1.0000
        1.0000   1.0000   1.0000   1.0000   1.0000   1.0000   1.0000   1.0000
        1.0000   1.0000   1.0000   1.0000   1.0000   1.0000   1.0000   1.0000
        1.0000   1.0000   1.0000   1.0000   1.0000   1.0000   1.0000   1.0000
        1.0000   1.0000   1.0000   1.0000   1.0000   1.0000   1.0000   1.0000
        1.0000   1.0000   1.0000   1.0000   1.0000   1.0000   1.0000   1.0000
        1.0000   1.0000   1.0000   1.0000   1.0000   1.0000   1.0000   1.0000
        1.0000   1.0000   1.0000   1.0000   1.0000   1.0000   1.0000   1.0000
        1.0000   1.0000   1.0000   1.0000   1.0000   1.0000   1.0000   1.0000
        1.0000   1.0000   1.0000   1.0000   1.0000   1.0000   1.0000   1.0000
        1.0000   1.0000   1.0000   1.0000   1.0000   1.0000   1.0000   1.0000
        1.0000   1.0000   1.0000   1.0000   1.0000   1.0000   1.0000   1.0000
        1.0000   1.0000   1.0000   1.0000   1.0000   1.0000   1.0000   1.0000
        1.0000   1.0000   1.0000   1.0000   1.0000   1.0000   1.0000   1.0000
        1.0000   1.0000   1.0000   1.0000   1.0000   1.0000   1.0000   1.0000
        1.0000   1.0000   1.0000   1.0000   1.0000   0.0000   1.0000   0.0000
        0.0000   0.0000   0.0000   0.0000   0.0000   0.0000   0.0000   0.0000

     Dynamical RAM for                 wfc:      38.88 MB

     Dynamical RAM for     wfc (w. buffer):      38.88 MB

     Dynamical RAM for           str. fact:       0.60 MB

     Dynamical RAM for           local pot:       0.00 MB

     Dynamical RAM for          nlocal pot:     154.01 MB

     Dynamical RAM for                qrad:       0.82 MB

     Dynamical RAM for          rho,v,vnew:       6.50 MB

     Dynamical RAM for               rhoin:       2.17 MB

     Dynamical RAM for            rho*nmix:       9.65 MB

     Dynamical RAM for           G-vectors:       1.28 MB

     Dynamical RAM for          h,s,v(r/c):       2.71 MB

     Dynamical RAM for          <psi|beta>:      32.19 MB

     Dynamical RAM for                 psi:      77.76 MB

     Dynamical RAM for                hpsi:      77.76 MB

     Dynamical RAM for      wfcinit/wfcrot:     102.14 MB

     Estimated static dynamical RAM per process >     209.85 MB

     Estimated max dynamical RAM per process >     409.91 MB

     Estimated total dynamical RAM >      37.98 GB
     Generating pointlists ...
     new r_m :   0.0426 (alat units)  1.1484 (a.u.) for type    1
     new r_m :   0.0430 (alat units)  1.1585 (a.u.) for type    2

     Initial potential from superposition of free atoms

     starting charge    2041.4445, renormalised to    2046.0000
     Starting wfcs are random

     total cpu time spent up to now is       11.1 secs

     Self-consistent Calculation

     iteration #  1     ecut=    80.00 Ry     beta= 0.70
     Davidson diagonalization with overlap

---- Real-time Memory Report at c_bands before calling an iterative solver
           513 MiB given to the printing process from OS
             0 MiB allocation reported by mallinfo(arena+hblkhd)
        158841 MiB available memory on the node where the printing process lives
------------------
     ethr =  1.00E-02,  avg # of iterations = 13.0

     total cpu time spent up to now is       89.7 secs

     total energy              =   -5823.76931792 Ry
     estimated scf accuracy    <      29.20301865 Ry

     total magnetization       =     2.00 Bohr mag/cell
     absolute magnetization    =     2.00 Bohr mag/cell

     iteration #  2     ecut=    80.00 Ry     beta= 0.70
     Davidson diagonalization with overlap

---- Real-time Memory Report at c_bands before calling an iterative solver
           630 MiB given to the printing process from OS
             0 MiB allocation reported by mallinfo(arena+hblkhd)
        157310 MiB available memory on the node where the printing process lives
------------------
     ethr =  1.43E-03,  avg # of iterations = 15.0

     total cpu time spent up to now is      114.7 secs

     total energy              =   -5824.96218160 Ry
     estimated scf accuracy    <       5.52289655 Ry

     total magnetization       =     2.00 Bohr mag/cell
     absolute magnetization    =     2.31 Bohr mag/cell

     iteration #  3     ecut=    80.00 Ry     beta= 0.70
     Davidson diagonalization with overlap

---- Real-time Memory Report at c_bands before calling an iterative solver
           652 MiB given to the printing process from OS
             0 MiB allocation reported by mallinfo(arena+hblkhd)
        157065 MiB available memory on the node where the printing process lives
------------------
     ethr =  2.70E-04,  avg # of iterations = 12.5

     total cpu time spent up to now is      144.3 secs

     total energy              =   -5817.86496338 Ry
     estimated scf accuracy    <      79.47785883 Ry

     total magnetization       =     2.00 Bohr mag/cell
     absolute magnetization    =     2.20 Bohr mag/cell

     iteration #  4     ecut=    80.00 Ry     beta= 0.70
     Davidson diagonalization with overlap

---- Real-time Memory Report at c_bands before calling an iterative solver
           661 MiB given to the printing process from OS
             0 MiB allocation reported by mallinfo(arena+hblkhd)
        156904 MiB available memory on the node where the printing process lives
------------------
     c_bands:  2 eigenvalues not converged
     ethr =  2.70E-04,  avg # of iterations = 20.0

     total cpu time spent up to now is      169.1 secs

     total energy              =   -5828.72172859 Ry
     estimated scf accuracy    <       2.23032836 Ry

     total magnetization       =     2.00 Bohr mag/cell
     absolute magnetization    =     2.16 Bohr mag/cell

     iteration #  5     ecut=    80.00 Ry     beta= 0.70
     Davidson diagonalization with overlap

---- Real-time Memory Report at c_bands before calling an iterative solver
           664 MiB given to the printing process from OS
             0 MiB allocation reported by mallinfo(arena+hblkhd)
        156904 MiB available memory on the node where the printing process lives
------------------
     ethr =  1.09E-04,  avg # of iterations = 13.0

     total cpu time spent up to now is      190.5 secs

     total energy              =   -5828.93801998 Ry
     estimated scf accuracy    <       0.22851546 Ry

     total magnetization       =     2.00 Bohr mag/cell
     absolute magnetization    =     2.17 Bohr mag/cell

     iteration #  6     ecut=    80.00 Ry     beta= 0.70
     Davidson diagonalization with overlap

---- Real-time Memory Report at c_bands before calling an iterative solver
           664 MiB given to the printing process from OS
             0 MiB allocation reported by mallinfo(arena+hblkhd)
        156897 MiB available memory on the node where the printing process lives
------------------
     c_bands:  2 eigenvalues not converged
     ethr =  1.12E-05,  avg # of iterations = 20.0

     total cpu time spent up to now is      238.9 secs

     total energy              =   -5828.96443457 Ry
     estimated scf accuracy    <       0.06921390 Ry

     total magnetization       =     2.00 Bohr mag/cell
     absolute magnetization    =     2.17 Bohr mag/cell

     iteration #  7     ecut=    80.00 Ry     beta= 0.70
     Davidson diagonalization with overlap

---- Real-time Memory Report at c_bands before calling an iterative solver
           664 MiB given to the printing process from OS
             0 MiB allocation reported by mallinfo(arena+hblkhd)
        156898 MiB available memory on the node where the printing process lives
------------------
     c_bands:  1 eigenvalues not converged
     ethr =  3.38E-06,  avg # of iterations = 20.0

     total cpu time spent up to now is      261.0 secs

     total energy              =   -5828.97127749 Ry
     estimated scf accuracy    <       0.03840341 Ry

     total magnetization       =     2.00 Bohr mag/cell
     absolute magnetization    =     2.18 Bohr mag/cell

     iteration #  8     ecut=    80.00 Ry     beta= 0.70
     Davidson diagonalization with overlap

---- Real-time Memory Report at c_bands before calling an iterative solver
           664 MiB given to the printing process from OS
             0 MiB allocation reported by mallinfo(arena+hblkhd)
        156897 MiB available memory on the node where the printing process lives
------------------
     ethr =  1.88E-06,  avg # of iterations = 13.0

     total cpu time spent up to now is      280.9 secs

     total energy              =   -5828.97377977 Ry
     estimated scf accuracy    <       0.03105619 Ry

     total magnetization       =     2.00 Bohr mag/cell
     absolute magnetization    =     2.21 Bohr mag/cell

     iteration #  9     ecut=    80.00 Ry     beta= 0.70
     Davidson diagonalization with overlap

---- Real-time Memory Report at c_bands before calling an iterative solver
           664 MiB given to the printing process from OS
             0 MiB allocation reported by mallinfo(arena+hblkhd)
        156897 MiB available memory on the node where the printing process lives
------------------
     ethr =  1.52E-06,  avg # of iterations = 10.0

     total cpu time spent up to now is      296.3 secs

     total energy              =   -5828.97633235 Ry
     estimated scf accuracy    <       0.00797297 Ry

     total magnetization       =     2.00 Bohr mag/cell
     absolute magnetization    =     2.22 Bohr mag/cell

     iteration # 10     ecut=    80.00 Ry     beta= 0.70
     Davidson diagonalization with overlap

---- Real-time Memory Report at c_bands before calling an iterative solver
           664 MiB given to the printing process from OS
             0 MiB allocation reported by mallinfo(arena+hblkhd)
        156897 MiB available memory on the node where the printing process lives
------------------
     ethr =  3.90E-07,  avg # of iterations = 11.0

     total cpu time spent up to now is      313.6 secs

     total energy              =   -5828.97567340 Ry
     estimated scf accuracy    <       0.01958876 Ry

     total magnetization       =     2.00 Bohr mag/cell
     absolute magnetization    =     2.24 Bohr mag/cell

     iteration # 11     ecut=    80.00 Ry     beta= 0.70
     Davidson diagonalization with overlap

---- Real-time Memory Report at c_bands before calling an iterative solver
           664 MiB given to the printing process from OS
             0 MiB allocation reported by mallinfo(arena+hblkhd)
        156897 MiB available memory on the node where the printing process lives
------------------
     ethr =  3.90E-07,  avg # of iterations =  6.0

     total cpu time spent up to now is      344.4 secs

     total energy              =   -5828.97721641 Ry
     estimated scf accuracy    <       0.00577921 Ry

     total magnetization       =     2.00 Bohr mag/cell
     absolute magnetization    =     2.24 Bohr mag/cell

     iteration # 12     ecut=    80.00 Ry     beta= 0.70
     Davidson diagonalization with overlap

---- Real-time Memory Report at c_bands before calling an iterative solver
           664 MiB given to the printing process from OS
             0 MiB allocation reported by mallinfo(arena+hblkhd)
        156895 MiB available memory on the node where the printing process lives
------------------
     ethr =  2.82E-07,  avg # of iterations =  7.0

     total cpu time spent up to now is      358.9 secs

     total energy              =   -5828.97707292 Ry
     estimated scf accuracy    <       0.00419768 Ry

     total magnetization       =     2.00 Bohr mag/cell
     absolute magnetization    =     2.25 Bohr mag/cell

     iteration # 13     ecut=    80.00 Ry     beta= 0.70
     Davidson diagonalization with overlap

---- Real-time Memory Report at c_bands before calling an iterative solver
           664 MiB given to the printing process from OS
             0 MiB allocation reported by mallinfo(arena+hblkhd)
        156896 MiB available memory on the node where the printing process lives
------------------
     ethr =  2.05E-07,  avg # of iterations =  7.5

     total cpu time spent up to now is      373.3 secs

     total energy              =   -5828.97727702 Ry
     estimated scf accuracy    <       0.00084444 Ry

     total magnetization       =     2.00 Bohr mag/cell
     absolute magnetization    =     2.26 Bohr mag/cell

     iteration # 14     ecut=    80.00 Ry     beta= 0.70
     Davidson diagonalization with overlap

---- Real-time Memory Report at c_bands before calling an iterative solver
           664 MiB given to the printing process from OS
             0 MiB allocation reported by mallinfo(arena+hblkhd)
        156895 MiB available memory on the node where the printing process lives
------------------
     c_bands:  2 eigenvalues not converged
     ethr =  4.13E-08,  avg # of iterations = 20.0

     total cpu time spent up to now is      403.3 secs

     total energy              =   -5828.97734198 Ry
     estimated scf accuracy    <       0.00081657 Ry

     total magnetization       =     2.00 Bohr mag/cell
     absolute magnetization    =     2.26 Bohr mag/cell

     iteration # 15     ecut=    80.00 Ry     beta= 0.70
     Davidson diagonalization with overlap

---- Real-time Memory Report at c_bands before calling an iterative solver
           664 MiB given to the printing process from OS
             0 MiB allocation reported by mallinfo(arena+hblkhd)
        156896 MiB available memory on the node where the printing process lives
------------------
     ethr =  3.99E-08,  avg # of iterations =  9.0

     total cpu time spent up to now is      418.7 secs

     total energy              =   -5828.97739023 Ry
     estimated scf accuracy    <       0.00014654 Ry

     total magnetization       =     2.00 Bohr mag/cell
     absolute magnetization    =     2.27 Bohr mag/cell

     iteration # 16     ecut=    80.00 Ry     beta= 0.70
     Davidson diagonalization with overlap

---- Real-time Memory Report at c_bands before calling an iterative solver
           664 MiB given to the printing process from OS
             0 MiB allocation reported by mallinfo(arena+hblkhd)
        156896 MiB available memory on the node where the printing process lives
------------------
     c_bands:  2 eigenvalues not converged
     ethr =  7.16E-09,  avg # of iterations = 20.0

     total cpu time spent up to now is      455.0 secs

     total energy              =   -5828.97741680 Ry
     estimated scf accuracy    <       0.00002033 Ry

     total magnetization       =     2.00 Bohr mag/cell
     absolute magnetization    =     2.27 Bohr mag/cell

     iteration # 17     ecut=    80.00 Ry     beta= 0.70
     Davidson diagonalization with overlap

---- Real-time Memory Report at c_bands before calling an iterative solver
           664 MiB given to the printing process from OS
             0 MiB allocation reported by mallinfo(arena+hblkhd)
        156896 MiB available memory on the node where the printing process lives
------------------
     c_bands:  1 eigenvalues not converged
     ethr =  9.94E-10,  avg # of iterations = 16.0

     total cpu time spent up to now is      476.0 secs

     total energy              =   -5828.97741894 Ry
     estimated scf accuracy    <       0.00000356 Ry

     total magnetization       =     2.00 Bohr mag/cell
     absolute magnetization    =     2.27 Bohr mag/cell

     iteration # 18     ecut=    80.00 Ry     beta= 0.70
     Davidson diagonalization with overlap

---- Real-time Memory Report at c_bands before calling an iterative solver
           664 MiB given to the printing process from OS
             0 MiB allocation reported by mallinfo(arena+hblkhd)
        156895 MiB available memory on the node where the printing process lives
------------------
     c_bands:  2 eigenvalues not converged
     ethr =  1.74E-10,  avg # of iterations = 19.5

     total cpu time spent up to now is      502.9 secs

     total energy              =   -5828.97741810 Ry
     estimated scf accuracy    <       0.00000240 Ry

     total magnetization       =     2.00 Bohr mag/cell
     absolute magnetization    =     2.27 Bohr mag/cell

     iteration # 19     ecut=    80.00 Ry     beta= 0.70
     Davidson diagonalization with overlap

---- Real-time Memory Report at c_bands before calling an iterative solver
           664 MiB given to the printing process from OS
             0 MiB allocation reported by mallinfo(arena+hblkhd)
        156891 MiB available memory on the node where the printing process lives
------------------
     c_bands:  2 eigenvalues not converged
     ethr =  1.17E-10,  avg # of iterations = 16.5

     total cpu time spent up to now is      527.7 secs

     total energy              =   -5828.97741938 Ry
     estimated scf accuracy    <       0.00000570 Ry

     total magnetization       =     2.00 Bohr mag/cell
     absolute magnetization    =     2.27 Bohr mag/cell

     iteration # 20     ecut=    80.00 Ry     beta= 0.70
     Davidson diagonalization with overlap

---- Real-time Memory Report at c_bands before calling an iterative solver
           664 MiB given to the printing process from OS
             0 MiB allocation reported by mallinfo(arena+hblkhd)
        156669 MiB available memory on the node where the printing process lives
------------------
     ethr =  1.17E-10,  avg # of iterations = 11.5

     total cpu time spent up to now is      549.3 secs

     total energy              =   -5828.97741992 Ry
     estimated scf accuracy    <       0.00000218 Ry

     total magnetization       =     2.00 Bohr mag/cell
     absolute magnetization    =     2.27 Bohr mag/cell

     iteration # 21     ecut=    80.00 Ry     beta= 0.70
     Davidson diagonalization with overlap

---- Real-time Memory Report at c_bands before calling an iterative solver
           669 MiB given to the printing process from OS
             0 MiB allocation reported by mallinfo(arena+hblkhd)
        156669 MiB available memory on the node where the printing process lives
------------------
     ethr =  1.07E-10,  avg # of iterations =  7.0

     total cpu time spent up to now is      565.9 secs

     total energy              =   -5828.97741992 Ry
     estimated scf accuracy    <       0.00000136 Ry

     total magnetization       =     2.00 Bohr mag/cell
     absolute magnetization    =     2.27 Bohr mag/cell

     iteration # 22     ecut=    80.00 Ry     beta= 0.70
     Davidson diagonalization with overlap

---- Real-time Memory Report at c_bands before calling an iterative solver
           669 MiB given to the printing process from OS
             0 MiB allocation reported by mallinfo(arena+hblkhd)
        156670 MiB available memory on the node where the printing process lives
------------------
     ethr =  6.65E-11,  avg # of iterations =  5.0

     total cpu time spent up to now is      593.4 secs

     total energy              =   -5828.97741995 Ry
     estimated scf accuracy    <       0.00000059 Ry

     total magnetization       =     2.00 Bohr mag/cell
     absolute magnetization    =     2.27 Bohr mag/cell

     iteration # 23     ecut=    80.00 Ry     beta= 0.70
     Davidson diagonalization with overlap

---- Real-time Memory Report at c_bands before calling an iterative solver
           669 MiB given to the printing process from OS
             0 MiB allocation reported by mallinfo(arena+hblkhd)
        156669 MiB available memory on the node where the printing process lives
------------------
     ethr =  2.90E-11,  avg # of iterations = 10.0

     total cpu time spent up to now is      609.8 secs

     total energy              =   -5828.97741993 Ry
     estimated scf accuracy    <       0.00000026 Ry

     total magnetization       =     2.00 Bohr mag/cell
     absolute magnetization    =     2.27 Bohr mag/cell

     iteration # 24     ecut=    80.00 Ry     beta= 0.70
     Davidson diagonalization with overlap

---- Real-time Memory Report at c_bands before calling an iterative solver
           669 MiB given to the printing process from OS
             0 MiB allocation reported by mallinfo(arena+hblkhd)
        156670 MiB available memory on the node where the printing process lives
------------------
     c_bands:  2 eigenvalues not converged
     ethr =  1.27E-11,  avg # of iterations = 20.0

     total cpu time spent up to now is      633.4 secs

     total energy              =   -5828.97741998 Ry
     estimated scf accuracy    <       0.00000008 Ry

     total magnetization       =     2.00 Bohr mag/cell
     absolute magnetization    =     2.27 Bohr mag/cell

     iteration # 25     ecut=    80.00 Ry     beta= 0.70
     Davidson diagonalization with overlap

---- Real-time Memory Report at c_bands before calling an iterative solver
           669 MiB given to the printing process from OS
             0 MiB allocation reported by mallinfo(arena+hblkhd)
        156671 MiB available memory on the node where the printing process lives
------------------
     c_bands:  2 eigenvalues not converged
     ethr =  4.15E-12,  avg # of iterations = 20.0

     total cpu time spent up to now is      662.9 secs

     total energy              =   -5828.97741999 Ry
     estimated scf accuracy    <          6.6E-09 Ry

     total magnetization       =     2.00 Bohr mag/cell
     absolute magnetization    =     2.27 Bohr mag/cell

     iteration # 26     ecut=    80.00 Ry     beta= 0.70
     Davidson diagonalization with overlap

---- Real-time Memory Report at c_bands before calling an iterative solver
           669 MiB given to the printing process from OS
             0 MiB allocation reported by mallinfo(arena+hblkhd)
        156670 MiB available memory on the node where the printing process lives
------------------
     c_bands:  1 eigenvalues not converged
     ethr =  3.21E-13,  avg # of iterations = 19.5

     total cpu time spent up to now is      688.6 secs

     total energy              =   -5828.97741999 Ry
     estimated scf accuracy    <       0.00000003 Ry

     total magnetization       =     2.00 Bohr mag/cell
     absolute magnetization    =     2.27 Bohr mag/cell

     iteration # 27     ecut=    80.00 Ry     beta= 0.70
     Davidson diagonalization with overlap

---- Real-time Memory Report at c_bands before calling an iterative solver
           669 MiB given to the printing process from OS
             0 MiB allocation reported by mallinfo(arena+hblkhd)
        156669 MiB available memory on the node where the printing process lives
------------------
     ethr =  3.21E-13,  avg # of iterations = 13.0

     total cpu time spent up to now is      709.4 secs

     total energy              =   -5828.97741999 Ry
     estimated scf accuracy    <          7.4E-09 Ry

     total magnetization       =     2.00 Bohr mag/cell
     absolute magnetization    =     2.27 Bohr mag/cell

     iteration # 28     ecut=    80.00 Ry     beta= 0.70
     Davidson diagonalization with overlap

---- Real-time Memory Report at c_bands before calling an iterative solver
           669 MiB given to the printing process from OS
             0 MiB allocation reported by mallinfo(arena+hblkhd)
        156669 MiB available memory on the node where the printing process lives
------------------
     ethr =  3.21E-13,  avg # of iterations = 11.0

     total cpu time spent up to now is      727.5 secs

     total energy              =   -5828.97742000 Ry
     estimated scf accuracy    <          3.1E-10 Ry

     total magnetization       =     2.00 Bohr mag/cell
     absolute magnetization    =     2.27 Bohr mag/cell

     iteration # 29     ecut=    80.00 Ry     beta= 0.70
     Davidson diagonalization with overlap

---- Real-time Memory Report at c_bands before calling an iterative solver
           669 MiB given to the printing process from OS
             0 MiB allocation reported by mallinfo(arena+hblkhd)
        156669 MiB available memory on the node where the printing process lives
------------------
     ethr =  1.00E-13,  avg # of iterations = 10.5

     total cpu time spent up to now is      748.9 secs

     total energy              =   -5828.97742000 Ry
     estimated scf accuracy    <          1.0E-09 Ry

     total magnetization       =     2.00 Bohr mag/cell
     absolute magnetization    =     2.27 Bohr mag/cell

     iteration # 30     ecut=    80.00 Ry     beta= 0.70
     Davidson diagonalization with overlap

---- Real-time Memory Report at c_bands before calling an iterative solver
           669 MiB given to the printing process from OS
             0 MiB allocation reported by mallinfo(arena+hblkhd)
        156670 MiB available memory on the node where the printing process lives
------------------
     ethr =  1.00E-13,  avg # of iterations =  6.0

     total cpu time spent up to now is      766.0 secs

     total energy              =   -5828.97742000 Ry
     estimated scf accuracy    <          1.6E-10 Ry

     total magnetization       =     2.00 Bohr mag/cell
     absolute magnetization    =     2.27 Bohr mag/cell

     iteration # 31     ecut=    80.00 Ry     beta= 0.70
     Davidson diagonalization with overlap

---- Real-time Memory Report at c_bands before calling an iterative solver
           669 MiB given to the printing process from OS
             0 MiB allocation reported by mallinfo(arena+hblkhd)
        156669 MiB available memory on the node where the printing process lives
------------------
     ethr =  1.00E-13,  avg # of iterations =  5.0
 
     Magnetic moment per site  (integrated on atomic sphere of radius R)
     atom   1 (R=0.043)  charge=  1.8062  magn=  0.0000
     atom   2 (R=0.043)  charge=  1.8062  magn=  0.0000
     atom   3 (R=0.043)  charge=  1.8079  magn=  0.0002
     atom   4 (R=0.043)  charge=  1.8061  magn=  0.0000
     atom   5 (R=0.043)  charge=  1.8062  magn=  0.0000
     atom   6 (R=0.043)  charge=  1.8065  magn=  0.0000
     atom   7 (R=0.043)  charge=  1.8062  magn= -0.0000
     atom   8 (R=0.043)  charge=  1.8064  magn= -0.0000
     atom   9 (R=0.043)  charge=  1.8079  magn=  0.0002
     atom  10 (R=0.043)  charge=  1.8062  magn= -0.0000
     atom  11 (R=0.043)  charge=  1.8060  magn= -0.0000
     atom  12 (R=0.043)  charge=  1.8064  magn= -0.0000
     atom  13 (R=0.043)  charge=  1.8061  magn=  0.0000
     atom  14 (R=0.043)  charge=  1.8064  magn= -0.0000
     atom  15 (R=0.043)  charge=  1.8064  magn= -0.0000
     atom  16 (R=0.043)  charge=  1.8065  magn= -0.0000
     atom  17 (R=0.043)  charge=  1.8062  magn=  0.0000
     atom  18 (R=0.043)  charge=  1.8067  magn=  0.0000
     atom  19 (R=0.043)  charge=  1.8065  magn= -0.0000
     atom  20 (R=0.043)  charge=  1.8065  magn= -0.0000
     atom  21 (R=0.043)  charge=  1.8068  magn=  0.0000
     atom  22 (R=0.043)  charge=  1.8053  magn=  0.0003
     atom  23 (R=0.043)  charge=  1.8102  magn=  0.0027
     atom  24 (R=0.043)  charge=  1.8058  magn= -0.0001
     atom  25 (R=0.043)  charge=  1.8065  magn= -0.0000
     atom  26 (R=0.043)  charge=  1.8102  magn=  0.0027
     atom  27 (R=0.043)  charge=  1.8068  magn= -0.0008
     atom  28 (R=0.043)  charge=  1.8106  magn=  0.0020
     atom  29 (R=0.043)  charge=  1.8065  magn= -0.0000
     atom  30 (R=0.043)  charge=  1.8058  magn= -0.0001
     atom  31 (R=0.043)  charge=  1.8106  magn=  0.0020
     atom  32 (R=0.043)  charge=  1.8049  magn=  0.0001
     atom  33 (R=0.043)  charge=  1.8084  magn=  0.0002
     atom  34 (R=0.043)  charge=  1.8066  magn= -0.0000
     atom  35 (R=0.043)  charge=  1.8063  magn= -0.0000
     atom  36 (R=0.043)  charge=  1.8067  magn= -0.0000
     atom  37 (R=0.043)  charge=  1.8066  magn= -0.0000
     atom  38 (R=0.043)  charge=  1.8086  magn=  0.0042
     atom  39 (R=0.043)  charge=  1.8070  magn= -0.0009
     atom  40 (R=0.043)  charge=  1.8140  magn=  0.0005
     atom  41 (R=0.043)  charge=  1.8063  magn= -0.0000
     atom  42 (R=0.043)  charge=  1.8070  magn= -0.0009
     atom  43 (R=0.043)  charge=  1.8093  magn= -0.0005
     atom  44 (R=0.043)  charge=  1.8067  magn= -0.0000
     atom  45 (R=0.043)  charge=  1.8139  magn=  0.0005
     atom  46 (R=0.043)  charge=  1.8093  magn= -0.0005
     atom  47 (R=0.043)  charge=  1.8080  magn=  0.0008
     atom  48 (R=0.043)  charge=  1.8063  magn=  0.0000
     atom  49 (R=0.043)  charge=  1.8065  magn= -0.0000
     atom  50 (R=0.043)  charge=  1.8066  magn= -0.0000
     atom  51 (R=0.043)  charge=  1.8068  magn= -0.0000
     atom  52 (R=0.043)  charge=  1.8065  magn= -0.0000
     atom  53 (R=0.043)  charge=  1.8060  magn= -0.0001
     atom  54 (R=0.043)  charge=  1.8093  magn=  0.0035
     atom  55 (R=0.043)  charge=  1.8053  magn= -0.0000
     atom  56 (R=0.043)  charge=  1.8066  magn= -0.0000
     atom  57 (R=0.043)  charge=  1.8093  magn=  0.0035
     atom  58 (R=0.043)  charge=  1.8088  magn= -0.0008
     atom  59 (R=0.043)  charge=  1.8085  magn=  0.0007
     atom  60 (R=0.043)  charge=  1.8068  magn= -0.0000
     atom  61 (R=0.043)  charge=  1.8053  magn= -0.0000
     atom  62 (R=0.043)  charge=  1.8085  magn=  0.0007
     atom  63 (R=0.043)  charge=  1.8065  magn= -0.0000
     atom  64 (R=0.043)  charge=  1.8062  magn=  0.0000
     atom  65 (R=0.043)  charge=  1.8066  magn= -0.0000
     atom  66 (R=0.043)  charge=  1.8062  magn= -0.0000
     atom  67 (R=0.043)  charge=  1.8062  magn=  0.0000
     atom  68 (R=0.043)  charge=  1.8066  magn= -0.0000
     atom  69 (R=0.043)  charge=  1.8060  magn=  0.0000
     atom  70 (R=0.043)  charge=  1.8062  magn= -0.0000
     atom  71 (R=0.043)  charge=  1.8065  magn= -0.0000
     atom  72 (R=0.043)  charge=  1.8062  magn= -0.0000
     atom  73 (R=0.043)  charge=  1.8062  magn= -0.0000
     atom  74 (R=0.043)  charge=  1.8062  magn=  0.0000
     atom  75 (R=0.043)  charge=  1.8066  magn= -0.0000
     atom  76 (R=0.043)  charge=  1.8062  magn=  0.0000
     atom  77 (R=0.043)  charge=  1.8065  magn= -0.0000
     atom  78 (R=0.043)  charge=  1.8066  magn= -0.0000
     atom  79 (R=0.043)  charge=  1.8061  magn=  0.0000
     atom  80 (R=0.043)  charge=  1.8063  magn=  0.0001
     atom  81 (R=0.043)  charge=  1.8063  magn=  0.0000
     atom  82 (R=0.043)  charge=  1.8066  magn= -0.0000
     atom  83 (R=0.043)  charge=  1.8063  magn= -0.0000
     atom  84 (R=0.043)  charge=  1.8063  magn=  0.0000
     atom  85 (R=0.043)  charge=  1.8024  magn= -0.0002
     atom  86 (R=0.043)  charge=  1.8045  magn= -0.0007
     atom  87 (R=0.043)  charge=  1.8068  magn= -0.0001
     atom  88 (R=0.043)  charge=  1.8066  magn= -0.0000
     atom  89 (R=0.043)  charge=  1.8045  magn= -0.0007
     atom  90 (R=0.043)  charge=  1.8023  magn= -0.0001
     atom  91 (R=0.043)  charge=  1.8052  magn= -0.0000
     atom  92 (R=0.043)  charge=  1.8063  magn= -0.0000
     atom  93 (R=0.043)  charge=  1.8068  magn= -0.0001
     atom  94 (R=0.043)  charge=  1.8052  magn= -0.0000
     atom  95 (R=0.043)  charge=  1.8061  magn=  0.0000
     atom  96 (R=0.043)  charge=  1.8073  magn=  0.0007
     atom  97 (R=0.043)  charge=  1.8062  magn= -0.0001
     atom  98 (R=0.043)  charge=  1.8064  magn= -0.0000
     atom  99 (R=0.043)  charge=  1.8090  magn=  0.0002
     atom 100 (R=0.043)  charge=  1.8062  magn= -0.0001
     atom 101 (R=0.043)  charge=  1.8108  magn= -0.0055
     atom 102 (R=0.043)  charge=  1.8165  magn= -0.0038
     atom 103 (R=0.043)  charge=  1.8067  magn= -0.0001
     atom 104 (R=0.043)  charge=  1.8064  magn= -0.0000
     atom 105 (R=0.043)  charge=  1.8165  magn= -0.0038
     atom 106 (R=0.043)  charge=  1.7793  magn=  0.0003
     atom 107 (R=0.043)  charge=  1.8066  magn= -0.0000
     atom 108 (R=0.043)  charge=  1.8090  magn=  0.0002
     atom 109 (R=0.043)  charge=  1.8067  magn= -0.0001
     atom 110 (R=0.043)  charge=  1.8065  magn= -0.0000
     atom 111 (R=0.043)  charge=  1.8071  magn=  0.0002
     atom 112 (R=0.043)  charge=  1.8064  magn= -0.0000
     atom 113 (R=0.043)  charge=  1.8064  magn= -0.0001
     atom 114 (R=0.043)  charge=  1.8064  magn= -0.0000
     atom 115 (R=0.043)  charge=  1.8062  magn=  0.0000
     atom 116 (R=0.043)  charge=  1.8064  magn= -0.0001
     atom 117 (R=0.043)  charge=  1.8054  magn= -0.0015
     atom 118 (R=0.043)  charge=  1.8013  magn= -0.0005
     atom 119 (R=0.043)  charge=  1.8062  magn=  0.0000
     atom 120 (R=0.043)  charge=  1.8064  magn= -0.0000
     atom 121 (R=0.043)  charge=  1.8013  magn= -0.0005
     atom 122 (R=0.043)  charge=  1.8069  magn= -0.0004
     atom 123 (R=0.043)  charge=  1.8069  magn= -0.0000
     atom 124 (R=0.043)  charge=  1.8062  magn=  0.0000
     atom 125 (R=0.043)  charge=  1.8062  magn=  0.0000
     atom 126 (R=0.043)  charge=  1.8069  magn= -0.0000
     atom 127 (R=0.043)  charge=  1.8067  magn= -0.0000
     atom 128 (R=0.043)  charge=  1.8062  magn=  0.0000
     atom 129 (R=0.043)  charge=  1.8067  magn=  0.0000
     atom 130 (R=0.043)  charge=  1.8063  magn= -0.0000
     atom 131 (R=0.043)  charge=  1.8061  magn=  0.0000
     atom 132 (R=0.043)  charge=  1.8062  magn=  0.0000
     atom 133 (R=0.043)  charge=  1.8058  magn= -0.0000
     atom 134 (R=0.043)  charge=  1.8064  magn= -0.0000
     atom 135 (R=0.043)  charge=  1.8063  magn= -0.0000
     atom 136 (R=0.043)  charge=  1.8079  magn=  0.0004
     atom 137 (R=0.043)  charge=  1.8059  magn= -0.0000
     atom 138 (R=0.043)  charge=  1.8060  magn= -0.0000
     atom 139 (R=0.043)  charge=  1.8080  magn=  0.0003
     atom 140 (R=0.043)  charge=  1.8062  magn= -0.0000
     atom 141 (R=0.043)  charge=  1.8064  magn= -0.0001
     atom 142 (R=0.043)  charge=  1.8057  magn= -0.0000
     atom 143 (R=0.043)  charge=  1.8059  magn=  0.0000
     atom 144 (R=0.043)  charge=  1.8068  magn=  0.0000
     atom 145 (R=0.043)  charge=  1.8064  magn= -0.0000
     atom 146 (R=0.043)  charge=  1.8065  magn= -0.0000
     atom 147 (R=0.043)  charge=  1.8067  magn= -0.0000
     atom 148 (R=0.043)  charge=  1.8063  magn= -0.0000
     atom 149 (R=0.043)  charge=  1.8042  magn= -0.0006
     atom 150 (R=0.043)  charge=  1.8048  magn= -0.0007
     atom 151 (R=0.043)  charge=  1.8068  magn= -0.0001
     atom 152 (R=0.043)  charge=  1.8063  magn= -0.0001
     atom 153 (R=0.043)  charge=  1.8081  magn=  0.0016
     atom 154 (R=0.043)  charge=  1.8089  magn= -0.0008
     atom 155 (R=0.043)  charge=  1.8066  magn= -0.0001
     atom 156 (R=0.043)  charge=  1.8067  magn= -0.0001
     atom 157 (R=0.043)  charge=  1.8055  magn= -0.0008
     atom 158 (R=0.043)  charge=  1.8013  magn= -0.0003
     atom 159 (R=0.043)  charge=  1.8060  magn= -0.0000
     atom 160 (R=0.043)  charge=  1.8066  magn= -0.0000
     atom 161 (R=0.043)  charge=  1.8064  magn=  0.0000
     atom 162 (R=0.043)  charge=  1.8065  magn=  0.0000
     atom 163 (R=0.043)  charge=  1.8070  magn=  0.0000
     atom 164 (R=0.043)  charge=  1.8064  magn= -0.0001
     atom 165 (R=0.043)  charge=  1.8052  magn= -0.0015
     atom 166 (R=0.043)  charge=  1.8043  magn= -0.0004
     atom 167 (R=0.043)  charge=  1.8057  magn= -0.0000
     atom 168 (R=0.043)  charge=  1.8063  magn= -0.0001
     atom 169 (R=0.043)  charge=  1.8113  magn= -0.0088
     atom 170 (R=0.043)  charge=  1.7803  magn= -0.0008
     atom 171 (R=0.043)  charge=  1.8066  magn= -0.0000
     atom 172 (R=0.043)  charge=  1.8066  magn= -0.0000
     atom 173 (R=0.043)  charge=  1.8015  magn= -0.0000
     atom 174 (R=0.043)  charge=  1.8073  magn= -0.0004
     atom 175 (R=0.043)  charge=  1.8070  magn= -0.0000
     atom 176 (R=0.043)  charge=  1.8063  magn=  0.0000
     atom 177 (R=0.043)  charge=  1.8065  magn= -0.0000
     atom 178 (R=0.043)  charge=  1.8067  magn= -0.0000
     atom 179 (R=0.043)  charge=  1.8062  magn=  0.0000
     atom 180 (R=0.043)  charge=  1.8063  magn= -0.0000
     atom 181 (R=0.043)  charge=  1.8064  magn= -0.0001
     atom 182 (R=0.043)  charge=  1.8051  magn= -0.0000
     atom 183 (R=0.043)  charge=  1.8062  magn= -0.0000
     atom 184 (R=0.043)  charge=  1.8074  magn=  0.0006
     atom 185 (R=0.043)  charge=  1.8062  magn= -0.0001
     atom 186 (R=0.043)  charge=  1.8063  magn= -0.0000
     atom 187 (R=0.043)  charge=  1.8071  magn=  0.0002
     atom 188 (R=0.043)  charge=  1.8061  magn= -0.0000
     atom 189 (R=0.043)  charge=  1.8059  magn=  0.0000
     atom 190 (R=0.043)  charge=  1.8068  magn= -0.0000
     atom 191 (R=0.043)  charge=  1.8065  magn= -0.0000
     atom 192 (R=0.043)  charge=  1.8062  magn=  0.0000
     atom 193 (R=0.043)  charge=  1.8062  magn=  0.0000
     atom 194 (R=0.043)  charge=  1.8079  magn=  0.0004
     atom 195 (R=0.043)  charge=  1.8062  magn= -0.0000
     atom 196 (R=0.043)  charge=  1.8067  magn=  0.0000
     atom 197 (R=0.043)  charge=  1.8058  magn= -0.0000
     atom 198 (R=0.043)  charge=  1.8059  magn= -0.0000
     atom 199 (R=0.043)  charge=  1.8064  magn= -0.0001
     atom 200 (R=0.043)  charge=  1.8063  magn= -0.0000
     atom 201 (R=0.043)  charge=  1.8063  magn= -0.0000
     atom 202 (R=0.043)  charge=  1.8060  magn= -0.0000
     atom 203 (R=0.043)  charge=  1.8057  magn= -0.0000
     atom 204 (R=0.043)  charge=  1.8061  magn=  0.0000
     atom 205 (R=0.043)  charge=  1.8063  magn= -0.0000
     atom 206 (R=0.043)  charge=  1.8080  magn=  0.0003
     atom 207 (R=0.043)  charge=  1.8059  magn=  0.0000
     atom 208 (R=0.043)  charge=  1.8068  magn=  0.0000
     atom 209 (R=0.043)  charge=  1.8063  magn= -0.0000
     atom 210 (R=0.043)  charge=  1.8063  magn= -0.0001
     atom 211 (R=0.043)  charge=  1.8067  magn= -0.0001
     atom 212 (R=0.043)  charge=  1.8064  magn= -0.0000
     atom 213 (R=0.043)  charge=  1.8042  magn= -0.0006
     atom 214 (R=0.043)  charge=  1.8081  magn=  0.0016
     atom 215 (R=0.043)  charge=  1.8055  magn= -0.0008
     atom 216 (R=0.043)  charge=  1.8065  magn= -0.0000
     atom 217 (R=0.043)  charge=  1.8048  magn= -0.0007
     atom 218 (R=0.043)  charge=  1.8089  magn= -0.0008
     atom 219 (R=0.043)  charge=  1.8012  magn= -0.0003
     atom 220 (R=0.043)  charge=  1.8067  magn= -0.0000
     atom 221 (R=0.043)  charge=  1.8068  magn= -0.0001
     atom 222 (R=0.043)  charge=  1.8066  magn= -0.0001
     atom 223 (R=0.043)  charge=  1.8060  magn= -0.0000
     atom 224 (R=0.043)  charge=  1.8066  magn= -0.0000
     atom 225 (R=0.043)  charge=  1.8064  magn= -0.0001
     atom 226 (R=0.043)  charge=  1.8063  magn= -0.0001
     atom 227 (R=0.043)  charge=  1.8066  magn= -0.0000
     atom 228 (R=0.043)  charge=  1.8064  magn=  0.0000
     atom 229 (R=0.043)  charge=  1.8052  magn= -0.0015
     atom 230 (R=0.043)  charge=  1.8113  magn= -0.0088
     atom 231 (R=0.043)  charge=  1.8015  magn= -0.0000
     atom 232 (R=0.043)  charge=  1.8065  magn=  0.0000
     atom 233 (R=0.043)  charge=  1.8043  magn= -0.0004
     atom 234 (R=0.043)  charge=  1.7803  magn= -0.0008
     atom 235 (R=0.043)  charge=  1.8073  magn= -0.0004
     atom 236 (R=0.043)  charge=  1.8070  magn=  0.0000
     atom 237 (R=0.043)  charge=  1.8057  magn= -0.0000
     atom 238 (R=0.043)  charge=  1.8066  magn= -0.0000
     atom 239 (R=0.043)  charge=  1.8070  magn= -0.0000
     atom 240 (R=0.043)  charge=  1.8063  magn=  0.0000
     atom 241 (R=0.043)  charge=  1.8063  magn= -0.0000
     atom 242 (R=0.043)  charge=  1.8074  magn=  0.0006
     atom 243 (R=0.043)  charge=  1.8061  magn= -0.0000
     atom 244 (R=0.043)  charge=  1.8065  magn= -0.0000
     atom 245 (R=0.043)  charge=  1.8064  magn= -0.0001
     atom 246 (R=0.043)  charge=  1.8062  magn= -0.0001
     atom 247 (R=0.043)  charge=  1.8059  magn=  0.0000
     atom 248 (R=0.043)  charge=  1.8067  magn= -0.0000
     atom 249 (R=0.043)  charge=  1.8051  magn= -0.0000
     atom 250 (R=0.043)  charge=  1.8063  magn= -0.0000
     atom 251 (R=0.043)  charge=  1.8068  magn= -0.0000
     atom 252 (R=0.043)  charge=  1.8062  magn=  0.0000
     atom 253 (R=0.043)  charge=  1.8062  magn= -0.0000
     atom 254 (R=0.043)  charge=  1.8071  magn=  0.0002
     atom 255 (R=0.043)  charge=  1.8065  magn= -0.0000
     atom 256 (R=0.043)  charge=  1.8067  magn=  0.0000
     atom 257 (R=0.043)  charge=  1.8060  magn= -0.0000
     atom 258 (R=0.043)  charge=  1.8070  magn=  0.0001
     atom 259 (R=0.043)  charge=  1.8067  magn=  0.0000
     atom 260 (R=0.043)  charge=  1.8059  magn=  0.0000
     atom 261 (R=0.043)  charge=  1.8046  magn=  0.0001
     atom 262 (R=0.043)  charge=  1.8063  magn=  0.0008
     atom 263 (R=0.043)  charge=  1.8070  magn=  0.0001
     atom 264 (R=0.043)  charge=  1.8083  magn=  0.0010
     atom 265 (R=0.043)  charge=  1.8055  magn=  0.0003
     atom 266 (R=0.043)  charge=  1.8043  magn=  0.0001
     atom 267 (R=0.043)  charge=  1.8055  magn= -0.0000
     atom 268 (R=0.043)  charge=  1.8065  magn=  0.0003
     atom 269 (R=0.043)  charge=  1.8081  magn=  0.0009
     atom 270 (R=0.043)  charge=  1.8058  magn= -0.0000
     atom 271 (R=0.043)  charge=  1.8067  magn=  0.0000
     atom 272 (R=0.043)  charge=  1.8062  magn=  0.0000
     atom 273 (R=0.043)  charge=  1.8063  magn=  0.0002
     atom 274 (R=0.043)  charge=  1.8064  magn=  0.0001
     atom 275 (R=0.043)  charge=  1.8080  magn=  0.0001
     atom 276 (R=0.043)  charge=  1.8056  magn=  0.0000
     atom 277 (R=0.043)  charge=  1.8061  magn=  0.0052
     atom 278 (R=0.043)  charge=  1.8113  magn=  0.0106
     atom 279 (R=0.043)  charge=  1.8062  magn=  0.0001
     atom 280 (R=0.043)  charge=  1.8062  magn=  0.0011
     atom 281 (R=0.043)  charge=  1.8042  magn=  0.0024
     atom 282 (R=0.043)  charge=  1.8063  magn=  0.0002
     atom 283 (R=0.043)  charge=  1.8098  magn=  0.0008
     atom 284 (R=0.043)  charge=  1.8063  magn=  0.0008
     atom 285 (R=0.043)  charge=  1.8058  magn=  0.0001
     atom 286 (R=0.043)  charge=  1.8062  magn=  0.0000
     atom 287 (R=0.043)  charge=  1.8066  magn=  0.0001
     atom 288 (R=0.043)  charge=  1.8063  magn=  0.0001
     atom 289 (R=0.043)  charge=  1.8066  magn= -0.0000
     atom 290 (R=0.043)  charge=  1.8064  magn=  0.0000
     atom 291 (R=0.043)  charge=  1.8062  magn=  0.0015
     atom 292 (R=0.043)  charge=  1.8028  magn=  0.0242
     atom 293 (R=0.043)  charge=  1.8064  magn=  0.0002
     atom 294 (R=0.043)  charge=  1.8065  magn= -0.0000
     atom 295 (R=0.043)  charge=  1.8056  magn=  0.0001
     atom 296 (R=0.043)  charge=  1.8039  magn=  0.0057
     atom 297 (R=0.043)  charge=  1.8101  magn=  0.0064
     atom 298 (R=0.043)  charge=  1.8065  magn=  0.0001
     atom 299 (R=0.043)  charge=  1.8060  magn=  0.0000
     atom 300 (R=0.043)  charge=  1.8061  magn=  0.0001
     atom 301 (R=0.043)  charge=  1.8075  magn=  0.0008
     atom 302 (R=0.043)  charge=  1.8069  magn=  0.0001
     atom 303 (R=0.043)  charge=  1.8065  magn=  0.0001
     atom 304 (R=0.043)  charge=  1.8068  magn=  0.0002
     atom 305 (R=0.043)  charge=  1.8065  magn=  0.0000
     atom 306 (R=0.043)  charge=  1.8066  magn=  0.0000
     atom 307 (R=0.043)  charge=  1.8066  magn=  0.0002
     atom 308 (R=0.043)  charge=  1.8058  magn=  0.0001
     atom 309 (R=0.043)  charge=  1.8063  magn= -0.0000
     atom 310 (R=0.043)  charge=  1.8065  magn=  0.0000
     atom 311 (R=0.043)  charge=  1.8054  magn= -0.0000
     atom 312 (R=0.043)  charge=  1.8061  magn=  0.0002
     atom 313 (R=0.043)  charge=  1.8061  magn=  0.0001
     atom 314 (R=0.043)  charge=  1.8068  magn=  0.0001
     atom 315 (R=0.043)  charge=  1.8066  magn=  0.0000
     atom 316 (R=0.043)  charge=  1.8060  magn= -0.0000
     atom 317 (R=0.043)  charge=  1.8069  magn=  0.0001
     atom 318 (R=0.043)  charge=  1.8066  magn=  0.0001
     atom 319 (R=0.043)  charge=  1.8066  magn=  0.0000
     atom 320 (R=0.043)  charge=  1.8065  magn=  0.0000
     atom 321 (R=0.043)  charge=  1.8069  magn=  0.0001
     atom 322 (R=0.043)  charge=  1.8066  magn=  0.0001
     atom 323 (R=0.043)  charge=  1.8065  magn=  0.0000
     atom 324 (R=0.043)  charge=  1.8061  magn=  0.0000
     atom 325 (R=0.043)  charge=  1.8059  magn= -0.0000
     atom 326 (R=0.043)  charge=  1.8067  magn=  0.0001
     atom 327 (R=0.043)  charge=  1.8069  magn=  0.0001
     atom 328 (R=0.043)  charge=  1.8059  magn= -0.0000
     atom 329 (R=0.043)  charge=  1.8059  magn=  0.0000
     atom 330 (R=0.043)  charge=  1.8058  magn=  0.0000
     atom 331 (R=0.043)  charge=  1.8066  magn=  0.0001
     atom 332 (R=0.043)  charge=  1.8067  magn=  0.0001
     atom 333 (R=0.043)  charge=  1.8058  magn=  0.0000
     atom 334 (R=0.043)  charge=  1.8065  magn=  0.0000
     atom 335 (R=0.043)  charge=  1.8069  magn=  0.0000
     atom 336 (R=0.043)  charge=  1.8064  magn=  0.0000
     atom 337 (R=0.043)  charge=  1.8062  magn=  0.0001
     atom 338 (R=0.043)  charge=  1.8072  magn=  0.0001
     atom 339 (R=0.043)  charge=  1.8064  magn=  0.0000
     atom 340 (R=0.043)  charge=  1.8054  magn=  0.0006
     atom 341 (R=0.043)  charge=  1.8059  magn=  0.0115
     atom 342 (R=0.043)  charge=  1.8070  magn=  0.0009
     atom 343 (R=0.043)  charge=  1.8062  magn=  0.0001
     atom 344 (R=0.043)  charge=  1.8058  magn=  0.0115
     atom 345 (R=0.043)  charge=  1.8030  magn=  0.0049
     atom 346 (R=0.043)  charge=  1.8037  magn= -0.0000
     atom 347 (R=0.043)  charge=  1.8072  magn=  0.0001
     atom 348 (R=0.043)  charge=  1.8070  magn=  0.0009
     atom 349 (R=0.043)  charge=  1.8037  magn= -0.0000
     atom 350 (R=0.043)  charge=  1.8062  magn=  0.0000
     atom 351 (R=0.043)  charge=  1.8066  magn=  0.0003
     atom 352 (R=0.043)  charge=  1.8063  magn=  0.0001
     atom 353 (R=0.043)  charge=  1.8064  magn=  0.0002
     atom 354 (R=0.043)  charge=  1.8062  magn=  0.0000
     atom 355 (R=0.043)  charge=  1.8063  magn=  0.0001
     atom 356 (R=0.043)  charge=  1.8033  magn=  0.0236
     atom 357 (R=0.043)  charge=  1.8045  magn=  0.0063
     atom 358 (R=0.043)  charge=  1.8038  magn=  0.0000
     atom 359 (R=0.043)  charge=  1.8064  magn=  0.0002
     atom 360 (R=0.043)  charge=  1.8045  magn=  0.0063
     atom 361 (R=0.043)  charge=  1.8065  magn=  0.0007
     atom 362 (R=0.043)  charge=  1.8062  magn=  0.0000
     atom 363 (R=0.043)  charge=  1.8038  magn=  0.0000
     atom 364 (R=0.043)  charge=  1.8065  magn=  0.0007
     atom 365 (R=0.043)  charge=  1.8069  magn=  0.0007
     atom 366 (R=0.043)  charge=  1.8065  magn=  0.0001
     atom 367 (R=0.043)  charge=  1.8066  magn=  0.0001
     atom 368 (R=0.043)  charge=  1.8062  magn= -0.0000
     atom 369 (R=0.043)  charge=  1.8065  magn=  0.0000
     atom 370 (R=0.043)  charge=  1.8066  magn=  0.0001
     atom 371 (R=0.043)  charge=  1.8062  magn=  0.0016
     atom 372 (R=0.043)  charge=  1.8038  magn=  0.0000
     atom 373 (R=0.043)  charge=  1.8063  magn=  0.0000
     atom 374 (R=0.043)  charge=  1.8062  magn= -0.0000
     atom 375 (R=0.043)  charge=  1.8038  magn=  0.0000
     atom 376 (R=0.043)  charge=  1.8060  magn=  0.0010
     atom 377 (R=0.043)  charge=  1.8072  magn=  0.0006
     atom 378 (R=0.043)  charge=  1.8065  magn=  0.0000
     atom 379 (R=0.043)  charge=  1.8062  magn=  0.0000
     atom 380 (R=0.043)  charge=  1.8072  magn=  0.0006
     atom 381 (R=0.043)  charge=  1.8069  magn=  0.0003
     atom 382 (R=0.043)  charge=  1.8065  magn=  0.0000
     atom 383 (R=0.043)  charge=  1.8058  magn=  0.0000
     atom 384 (R=0.043)  charge=  1.8067  magn=  0.0001
     atom 385 (R=0.043)  charge=  1.8066  magn=  0.0001
     atom 386 (R=0.043)  charge=  1.8058  magn=  0.0000
     atom 387 (R=0.043)  charge=  1.8059  magn=  0.0001
     atom 388 (R=0.043)  charge=  1.8059  magn= -0.0000
     atom 389 (R=0.043)  charge=  1.8071  magn=  0.0001
     atom 390 (R=0.043)  charge=  1.8067  magn=  0.0001
     atom 391 (R=0.043)  charge=  1.8059  magn= -0.0000
     atom 392 (R=0.043)  charge=  1.8063  magn=  0.0000
     atom 393 (R=0.043)  charge=  1.8065  magn=  0.0000
     atom 394 (R=0.043)  charge=  1.8066  magn=  0.0001
     atom 395 (R=0.043)  charge=  1.8071  magn=  0.0001
     atom 396 (R=0.043)  charge=  1.8065  magn=  0.0000
     atom 397 (R=0.043)  charge=  1.8067  magn=  0.0000
     atom 398 (R=0.043)  charge=  1.8060  magn=  0.0000
     atom 399 (R=0.043)  charge=  1.8055  magn=  0.0000
     atom 400 (R=0.043)  charge=  1.8068  magn=  0.0009
     atom 401 (R=0.043)  charge=  1.8072  magn=  0.0001
     atom 402 (R=0.043)  charge=  1.8055  magn=  0.0000
     atom 403 (R=0.043)  charge=  1.8030  magn=  0.0047
     atom 404 (R=0.043)  charge=  1.8052  magn=  0.0120
     atom 405 (R=0.043)  charge=  1.8060  magn=  0.0001
     atom 406 (R=0.043)  charge=  1.8069  magn=  0.0009
     atom 407 (R=0.043)  charge=  1.8052  magn=  0.0120
     atom 408 (R=0.043)  charge=  1.8065  magn=  0.0002
     atom 409 (R=0.043)  charge=  1.8065  magn=  0.0000
     atom 410 (R=0.043)  charge=  1.8072  magn=  0.0001
     atom 411 (R=0.043)  charge=  1.8060  magn=  0.0001
     atom 412 (R=0.043)  charge=  1.8065  magn=  0.0000
     atom 413 (R=0.043)  charge=  1.8069  magn=  0.0000
     atom 414 (R=0.043)  charge=  1.8074  magn=  0.0020
     atom 415 (R=0.043)  charge=  1.8063  magn=  0.0011
     atom 416 (R=0.043)  charge=  1.8055  magn=  0.0001
     atom 417 (R=0.043)  charge=  1.8057  magn=  0.0000
     atom 418 (R=0.043)  charge=  1.8063  magn=  0.0011
     atom 419 (R=0.043)  charge=  1.8023  magn=  0.0032
     atom 420 (R=0.043)  charge=  1.8064  magn=  0.0001
     atom 421 (R=0.043)  charge=  1.8055  magn=  0.0001
     atom 422 (R=0.043)  charge=  1.8023  magn=  0.0032
     atom 423 (R=0.043)  charge=  1.8094  magn=  0.0066
     atom 424 (R=0.043)  charge=  1.8064  magn=  0.0001
     atom 425 (R=0.043)  charge=  1.8057  magn=  0.0000
     atom 426 (R=0.043)  charge=  1.8064  magn=  0.0001
     atom 427 (R=0.043)  charge=  1.8064  magn=  0.0001
     atom 428 (R=0.043)  charge=  1.8067  magn=  0.0001
     atom 429 (R=0.043)  charge=  1.8063  magn=  0.0005
     atom 430 (R=0.043)  charge=  1.8073  magn=  0.0019
     atom 431 (R=0.043)  charge=  1.8060  magn=  0.0000
     atom 432 (R=0.043)  charge=  1.8065  magn=  0.0000
     atom 433 (R=0.043)  charge=  1.8073  magn=  0.0019
     atom 434 (R=0.043)  charge=  1.8060  magn=  0.0013
     atom 435 (R=0.043)  charge=  1.8059  magn=  0.0001
     atom 436 (R=0.043)  charge=  1.8062  magn= -0.0000
     atom 437 (R=0.043)  charge=  1.8060  magn=  0.0000
     atom 438 (R=0.043)  charge=  1.8059  magn=  0.0001
     atom 439 (R=0.043)  charge=  1.8074  magn=  0.0008
     atom 440 (R=0.043)  charge=  1.8069  magn=  0.0001
     atom 441 (R=0.043)  charge=  1.8065  magn=  0.0000
     atom 442 (R=0.043)  charge=  1.8062  magn= -0.0000
     atom 443 (R=0.043)  charge=  1.8069  magn=  0.0001
     atom 444 (R=0.043)  charge=  1.8066  magn=  0.0001
     atom 445 (R=0.043)  charge=  1.8067  magn=  0.0000
     atom 446 (R=0.043)  charge=  1.8059  magn=  0.0000
     atom 447 (R=0.043)  charge=  1.8083  magn=  0.0010
     atom 448 (R=0.043)  charge=  1.8066  magn=  0.0003
     atom 449 (R=0.043)  charge=  1.8060  magn= -0.0000
     atom 450 (R=0.043)  charge=  1.8046  magn=  0.0001
     atom 451 (R=0.043)  charge=  1.8055  magn=  0.0003
     atom 452 (R=0.043)  charge=  1.8081  magn=  0.0009
     atom 453 (R=0.043)  charge=  1.8069  magn=  0.0001
     atom 454 (R=0.043)  charge=  1.8062  magn=  0.0008
     atom 455 (R=0.043)  charge=  1.8043  magn=  0.0001
     atom 456 (R=0.043)  charge=  1.8058  magn= -0.0000
     atom 457 (R=0.043)  charge=  1.8067  magn=  0.0000
     atom 458 (R=0.043)  charge=  1.8070  magn=  0.0001
     atom 459 (R=0.043)  charge=  1.8055  magn= -0.0000
     atom 460 (R=0.043)  charge=  1.8068  magn=  0.0000
     atom 461 (R=0.043)  charge=  1.8062  magn=  0.0000
     atom 462 (R=0.043)  charge=  1.8056  magn=  0.0000
     atom 463 (R=0.043)  charge=  1.8062  magn=  0.0011
     atom 464 (R=0.043)  charge=  1.8098  magn=  0.0008
     atom 465 (R=0.043)  charge=  1.8063  magn=  0.0002
     atom 466 (R=0.043)  charge=  1.8061  magn=  0.0052
     atom 467 (R=0.043)  charge=  1.8064  magn=  0.0008
     atom 468 (R=0.043)  charge=  1.8064  magn=  0.0001
     atom 469 (R=0.043)  charge=  1.8112  magn=  0.0106
     atom 470 (R=0.043)  charge=  1.8042  magn=  0.0024
     atom 471 (R=0.043)  charge=  1.8058  magn=  0.0001
     atom 472 (R=0.043)  charge=  1.8080  magn=  0.0001
     atom 473 (R=0.043)  charge=  1.8062  magn=  0.0001
     atom 474 (R=0.043)  charge=  1.8063  magn=  0.0002
     atom 475 (R=0.043)  charge=  1.8062  magn=  0.0000
     atom 476 (R=0.043)  charge=  1.8067  magn=  0.0001
     atom 477 (R=0.043)  charge=  1.8062  magn=  0.0015
     atom 478 (R=0.043)  charge=  1.8056  magn=  0.0001
     atom 479 (R=0.043)  charge=  1.8060  magn=  0.0000
     atom 480 (R=0.043)  charge=  1.8063  magn=  0.0001
     atom 481 (R=0.043)  charge=  1.8028  magn=  0.0242
     atom 482 (R=0.043)  charge=  1.8038  magn=  0.0057
     atom 483 (R=0.043)  charge=  1.8061  magn=  0.0001
     atom 484 (R=0.043)  charge=  1.8066  magn= -0.0000
     atom 485 (R=0.043)  charge=  1.8065  magn=  0.0002
     atom 486 (R=0.043)  charge=  1.8100  magn=  0.0064
     atom 487 (R=0.043)  charge=  1.8075  magn=  0.0008
     atom 488 (R=0.043)  charge=  1.8064  magn=  0.0000
     atom 489 (R=0.043)  charge=  1.8065  magn= -0.0000
     atom 490 (R=0.043)  charge=  1.8065  magn=  0.0001
     atom 491 (R=0.043)  charge=  1.8069  magn=  0.0001
     atom 492 (R=0.043)  charge=  1.8065  magn=  0.0001
     atom 493 (R=0.043)  charge=  1.8066  magn=  0.0002
     atom 494 (R=0.043)  charge=  1.8054  magn= -0.0000
     atom 495 (R=0.043)  charge=  1.8066  magn=  0.0000
     atom 496 (R=0.043)  charge=  1.8068  magn=  0.0002
     atom 497 (R=0.043)  charge=  1.8058  magn=  0.0001
     atom 498 (R=0.043)  charge=  1.8061  magn=  0.0002
     atom 499 (R=0.043)  charge=  1.8060  magn= -0.0000
     atom 500 (R=0.043)  charge=  1.8065  magn=  0.0000
     atom 501 (R=0.043)  charge=  1.8063  magn= -0.0000
     atom 502 (R=0.043)  charge=  1.8061  magn=  0.0001
     atom 503 (R=0.043)  charge=  1.8069  magn=  0.0001
     atom 504 (R=0.043)  charge=  1.8066  magn=  0.0000
     atom 505 (R=0.043)  charge=  1.8065  magn=  0.0000
     atom 506 (R=0.043)  charge=  1.8068  magn=  0.0001
     atom 507 (R=0.043)  charge=  1.8066  magn=  0.0001
     atom 508 (R=0.043)  charge=  1.8040  magn=  0.3304
     atom 509 (R=0.043)  charge=  1.8463  magn=  0.1399
     atom 510 (R=0.043)  charge=  1.8463  magn=  0.1399
     atom 511 (R=0.043)  charge=  2.9062  magn=  0.1169

     total cpu time spent up to now is      780.1 secs

     End of self-consistent calculation

 ------ SPIN UP ------------


          k = 0.0000 0.0000 0.0000 (118565 PWs)   bands (ev):

    -8.2051  -7.7156  -7.6407  -7.6379  -7.6184  -7.6081  -7.5635  -7.2466
    -7.0737  -7.0700  -7.0666  -7.0617  -7.0579  -7.0462  -7.0404  -7.0358
    -7.0053  -6.9867  -6.9144  -6.6294  -6.4791  -6.4710  -6.4670  -6.4608
    -6.4494  -6.4386  -6.3705  -6.0276  -5.9143  -5.9137  -5.9050  -5.9010
    -5.8821  -5.6917  -5.3905  -5.3862  -5.3841  -5.3811  -5.3795  -5.3768
    -5.3760  -5.3694  -5.3688  -5.3623  -5.3622  -5.3580  -5.3554  -5.3493
    -5.3384  -5.3380  -5.3280  -5.3206  -5.3132  -5.3067  -5.2790  -5.2612
    -5.1907  -5.0244  -4.8364  -4.8331  -4.8268  -4.8228  -4.8182  -4.8168
    -4.8158  -4.8150  -4.8129  -4.8122  -4.8095  -4.8041  -4.8030  -4.7976
    -4.7950  -4.7847  -4.7721  -4.7488  -4.7457  -4.7216  -4.7057  -4.6784
    -4.4687  -3.9298  -3.7354  -3.7328  -3.7323  -3.7305  -3.7276  -3.7211
    -3.7161  -3.7154  -3.7092  -3.7064  -3.6672  -3.5126  -3.2748  -3.2730
    -3.2706  -3.2679  -3.2666  -3.2662  -3.2616  -3.2588  -3.2561  -3.2516
    -3.2496  -3.2473  -3.2422  -3.2391  -3.2390  -3.2288  -3.2168  -3.1935
    -3.1904  -3.1778  -3.1687  -3.1591  -3.1567  -3.1472  -3.1453  -3.1398
    -3.1346  -3.1222  -3.0090  -2.8034  -2.6659  -2.6640  -2.6604  -2.6594
    -2.6575  -2.6560  -2.6551  -2.6526  -2.6467  -2.6453  -2.6426  -2.6351
    -2.6341  -2.6327  -2.6301  -2.6222  -2.6195  -2.6123  -2.5941  -2.5845
    -2.5634  -2.5541  -2.4988  -2.4480  -2.4012  -2.3984  -2.3728  -2.3016
    -2.2020  -2.1990  -2.1838  -2.1806  -2.1799  -2.1762  -2.1742  -2.1699
    -2.1673  -2.1646  -2.1629  -2.1609  -2.1597  -2.1570  -2.1546  -2.1511
    -2.1427  -2.1387  -2.1213  -2.1186  -2.0846  -2.0557  -1.8441  -1.5971
    -1.4529  -1.4497  -1.4470  -1.4465  -1.4430  -1.4394  -1.4354  -1.4337
    -1.4312  -1.4281  -1.4271  -1.4232  -1.4142  -1.4116  -1.4107  -1.3990
    -1.3965  -1.3918  -1.3864  -1.3822  -1.3667  -1.3657  -1.3467  -1.3012
    -1.2585  -1.2584  -1.2519  -1.2500  -1.2488  -1.2487  -1.2452  -1.2339
    -1.2317  -1.2296  -1.2235  -1.2169  -1.2017  -1.1927  -1.1876  -1.1850
    -1.1724  -1.1346  -1.1330  -1.1300  -1.1019  -0.9915  -0.4494  -0.0914
    -0.0904  -0.0883  -0.0668   0.2039   0.2817   0.2839   0.2998   0.3015
     0.3058   0.3074   0.3076   0.3122   0.3171   0.3305   0.3846   0.4874
     0.4950   0.4989   0.5022   0.5030   0.5311   0.7406   0.7924   0.7991
     0.8169   0.8199   0.8212   0.8225   0.8226   0.8248   0.8369   0.8389
     0.8391   0.8474   0.8497   0.8518   0.8539   0.8572   0.8610   0.8652
     0.8653   0.8677   0.8793   0.8801   0.8812   0.8860   0.8874   0.8879
     0.8918   0.8926   0.8959   0.8961   0.9012   0.9052   0.9126   0.9160
     0.9169   0.9196   0.9324   0.9326   0.9346   0.9365   0.9397   0.9421
     0.9470   0.9918   1.0474   1.0508   1.1407   1.2410   1.2883   1.2892
     1.3086   1.3149   1.3170   1.3216   1.3239   1.3300   1.3375   1.3538
     1.4257   1.5117   1.5256   1.5258   1.5461   1.5469   1.5542   1.5545
     1.5637   1.5789   1.5851   1.6064   1.6669   1.6850   1.6883   1.6912
     1.6997   1.7027   1.7035   1.7052   1.7063   1.7091   1.7122   1.7124
     1.7219   1.7238   1.7252   1.7345   1.7363   1.7404   1.7540   1.7599
     1.7619   1.8634   1.9036   1.9226   2.2116   2.4250   2.4408   2.4409
     2.4729   2.4795   2.4809   2.4833   2.4851   2.4873   2.4888   2.4904
     2.4908   2.4929   2.4940   2.4953   2.4967   2.4996   2.5009   2.5037
     2.5090   2.5557   2.5743   2.5780   2.6726   2.8163   2.8182   2.8242
     2.8380   2.8392   2.8451   2.8490   2.8499   2.8552   2.8562   2.8604
     2.8623   2.8695   2.8801   2.8825   2.8855   2.8902   2.9016   2.9068
     2.9099   2.9191   3.0166   3.0774   3.6733   3.9047   3.9063   3.9413
     3.9430   3.9442   3.9460   3.9479   3.9509   3.9521   3.9617   3.9667
     3.9670   4.0659   4.0794   4.0858   4.1280   4.1293   4.1296   4.1342
     4.1374   4.1376   4.1395   4.1407   4.1414   4.1450   4.1475   4.1491
     4.1492   4.1510   4.1574   4.1608   4.1837   4.1992   4.2029   4.2064
     4.2162   4.2250   4.2260   4.2308   4.2339   4.2363   4.2384   4.2396
     4.2410   4.2442   4.2550   4.2586   4.2622   4.2683   4.2687   4.2703
     4.2720   4.2743   4.2808   4.2880   4.2887   4.2951   4.3270   4.3485
     4.3568   4.3632   4.3655   4.3730   4.3730   4.3753   4.3773   4.3779
     4.3797   4.3825   4.3901   4.3940   4.3941   4.3965   4.4082   4.4127
     4.4177   4.4185   4.4345   4.4404   4.4408   4.4854   4.5021   4.5064
     4.5107   4.5469   4.5499   4.5731   4.5755   4.5847   4.5857   4.5866
     4.5889   4.6118   4.6428   4.6436   4.6582   4.6922   4.7120   4.7171
     4.7835   4.8308   4.9198   4.9201   4.9456   4.9481   4.9502   4.9521
     4.9532   4.9606   4.9662   5.0309   5.0703   5.0895   5.5683   5.6154
     5.6170   5.6488   5.6601   5.6616   5.6650   5.6660   5.6674   5.6980
     5.6996   5.7041   5.8724   5.8754   5.8864   5.9136   5.9167   5.9176
     5.9181   5.9207   5.9218   5.9276   5.9328   5.9391   5.9396   5.9405
     5.9485   5.9505   5.9528   5.9626   5.9693   5.9714   5.9855   5.9931
     6.0039   6.0078   6.0673   6.1753   6.1774   6.2557   6.2568   6.2604
     6.2617   6.2617   6.2662   6.2673   6.2700   6.2701   6.2722   6.2729
     6.2767   6.2795   6.2849   6.2874   6.2985   6.2996   6.3028   6.3175
     6.3305   6.3349   6.3368   6.4664   6.4679   6.4830   6.5101   6.5115
     6.5129   6.5135   6.5168   6.5174   6.5182   6.5207   6.5214   6.5228
     6.5229   6.5234   6.5238   6.5272   6.5284   6.5371   6.5385   6.5694
     6.5784   6.5813   6.5867   6.6426   6.6475   6.6503   6.6625   6.6647
     6.6679   6.6724   6.6839   6.7065   6.7079   6.7231   6.7266   6.7281
     6.7319   6.7319   6.7360   6.7368   6.7432   6.7437   6.7455   6.7461
     6.7517   6.7599   6.7731   6.7793   6.7861   6.7882   6.7944   6.8066
     6.8559   6.8616   6.8830   6.8946   6.9014   6.9280   6.9291   6.9308
     6.9352   6.9364   6.9379   6.9392   6.9407   6.9445   6.9487   6.9491
     6.9554   6.9559   6.9604   6.9621   6.9626   6.9641   6.9676   6.9714
     6.9762   6.9832   6.9906   7.0030   7.0067   7.0686   7.1081   7.1318
     7.2475   7.2539   7.2971   7.2980   7.2995   7.3007   7.3010   7.3043
     7.3052   7.3053   7.3075   7.3101   7.3116   7.3127   7.3166   7.3183
     7.3241   7.3263   7.3277   7.3467   7.3470   7.3775   7.3819   7.3840
     7.4801   7.4802   7.5198   7.5200   7.5248   7.5278   7.5398   7.5448
     7.5622   7.5820   7.5901   7.5927   7.6505   7.6745   7.6784   7.7324
     7.7344   7.7361   7.7363   7.7391   7.7403   7.7426   7.7442   7.7488
     7.7499   7.7509   7.7533   7.7539   7.7566   7.7586   7.7596   7.7602
     7.7613   7.7626   7.7664   7.7671   7.7689   7.7706   7.7714   7.7715
     7.7726   7.7740   7.7749   7.7768   7.7775   7.7800   7.7815   7.7833
     7.7852   7.7860   7.7893   7.7932   7.7938   7.7998   7.8095   7.8261
     7.8263   7.8539   7.8572   7.8696   7.8793   7.8979   7.9049   7.9138
     7.9279   7.9296   7.9397   7.9422   7.9665   8.0854   8.0993   8.1083
     8.2950   8.2967   8.3517   8.3556   8.3576   8.3587   8.3609   8.3626
     8.3644   8.3671   8.3679   8.3680   8.3690   8.3720   8.3728   8.3793
     8.3825   8.3891   8.3968   8.4001   8.4040   8.4094   8.4231   8.4245
     8.4466   8.5017   8.5239   8.5440   8.5444   8.5470   8.5492   8.5531
     8.5561   8.5575   8.5588   8.5609   8.5640   8.5647   8.5701   8.5744
     8.5787   8.5807   8.5978   8.6012   8.6033   8.6065   8.6302   8.6318
     8.6403   8.6435   8.6568   8.6604   8.6618   8.6653   8.6673   8.6712
     8.6775   8.6796   8.6905   8.6940   8.6957   8.6978   8.7000   8.7066
     8.7173   8.7181   8.7287   8.7321   8.7332   8.7388   8.7430   8.7527
     8.7598   8.7721   8.7981   8.9837   9.0256   9.0373   9.1069   9.1081
     9.1296   9.1329   9.1332   9.1347   9.1379   9.1416   9.1436   9.1676
     9.1907   9.1995   9.2021   9.2494   9.2525   9.2585   9.2614   9.2685
     9.2774   9.2867   9.2943   9.4103   9.4488   9.4656   9.6538   9.6545
     9.7057   9.7059   9.7064   9.7088   9.7118   9.7144   9.7167   9.7223
     9.7237   9.7295   9.7301   9.7320   9.7378   9.7426   9.7474   9.7536
     9.7608   9.7618   9.7726   9.7896   9.8438   9.8454   9.8599   9.9645
     9.9731   9.9861   9.9902   9.9942   9.9970  10.0006  10.0028  10.0065
    10.0153  10.0172  10.0198  10.0202  10.0260  10.0305  10.0323  10.0358
    10.0360  10.0380  10.0390  10.0399  10.0427  10.0427  10.0434  10.0441
    10.0482  10.0483  10.0497  10.0521  10.0617  10.0623  10.0677  10.1410
    10.1448  10.1550  10.1908  10.1947  10.1968  10.1973  10.1996  10.1996
    10.2005  10.2018  10.2018  10.2041  10.2061  10.2073  10.2668  10.2794
    10.2802  10.3054  10.3060  10.3076  10.3100  10.3157  10.3165  10.3170
    10.3177  10.3205  10.3206  10.3218  10.3233  10.3247  10.3250  10.3259
    10.3286  10.3286  10.3312  10.3315  10.3324  10.3370  10.3405  10.3446
    10.3477  10.3499  10.3504  10.3505  10.3575  10.3613  10.3637  10.3685
    10.3779  10.3817  10.3902  10.4077  10.4130  10.4252  10.4302  10.4360
    10.4481  10.4519  10.4686  10.4860  10.4906  10.5060  10.5135  10.5622
    10.5924  10.6135  10.7329  11.1285  11.2937  11.3266  11.4466  11.4571
    11.4665  11.4786  11.4794  11.4863  11.4873  11.4882  11.4897  11.4909
    11.4910  11.4947  11.5004  11.5014  11.5033  11.5055  11.5146  11.5194
    11.5267  11.5382  11.5414  11.5441  11.5500  11.5780  11.5783  11.5914
    11.8755  11.8771  11.8865  11.9202  11.9206  12.0775  12.3170  12.3437
    12.3686  12.4548  12.4620  12.4670  12.4751  12.4904  12.4910  12.5109
    12.5286  12.5489  13.1392  13.1880  13.1883  13.7764  15.1431  15.7309
    17.4001  17.4036  17.4043  17.4182  17.4210  17.4301  17.7104  17.7134

     occupation numbers 
     1.0000   1.0000   1.0000   1.0000   1.0000   1.0000   1.0000   1.0000
     1.0000   1.0000   1.0000   1.0000   1.0000   1.0000   1.0000   1.0000
     1.0000   1.0000   1.0000   1.0000   1.0000   1.0000   1.0000   1.0000
     1.0000   1.0000   1.0000   1.0000   1.0000   1.0000   1.0000   1.0000
     1.0000   1.0000   1.0000   1.0000   1.0000   1.0000   1.0000   1.0000
     1.0000   1.0000   1.0000   1.0000   1.0000   1.0000   1.0000   1.0000
     1.0000   1.0000   1.0000   1.0000   1.0000   1.0000   1.0000   1.0000
     1.0000   1.0000   1.0000   1.0000   1.0000   1.0000   1.0000   1.0000
     1.0000   1.0000   1.0000   1.0000   1.0000   1.0000   1.0000   1.0000
     1.0000   1.0000   1.0000   1.0000   1.0000   1.0000   1.0000   1.0000
     1.0000   1.0000   1.0000   1.0000   1.0000   1.0000   1.0000   1.0000
     1.0000   1.0000   1.0000   1.0000   1.0000   1.0000   1.0000   1.0000
     1.0000   1.0000   1.0000   1.0000   1.0000   1.0000   1.0000   1.0000
     1.0000   1.0000   1.0000   1.0000   1.0000   1.0000   1.0000   1.0000
     1.0000   1.0000   1.0000   1.0000   1.0000   1.0000   1.0000   1.0000
     1.0000   1.0000   1.0000   1.0000   1.0000   1.0000   1.0000   1.0000
     1.0000   1.0000   1.0000   1.0000   1.0000   1.0000   1.0000   1.0000
     1.0000   1.0000   1.0000   1.0000   1.0000   1.0000   1.0000   1.0000
     1.0000   1.0000   1.0000   1.0000   1.0000   1.0000   1.0000   1.0000
     1.0000   1.0000   1.0000   1.0000   1.0000   1.0000   1.0000   1.0000
     1.0000   1.0000   1.0000   1.0000   1.0000   1.0000   1.0000   1.0000
     1.0000   1.0000   1.0000   1.0000   1.0000   1.0000   1.0000   1.0000
     1.0000   1.0000   1.0000   1.0000   1.0000   1.0000   1.0000   1.0000
     1.0000   1.0000   1.0000   1.0000   1.0000   1.0000   1.0000   1.0000
     1.0000   1.0000   1.0000   1.0000   1.0000   1.0000   1.0000   1.0000
     1.0000   1.0000   1.0000   1.0000   1.0000   1.0000   1.0000   1.0000
     1.0000   1.0000   1.0000   1.0000   1.0000   1.0000   1.0000   1.0000
     1.0000   1.0000   1.0000   1.0000   1.0000   1.0000   1.0000   1.0000
     1.0000   1.0000   1.0000   1.0000   1.0000   1.0000   1.0000   1.0000
     1.0000   1.0000   1.0000   1.0000   1.0000   1.0000   1.0000   1.0000
     1.0000   1.0000   1.0000   1.0000   1.0000   1.0000   1.0000   1.0000
     1.0000   1.0000   1.0000   1.0000   1.0000   1.0000   1.0000   1.0000
     1.0000   1.0000   1.0000   1.0000   1.0000   1.0000   1.0000   1.0000
     1.0000   1.0000   1.0000   1.0000   1.0000   1.0000   1.0000   1.0000
     1.0000   1.0000   1.0000   1.0000   1.0000   1.0000   1.0000   1.0000
     1.0000   1.0000   1.0000   1.0000   1.0000   1.0000   1.0000   1.0000
     1.0000   1.0000   1.0000   1.0000   1.0000   1.0000   1.0000   1.0000
     1.0000   1.0000   1.0000   1.0000   1.0000   1.0000   1.0000   1.0000
     1.0000   1.0000   1.0000   1.0000   1.0000   1.0000   1.0000   1.0000
     1.0000   1.0000   1.0000   1.0000   1.0000   1.0000   1.0000   1.0000
     1.0000   1.0000   1.0000   1.0000   1.0000   1.0000   1.0000   1.0000
     1.0000   1.0000   1.0000   1.0000   1.0000   1.0000   1.0000   1.0000
     1.0000   1.0000   1.0000   1.0000   1.0000   1.0000   1.0000   1.0000
     1.0000   1.0000   1.0000   1.0000   1.0000   1.0000   1.0000   1.0000
     1.0000   1.0000   1.0000   1.0000   1.0000   1.0000   1.0000   1.0000
     1.0000   1.0000   1.0000   1.0000   1.0000   1.0000   1.0000   1.0000
     1.0000   1.0000   1.0000   1.0000   1.0000   1.0000   1.0000   1.0000
     1.0000   1.0000   1.0000   1.0000   1.0000   1.0000   1.0000   1.0000
     1.0000   1.0000   1.0000   1.0000   1.0000   1.0000   1.0000   1.0000
     1.0000   1.0000   1.0000   1.0000   1.0000   1.0000   1.0000   1.0000
     1.0000   1.0000   1.0000   1.0000   1.0000   1.0000   1.0000   1.0000
     1.0000   1.0000   1.0000   1.0000   1.0000   1.0000   1.0000   1.0000
     1.0000   1.0000   1.0000   1.0000   1.0000   1.0000   1.0000   1.0000
     1.0000   1.0000   1.0000   1.0000   1.0000   1.0000   1.0000   1.0000
     1.0000   1.0000   1.0000   1.0000   1.0000   1.0000   1.0000   1.0000
     1.0000   1.0000   1.0000   1.0000   1.0000   1.0000   1.0000   1.0000
     1.0000   1.0000   1.0000   1.0000   1.0000   1.0000   1.0000   1.0000
     1.0000   1.0000   1.0000   1.0000   1.0000   1.0000   1.0000   1.0000
     1.0000   1.0000   1.0000   1.0000   1.0000   1.0000   1.0000   1.0000
     1.0000   1.0000   1.0000   1.0000   1.0000   1.0000   1.0000   1.0000
     1.0000   1.0000   1.0000   1.0000   1.0000   1.0000   1.0000   1.0000
     1.0000   1.0000   1.0000   1.0000   1.0000   1.0000   1.0000   1.0000
     1.0000   1.0000   1.0000   1.0000   1.0000   1.0000   1.0000   1.0000
     1.0000   1.0000   1.0000   1.0000   1.0000   1.0000   1.0000   1.0000
     1.0000   1.0000   1.0000   1.0000   1.0000   1.0000   1.0000   1.0000
     1.0000   1.0000   1.0000   1.0000   1.0000   1.0000   1.0000   1.0000
     1.0000   1.0000   1.0000   1.0000   1.0000   1.0000   1.0000   1.0000
     1.0000   1.0000   1.0000   1.0000   1.0000   1.0000   1.0000   1.0000
     1.0000   1.0000   1.0000   1.0000   1.0000   1.0000   1.0000   1.0000
     1.0000   1.0000   1.0000   1.0000   1.0000   1.0000   1.0000   1.0000
     1.0000   1.0000   1.0000   1.0000   1.0000   1.0000   1.0000   1.0000
     1.0000   1.0000   1.0000   1.0000   1.0000   1.0000   1.0000   1.0000
     1.0000   1.0000   1.0000   1.0000   1.0000   1.0000   1.0000   1.0000
     1.0000   1.0000   1.0000   1.0000   1.0000   1.0000   1.0000   1.0000
     1.0000   1.0000   1.0000   1.0000   1.0000   1.0000   1.0000   1.0000
     1.0000   1.0000   1.0000   1.0000   1.0000   1.0000   1.0000   1.0000
     1.0000   1.0000   1.0000   1.0000   1.0000   1.0000   1.0000   1.0000
     1.0000   1.0000   1.0000   1.0000   1.0000   1.0000   1.0000   1.0000
     1.0000   1.0000   1.0000   1.0000   1.0000   1.0000   1.0000   1.0000
     1.0000   1.0000   1.0000   1.0000   1.0000   1.0000   1.0000   1.0000
     1.0000   1.0000   1.0000   1.0000   1.0000   1.0000   1.0000   1.0000
     1.0000   1.0000   1.0000   1.0000   1.0000   1.0000   1.0000   1.0000
     1.0000   1.0000   1.0000   1.0000   1.0000   1.0000   1.0000   1.0000
     1.0000   1.0000   1.0000   1.0000   1.0000   1.0000   1.0000   1.0000
     1.0000   1.0000   1.0000   1.0000   1.0000   1.0000   1.0000   1.0000
     1.0000   1.0000   1.0000   1.0000   1.0000   1.0000   1.0000   1.0000
     1.0000   1.0000   1.0000   1.0000   1.0000   1.0000   1.0000   1.0000
     1.0000   1.0000   1.0000   1.0000   1.0000   1.0000   1.0000   1.0000
     1.0000   1.0000   1.0000   1.0000   1.0000   1.0000   1.0000   1.0000
     1.0000   1.0000   1.0000   1.0000   1.0000   1.0000   1.0000   1.0000
     1.0000   1.0000   1.0000   1.0000   1.0000   1.0000   1.0000   1.0000
     1.0000   1.0000   1.0000   1.0000   1.0000   1.0000   1.0000   1.0000
     1.0000   1.0000   1.0000   1.0000   1.0000   1.0000   1.0000   1.0000
     1.0000   1.0000   1.0000   1.0000   1.0000   1.0000   1.0000   1.0000
     1.0000   1.0000   1.0000   1.0000   1.0000   1.0000   1.0000   1.0000
     1.0000   1.0000   1.0000   1.0000   1.0000   1.0000   1.0000   1.0000
     1.0000   1.0000   1.0000   1.0000   1.0000   1.0000   1.0000   1.0000
     1.0000   1.0000   1.0000   1.0000   1.0000   1.0000   1.0000   1.0000
     1.0000   1.0000   1.0000   1.0000   1.0000   1.0000   1.0000   1.0000
     1.0000   1.0000   1.0000   1.0000   1.0000   1.0000   1.0000   1.0000
     1.0000   1.0000   1.0000   1.0000   1.0000   1.0000   1.0000   1.0000
     1.0000   1.0000   1.0000   1.0000   1.0000   1.0000   1.0000   1.0000
     1.0000   1.0000   1.0000   1.0000   1.0000   1.0000   1.0000   1.0000
     1.0000   1.0000   1.0000   1.0000   1.0000   1.0000   1.0000   1.0000
     1.0000   1.0000   1.0000   1.0000   1.0000   1.0000   1.0000   1.0000
     1.0000   1.0000   1.0000   1.0000   1.0000   1.0000   1.0000   1.0000
     1.0000   1.0000   1.0000   1.0000   1.0000   1.0000   1.0000   1.0000
     1.0000   1.0000   1.0000   1.0000   1.0000   1.0000   1.0000   1.0000
     1.0000   1.0000   1.0000   1.0000   1.0000   1.0000   1.0000   1.0000
     1.0000   1.0000   1.0000   1.0000   1.0000   1.0000   1.0000   1.0000
     1.0000   1.0000   1.0000   1.0000   1.0000   1.0000   1.0000   1.0000
     1.0000   1.0000   1.0000   1.0000   1.0000   1.0000   1.0000   1.0000
     1.0000   1.0000   1.0000   1.0000   1.0000   1.0000   1.0000   1.0000
     1.0000   1.0000   1.0000   1.0000   1.0000   1.0000   1.0000   1.0000
     1.0000   1.0000   1.0000   1.0000   1.0000   1.0000   1.0000   1.0000
     1.0000   1.0000   1.0000   1.0000   1.0000   1.0000   1.0000   1.0000
     1.0000   1.0000   1.0000   1.0000   1.0000   1.0000   1.0000   1.0000
     1.0000   1.0000   1.0000   1.0000   1.0000   1.0000   1.0000   1.0000
     1.0000   1.0000   1.0000   1.0000   1.0000   1.0000   1.0000   1.0000
     1.0000   1.0000   1.0000   1.0000   1.0000   1.0000   1.0000   1.0000
     1.0000   1.0000   1.0000   1.0000   1.0000   1.0000   1.0000   1.0000
     1.0000   1.0000   1.0000   1.0000   1.0000   1.0000   1.0000   1.0000
     1.0000   1.0000   1.0000   1.0000   1.0000   1.0000   1.0000   1.0000
     1.0000   1.0000   1.0000   1.0000   1.0000   1.0000   1.0000   1.0000
     1.0000   1.0000   1.0000   1.0000   1.0000   1.0000   1.0000   1.0000
     1.0000   1.0000   1.0000   1.0000   1.0000   1.0000   1.0000   1.0000
     1.0000   1.0000   1.0000   1.0000   1.0000   1.0000   1.0000   1.0000
     1.0000   1.0000   1.0000   1.0000   1.0000   1.0000   1.0000   1.0000
     0.0000   0.0000   0.0000   0.0000   0.0000   0.0000   0.0000   0.0000

 ------ SPIN DOWN ----------


          k = 0.0000 0.0000 0.0000 (118565 PWs)   bands (ev):

    -8.2022  -7.7012  -7.6399  -7.6374  -7.6157  -7.6071  -7.5572  -7.2252
    -7.0729  -7.0696  -7.0653  -7.0609  -7.0574  -7.0434  -7.0386  -7.0350
    -6.9990  -6.9836  -6.9044  -6.6169  -6.4770  -6.4690  -6.4645  -6.4561
    -6.4452  -6.4354  -6.3603  -6.0137  -5.9126  -5.9118  -5.9011  -5.8992
    -5.8788  -5.6715  -5.3893  -5.3857  -5.3836  -5.3795  -5.3790  -5.3761
    -5.3751  -5.3690  -5.3675  -5.3618  -5.3612  -5.3571  -5.3533  -5.3487
    -5.3357  -5.3336  -5.3220  -5.3189  -5.3105  -5.3044  -5.2673  -5.2543
    -5.1826  -5.0158  -4.8344  -4.8319  -4.8252  -4.8207  -4.8170  -4.8158
    -4.8147  -4.8144  -4.8113  -4.8109  -4.8088  -4.8020  -4.8001  -4.7934
    -4.7933  -4.7827  -4.7661  -4.7411  -4.7380  -4.7161  -4.6901  -4.6652
    -4.4428  -3.9112  -3.7332  -3.7307  -3.7304  -3.7288  -3.7208  -3.7190
    -3.7145  -3.7122  -3.7055  -3.7041  -3.6617  -3.4998  -3.2719  -3.2709
    -3.2693  -3.2663  -3.2656  -3.2651  -3.2593  -3.2584  -3.2554  -3.2481
    -3.2474  -3.2454  -3.2406  -3.2368  -3.2349  -3.2265  -3.2126  -3.1884
    -3.1871  -3.1730  -3.1574  -3.1566  -3.1545  -3.1448  -3.1411  -3.1378
    -3.1274  -3.1142  -2.9973  -2.7907  -2.6635  -2.6627  -2.6598  -2.6588
    -2.6569  -2.6554  -2.6531  -2.6516  -2.6455  -2.6435  -2.6419  -2.6323
    -2.6319  -2.6291  -2.6288  -2.6204  -2.6175  -2.6098  -2.5892  -2.5809
    -2.5506  -2.5479  -2.4945  -2.4448  -2.3950  -2.3949  -2.3669  -2.2957
    -2.1996  -2.1960  -2.1789  -2.1773  -2.1763  -2.1741  -2.1727  -2.1677
    -2.1653  -2.1626  -2.1607  -2.1580  -2.1572  -2.1552  -2.1535  -2.1469
    -2.1399  -2.1301  -2.1169  -2.1154  -2.0593  -2.0407  -1.8278  -1.5866
    -1.4517  -1.4483  -1.4465  -1.4452  -1.4420  -1.4389  -1.4341  -1.4321
    -1.4306  -1.4267  -1.4261  -1.4227  -1.4128  -1.4100  -1.4042  -1.3968
    -1.3933  -1.3895  -1.3827  -1.3811  -1.3639  -1.3579  -1.3433  -1.2970
    -1.2569  -1.2552  -1.2514  -1.2486  -1.2479  -1.2467  -1.2437  -1.2317
    -1.2292  -1.2279  -1.2195  -1.2136  -1.1981  -1.1876  -1.1832  -1.1809
    -1.1668  -1.1278  -1.1257  -1.1239  -1.0402  -0.9556  -0.3853  -0.0895
    -0.0879  -0.0854  -0.0618   0.2140   0.2841   0.2866   0.3029   0.3039
     0.3078   0.3093   0.3100   0.3143   0.3291   0.3365   0.3955   0.4900
     0.4963   0.5004   0.5046   0.5058   0.5359   0.7571   0.7958   0.8032
     0.8175   0.8210   0.8218   0.8229   0.8234   0.8254   0.8389   0.8411
     0.8421   0.8495   0.8517   0.8528   0.8575   0.8588   0.8639   0.8662
     0.8671   0.8697   0.8802   0.8810   0.8817   0.8875   0.8888   0.8889
     0.8930   0.8960   0.8967   0.8974   0.9019   0.9060   0.9175   0.9218
     0.9238   0.9246   0.9354   0.9364   0.9389   0.9393   0.9435   0.9497
     0.9521   0.9983   1.0580   1.0612   1.1485   1.2480   1.2907   1.2912
     1.3119   1.3182   1.3201   1.3249   1.3257   1.3316   1.3538   1.3616
     1.4325   1.5167   1.5280   1.5289   1.5483   1.5493   1.5570   1.5581
     1.5682   1.5822   1.6023   1.6168   1.6719   1.6881   1.6899   1.6926
     1.7020   1.7048   1.7052   1.7060   1.7081   1.7105   1.7128   1.7153
     1.7248   1.7270   1.7287   1.7360   1.7383   1.7447   1.7645   1.7655
     1.7716   1.8738   1.9280   1.9373   2.2327   2.4305   2.4440   2.4444
     2.4818   2.4826   2.4843   2.4859   2.4881   2.4897   2.4907   2.4923
     2.4932   2.4949   2.4973   2.4985   2.4999   2.5014   2.5031   2.5092
     2.5126   2.5620   2.5850   2.5874   2.6824   2.8187   2.8211   2.8347
     2.8390   2.8404   2.8471   2.8499   2.8503   2.8575   2.8580   2.8642
     2.8688   2.8713   2.8836   2.8854   2.8895   2.8937   2.9055   2.9099
     2.9139   2.9222   3.0664   3.1066   3.7252   3.9089   3.9110   3.9433
     3.9454   3.9457   3.9472   3.9492   3.9532   3.9536   3.9642   3.9690
     3.9699   4.0782   4.0856   4.0910   4.1294   4.1301   4.1308   4.1373
     4.1389   4.1397   4.1409   4.1418   4.1433   4.1458   4.1483   4.1498
     4.1501   4.1553   4.1604   4.1630   4.1909   4.2014   4.2043   4.2084
     4.2191   4.2285   4.2331   4.2334   4.2373   4.2389   4.2404   4.2427
     4.2453   4.2455   4.2588   4.2639   4.2653   4.2701   4.2726   4.2736
     4.2757   4.2762   4.2837   4.2900   4.2924   4.2980   4.3428   4.3559
     4.3592   4.3650   4.3685   4.3739   4.3740   4.3768   4.3791   4.3791
     4.3826   4.3835   4.3913   4.3953   4.3972   4.4011   4.4116   4.4155
     4.4202   4.4206   4.4362   4.4446   4.4454   4.4909   4.5107   4.5124
     4.5170   4.5512   4.5535   4.5768   4.5806   4.5871   4.5891   4.5922
     4.5937   4.6218   4.6470   4.6500   4.6617   4.7006   4.7154   4.7203
     4.8208   4.8526   4.9228   4.9233   4.9480   4.9511   4.9534   4.9537
     4.9554   4.9660   4.9699   5.0397   5.0992   5.1095   5.5952   5.6215
     5.6220   5.6529   5.6615   5.6633   5.6671   5.6690   5.6713   5.7031
     5.7036   5.7083   5.8781   5.8816   5.9022   5.9159   5.9185   5.9186
     5.9199   5.9216   5.9226   5.9285   5.9345   5.9408   5.9414   5.9424
     5.9499   5.9525   5.9554   5.9658   5.9738   5.9754   5.9877   5.9991
     6.0116   6.0117   6.1052   6.1814   6.1825   6.2587   6.2607   6.2625
     6.2646   6.2652   6.2676   6.2695   6.2712   6.2721   6.2742   6.2752
     6.2801   6.2811   6.2889   6.2909   6.3027   6.3051   6.3062   6.3290
     6.3356   6.3419   6.3471   6.4704   6.4730   6.4868   6.5130   6.5146
     6.5155   6.5158   6.5185   6.5194   6.5200   6.5226   6.5226   6.5239
     6.5261   6.5263   6.5272   6.5302   6.5317   6.5419   6.5424   6.5753
     6.5857   6.5866   6.5960   6.6487   6.6522   6.6547   6.6638   6.6656
     6.6691   6.6744   6.6865   6.7109   6.7110   6.7235   6.7277   6.7287
     6.7323   6.7364   6.7380   6.7390   6.7444   6.7454   6.7467   6.7475
     6.7535   6.7653   6.7766   6.7822   6.7924   6.7954   6.7973   6.8217
     6.8638   6.8669   6.8881   6.8986   6.9079   6.9293   6.9305   6.9321
     6.9364   6.9392   6.9408   6.9421   6.9425   6.9477   6.9507   6.9543
     6.9571   6.9598   6.9644   6.9648   6.9657   6.9662   6.9733   6.9736
     6.9792   6.9870   6.9943   7.0183   7.0194   7.0829   7.1286   7.1445
     7.2524   7.2576   7.2981   7.2997   7.3016   7.3017   7.3037   7.3063
     7.3066   7.3069   7.3088   7.3109   7.3136   7.3149   7.3195   7.3195
     7.3275   7.3297   7.3300   7.3517   7.3519   7.3826   7.3860   7.3917
     7.4844   7.4859   7.5226   7.5252   7.5276   7.5300   7.5457   7.5486
     7.5668   7.5892   7.5951   7.6002   7.6752   7.6786   7.6830   7.7336
     7.7360   7.7377   7.7379   7.7414   7.7415   7.7437   7.7488   7.7505
     7.7513   7.7533   7.7552   7.7582   7.7593   7.7597   7.7622   7.7626
     7.7626   7.7640   7.7679   7.7685   7.7719   7.7722   7.7733   7.7735
     7.7742   7.7758   7.7767   7.7782   7.7813   7.7814   7.7850   7.7861
     7.7876   7.7876   7.7915   7.7946   7.7967   7.8053   7.8183   7.8348
     7.8350   7.8565   7.8602   7.8765   7.8857   7.9039   7.9090   7.9203
     7.9304   7.9368   7.9446   7.9517   7.9724   8.1002   8.1199   8.1207
     8.2990   8.3014   8.3543   8.3578   8.3591   8.3612   8.3637   8.3650
     8.3658   8.3687   8.3691   8.3705   8.3714   8.3739   8.3757   8.3816
     8.3853   8.3910   8.4020   8.4021   8.4134   8.4239   8.4274   8.4310
     8.4779   8.5056   8.5277   8.5461   8.5466   8.5498   8.5513   8.5562
     8.5582   8.5591   8.5600   8.5628   8.5664   8.5672   8.5735   8.5777
     8.5828   8.5838   8.6001   8.6058   8.6074   8.6103   8.6357   8.6376
     8.6432   8.6486   8.6589   8.6627   8.6631   8.6688   8.6705   8.6761
     8.6813   8.6852   8.6932   8.6963   8.7018   8.7024   8.7044   8.7128
     8.7252   8.7257   8.7353   8.7379   8.7383   8.7450   8.7473   8.7628
     8.7691   8.7838   8.8101   9.0033   9.0478   9.0488   9.1127   9.1130
     9.1349   9.1353   9.1369   9.1372   9.1414   9.1456   9.1465   9.1849
     9.2046   9.2092   9.2128   9.2529   9.2556   9.2603   9.2621   9.2712
     9.2842   9.2916   9.3032   9.4308   9.4754   9.4797   9.6596   9.6610
     9.7066   9.7077   9.7093   9.7136   9.7147   9.7153   9.7178   9.7245
     9.7336   9.7342   9.7344   9.7378   9.7403   9.7462   9.7494   9.7555
     9.7699   9.7699   9.7785   9.8260   9.8531   9.8548   9.8857   9.9708
     9.9772   9.9895   9.9929   9.9960   9.9984  10.0032  10.0039  10.0128
    10.0168  10.0179  10.0216  10.0238  10.0289  10.0336  10.0343  10.0378
    10.0387  10.0399  10.0417  10.0418  10.0445  10.0450  10.0453  10.0466
    10.0499  10.0507  10.0511  10.0535  10.0686  10.0714  10.0754  10.1485
    10.1493  10.1624  10.1924  10.1959  10.1976  10.1981  10.2002  10.2004
    10.2013  10.2025  10.2027  10.2050  10.2080  10.2089  10.2731  10.2834
    10.2986  10.3060  10.3071  10.3088  10.3107  10.3177  10.3177  10.3181
    10.3184  10.3217  10.3219  10.3230  10.3246  10.3253  10.3263  10.3283
    10.3306  10.3308  10.3330  10.3331  10.3334  10.3384  10.3419  10.3467
    10.3494  10.3511  10.3525  10.3529  10.3610  10.3634  10.3694  10.3727
    10.3820  10.3913  10.3994  10.4137  10.4218  10.4281  10.4332  10.4382
    10.4516  10.4563  10.4790  10.4961  10.4988  10.5130  10.5298  10.5739
    10.6114  10.6444  10.7557  11.2120  11.3433  11.3445  11.4561  11.4602
    11.4794  11.4804  11.4877  11.4887  11.4894  11.4908  11.4928  11.4944
    11.4962  11.4978  11.5029  11.5055  11.5070  11.5100  11.5246  11.5251
    11.5306  11.5462  11.5479  11.5552  11.5694  11.5866  11.5914  11.7252
    11.8809  11.8837  11.8968  11.9218  11.9227  12.2050  12.3592  12.3628
    12.4555  12.4645  12.4686  12.4762  12.4892  12.4941  12.5143  12.5164
    12.5357  12.5550  13.1969  13.2024  13.2141  14.8775  16.4680  16.5732
    17.4040  17.4055  17.4055  17.4220  17.4231  17.4351  17.7122  17.7157

     occupation numbers 
     1.0000   1.0000   1.0000   1.0000   1.0000   1.0000   1.0000   1.0000
     1.0000   1.0000   1.0000   1.0000   1.0000   1.0000   1.0000   1.0000
     1.0000   1.0000   1.0000   1.0000   1.0000   1.0000   1.0000   1.0000
     1.0000   1.0000   1.0000   1.0000   1.0000   1.0000   1.0000   1.0000
     1.0000   1.0000   1.0000   1.0000   1.0000   1.0000   1.0000   1.0000
     1.0000   1.0000   1.0000   1.0000   1.0000   1.0000   1.0000   1.0000
     1.0000   1.0000   1.0000   1.0000   1.0000   1.0000   1.0000   1.0000
     1.0000   1.0000   1.0000   1.0000   1.0000   1.0000   1.0000   1.0000
     1.0000   1.0000   1.0000   1.0000   1.0000   1.0000   1.0000   1.0000
     1.0000   1.0000   1.0000   1.0000   1.0000   1.0000   1.0000   1.0000
     1.0000   1.0000   1.0000   1.0000   1.0000   1.0000   1.0000   1.0000
     1.0000   1.0000   1.0000   1.0000   1.0000   1.0000   1.0000   1.0000
     1.0000   1.0000   1.0000   1.0000   1.0000   1.0000   1.0000   1.0000
     1.0000   1.0000   1.0000   1.0000   1.0000   1.0000   1.0000   1.0000
     1.0000   1.0000   1.0000   1.0000   1.0000   1.0000   1.0000   1.0000
     1.0000   1.0000   1.0000   1.0000   1.0000   1.0000   1.0000   1.0000
     1.0000   1.0000   1.0000   1.0000   1.0000   1.0000   1.0000   1.0000
     1.0000   1.0000   1.0000   1.0000   1.0000   1.0000   1.0000   1.0000
     1.0000   1.0000   1.0000   1.0000   1.0000   1.0000   1.0000   1.0000
     1.0000   1.0000   1.0000   1.0000   1.0000   1.0000   1.0000   1.0000
     1.0000   1.0000   1.0000   1.0000   1.0000   1.0000   1.0000   1.0000
     1.0000   1.0000   1.0000   1.0000   1.0000   1.0000   1.0000   1.0000
     1.0000   1.0000   1.0000   1.0000   1.0000   1.0000   1.0000   1.0000
     1.0000   1.0000   1.0000   1.0000   1.0000   1.0000   1.0000   1.0000
     1.0000   1.0000   1.0000   1.0000   1.0000   1.0000   1.0000   1.0000
     1.0000   1.0000   1.0000   1.0000   1.0000   1.0000   1.0000   1.0000
     1.0000   1.0000   1.0000   1.0000   1.0000   1.0000   1.0000   1.0000
     1.0000   1.0000   1.0000   1.0000   1.0000   1.0000   1.0000   1.0000
     1.0000   1.0000   1.0000   1.0000   1.0000   1.0000   1.0000   1.0000
     1.0000   1.0000   1.0000   1.0000   1.0000   1.0000   1.0000   1.0000
     1.0000   1.0000   1.0000   1.0000   1.0000   1.0000   1.0000   1.0000
     1.0000   1.0000   1.0000   1.0000   1.0000   1.0000   1.0000   1.0000
     1.0000   1.0000   1.0000   1.0000   1.0000   1.0000   1.0000   1.0000
     1.0000   1.0000   1.0000   1.0000   1.0000   1.0000   1.0000   1.0000
     1.0000   1.0000   1.0000   1.0000   1.0000   1.0000   1.0000   1.0000
     1.0000   1.0000   1.0000   1.0000   1.0000   1.0000   1.0000   1.0000
     1.0000   1.0000   1.0000   1.0000   1.0000   1.0000   1.0000   1.0000
     1.0000   1.0000   1.0000   1.0000   1.0000   1.0000   1.0000   1.0000
     1.0000   1.0000   1.0000   1.0000   1.0000   1.0000   1.0000   1.0000
     1.0000   1.0000   1.0000   1.0000   1.0000   1.0000   1.0000   1.0000
     1.0000   1.0000   1.0000   1.0000   1.0000   1.0000   1.0000   1.0000
     1.0000   1.0000   1.0000   1.0000   1.0000   1.0000   1.0000   1.0000
     1.0000   1.0000   1.0000   1.0000   1.0000   1.0000   1.0000   1.0000
     1.0000   1.0000   1.0000   1.0000   1.0000   1.0000   1.0000   1.0000
     1.0000   1.0000   1.0000   1.0000   1.0000   1.0000   1.0000   1.0000
     1.0000   1.0000   1.0000   1.0000   1.0000   1.0000   1.0000   1.0000
     1.0000   1.0000   1.0000   1.0000   1.0000   1.0000   1.0000   1.0000
     1.0000   1.0000   1.0000   1.0000   1.0000   1.0000   1.0000   1.0000
     1.0000   1.0000   1.0000   1.0000   1.0000   1.0000   1.0000   1.0000
     1.0000   1.0000   1.0000   1.0000   1.0000   1.0000   1.0000   1.0000
     1.0000   1.0000   1.0000   1.0000   1.0000   1.0000   1.0000   1.0000
     1.0000   1.0000   1.0000   1.0000   1.0000   1.0000   1.0000   1.0000
     1.0000   1.0000   1.0000   1.0000   1.0000   1.0000   1.0000   1.0000
     1.0000   1.0000   1.0000   1.0000   1.0000   1.0000   1.0000   1.0000
     1.0000   1.0000   1.0000   1.0000   1.0000   1.0000   1.0000   1.0000
     1.0000   1.0000   1.0000   1.0000   1.0000   1.0000   1.0000   1.0000
     1.0000   1.0000   1.0000   1.0000   1.0000   1.0000   1.0000   1.0000
     1.0000   1.0000   1.0000   1.0000   1.0000   1.0000   1.0000   1.0000
     1.0000   1.0000   1.0000   1.0000   1.0000   1.0000   1.0000   1.0000
     1.0000   1.0000   1.0000   1.0000   1.0000   1.0000   1.0000   1.0000
     1.0000   1.0000   1.0000   1.0000   1.0000   1.0000   1.0000   1.0000
     1.0000   1.0000   1.0000   1.0000   1.0000   1.0000   1.0000   1.0000
     1.0000   1.0000   1.0000   1.0000   1.0000   1.0000   1.0000   1.0000
     1.0000   1.0000   1.0000   1.0000   1.0000   1.0000   1.0000   1.0000
     1.0000   1.0000   1.0000   1.0000   1.0000   1.0000   1.0000   1.0000
     1.0000   1.0000   1.0000   1.0000   1.0000   1.0000   1.0000   1.0000
     1.0000   1.0000   1.0000   1.0000   1.0000   1.0000   1.0000   1.0000
     1.0000   1.0000   1.0000   1.0000   1.0000   1.0000   1.0000   1.0000
     1.0000   1.0000   1.0000   1.0000   1.0000   1.0000   1.0000   1.0000
     1.0000   1.0000   1.0000   1.0000   1.0000   1.0000   1.0000   1.0000
     1.0000   1.0000   1.0000   1.0000   1.0000   1.0000   1.0000   1.0000
     1.0000   1.0000   1.0000   1.0000   1.0000   1.0000   1.0000   1.0000
     1.0000   1.0000   1.0000   1.0000   1.0000   1.0000   1.0000   1.0000
     1.0000   1.0000   1.0000   1.0000   1.0000   1.0000   1.0000   1.0000
     1.0000   1.0000   1.0000   1.0000   1.0000   1.0000   1.0000   1.0000
     1.0000   1.0000   1.0000   1.0000   1.0000   1.0000   1.0000   1.0000
     1.0000   1.0000   1.0000   1.0000   1.0000   1.0000   1.0000   1.0000
     1.0000   1.0000   1.0000   1.0000   1.0000   1.0000   1.0000   1.0000
     1.0000   1.0000   1.0000   1.0000   1.0000   1.0000   1.0000   1.0000
     1.0000   1.0000   1.0000   1.0000   1.0000   1.0000   1.0000   1.0000
     1.0000   1.0000   1.0000   1.0000   1.0000   1.0000   1.0000   1.0000
     1.0000   1.0000   1.0000   1.0000   1.0000   1.0000   1.0000   1.0000
     1.0000   1.0000   1.0000   1.0000   1.0000   1.0000   1.0000   1.0000
     1.0000   1.0000   1.0000   1.0000   1.0000   1.0000   1.0000   1.0000
     1.0000   1.0000   1.0000   1.0000   1.0000   1.0000   1.0000   1.0000
     1.0000   1.0000   1.0000   1.0000   1.0000   1.0000   1.0000   1.0000
     1.0000   1.0000   1.0000   1.0000   1.0000   1.0000   1.0000   1.0000
     1.0000   1.0000   1.0000   1.0000   1.0000   1.0000   1.0000   1.0000
     1.0000   1.0000   1.0000   1.0000   1.0000   1.0000   1.0000   1.0000
     1.0000   1.0000   1.0000   1.0000   1.0000   1.0000   1.0000   1.0000
     1.0000   1.0000   1.0000   1.0000   1.0000   1.0000   1.0000   1.0000
     1.0000   1.0000   1.0000   1.0000   1.0000   1.0000   1.0000   1.0000
     1.0000   1.0000   1.0000   1.0000   1.0000   1.0000   1.0000   1.0000
     1.0000   1.0000   1.0000   1.0000   1.0000   1.0000   1.0000   1.0000
     1.0000   1.0000   1.0000   1.0000   1.0000   1.0000   1.0000   1.0000
     1.0000   1.0000   1.0000   1.0000   1.0000   1.0000   1.0000   1.0000
     1.0000   1.0000   1.0000   1.0000   1.0000   1.0000   1.0000   1.0000
     1.0000   1.0000   1.0000   1.0000   1.0000   1.0000   1.0000   1.0000
     1.0000   1.0000   1.0000   1.0000   1.0000   1.0000   1.0000   1.0000
     1.0000   1.0000   1.0000   1.0000   1.0000   1.0000   1.0000   1.0000
     1.0000   1.0000   1.0000   1.0000   1.0000   1.0000   1.0000   1.0000
     1.0000   1.0000   1.0000   1.0000   1.0000   1.0000   1.0000   1.0000
     1.0000   1.0000   1.0000   1.0000   1.0000   1.0000   1.0000   1.0000
     1.0000   1.0000   1.0000   1.0000   1.0000   1.0000   1.0000   1.0000
     1.0000   1.0000   1.0000   1.0000   1.0000   1.0000   1.0000   1.0000
     1.0000   1.0000   1.0000   1.0000   1.0000   1.0000   1.0000   1.0000
     1.0000   1.0000   1.0000   1.0000   1.0000   1.0000   1.0000   1.0000
     1.0000   1.0000   1.0000   1.0000   1.0000   1.0000   1.0000   1.0000
     1.0000   1.0000   1.0000   1.0000   1.0000   1.0000   1.0000   1.0000
     1.0000   1.0000   1.0000   1.0000   1.0000   1.0000   1.0000   1.0000
     1.0000   1.0000   1.0000   1.0000   1.0000   1.0000   1.0000   1.0000
     1.0000   1.0000   1.0000   1.0000   1.0000   1.0000   1.0000   1.0000
     1.0000   1.0000   1.0000   1.0000   1.0000   1.0000   1.0000   1.0000
     1.0000   1.0000   1.0000   1.0000   1.0000   1.0000   1.0000   1.0000
     1.0000   1.0000   1.0000   1.0000   1.0000   1.0000   1.0000   1.0000
     1.0000   1.0000   1.0000   1.0000   1.0000   1.0000   1.0000   1.0000
     1.0000   1.0000   1.0000   1.0000   1.0000   1.0000   1.0000   1.0000
     1.0000   1.0000   1.0000   1.0000   1.0000   1.0000   1.0000   1.0000
     1.0000   1.0000   1.0000   1.0000   1.0000   1.0000   1.0000   1.0000
     1.0000   1.0000   1.0000   1.0000   1.0000   1.0000   1.0000   1.0000
     1.0000   1.0000   1.0000   1.0000   1.0000   1.0000   1.0000   1.0000
     1.0000   1.0000   1.0000   1.0000   1.0000   1.0000   1.0000   1.0000
     1.0000   1.0000   1.0000   1.0000   1.0000   1.0000   1.0000   1.0000
     1.0000   1.0000   1.0000   1.0000   1.0000   1.0000   1.0000   1.0000
     1.0000   1.0000   1.0000   1.0000   1.0000   1.0000   1.0000   1.0000
     1.0000   1.0000   1.0000   1.0000   1.0000   1.0000   1.0000   1.0000
     1.0000   1.0000   1.0000   1.0000   1.0000   1.0000   1.0000   1.0000
     1.0000   1.0000   1.0000   1.0000   1.0000   0.0000   1.0000   0.0000
     0.0000   0.0000   0.0000   0.0000   0.0000   0.0000   0.0000   0.0000

     highest occupied, lowest unoccupied level (ev):    15.7309   14.8775

!    total energy              =   -5828.97742000 Ry
     estimated scf accuracy    <          1.7E-11 Ry

     The total energy is the sum of the following terms:
     one-electron contribution =    2011.71616363 Ry
     hartree contribution      =     505.31620451 Ry
     xc contribution           =   -1820.31127448 Ry
     ewald contribution        =   -6525.69851366 Ry

     total magnetization       =     2.00 Bohr mag/cell
     absolute magnetization    =     2.27 Bohr mag/cell

     convergence has been achieved in  31 iterations

 %%%%%%%%%%%%%%%%%%%%%%%%%%%%%%%%%%%%%%%%%%%%%%%%%%%%%%%%%%%%%%%%%%%%%%%%%%%%%%
     Error in routine write_rhog (2):
     error writing file ./pwscf.save/charge-density
 %%%%%%%%%%%%%%%%%%%%%%%%%%%%%%%%%%%%%%%%%%%%%%%%%%%%%%%%%%%%%%%%%%%%%%%%%%%%%%

     stopping ...

 %%%%%%%%%%%%%%%%%%%%%%%%%%%%%%%%%%%%%%%%%%%%%%%%%%%%%%%%%%%%%%%%%%%%%%%%%%%%%%
     Error in routine write_rhog (2):
     error writing file ./pwscf.save/charge-density
 %%%%%%%%%%%%%%%%%%%%%%%%%%%%%%%%%%%%%%%%%%%%%%%%%%%%%%%%%%%%%%%%%%%%%%%%%%%%%%

     stopping ...

 %%%%%%%%%%%%%%%%%%%%%%%%%%%%%%%%%%%%%%%%%%%%%%%%%%%%%%%%%%%%%%%%%%%%%%%%%%%%%%
     Error in routine write_rhog (2):
     error writing file ./pwscf.save/charge-density
 %%%%%%%%%%%%%%%%%%%%%%%%%%%%%%%%%%%%%%%%%%%%%%%%%%%%%%%%%%%%%%%%%%%%%%%%%%%%%%

     stopping ...

 %%%%%%%%%%%%%%%%%%%%%%%%%%%%%%%%%%%%%%%%%%%%%%%%%%%%%%%%%%%%%%%%%%%%%%%%%%%%%%
     Error in routine write_rhog (2):
     error writing file ./pwscf.save/charge-density
 %%%%%%%%%%%%%%%%%%%%%%%%%%%%%%%%%%%%%%%%%%%%%%%%%%%%%%%%%%%%%%%%%%%%%%%%%%%%%%

     stopping ...

 %%%%%%%%%%%%%%%%%%%%%%%%%%%%%%%%%%%%%%%%%%%%%%%%%%%%%%%%%%%%%%%%%%%%%%%%%%%%%%
     Error in routine write_rhog (2):
     error writing file ./pwscf.save/charge-density
 %%%%%%%%%%%%%%%%%%%%%%%%%%%%%%%%%%%%%%%%%%%%%%%%%%%%%%%%%%%%%%%%%%%%%%%%%%%%%%

     stopping ...

 %%%%%%%%%%%%%%%%%%%%%%%%%%%%%%%%%%%%%%%%%%%%%%%%%%%%%%%%%%%%%%%%%%%%%%%%%%%%%%
     Error in routine write_rhog (2):
     error writing file ./pwscf.save/charge-density
 %%%%%%%%%%%%%%%%%%%%%%%%%%%%%%%%%%%%%%%%%%%%%%%%%%%%%%%%%%%%%%%%%%%%%%%%%%%%%%

     stopping ...

 %%%%%%%%%%%%%%%%%%%%%%%%%%%%%%%%%%%%%%%%%%%%%%%%%%%%%%%%%%%%%%%%%%%%%%%%%%%%%%
     Error in routine write_rhog (2):
     error writing file ./pwscf.save/charge-density
 %%%%%%%%%%%%%%%%%%%%%%%%%%%%%%%%%%%%%%%%%%%%%%%%%%%%%%%%%%%%%%%%%%%%%%%%%%%%%%

     stopping ...

 %%%%%%%%%%%%%%%%%%%%%%%%%%%%%%%%%%%%%%%%%%%%%%%%%%%%%%%%%%%%%%%%%%%%%%%%%%%%%%
     Error in routine write_rhog (2):
     error writing file ./pwscf.save/charge-density
 %%%%%%%%%%%%%%%%%%%%%%%%%%%%%%%%%%%%%%%%%%%%%%%%%%%%%%%%%%%%%%%%%%%%%%%%%%%%%%

     stopping ...

 %%%%%%%%%%%%%%%%%%%%%%%%%%%%%%%%%%%%%%%%%%%%%%%%%%%%%%%%%%%%%%%%%%%%%%%%%%%%%%
     Error in routine write_rhog (2):
     error writing file ./pwscf.save/charge-density
 %%%%%%%%%%%%%%%%%%%%%%%%%%%%%%%%%%%%%%%%%%%%%%%%%%%%%%%%%%%%%%%%%%%%%%%%%%%%%%

     stopping ...

 %%%%%%%%%%%%%%%%%%%%%%%%%%%%%%%%%%%%%%%%%%%%%%%%%%%%%%%%%%%%%%%%%%%%%%%%%%%%%%
     Error in routine write_rhog (2):
     error writing file ./pwscf.save/charge-density
 %%%%%%%%%%%%%%%%%%%%%%%%%%%%%%%%%%%%%%%%%%%%%%%%%%%%%%%%%%%%%%%%%%%%%%%%%%%%%%

     stopping ...

 %%%%%%%%%%%%%%%%%%%%%%%%%%%%%%%%%%%%%%%%%%%%%%%%%%%%%%%%%%%%%%%%%%%%%%%%%%%%%%
     Error in routine write_rhog (2):
     error writing file ./pwscf.save/charge-density
 %%%%%%%%%%%%%%%%%%%%%%%%%%%%%%%%%%%%%%%%%%%%%%%%%%%%%%%%%%%%%%%%%%%%%%%%%%%%%%

     stopping ...

 %%%%%%%%%%%%%%%%%%%%%%%%%%%%%%%%%%%%%%%%%%%%%%%%%%%%%%%%%%%%%%%%%%%%%%%%%%%%%%
     Error in routine write_rhog (2):
     error writing file ./pwscf.save/charge-density
 %%%%%%%%%%%%%%%%%%%%%%%%%%%%%%%%%%%%%%%%%%%%%%%%%%%%%%%%%%%%%%%%%%%%%%%%%%%%%%

     stopping ...

 %%%%%%%%%%%%%%%%%%%%%%%%%%%%%%%%%%%%%%%%%%%%%%%%%%%%%%%%%%%%%%%%%%%%%%%%%%%%%%
     Error in routine write_rhog (2):
     error writing file ./pwscf.save/charge-density
 %%%%%%%%%%%%%%%%%%%%%%%%%%%%%%%%%%%%%%%%%%%%%%%%%%%%%%%%%%%%%%%%%%%%%%%%%%%%%%

     stopping ...

 %%%%%%%%%%%%%%%%%%%%%%%%%%%%%%%%%%%%%%%%%%%%%%%%%%%%%%%%%%%%%%%%%%%%%%%%%%%%%%
     Error in routine write_rhog (2):
     error writing file ./pwscf.save/charge-density
 %%%%%%%%%%%%%%%%%%%%%%%%%%%%%%%%%%%%%%%%%%%%%%%%%%%%%%%%%%%%%%%%%%%%%%%%%%%%%%

     stopping ...

 %%%%%%%%%%%%%%%%%%%%%%%%%%%%%%%%%%%%%%%%%%%%%%%%%%%%%%%%%%%%%%%%%%%%%%%%%%%%%%
     Error in routine write_rhog (2):
     error writing file ./pwscf.save/charge-density
 %%%%%%%%%%%%%%%%%%%%%%%%%%%%%%%%%%%%%%%%%%%%%%%%%%%%%%%%%%%%%%%%%%%%%%%%%%%%%%

     stopping ...

 %%%%%%%%%%%%%%%%%%%%%%%%%%%%%%%%%%%%%%%%%%%%%%%%%%%%%%%%%%%%%%%%%%%%%%%%%%%%%%
     Error in routine write_rhog (2):
     error writing file ./pwscf.save/charge-density
 %%%%%%%%%%%%%%%%%%%%%%%%%%%%%%%%%%%%%%%%%%%%%%%%%%%%%%%%%%%%%%%%%%%%%%%%%%%%%%

     stopping ...

 %%%%%%%%%%%%%%%%%%%%%%%%%%%%%%%%%%%%%%%%%%%%%%%%%%%%%%%%%%%%%%%%%%%%%%%%%%%%%%
     Error in routine write_rhog (2):
     error writing file ./pwscf.save/charge-density
 %%%%%%%%%%%%%%%%%%%%%%%%%%%%%%%%%%%%%%%%%%%%%%%%%%%%%%%%%%%%%%%%%%%%%%%%%%%%%%

     stopping ...

 %%%%%%%%%%%%%%%%%%%%%%%%%%%%%%%%%%%%%%%%%%%%%%%%%%%%%%%%%%%%%%%%%%%%%%%%%%%%%%
     Error in routine write_rhog (2):
     error writing file ./pwscf.save/charge-density
 %%%%%%%%%%%%%%%%%%%%%%%%%%%%%%%%%%%%%%%%%%%%%%%%%%%%%%%%%%%%%%%%%%%%%%%%%%%%%%

     stopping ...

 %%%%%%%%%%%%%%%%%%%%%%%%%%%%%%%%%%%%%%%%%%%%%%%%%%%%%%%%%%%%%%%%%%%%%%%%%%%%%%
     Error in routine write_rhog (2):
     error writing file ./pwscf.save/charge-density
 %%%%%%%%%%%%%%%%%%%%%%%%%%%%%%%%%%%%%%%%%%%%%%%%%%%%%%%%%%%%%%%%%%%%%%%%%%%%%%

     stopping ...

 %%%%%%%%%%%%%%%%%%%%%%%%%%%%%%%%%%%%%%%%%%%%%%%%%%%%%%%%%%%%%%%%%%%%%%%%%%%%%%
     Error in routine write_rhog (2):
     error writing file ./pwscf.save/charge-density
 %%%%%%%%%%%%%%%%%%%%%%%%%%%%%%%%%%%%%%%%%%%%%%%%%%%%%%%%%%%%%%%%%%%%%%%%%%%%%%

     stopping ...

 %%%%%%%%%%%%%%%%%%%%%%%%%%%%%%%%%%%%%%%%%%%%%%%%%%%%%%%%%%%%%%%%%%%%%%%%%%%%%%
     Error in routine write_rhog (2):
     error writing file ./pwscf.save/charge-density
 %%%%%%%%%%%%%%%%%%%%%%%%%%%%%%%%%%%%%%%%%%%%%%%%%%%%%%%%%%%%%%%%%%%%%%%%%%%%%%

     stopping ...

 %%%%%%%%%%%%%%%%%%%%%%%%%%%%%%%%%%%%%%%%%%%%%%%%%%%%%%%%%%%%%%%%%%%%%%%%%%%%%%
     Error in routine write_rhog (2):
     error writing file ./pwscf.save/charge-density
 %%%%%%%%%%%%%%%%%%%%%%%%%%%%%%%%%%%%%%%%%%%%%%%%%%%%%%%%%%%%%%%%%%%%%%%%%%%%%%

     stopping ...

 %%%%%%%%%%%%%%%%%%%%%%%%%%%%%%%%%%%%%%%%%%%%%%%%%%%%%%%%%%%%%%%%%%%%%%%%%%%%%%
     Error in routine write_rhog (2):
     error writing file ./pwscf.save/charge-density
 %%%%%%%%%%%%%%%%%%%%%%%%%%%%%%%%%%%%%%%%%%%%%%%%%%%%%%%%%%%%%%%%%%%%%%%%%%%%%%

     stopping ...

 %%%%%%%%%%%%%%%%%%%%%%%%%%%%%%%%%%%%%%%%%%%%%%%%%%%%%%%%%%%%%%%%%%%%%%%%%%%%%%
     Error in routine write_rhog (2):
     error writing file ./pwscf.save/charge-density
 %%%%%%%%%%%%%%%%%%%%%%%%%%%%%%%%%%%%%%%%%%%%%%%%%%%%%%%%%%%%%%%%%%%%%%%%%%%%%%

     stopping ...

 %%%%%%%%%%%%%%%%%%%%%%%%%%%%%%%%%%%%%%%%%%%%%%%%%%%%%%%%%%%%%%%%%%%%%%%%%%%%%%
     Error in routine write_rhog (2):
     error writing file ./pwscf.save/charge-density
 %%%%%%%%%%%%%%%%%%%%%%%%%%%%%%%%%%%%%%%%%%%%%%%%%%%%%%%%%%%%%%%%%%%%%%%%%%%%%%

     stopping ...

 %%%%%%%%%%%%%%%%%%%%%%%%%%%%%%%%%%%%%%%%%%%%%%%%%%%%%%%%%%%%%%%%%%%%%%%%%%%%%%
     Error in routine write_rhog (2):
     error writing file ./pwscf.save/charge-density
 %%%%%%%%%%%%%%%%%%%%%%%%%%%%%%%%%%%%%%%%%%%%%%%%%%%%%%%%%%%%%%%%%%%%%%%%%%%%%%

     stopping ...

 %%%%%%%%%%%%%%%%%%%%%%%%%%%%%%%%%%%%%%%%%%%%%%%%%%%%%%%%%%%%%%%%%%%%%%%%%%%%%%
     Error in routine write_rhog (2):
     error writing file ./pwscf.save/charge-density
 %%%%%%%%%%%%%%%%%%%%%%%%%%%%%%%%%%%%%%%%%%%%%%%%%%%%%%%%%%%%%%%%%%%%%%%%%%%%%%

     stopping ...

 %%%%%%%%%%%%%%%%%%%%%%%%%%%%%%%%%%%%%%%%%%%%%%%%%%%%%%%%%%%%%%%%%%%%%%%%%%%%%%
     Error in routine write_rhog (2):
     error writing file ./pwscf.save/charge-density
 %%%%%%%%%%%%%%%%%%%%%%%%%%%%%%%%%%%%%%%%%%%%%%%%%%%%%%%%%%%%%%%%%%%%%%%%%%%%%%

     stopping ...

 %%%%%%%%%%%%%%%%%%%%%%%%%%%%%%%%%%%%%%%%%%%%%%%%%%%%%%%%%%%%%%%%%%%%%%%%%%%%%%
     Error in routine write_rhog (2):
     error writing file ./pwscf.save/charge-density
 %%%%%%%%%%%%%%%%%%%%%%%%%%%%%%%%%%%%%%%%%%%%%%%%%%%%%%%%%%%%%%%%%%%%%%%%%%%%%%

     stopping ...

 %%%%%%%%%%%%%%%%%%%%%%%%%%%%%%%%%%%%%%%%%%%%%%%%%%%%%%%%%%%%%%%%%%%%%%%%%%%%%%
     Error in routine write_rhog (2):
     error writing file ./pwscf.save/charge-density
 %%%%%%%%%%%%%%%%%%%%%%%%%%%%%%%%%%%%%%%%%%%%%%%%%%%%%%%%%%%%%%%%%%%%%%%%%%%%%%

     stopping ...

 %%%%%%%%%%%%%%%%%%%%%%%%%%%%%%%%%%%%%%%%%%%%%%%%%%%%%%%%%%%%%%%%%%%%%%%%%%%%%%
     Error in routine write_rhog (2):
     error writing file ./pwscf.save/charge-density
 %%%%%%%%%%%%%%%%%%%%%%%%%%%%%%%%%%%%%%%%%%%%%%%%%%%%%%%%%%%%%%%%%%%%%%%%%%%%%%

     stopping ...

 %%%%%%%%%%%%%%%%%%%%%%%%%%%%%%%%%%%%%%%%%%%%%%%%%%%%%%%%%%%%%%%%%%%%%%%%%%%%%%
     Error in routine write_rhog (2):
     error writing file ./pwscf.save/charge-density
 %%%%%%%%%%%%%%%%%%%%%%%%%%%%%%%%%%%%%%%%%%%%%%%%%%%%%%%%%%%%%%%%%%%%%%%%%%%%%%

     stopping ...

 %%%%%%%%%%%%%%%%%%%%%%%%%%%%%%%%%%%%%%%%%%%%%%%%%%%%%%%%%%%%%%%%%%%%%%%%%%%%%%
     Error in routine write_rhog (2):
     error writing file ./pwscf.save/charge-density
 %%%%%%%%%%%%%%%%%%%%%%%%%%%%%%%%%%%%%%%%%%%%%%%%%%%%%%%%%%%%%%%%%%%%%%%%%%%%%%

     stopping ...

 %%%%%%%%%%%%%%%%%%%%%%%%%%%%%%%%%%%%%%%%%%%%%%%%%%%%%%%%%%%%%%%%%%%%%%%%%%%%%%
     Error in routine write_rhog (2):
     error writing file ./pwscf.save/charge-density
 %%%%%%%%%%%%%%%%%%%%%%%%%%%%%%%%%%%%%%%%%%%%%%%%%%%%%%%%%%%%%%%%%%%%%%%%%%%%%%

     stopping ...

 %%%%%%%%%%%%%%%%%%%%%%%%%%%%%%%%%%%%%%%%%%%%%%%%%%%%%%%%%%%%%%%%%%%%%%%%%%%%%%
     Error in routine write_rhog (2):
     error writing file ./pwscf.save/charge-density
 %%%%%%%%%%%%%%%%%%%%%%%%%%%%%%%%%%%%%%%%%%%%%%%%%%%%%%%%%%%%%%%%%%%%%%%%%%%%%%

     stopping ...

 %%%%%%%%%%%%%%%%%%%%%%%%%%%%%%%%%%%%%%%%%%%%%%%%%%%%%%%%%%%%%%%%%%%%%%%%%%%%%%
     Error in routine write_rhog (2):
     error writing file ./pwscf.save/charge-density
 %%%%%%%%%%%%%%%%%%%%%%%%%%%%%%%%%%%%%%%%%%%%%%%%%%%%%%%%%%%%%%%%%%%%%%%%%%%%%%

     stopping ...

 %%%%%%%%%%%%%%%%%%%%%%%%%%%%%%%%%%%%%%%%%%%%%%%%%%%%%%%%%%%%%%%%%%%%%%%%%%%%%%
     Error in routine write_rhog (2):
     error writing file ./pwscf.save/charge-density
 %%%%%%%%%%%%%%%%%%%%%%%%%%%%%%%%%%%%%%%%%%%%%%%%%%%%%%%%%%%%%%%%%%%%%%%%%%%%%%

     stopping ...

 %%%%%%%%%%%%%%%%%%%%%%%%%%%%%%%%%%%%%%%%%%%%%%%%%%%%%%%%%%%%%%%%%%%%%%%%%%%%%%
     Error in routine write_rhog (2):
     error writing file ./pwscf.save/charge-density
 %%%%%%%%%%%%%%%%%%%%%%%%%%%%%%%%%%%%%%%%%%%%%%%%%%%%%%%%%%%%%%%%%%%%%%%%%%%%%%

     stopping ...

 %%%%%%%%%%%%%%%%%%%%%%%%%%%%%%%%%%%%%%%%%%%%%%%%%%%%%%%%%%%%%%%%%%%%%%%%%%%%%%
     Error in routine write_rhog (2):
     error writing file ./pwscf.save/charge-density
 %%%%%%%%%%%%%%%%%%%%%%%%%%%%%%%%%%%%%%%%%%%%%%%%%%%%%%%%%%%%%%%%%%%%%%%%%%%%%%

     stopping ...

 %%%%%%%%%%%%%%%%%%%%%%%%%%%%%%%%%%%%%%%%%%%%%%%%%%%%%%%%%%%%%%%%%%%%%%%%%%%%%%
     Error in routine write_rhog (2):
     error writing file ./pwscf.save/charge-density
 %%%%%%%%%%%%%%%%%%%%%%%%%%%%%%%%%%%%%%%%%%%%%%%%%%%%%%%%%%%%%%%%%%%%%%%%%%%%%%

     stopping ...

 %%%%%%%%%%%%%%%%%%%%%%%%%%%%%%%%%%%%%%%%%%%%%%%%%%%%%%%%%%%%%%%%%%%%%%%%%%%%%%
     Error in routine write_rhog (2):
     error writing file ./pwscf.save/charge-density
 %%%%%%%%%%%%%%%%%%%%%%%%%%%%%%%%%%%%%%%%%%%%%%%%%%%%%%%%%%%%%%%%%%%%%%%%%%%%%%

     stopping ...

 %%%%%%%%%%%%%%%%%%%%%%%%%%%%%%%%%%%%%%%%%%%%%%%%%%%%%%%%%%%%%%%%%%%%%%%%%%%%%%
     Error in routine write_rhog (2):
     error writing file ./pwscf.save/charge-density
 %%%%%%%%%%%%%%%%%%%%%%%%%%%%%%%%%%%%%%%%%%%%%%%%%%%%%%%%%%%%%%%%%%%%%%%%%%%%%%

     stopping ...

 %%%%%%%%%%%%%%%%%%%%%%%%%%%%%%%%%%%%%%%%%%%%%%%%%%%%%%%%%%%%%%%%%%%%%%%%%%%%%%
     Error in routine write_rhog (2):
     error writing file ./pwscf.save/charge-density
 %%%%%%%%%%%%%%%%%%%%%%%%%%%%%%%%%%%%%%%%%%%%%%%%%%%%%%%%%%%%%%%%%%%%%%%%%%%%%%

     stopping ...

 %%%%%%%%%%%%%%%%%%%%%%%%%%%%%%%%%%%%%%%%%%%%%%%%%%%%%%%%%%%%%%%%%%%%%%%%%%%%%%
     Error in routine write_rhog (2):
     error writing file ./pwscf.save/charge-density
 %%%%%%%%%%%%%%%%%%%%%%%%%%%%%%%%%%%%%%%%%%%%%%%%%%%%%%%%%%%%%%%%%%%%%%%%%%%%%%

     stopping ...

 %%%%%%%%%%%%%%%%%%%%%%%%%%%%%%%%%%%%%%%%%%%%%%%%%%%%%%%%%%%%%%%%%%%%%%%%%%%%%%
     Error in routine write_rhog (2):
     error writing file ./pwscf.save/charge-density
 %%%%%%%%%%%%%%%%%%%%%%%%%%%%%%%%%%%%%%%%%%%%%%%%%%%%%%%%%%%%%%%%%%%%%%%%%%%%%%

     stopping ...

 %%%%%%%%%%%%%%%%%%%%%%%%%%%%%%%%%%%%%%%%%%%%%%%%%%%%%%%%%%%%%%%%%%%%%%%%%%%%%%
     Error in routine write_rhog (2):
     error writing file ./pwscf.save/charge-density
 %%%%%%%%%%%%%%%%%%%%%%%%%%%%%%%%%%%%%%%%%%%%%%%%%%%%%%%%%%%%%%%%%%%%%%%%%%%%%%

     stopping ...

 %%%%%%%%%%%%%%%%%%%%%%%%%%%%%%%%%%%%%%%%%%%%%%%%%%%%%%%%%%%%%%%%%%%%%%%%%%%%%%
     Error in routine write_rhog (2):
     error writing file ./pwscf.save/charge-density
 %%%%%%%%%%%%%%%%%%%%%%%%%%%%%%%%%%%%%%%%%%%%%%%%%%%%%%%%%%%%%%%%%%%%%%%%%%%%%%

     stopping ...

 %%%%%%%%%%%%%%%%%%%%%%%%%%%%%%%%%%%%%%%%%%%%%%%%%%%%%%%%%%%%%%%%%%%%%%%%%%%%%%
     Error in routine write_rhog (2):
     error writing file ./pwscf.save/charge-density
 %%%%%%%%%%%%%%%%%%%%%%%%%%%%%%%%%%%%%%%%%%%%%%%%%%%%%%%%%%%%%%%%%%%%%%%%%%%%%%

     stopping ...
