&CONTROL
calculation = 'scf'
restart_mode = 'from_scratch'
prefix = 'pwscf'
pseudo_dir = '/home/jinyuchem/program/QE/pseudo-potential'
outdir = './'
wf_collect = .TRUE.
!tstress = .TRUE.
tprnfor = .TRUE.
verbosity = 'high'
/
&SYSTEM
ibrav = 0
nat = 511       ! 510 C + 1 N → 2045 valence e⁻ + 1 extra e⁻ = 2046 total.
                ! With nspin=2 and tot_magnetization=2 → 1024 spin-up, 1022 spin-down electrons.
                ! Thus need at least 1024 (up) and 1022 (down) occupied bands; nbnd=1040 adds extra unoccupied bands.
ntyp = 2
ecutwfc = 90
tot_charge = -1
nspin = 2       ! nspin = 2 --> spin polarized calculation: QE computes two separate charge densities: ρ↑(r) and ρ↓(r). 
                !   Spin-up and spin-down electrons can occupy different orbitals. Each orbital holds one electron.
                ! nspin = 1 --> Non-spin-polarized (restricted)
                !   Spin-up and spin-down electrons are assumed identical. Only one charge density ρ(r) is computed. 
                !   Each Kohn–Sham orbital holds two electrons (one up, one down).
tot_magnetization = 2   ! Total (N↑ − N↓) Sets overall net spin.
nbnd = 1040
occupations = 'from_input'
/
&ELECTRONS
electron_maxstep = 300
conv_thr = 1.0d-8
mixing_mode = 'plain'
mixing_beta = 0.3
diagonalization = 'david'
diago_full_acc = .TRUE.
startingpot = 'atomic'
startingwfc = 'atomic+random'
/
ATOMIC_SPECIES
C  12.0107 C_ONCV_PBE-1.0.upf
N  14.0000 N_ONCV_PBE-1.0.upf
CELL_PARAMETERS angstrom
14.272 0.0 0.0
0.0 14.272 0.0
0.0 0.0 14.272
K_POINTS gamma
OCCUPATIONS
1 1 1 1 1 1 1 1 1 1     ! line 42... 10 columns *
1 1 1 1 1 1 1 1 1 1
1 1 1 1 1 1 1 1 1 1
1 1 1 1 1 1 1 1 1 1
1 1 1 1 1 1 1 1 1 1
1 1 1 1 1 1 1 1 1 1
1 1 1 1 1 1 1 1 1 1
1 1 1 1 1 1 1 1 1 1
1 1 1 1 1 1 1 1 1 1
1 1 1 1 1 1 1 1 1 1
1 1 1 1 1 1 1 1 1 1
1 1 1 1 1 1 1 1 1 1
1 1 1 1 1 1 1 1 1 1
1 1 1 1 1 1 1 1 1 1
1 1 1 1 1 1 1 1 1 1
1 1 1 1 1 1 1 1 1 1
1 1 1 1 1 1 1 1 1 1
1 1 1 1 1 1 1 1 1 1
1 1 1 1 1 1 1 1 1 1
1 1 1 1 1 1 1 1 1 1
1 1 1 1 1 1 1 1 1 1
1 1 1 1 1 1 1 1 1 1
1 1 1 1 1 1 1 1 1 1
1 1 1 1 1 1 1 1 1 1
1 1 1 1 1 1 1 1 1 1
1 1 1 1 1 1 1 1 1 1
1 1 1 1 1 1 1 1 1 1
1 1 1 1 1 1 1 1 1 1
1 1 1 1 1 1 1 1 1 1
1 1 1 1 1 1 1 1 1 1
1 1 1 1 1 1 1 1 1 1
1 1 1 1 1 1 1 1 1 1
1 1 1 1 1 1 1 1 1 1
1 1 1 1 1 1 1 1 1 1
1 1 1 1 1 1 1 1 1 1
1 1 1 1 1 1 1 1 1 1
1 1 1 1 1 1 1 1 1 1
1 1 1 1 1 1 1 1 1 1
1 1 1 1 1 1 1 1 1 1
1 1 1 1 1 1 1 1 1 1
1 1 1 1 1 1 1 1 1 1
1 1 1 1 1 1 1 1 1 1
1 1 1 1 1 1 1 1 1 1
1 1 1 1 1 1 1 1 1 1
1 1 1 1 1 1 1 1 1 1
1 1 1 1 1 1 1 1 1 1
1 1 1 1 1 1 1 1 1 1
1 1 1 1 1 1 1 1 1 1
1 1 1 1 1 1 1 1 1 1
1 1 1 1 1 1 1 1 1 1
1 1 1 1 1 1 1 1 1 1
1 1 1 1 1 1 1 1 1 1
1 1 1 1 1 1 1 1 1 1
1 1 1 1 1 1 1 1 1 1
1 1 1 1 1 1 1 1 1 1
1 1 1 1 1 1 1 1 1 1
1 1 1 1 1 1 1 1 1 1
1 1 1 1 1 1 1 1 1 1
1 1 1 1 1 1 1 1 1 1
1 1 1 1 1 1 1 1 1 1
1 1 1 1 1 1 1 1 1 1
1 1 1 1 1 1 1 1 1 1
1 1 1 1 1 1 1 1 1 1
1 1 1 1 1 1 1 1 1 1
1 1 1 1 1 1 1 1 1 1
1 1 1 1 1 1 1 1 1 1
1 1 1 1 1 1 1 1 1 1
1 1 1 1 1 1 1 1 1 1
1 1 1 1 1 1 1 1 1 1
1 1 1 1 1 1 1 1 1 1
1 1 1 1 1 1 1 1 1 1
1 1 1 1 1 1 1 1 1 1
1 1 1 1 1 1 1 1 1 1
1 1 1 1 1 1 1 1 1 1
1 1 1 1 1 1 1 1 1 1
1 1 1 1 1 1 1 1 1 1
1 1 1 1 1 1 1 1 1 1
1 1 1 1 1 1 1 1 1 1
1 1 1 1 1 1 1 1 1 1
1 1 1 1 1 1 1 1 1 1
1 1 1 1 1 1 1 1 1 1
1 1 1 1 1 1 1 1 1 1
1 1 1 1 1 1 1 1 1 1
1 1 1 1 1 1 1 1 1 1
1 1 1 1 1 1 1 1 1 1
1 1 1 1 1 1 1 1 1 1
1 1 1 1 1 1 1 1 1 1
1 1 1 1 1 1 1 1 1 1
1 1 1 1 1 1 1 1 1 1
1 1 1 1 1 1 1 1 1 1
1 1 1 1 1 1 1 1 1 1
1 1 1 1 1 1 1 1 1 1
1 1 1 1 1 1 1 1 1 1
1 1 1 1 1 1 1 1 1 1
1 1 1 1 1 1 1 1 1 1
1 1 1 1 1 1 1 1 1 1
1 1 1 1 1 1 1 1 1 1
1 1 1 1 1 1 1 1 1 1
1 1 1 1 1 1 1 1 1 1
1 1 1 1 1 1 1 1 1 1
1 1 1 1 1 1 1 1 1 1
1 1 1 1 1 1 1 1 1 1
1 1 1 1 0 0 0 0 0 0     ! LINE: 150 - 48(start) = 102 --> bands: 1021,.., 1024 [occupied], 1025+ [unoccupied]
0 0 0 0 0 0 0 0 0 0     ! END OF SPIN UP CHANNEL: from line 42: (150 - 48) + 1 = 104 rows corresponding to SPIN UP channel... 1040 bands
1 1 1 1 1 1 1 1 1 1     ! START OF SPIN DOWN CHANNEL: line 152
1 1 1 1 1 1 1 1 1 1
1 1 1 1 1 1 1 1 1 1
1 1 1 1 1 1 1 1 1 1
1 1 1 1 1 1 1 1 1 1
1 1 1 1 1 1 1 1 1 1
1 1 1 1 1 1 1 1 1 1
1 1 1 1 1 1 1 1 1 1
1 1 1 1 1 1 1 1 1 1
1 1 1 1 1 1 1 1 1 1
1 1 1 1 1 1 1 1 1 1
1 1 1 1 1 1 1 1 1 1
1 1 1 1 1 1 1 1 1 1
1 1 1 1 1 1 1 1 1 1
1 1 1 1 1 1 1 1 1 1
1 1 1 1 1 1 1 1 1 1
1 1 1 1 1 1 1 1 1 1
1 1 1 1 1 1 1 1 1 1
1 1 1 1 1 1 1 1 1 1
1 1 1 1 1 1 1 1 1 1
1 1 1 1 1 1 1 1 1 1
1 1 1 1 1 1 1 1 1 1
1 1 1 1 1 1 1 1 1 1
1 1 1 1 1 1 1 1 1 1
1 1 1 1 1 1 1 1 1 1
1 1 1 1 1 1 1 1 1 1
1 1 1 1 1 1 1 1 1 1
1 1 1 1 1 1 1 1 1 1
1 1 1 1 1 1 1 1 1 1
1 1 1 1 1 1 1 1 1 1
1 1 1 1 1 1 1 1 1 1
1 1 1 1 1 1 1 1 1 1
1 1 1 1 1 1 1 1 1 1
1 1 1 1 1 1 1 1 1 1
1 1 1 1 1 1 1 1 1 1
1 1 1 1 1 1 1 1 1 1
1 1 1 1 1 1 1 1 1 1
1 1 1 1 1 1 1 1 1 1
1 1 1 1 1 1 1 1 1 1
1 1 1 1 1 1 1 1 1 1
1 1 1 1 1 1 1 1 1 1
1 1 1 1 1 1 1 1 1 1
1 1 1 1 1 1 1 1 1 1
1 1 1 1 1 1 1 1 1 1
1 1 1 1 1 1 1 1 1 1
1 1 1 1 1 1 1 1 1 1
1 1 1 1 1 1 1 1 1 1
1 1 1 1 1 1 1 1 1 1
1 1 1 1 1 1 1 1 1 1
1 1 1 1 1 1 1 1 1 1
1 1 1 1 1 1 1 1 1 1
1 1 1 1 1 1 1 1 1 1
1 1 1 1 1 1 1 1 1 1
1 1 1 1 1 1 1 1 1 1
1 1 1 1 1 1 1 1 1 1
1 1 1 1 1 1 1 1 1 1
1 1 1 1 1 1 1 1 1 1
1 1 1 1 1 1 1 1 1 1
1 1 1 1 1 1 1 1 1 1
1 1 1 1 1 1 1 1 1 1
1 1 1 1 1 1 1 1 1 1
1 1 1 1 1 1 1 1 1 1
1 1 1 1 1 1 1 1 1 1
1 1 1 1 1 1 1 1 1 1
1 1 1 1 1 1 1 1 1 1
1 1 1 1 1 1 1 1 1 1
1 1 1 1 1 1 1 1 1 1
1 1 1 1 1 1 1 1 1 1
1 1 1 1 1 1 1 1 1 1
1 1 1 1 1 1 1 1 1 1
1 1 1 1 1 1 1 1 1 1
1 1 1 1 1 1 1 1 1 1
1 1 1 1 1 1 1 1 1 1
1 1 1 1 1 1 1 1 1 1
1 1 1 1 1 1 1 1 1 1
1 1 1 1 1 1 1 1 1 1
1 1 1 1 1 1 1 1 1 1
1 1 1 1 1 1 1 1 1 1
1 1 1 1 1 1 1 1 1 1
1 1 1 1 1 1 1 1 1 1
1 1 1 1 1 1 1 1 1 1
1 1 1 1 1 1 1 1 1 1
1 1 1 1 1 1 1 1 1 1
1 1 1 1 1 1 1 1 1 1
1 1 1 1 1 1 1 1 1 1
1 1 1 1 1 1 1 1 1 1
1 1 1 1 1 1 1 1 1 1
1 1 1 1 1 1 1 1 1 1
1 1 1 1 1 1 1 1 1 1
1 1 1 1 1 1 1 1 1 1
1 1 1 1 1 1 1 1 1 1
1 1 1 1 1 1 1 1 1 1
1 1 1 1 1 1 1 1 1 1
1 1 1 1 1 1 1 1 1 1
1 1 1 1 1 1 1 1 1 1
1 1 1 1 1 1 1 1 1 1
1 1 1 1 1 1 1 1 1 1
1 1 1 1 1 1 1 1 1 1
1 1 1 1 1 1 1 1 1 1
1 1 1 1 1 1 1 1 1 1
1 1 1 1 1 1 1 1 1 1
1 1 1 1 1 1 1 1 1 1
1 0 1 0 0 0 0 0 0 0     ! note that this row is different... bands 1021, 1022[unoccupied](spin down HOMO band), 1023[occupied](spin down LUMO), 1024+[unoccupied]
0 0 0 0 0 0 0 0 0 0     ! END OF SPIN DOWN CHANNEL. 1040 BANDS
ATOMIC_POSITIONS crystal
C       -0.000043039  -0.000025612   0.000003196
C       -0.000054015   0.000006866   0.250015773
C       -0.000124700  -0.000045370   0.500008152
C       -0.000027925  -0.000058124   0.749994964
C       -0.000054328   0.249987044   0.000035595
C        0.000001085   0.250022642   0.250051639
C       -0.000039807   0.250033924   0.500048697
C       -0.000107504   0.249961735   0.750030327
C       -0.000124672   0.499978645  -0.000016261
C       -0.000039768   0.500019309   0.250063088
C        0.000033186   0.499984710   0.500013828
C       -0.000001154   0.499948292   0.749958004
C       -0.000027701   0.749965672  -0.000028973
C       -0.000107062   0.750001083   0.249990787
C       -0.000001074   0.749929145   0.499977357
C        0.000047212   0.749922666   0.749951949
C        0.249941854  -0.000040078  -0.000010857
C        0.249913667   0.000071149   0.249975719
C        0.249964816  -0.000055017   0.500007552
C        0.249948227  -0.000166445   0.750011017
C        0.249913501   0.249946278   0.000100754
C        0.250100668   0.250175262   0.250205454
C        0.249590244   0.249516334   0.500289780
C        0.249940263   0.249871200   0.750103042
C        0.249965221   0.499978130  -0.000025789
C        0.249589534   0.500259573   0.249546415
C        0.250841433   0.499931714   0.499961916
C        0.249641988   0.499649651   0.750432977
C        0.249948637   0.749981106  -0.000136055
C        0.249940468   0.750072963   0.249901658
C        0.249640889   0.750403782   0.499679542
C        0.250235282   0.749693131   0.749723798
C        0.499941073  -0.000050516  -0.000021314
C        0.499954777   0.000030492   0.250000072
C        0.499968744  -0.000025569   0.500013329
C        0.499965777  -0.000107147   0.750016893
C        0.499954563   0.249971184   0.000059800
C        0.499942334   0.249785155   0.249815641
C        0.499928480   0.250199081   0.500141852
C        0.499752788   0.249087557   0.750918092
C        0.499968787   0.499984543   0.000003865
C        0.499928258   0.500112007   0.250230387
C        0.500008192   0.499829138   0.749791379
C        0.499966020   0.749987513  -0.000077142
C        0.499752315   0.750889542   0.249116633
C        0.500007994   0.749761943   0.499858681
C        0.500019900   0.749956948   0.749985697
C        0.749966021  -0.000013645   0.000015332
C        0.749967962  -0.000019394   0.250017266
C        0.749962831  -0.000017551   0.500017910
C        0.749981852  -0.000028456   0.750017301
C        0.749967410   0.249988715   0.000009445
C        0.749955777   0.249999660   0.250028706
C        0.750163829   0.249724447   0.500022071
C        0.749816523   0.250109388   0.749926776
C        0.749962492   0.499989164   0.000011547
C        0.750162847   0.499991659   0.249756507
C        0.749609861   0.500016123   0.500046729
C        0.750026636   0.499998921   0.750133654
C        0.749982073   0.749988183   0.000000743
C        0.749816091   0.749896569   0.250139903
C        0.750026812   0.750104420   0.500027635
C        0.750033959   0.750021614   0.750050403
C       -0.000036065   0.125005222   0.125033914
C       -0.000029735   0.125015966   0.375030467
C       -0.000112554   0.124975529   0.625036216
C       -0.000062096   0.124965602   0.875014674
C       -0.000029895   0.375001230   0.125044981
C        0.000001926   0.375041634   0.375070991
C       -0.000019966   0.374989987   0.625006741
C       -0.000104395   0.374962101   0.875014978
C       -0.000112392   0.625006710   0.125004590
C       -0.000019793   0.624977553   0.375019101
C        0.000054801   0.624922823   0.624951883
C        0.000004508   0.624955943   0.874943443
C       -0.000061725   0.874985621   0.124994548
C       -0.000104173   0.874986181   0.374991116
C        0.000004433   0.874914360   0.624985402
C       -0.000000433   0.874942542   0.874971790
C        0.249947744   0.125044249   0.125073492
C        0.249998699   0.125023777   0.375078169
C        0.249859813   0.124793691   0.625098787
C        0.249928968   0.124897008   0.875057196
C        0.249998882   0.375048653   0.125053353
C        0.250627560   0.375415048   0.375444768
C        0.249990501   0.374822334   0.625156147
C        0.249849627   0.374875133   0.875177179
C        0.249859909   0.625068982   0.124823440
C        0.249990253   0.625126741   0.374852114
C        0.250779670   0.624428829   0.624458048
C        0.250153541   0.624899883   0.874802874
C        0.249929037   0.875027744   0.124926478
C        0.249849238   0.875148112   0.374904606
C        0.250153205   0.874773478   0.624929581
C        0.249985576   0.874866464   0.874896200
C        0.499961151   0.124922561   0.124951774
C        0.499964739   0.125033254   0.375068561
C        0.499932832   0.124925663   0.625064574
C        0.499899122   0.124662665   0.875312760
C        0.499964709   0.375039384   0.125063219
C        0.499922847   0.375491927   0.375522609
C        0.498498301   0.374498403   0.625424376
C        0.499950563   0.374960160   0.875027517
C        0.499932883   0.625035210   0.124955811
C        0.498497498   0.625395471   0.374528432
C        0.501721560   0.624051466   0.624080318
C        0.500008318   0.624912936   0.874937499
C        0.499899234   0.875283592   0.124691907
C        0.499950523   0.874998499   0.374989171
C        0.500008237   0.874908453   0.624941825
C        0.499982813   0.874940446   0.874969942
C        0.749967190   0.124993679   0.125022493
C        0.750001489   0.124942561   0.375023349
C        0.749906869   0.124988010   0.625024663
C        0.749938886   0.125011620   0.874990079
C        0.750001051   0.374994451   0.124971973
C        0.750026497   0.374949779   0.374979915
C        0.749281403   0.375472378   0.624941449
C        0.749907754   0.374995077   0.874979064
C        0.749906910   0.624995143   0.125017971
C        0.749281379   0.624911893   0.375502234
C        0.750132106   0.625101574   0.625130303
C        0.750019252   0.624999668   0.875059965
C        0.749939351   0.874960781   0.125040865
C        0.749908279   0.874950114   0.375023892
C        0.750019400   0.875030995   0.625028487
C        0.749995878   0.874983614   0.875012792
C        0.124943271   0.000009862   0.125003825
C        0.124904269   0.000028465   0.374998653
C        0.124952147  -0.000125913   0.625012757
C        0.124959962  -0.000079157   0.874988524
C        0.124985852   0.250029100   0.125096008
C        0.125065796   0.250115310   0.375100446
C        0.124885029   0.249879702   0.625080651
C        0.124918718   0.249940528   0.875048935
C        0.124787540   0.500054976   0.124842271
C        0.125169456   0.500048798   0.375074231
C        0.125200932   0.499889842   0.624913850
C        0.124815303   0.499894249   0.875137802
C        0.124929125   0.750003099   0.124945556
C        0.124894800   0.750068583   0.374932995
C        0.125141372   0.749790152   0.624892484
C        0.125049537   0.749897851   0.874873321
C        0.374926602   0.000055420   0.124951268
C        0.374960160   0.000014186   0.375003558
C        0.374971112  -0.000103644   0.625011497
C        0.374943417  -0.000150416   0.875017060
C        0.374959764   0.250053938   0.125077424
C        0.375177000   0.250265437   0.375373199
C        0.374910111   0.249605524   0.625347583
C        0.374900576   0.249765569   0.875252255
C        0.374978047   0.500062240   0.125014729
C        0.376050619   0.501261911   0.375472355
C        0.376159037   0.498293025   0.624349297
C        0.375044072   0.499893875   0.874935348
C        0.374911834   0.750172674   0.124757281
C        0.374887304   0.750390652   0.374643013
C        0.375593185   0.749267364   0.624649966
C        0.375017966   0.749845755   0.874835692
C        0.624975878  -0.000013315   0.125012693
C        0.624964622   0.000003481   0.375018400
C        0.624970618  -0.000041296   0.625012294
C        0.624979876  -0.000055527   0.875016678
C        0.624964315   0.249958166   0.124981817
C        0.624957193   0.249881751   0.375027241
C        0.624647757   0.250161220   0.624898866
C        0.624962704   0.250068417   0.874990692
C        0.624932964   0.500009139   0.125029288
C        0.624221948   0.499682064   0.375387339
C        0.624111630   0.501728117   0.624423601
C        0.624959787   0.499971312   0.875006846
C        0.624947029   0.749988098   0.124944593
C        0.624771514   0.749541893   0.375420646
C        0.625076852   0.750196638   0.625085434
C        0.625005361   0.750002668   0.875035851
C        0.874954974  -0.000015451   0.125017722
C        0.874949316  -0.000026260   0.375015145
C        0.874963165  -0.000029943   0.625015924
C        0.874967540  -0.000018057   0.875003955
C        0.874968061   0.250000210   0.125029022
C        0.875017357   0.249963234   0.375029045
C        0.874799581   0.250141411   0.625034368
C        0.874911885   0.249991574   0.874993561
C        0.875018480   0.499984282   0.124955928
C        0.874854699   0.500005392   0.375094774
C        0.874912163   0.499994572   0.624986747
C        0.874976674   0.499987277   0.875009083
C        0.874909538   0.749972663   0.125040870
C        0.874862847   0.749917317   0.375030397
C        0.875045911   0.749996473   0.625015330
C        0.875010795   0.749972529   0.874998332
C        0.124943131   0.124974836   0.000038919
C        0.124985870   0.125066928   0.250058270
C        0.124787441   0.124813088   0.500084658
C        0.124928840   0.124916235   0.750032671
C        0.124904400   0.374969383   0.000057460
C        0.125065744   0.375070832   0.250144814
C        0.125169528   0.375044703   0.500078337
C        0.124894938   0.374903666   0.750097663
C        0.124952416   0.624983079  -0.000096672
C        0.124885078   0.625051139   0.249909081
C        0.125200806   0.624884673   0.499919200
C        0.125141516   0.624862941   0.749819429
C        0.124960136   0.874959215  -0.000049834
C        0.124918859   0.875019828   0.249969741
C        0.124814989   0.875108927   0.499923787
C        0.125049403   0.874843750   0.749927560
C        0.374926631   0.124922117   0.000084753
C        0.374959700   0.125047745   0.250083291
C        0.374977961   0.124984693   0.500091644
C        0.374911862   0.124727484   0.750202216
C        0.374960343   0.374974428   0.000043645
C        0.375177090   0.375343561   0.250295603
C        0.376050551   0.375441980   0.501290858
C        0.374887757   0.374613384   0.750419522
C        0.374971401   0.624982085  -0.000073998
C        0.374909878   0.625318097   0.249635604
C        0.376158443   0.624320741   0.498321933
C        0.375593513   0.624620779   0.749296159
C        0.374943450   0.874987525  -0.000120788
C        0.374900376   0.875223085   0.249794842
C        0.375043678   0.874906289   0.499923130
C        0.375017764   0.874806118   0.749875258
C        0.624975625   0.124983709   0.000015860
C        0.624964602   0.124952472   0.249987217
C        0.624933131   0.124999194   0.500038269
C        0.624946742   0.124914845   0.750017541
C        0.624964212   0.374989715   0.000032840
C        0.624956858   0.374997673   0.249911908
C        0.624223010   0.375355512   0.499712385
C        0.624771727   0.375391362   0.749570841
C        0.624970640   0.624983319  -0.000011743
C        0.624647365   0.624869285   0.250191719
C        0.624111557   0.624394453   0.501757271
C        0.625076757   0.625056771   0.750225367
C        0.624980049   0.874987358  -0.000026051
C        0.624963046   0.874961603   0.250097495
C        0.624959981   0.874977842   0.500000087
C        0.625005380   0.875006724   0.750031748
C        0.874954628   0.124989035   0.000013426
C        0.874968347   0.125000154   0.250029094
C        0.875018882   0.124926396   0.500013659
C        0.874909355   0.125011527   0.750002041
C        0.874948864   0.374986272   0.000002727
C        0.875017249   0.374999711   0.249992694
C        0.874854642   0.375065169   0.500034813
C        0.874862388   0.375001417   0.749946408
C        0.874963162   0.624986619  -0.000000693
C        0.874799685   0.625004829   0.250170826
C        0.874912283   0.624957632   0.500023590
C        0.875045821   0.624986396   0.750025441
C        0.874967779   0.874974817   0.000011102
C        0.874912282   0.874964494   0.250020477
C        0.874976946   0.874980171   0.500016315
C        0.875010696   0.874969226   0.750001810
C        0.187439483   0.062555336   0.187528187
C        0.187417421   0.062464324   0.437530153
C        0.187418543   0.062344122   0.687528432
C        0.187438733   0.062441278   0.937517723
C        0.187528950   0.312565869   0.187621035
C        0.187687056   0.312571478   0.437640079
C        0.187409001   0.312407581   0.687578243
C        0.187392130   0.312442263   0.937611721
C        0.187171012   0.562498051   0.187175245
C        0.187789694   0.562465144   0.437486136
C        0.187764668   0.562308046   0.687356498
C        0.187492626   0.562437559   0.937422774
C        0.187431421   0.812525001   0.187442199
C        0.187185521   0.812803481   0.437489779
C        0.187627433   0.812283444   0.687376251
C        0.187474203   0.812428140   0.937394062
C        0.437438404   0.062523189   0.187507502
C        0.437442285   0.062493998   0.437534678
C        0.437447733   0.062376053   0.687560162
C        0.437469335   0.062311150   0.937634795
C        0.437428884   0.312591231   0.187588621
C        0.437634932   0.312880618   0.438066830
C        0.437744138   0.310984746   0.689091537
C        0.437440949   0.312424774   0.937577604
C        0.437439847   0.562597206   0.187449381
C        0.438307763   0.561514118   0.686510712
C        0.437466199   0.562449567   0.937464481
C        0.437506660   0.813067651   0.186925668
C        0.437451172   0.812524068   0.437367276
C        0.437562163   0.812258794   0.687324273
C        0.437474119   0.812426456   0.937390582
C        0.687469266   0.062477026   0.187507764
C        0.687456364   0.062490267   0.437538720
C        0.687472277   0.062442532   0.687546174
C        0.687459458   0.062486999   0.937504761
C        0.687476263   0.312494202   0.187452102
C        0.688051333   0.311871009   0.437659703
C        0.687156728   0.312667968   0.687381411
C        0.687458608   0.312483475   0.937523887
C        0.687392315   0.562564311   0.187514348
C        0.686443754   0.561972344   0.438312644
C        0.687773538   0.562671351   0.687909561
C        0.687473623   0.562478350   0.937513852
C        0.687406664   0.812450653   0.187552430
C        0.687393946   0.812426060   0.437515221
C        0.687557253   0.812598962   0.687572258
C        0.687495862   0.812502723   0.937511137
C        0.937455260   0.062500420   0.187521858
C        0.937466050   0.062467846   0.437533353
C        0.937428536   0.062479288   0.687508871
C        0.937453736   0.062479309   0.937510730
C        0.937495209   0.312500388   0.187528293
C        0.937449115   0.312529395   0.437544668
C        0.937407499   0.312516316   0.687499685
C        0.937421317   0.312485326   0.937508207
C        0.937392814   0.562487163   0.187578313
C        0.937454122   0.562483508   0.437525284
C        0.937501505   0.562467543   0.687474826
C        0.937455544   0.562476533   0.937473661
C        0.937412813   0.812482595   0.187508663
C        0.937427320   0.812437600   0.437515582
C        0.937532456   0.812461692   0.687498424
C        0.937487081   0.812470021   0.937491782
C        0.062448909   0.062491953   0.062520861
C        0.062456674   0.062540943   0.312528220
C        0.062343326   0.062373379   0.562505332
C        0.062450530   0.062440941   0.812509561
C        0.062456598   0.312499091   0.062569887
C        0.062515151   0.312534918   0.312564350
C        0.062522653   0.312499479   0.562525426
C        0.062393464   0.312455584   0.812537703
C        0.062343489   0.562475629   0.062402512
C        0.062522720   0.562495961   0.312528790
C        0.062618707   0.562439748   0.562468964
C        0.062516591   0.562436735   0.812447806
C        0.062450856   0.812480205   0.062470166
C        0.062393621   0.812508656   0.312484751
C        0.062516485   0.812418775   0.562466246
C        0.062532663   0.812408895   0.812438424
C        0.312433118   0.062509350   0.062538578
C        0.312434584   0.062526223   0.312523426
C        0.312444340   0.062418976   0.562537428
C        0.312432218   0.062310150   0.812564682
C        0.312434707   0.312494060   0.062555777
C        0.312695778   0.312764697   0.312794535
C        0.311894912   0.311621696   0.562505750
C        0.312401305   0.312321281   0.812802195
C        0.312444617   0.562507882   0.062448667
C        0.311894691   0.562476057   0.311651855
C        0.313838320   0.561748865   0.561777988
C        0.312674587   0.562257985   0.812255001
C        0.312432374   0.812535031   0.062339999
C        0.312401070   0.812773067   0.312350955
C        0.312674014   0.812225945   0.562287384
C        0.312534756   0.812308513   0.812338333
C        0.562456946   0.062446317   0.062475512
C        0.562444874   0.062514241   0.312527731
C        0.562457843   0.062463750   0.562550944
C        0.562462567   0.062374911   0.812583128
C        0.562444630   0.312498807   0.062543749
C        0.562375122   0.311986854   0.312017024
C        0.561926580   0.312718218   0.562639216
C        0.562340668   0.312464544   0.812497590
C        0.562457876   0.562521910   0.062493623
C        0.561925957   0.562609512   0.312749321
C        0.562474380   0.562394292   0.812520922
C        0.562462849   0.812553733   0.062404625
C        0.562340587   0.812468660   0.312493622
C        0.562474377   0.812491982   0.562423170
C        0.562517522   0.812483071   0.812512209
C        0.812462160   0.062490820   0.062519676
C        0.812471669   0.062471351   0.312520134
C        0.812461753   0.062478154   0.562531370
C        0.812449897   0.062498010   0.812508415
C        0.812471188   0.312491331   0.062500412
C        0.812547741   0.312477195   0.312506675
C        0.812190030   0.312702282   0.562475276
C        0.812383239   0.312504812   0.812469011
C        0.812461583   0.562502083   0.062507637
C        0.812189938   0.562445684   0.312732319
C        0.812410430   0.562491181   0.562520408
C        0.812536844   0.562508201   0.812570825
C        0.812450242   0.812479137   0.062527246
C        0.812383589   0.812439720   0.312533993
C        0.812537020   0.812541810   0.562537060
C        0.812525721   0.812499022   0.812528184
C        0.062481704   0.187525754   0.187554742
C        0.062467333   0.187510597   0.437548402
C        0.062392776   0.187442262   0.687532796
C        0.062436889   0.187467835   0.937532359
C        0.062467341   0.437518806   0.187539821
C        0.062588966   0.437510037   0.437539494
C        0.062543153   0.437461467   0.687479489
C        0.062343682   0.437486576   0.937577841
C        0.062393016   0.687503274   0.187471440
C        0.062543137   0.687450409   0.437490703
C        0.062576154   0.687407920   0.687437234
C        0.062497122   0.687448530   0.937415300
C        0.062437181   0.937503350   0.187496816
C        0.062343616   0.937548926   0.437515998
C        0.062496981   0.937385983   0.687478163
C        0.062466021   0.937452041   0.937481254
C        0.312473209   0.187583579   0.187613163
C        0.312439407   0.187496512   0.437645442
C        0.312419273   0.187201627   0.687648512
C        0.312414092   0.187388205   0.937644532
C        0.312439393   0.437615796   0.187526522
C        0.313729540   0.438048050   0.438077735
C        0.311885366   0.437491195   0.688455078
C        0.312450742   0.437443018   0.937515262
C        0.312419251   0.687618757   0.187231601
C        0.311884697   0.688426158   0.437520836
C        0.312894640   0.687050748   0.687080042
C        0.312495419   0.687431215   0.937376490
C        0.312414065   0.937615175   0.187417494
C        0.312450365   0.937486089   0.437472346
C        0.312495120   0.937346795   0.687460862
C        0.312450595   0.937406166   0.937435755
C        0.562438104   0.187354745   0.187384218
C        0.562405108   0.187508831   0.437623422
C        0.562381131   0.187341290   0.687695312
C        0.562446261   0.187445069   0.937559301
C        0.562404928   0.437594109   0.187539196
C        0.561706460   0.437864446   0.686815972
C        0.562464332   0.437450680   0.937525932
C        0.562381038   0.687666011   0.187371317
C        0.561706203   0.686787027   0.437893803
C        0.562716070   0.687705358   0.687734054
C        0.562475741   0.687465556   0.937466650
C        0.562446547   0.937530072   0.187474109
C        0.562464534   0.937496725   0.437479452
C        0.562475694   0.937437216   0.687494637
C        0.562475574   0.937454140   0.937483609
C        0.812466885   0.187497749   0.187526699
C        0.812623600   0.187333031   0.437555200
C        0.812362644   0.187554651   0.687498920
C        0.812443999   0.187488550   0.937501369
C        0.812623019   0.437525785   0.187363149
C        0.812343355   0.437514597   0.437544385
C        0.812297460   0.437563175   0.687458767
C        0.812445627   0.437488229   0.937491946
C        0.812362696   0.687469375   0.187584435
C        0.812297734   0.687429599   0.437592243
C        0.812608047   0.687547593   0.687576454
C        0.812504242   0.687494667   0.937520284
C        0.812444543   0.937472362   0.187517362
C        0.812446087   0.937462951   0.437517120
C        0.812504192   0.937491124   0.687523869
C        0.812476994   0.937484362   0.937513541
C        0.187439473   0.187499022   0.062584496
C        0.187528940   0.187591515   0.312595441
C        0.187171116   0.187145693   0.562527915
C        0.187431278   0.187412623   0.812554542
C        0.187417766   0.437500686   0.062493486
C        0.187686904   0.437610320   0.312601166
C        0.187789849   0.437456521   0.562494627
C        0.187186081   0.437460216   0.812832400
C        0.187418871   0.687498630   0.062373716
C        0.187408937   0.687548752   0.312437260
C        0.187764396   0.687327385   0.562337461
C        0.187627573   0.687346376   0.812313138
C        0.187438944   0.937488504   0.062470482
C        0.187392092   0.937582641   0.312471565
C        0.187492343   0.937393676   0.562467183
C        0.187474057   0.937364331   0.812457852
C        0.437438471   0.187478448   0.062552504
C        0.437428835   0.187558590   0.312620784
C        0.437439910   0.187418960   0.562626668
C        0.437506839   0.186896408   0.813096688
C        0.437442442   0.437505633   0.062523709
C        0.437635060   0.438037167   0.312911390
C        0.437451444   0.437338034   0.812553002
C        0.437447964   0.687530736   0.062405941
C        0.437743634   0.689062511   0.311014590
C        0.438307333   0.686482020   0.561543272
C        0.437562415   0.687295320   0.812287681
C        0.437469501   0.937605552   0.062340366
C        0.437440962   0.937548464   0.312453737
C        0.437466078   0.937435292   0.562478572
C        0.437474052   0.937360923   0.812455956
C        0.687469064   0.187478998   0.062505992
C        0.687476628   0.187422706   0.312523233
C        0.687392612   0.187483757   0.562593863
C        0.687406389   0.187522862   0.812480108
C        0.687456096   0.437509991   0.062519689
C        0.688050633   0.437629794   0.311902144
C        0.686443892   0.438282378   0.562002211
C        0.687393781   0.437486497   0.812454928
C        0.687472576   0.687516937   0.062472115
C        0.687156469   0.687351860   0.312698006