
     Program PWSCF v.7.5 starts on  4Dec2025 at 21:41:14 

     This program is part of the open-source Quantum ESPRESSO suite
     for quantum simulation of materials; please cite
         "P. Giannozzi et al., J. Phys.:Condens. Matter 21 395502 (2009);
         "P. Giannozzi et al., J. Phys.:Condens. Matter 29 465901 (2017);
         "P. Giannozzi et al., J. Chem. Phys. 152 154105 (2020);
          URL http://www.quantum-espresso.org", 
     in publications or presentations arising from this work. More details at
     http://www.quantum-espresso.org/quote

     Parallel version (MPI), running on    96 processors

     MPI processes distributed on     2 nodes
     147820 MiB available memory on the printing compute node when the environment starts
 
     Reading input from pw.in

     Current dimensions of program PWSCF are:
     Max number of different atomic species (ntypx) = 10
     Max number of k-points (npk) =  40000
     Max angular momentum in pseudopotentials (lmaxx) =  4

     gamma-point specific algorithms are used
     Message from routine setup:
     using ibrav=0 with symmetry is DISCOURAGED, use correct ibrav instead
 
     K-points division:     npool     =       2
     R & G space division:  proc/nbgrp/npool/nimage =      48
     Subspace diagonalization in iterative solution of the eigenvalue problem:
     one sub-group per band group will be used
     scalapack distributed-memory algorithm (size of sub-group:  5*  5 procs)

 
     Parallelization info
     --------------------
     sticks:   dense  smooth     PW     G-vecs:    dense   smooth      PW
     Min         162     162     40                10814    10814    1348
     Max         164     164     42                10828    10828    1362
     Sum        7809    7809   1941               519291   519291   64973
 
     Using Slab Decomposition
 


     bravais-lattice index     =            0
     lattice parameter (alat)  =      20.2220  a.u.
     unit-cell volume          =    8269.3180 (a.u.)^3
     number of atoms/cell      =          215
     number of atomic types    =            2
     number of electrons       =       862.00 (up: 432.00, down: 430.00)
     number of Kohn-Sham states=          456
     kinetic-energy cutoff     =      60.0000  Ry
     charge density cutoff     =     240.0000  Ry
     scf convergence threshold =      1.0E-08
     mixing beta               =       0.3000
     number of iterations used =            8  plain     mixing
     Exchange-correlation= PBE
                           (   1   4   3   4   0   0   0)

     celldm(1)=  20.221959  celldm(2)=   0.000000  celldm(3)=   0.000000
     celldm(4)=   0.000000  celldm(5)=   0.000000  celldm(6)=   0.000000

     crystal axes: (cart. coord. in units of alat)
               a(1) = (   1.000000   0.000000   0.000000 )  
               a(2) = (   0.000000   1.000000   0.000000 )  
               a(3) = (   0.000000   0.000000   1.000000 )  

     reciprocal axes: (cart. coord. in units 2 pi/alat)
               b(1) = (  1.000000  0.000000  0.000000 )  
               b(2) = (  0.000000  1.000000  0.000000 )  
               b(3) = (  0.000000  0.000000  1.000000 )  


     PseudoPot. # 1 for C  read from file:
     /home/sstaylor/espresso/pseudo/C_ONCV_PBE-1.2.upf
     MD5 check sum: 1a5f83a7b1f58d24996abe00ed223ac6
     Pseudo is Norm-conserving, Zval =  4.0
     Generated using ONCVPSP code by D. R. Hamann
     Using radial grid of  602 points,  4 beta functions with: 
                l(1) =   0
                l(2) =   0
                l(3) =   1
                l(4) =   1

     PseudoPot. # 2 for N  read from file:
     /home/sstaylor/espresso/pseudo/N_ONCV_PBE-1.2.upf
     MD5 check sum: c233fa8df51455e992258b7c3dee8a9f
     Pseudo is Norm-conserving, Zval =  5.0
     Generated using ONCVPSP code by D. R. Hamann
     Using radial grid of  602 points,  4 beta functions with: 
                l(1) =   0
                l(2) =   0
                l(3) =   1
                l(4) =   1

     atomic species   valence    mass     pseudopotential
     C                 4.00    12.01070     C ( 1.00)
     N                 5.00    14.00000     N ( 1.00)

     Starting magnetic structure 
     atomic species   magnetization
     C               0.000
     N               0.000

      6 Sym. Ops. (no inversion) found


                                    s                        frac. trans.

      isym =  1     identity                                     

 cryst.   s( 1) = (     1          0          0      )
                  (     0          1          0      )
                  (     0          0          1      )

 cart.    s( 1) = (  1.0000000  0.0000000  0.0000000 )
                  (  0.0000000  1.0000000  0.0000000 )
                  (  0.0000000  0.0000000  1.0000000 )


      isym =  2     120 deg rotation - cart. axis [-1,-1,-1]     

 cryst.   s( 2) = (     0          0          1      )
                  (     1          0          0      )
                  (     0          1          0      )

 cart.    s( 2) = (  0.0000000  1.0000000  0.0000000 )
                  (  0.0000000  0.0000000  1.0000000 )
                  (  1.0000000  0.0000000  0.0000000 )


      isym =  3     120 deg rotation - cart. axis [1,1,1]        

 cryst.   s( 3) = (     0          1          0      )
                  (     0          0          1      )
                  (     1          0          0      )

 cart.    s( 3) = (  0.0000000  0.0000000  1.0000000 )
                  (  1.0000000  0.0000000  0.0000000 )
                  (  0.0000000  1.0000000  0.0000000 )


      isym =  4     inv. 180 deg rotation - cart. axis [1,-1,0]  

 cryst.   s( 4) = (     0          1          0      )
                  (     1          0          0      )
                  (     0          0          1      )

 cart.    s( 4) = (  0.0000000  1.0000000  0.0000000 )
                  (  1.0000000  0.0000000  0.0000000 )
                  (  0.0000000  0.0000000  1.0000000 )


      isym =  5     inv. 180 deg rotation - cart. axis [-1,0,1]  

 cryst.   s( 5) = (     0          0          1      )
                  (     0          1          0      )
                  (     1          0          0      )

 cart.    s( 5) = (  0.0000000  0.0000000  1.0000000 )
                  (  0.0000000  1.0000000  0.0000000 )
                  (  1.0000000  0.0000000  0.0000000 )


      isym =  6     inv. 180 deg rotation - cart. axis [0,1,-1]  

 cryst.   s( 6) = (     1          0          0      )
                  (     0          0          1      )
                  (     0          1          0      )

 cart.    s( 6) = (  1.0000000  0.0000000  0.0000000 )
                  (  0.0000000  0.0000000  1.0000000 )
                  (  0.0000000  1.0000000  0.0000000 )


   Cartesian axes

     site n.     atom                  positions (alat units)
         1        N      tau(   1) = (   0.0000000   0.0000000   0.0000000  )
         2        C      tau(   2) = (   0.0000000   0.1666667   0.1666667  )
         3        C      tau(   3) = (   0.0833333   0.2500000   0.2500000  )
         4        C      tau(   4) = (   0.1666667   0.0000000   0.1666667  )
         5        C      tau(   5) = (   0.2500000   0.0833333   0.2500000  )
         6        C      tau(   6) = (   0.1666667   0.1666667   0.0000000  )
         7        C      tau(   7) = (   0.2500000   0.2500000   0.0833333  )
         8        C      tau(   8) = (   0.0000000   0.0000000   0.3333333  )
         9        C      tau(   9) = (   0.0833333   0.0833333   0.4166667  )
        10        C      tau(  10) = (   0.0000000   0.1666667   0.5000000  )
        11        C      tau(  11) = (   0.0833333   0.2500000   0.5833333  )
        12        C      tau(  12) = (   0.1666667   0.0000000   0.5000000  )
        13        C      tau(  13) = (   0.2500000   0.0833333   0.5833333  )
        14        C      tau(  14) = (   0.1666667   0.1666667   0.3333333  )
        15        C      tau(  15) = (   0.2500000   0.2500000   0.4166667  )
        16        C      tau(  16) = (   0.0000000   0.0000000   0.6666667  )
        17        C      tau(  17) = (   0.0833333   0.0833333   0.7500000  )
        18        C      tau(  18) = (   0.0000000   0.1666667   0.8333333  )
        19        C      tau(  19) = (   0.0833333   0.2500000   0.9166667  )
        20        C      tau(  20) = (   0.1666667   0.0000000   0.8333333  )
        21        C      tau(  21) = (   0.2500000   0.0833333   0.9166667  )
        22        C      tau(  22) = (   0.1666667   0.1666667   0.6666667  )
        23        C      tau(  23) = (   0.2500000   0.2500000   0.7500000  )
        24        C      tau(  24) = (   0.0000000   0.3333333   0.0000000  )
        25        C      tau(  25) = (   0.0833333   0.4166667   0.0833333  )
        26        C      tau(  26) = (   0.0000000   0.5000000   0.1666667  )
        27        C      tau(  27) = (   0.0833333   0.5833333   0.2500000  )
        28        C      tau(  28) = (   0.1666667   0.3333333   0.1666667  )
        29        C      tau(  29) = (   0.2500000   0.4166667   0.2500000  )
        30        C      tau(  30) = (   0.1666667   0.5000000   0.0000000  )
        31        C      tau(  31) = (   0.2500000   0.5833333   0.0833333  )
        32        C      tau(  32) = (   0.0000000   0.3333333   0.3333333  )
        33        C      tau(  33) = (   0.0833333   0.4166667   0.4166667  )
        34        C      tau(  34) = (   0.0000000   0.5000000   0.5000000  )
        35        C      tau(  35) = (   0.0833333   0.5833333   0.5833333  )
        36        C      tau(  36) = (   0.1666667   0.3333333   0.5000000  )
        37        C      tau(  37) = (   0.2500000   0.4166667   0.5833333  )
        38        C      tau(  38) = (   0.1666667   0.5000000   0.3333333  )
        39        C      tau(  39) = (   0.2500000   0.5833333   0.4166667  )
        40        C      tau(  40) = (   0.0000000   0.3333333   0.6666667  )
        41        C      tau(  41) = (   0.0833333   0.4166667   0.7500000  )
        42        C      tau(  42) = (   0.0000000   0.5000000   0.8333333  )
        43        C      tau(  43) = (   0.0833333   0.5833333   0.9166667  )
        44        C      tau(  44) = (   0.1666667   0.3333333   0.8333333  )
        45        C      tau(  45) = (   0.2500000   0.4166667   0.9166667  )
        46        C      tau(  46) = (   0.1666667   0.5000000   0.6666667  )
        47        C      tau(  47) = (   0.2500000   0.5833333   0.7500000  )
        48        C      tau(  48) = (   0.0000000   0.6666667   0.0000000  )
        49        C      tau(  49) = (   0.0833333   0.7500000   0.0833333  )
        50        C      tau(  50) = (   0.0000000   0.8333333   0.1666667  )
        51        C      tau(  51) = (   0.0833333   0.9166667   0.2500000  )
        52        C      tau(  52) = (   0.1666667   0.6666667   0.1666667  )
        53        C      tau(  53) = (   0.2500000   0.7500000   0.2500000  )
        54        C      tau(  54) = (   0.1666667   0.8333333   0.0000000  )
        55        C      tau(  55) = (   0.2500000   0.9166667   0.0833333  )
        56        C      tau(  56) = (   0.0000000   0.6666667   0.3333333  )
        57        C      tau(  57) = (   0.0833333   0.7500000   0.4166667  )
        58        C      tau(  58) = (   0.0000000   0.8333333   0.5000000  )
        59        C      tau(  59) = (   0.0833333   0.9166667   0.5833333  )
        60        C      tau(  60) = (   0.1666667   0.6666667   0.5000000  )
        61        C      tau(  61) = (   0.2500000   0.7500000   0.5833333  )
        62        C      tau(  62) = (   0.1666667   0.8333333   0.3333333  )
        63        C      tau(  63) = (   0.2500000   0.9166667   0.4166667  )
        64        C      tau(  64) = (   0.0000000   0.6666667   0.6666667  )
        65        C      tau(  65) = (   0.0833333   0.7500000   0.7500000  )
        66        C      tau(  66) = (   0.0000000   0.8333333   0.8333333  )
        67        C      tau(  67) = (   0.0833333   0.9166667   0.9166667  )
        68        C      tau(  68) = (   0.1666667   0.6666667   0.8333333  )
        69        C      tau(  69) = (   0.2500000   0.7500000   0.9166667  )
        70        C      tau(  70) = (   0.1666667   0.8333333   0.6666667  )
        71        C      tau(  71) = (   0.2500000   0.9166667   0.7500000  )
        72        C      tau(  72) = (   0.3333333   0.0000000   0.0000000  )
        73        C      tau(  73) = (   0.4166667   0.0833333   0.0833333  )
        74        C      tau(  74) = (   0.3333333   0.1666667   0.1666667  )
        75        C      tau(  75) = (   0.4166667   0.2500000   0.2500000  )
        76        C      tau(  76) = (   0.5000000   0.0000000   0.1666667  )
        77        C      tau(  77) = (   0.5833333   0.0833333   0.2500000  )
        78        C      tau(  78) = (   0.5000000   0.1666667   0.0000000  )
        79        C      tau(  79) = (   0.5833333   0.2500000   0.0833333  )
        80        C      tau(  80) = (   0.3333333   0.0000000   0.3333333  )
        81        C      tau(  81) = (   0.4166667   0.0833333   0.4166667  )
        82        C      tau(  82) = (   0.3333333   0.1666667   0.5000000  )
        83        C      tau(  83) = (   0.4166667   0.2500000   0.5833333  )
        84        C      tau(  84) = (   0.5000000   0.0000000   0.5000000  )
        85        C      tau(  85) = (   0.5833333   0.0833333   0.5833333  )
        86        C      tau(  86) = (   0.5000000   0.1666667   0.3333333  )
        87        C      tau(  87) = (   0.5833333   0.2500000   0.4166667  )
        88        C      tau(  88) = (   0.3333333   0.0000000   0.6666667  )
        89        C      tau(  89) = (   0.4166667   0.0833333   0.7500000  )
        90        C      tau(  90) = (   0.3333333   0.1666667   0.8333333  )
        91        C      tau(  91) = (   0.4166667   0.2500000   0.9166667  )
        92        C      tau(  92) = (   0.5000000   0.0000000   0.8333333  )
        93        C      tau(  93) = (   0.5833333   0.0833333   0.9166667  )
        94        C      tau(  94) = (   0.5000000   0.1666667   0.6666667  )
        95        C      tau(  95) = (   0.5833333   0.2500000   0.7500000  )
        96        C      tau(  96) = (   0.3333333   0.3333333   0.0000000  )
        97        C      tau(  97) = (   0.4166667   0.4166667   0.0833333  )
        98        C      tau(  98) = (   0.3333333   0.5000000   0.1666667  )
        99        C      tau(  99) = (   0.4166667   0.5833333   0.2500000  )
       100        C      tau( 100) = (   0.5000000   0.3333333   0.1666667  )
       101        C      tau( 101) = (   0.5833333   0.4166667   0.2500000  )
       102        C      tau( 102) = (   0.5000000   0.5000000   0.0000000  )
       103        C      tau( 103) = (   0.5833333   0.5833333   0.0833333  )
       104        C      tau( 104) = (   0.3333333   0.3333333   0.3333333  )
       105        C      tau( 105) = (   0.4166667   0.4166667   0.4166667  )
       106        C      tau( 106) = (   0.3333333   0.5000000   0.5000000  )
       107        C      tau( 107) = (   0.4166667   0.5833333   0.5833333  )
       108        C      tau( 108) = (   0.5000000   0.3333333   0.5000000  )
       109        C      tau( 109) = (   0.5833333   0.4166667   0.5833333  )
       110        C      tau( 110) = (   0.5000000   0.5000000   0.3333333  )
       111        C      tau( 111) = (   0.5833333   0.5833333   0.4166667  )
       112        C      tau( 112) = (   0.3333333   0.3333333   0.6666667  )
       113        C      tau( 113) = (   0.4166667   0.4166667   0.7500000  )
       114        C      tau( 114) = (   0.3333333   0.5000000   0.8333333  )
       115        C      tau( 115) = (   0.4166667   0.5833333   0.9166667  )
       116        C      tau( 116) = (   0.5000000   0.3333333   0.8333333  )
       117        C      tau( 117) = (   0.5833333   0.4166667   0.9166667  )
       118        C      tau( 118) = (   0.5000000   0.5000000   0.6666667  )
       119        C      tau( 119) = (   0.5833333   0.5833333   0.7500000  )
       120        C      tau( 120) = (   0.3333333   0.6666667   0.0000000  )
       121        C      tau( 121) = (   0.4166667   0.7500000   0.0833333  )
       122        C      tau( 122) = (   0.3333333   0.8333333   0.1666667  )
       123        C      tau( 123) = (   0.4166667   0.9166667   0.2500000  )
       124        C      tau( 124) = (   0.5000000   0.6666667   0.1666667  )
       125        C      tau( 125) = (   0.5833333   0.7500000   0.2500000  )
       126        C      tau( 126) = (   0.5000000   0.8333333   0.0000000  )
       127        C      tau( 127) = (   0.5833333   0.9166667   0.0833333  )
       128        C      tau( 128) = (   0.3333333   0.6666667   0.3333333  )
       129        C      tau( 129) = (   0.4166667   0.7500000   0.4166667  )
       130        C      tau( 130) = (   0.3333333   0.8333333   0.5000000  )
       131        C      tau( 131) = (   0.4166667   0.9166667   0.5833333  )
       132        C      tau( 132) = (   0.5000000   0.6666667   0.5000000  )
       133        C      tau( 133) = (   0.5833333   0.7500000   0.5833333  )
       134        C      tau( 134) = (   0.5000000   0.8333333   0.3333333  )
       135        C      tau( 135) = (   0.5833333   0.9166667   0.4166667  )
       136        C      tau( 136) = (   0.3333333   0.6666667   0.6666667  )
       137        C      tau( 137) = (   0.4166667   0.7500000   0.7500000  )
       138        C      tau( 138) = (   0.3333333   0.8333333   0.8333333  )
       139        C      tau( 139) = (   0.4166667   0.9166667   0.9166667  )
       140        C      tau( 140) = (   0.5000000   0.6666667   0.8333333  )
       141        C      tau( 141) = (   0.5833333   0.7500000   0.9166667  )
       142        C      tau( 142) = (   0.5000000   0.8333333   0.6666667  )
       143        C      tau( 143) = (   0.5833333   0.9166667   0.7500000  )
       144        C      tau( 144) = (   0.6666667   0.0000000   0.0000000  )
       145        C      tau( 145) = (   0.7500000   0.0833333   0.0833333  )
       146        C      tau( 146) = (   0.6666667   0.1666667   0.1666667  )
       147        C      tau( 147) = (   0.7500000   0.2500000   0.2500000  )
       148        C      tau( 148) = (   0.8333333   0.0000000   0.1666667  )
       149        C      tau( 149) = (   0.9166667   0.0833333   0.2500000  )
       150        C      tau( 150) = (   0.8333333   0.1666667   0.0000000  )
       151        C      tau( 151) = (   0.9166667   0.2500000   0.0833333  )
       152        C      tau( 152) = (   0.6666667   0.0000000   0.3333333  )
       153        C      tau( 153) = (   0.7500000   0.0833333   0.4166667  )
       154        C      tau( 154) = (   0.6666667   0.1666667   0.5000000  )
       155        C      tau( 155) = (   0.7500000   0.2500000   0.5833333  )
       156        C      tau( 156) = (   0.8333333   0.0000000   0.5000000  )
       157        C      tau( 157) = (   0.9166667   0.0833333   0.5833333  )
       158        C      tau( 158) = (   0.8333333   0.1666667   0.3333333  )
       159        C      tau( 159) = (   0.9166667   0.2500000   0.4166667  )
       160        C      tau( 160) = (   0.6666667   0.0000000   0.6666667  )
       161        C      tau( 161) = (   0.7500000   0.0833333   0.7500000  )
       162        C      tau( 162) = (   0.6666667   0.1666667   0.8333333  )
       163        C      tau( 163) = (   0.7500000   0.2500000   0.9166667  )
       164        C      tau( 164) = (   0.8333333   0.0000000   0.8333333  )
       165        C      tau( 165) = (   0.9166667   0.0833333   0.9166667  )
       166        C      tau( 166) = (   0.8333333   0.1666667   0.6666667  )
       167        C      tau( 167) = (   0.9166667   0.2500000   0.7500000  )
       168        C      tau( 168) = (   0.6666667   0.3333333   0.0000000  )
       169        C      tau( 169) = (   0.7500000   0.4166667   0.0833333  )
       170        C      tau( 170) = (   0.6666667   0.5000000   0.1666667  )
       171        C      tau( 171) = (   0.7500000   0.5833333   0.2500000  )
       172        C      tau( 172) = (   0.8333333   0.3333333   0.1666667  )
       173        C      tau( 173) = (   0.9166667   0.4166667   0.2500000  )
       174        C      tau( 174) = (   0.8333333   0.5000000   0.0000000  )
       175        C      tau( 175) = (   0.9166667   0.5833333   0.0833333  )
       176        C      tau( 176) = (   0.6666667   0.3333333   0.3333333  )
       177        C      tau( 177) = (   0.7500000   0.4166667   0.4166667  )
       178        C      tau( 178) = (   0.6666667   0.5000000   0.5000000  )
       179        C      tau( 179) = (   0.7500000   0.5833333   0.5833333  )
       180        C      tau( 180) = (   0.8333333   0.3333333   0.5000000  )
       181        C      tau( 181) = (   0.9166667   0.4166667   0.5833333  )
       182        C      tau( 182) = (   0.8333333   0.5000000   0.3333333  )
       183        C      tau( 183) = (   0.9166667   0.5833333   0.4166667  )
       184        C      tau( 184) = (   0.6666667   0.3333333   0.6666667  )
       185        C      tau( 185) = (   0.7500000   0.4166667   0.7500000  )
       186        C      tau( 186) = (   0.6666667   0.5000000   0.8333333  )
       187        C      tau( 187) = (   0.7500000   0.5833333   0.9166667  )
       188        C      tau( 188) = (   0.8333333   0.3333333   0.8333333  )
       189        C      tau( 189) = (   0.9166667   0.4166667   0.9166667  )
       190        C      tau( 190) = (   0.8333333   0.5000000   0.6666667  )
       191        C      tau( 191) = (   0.9166667   0.5833333   0.7500000  )
       192        C      tau( 192) = (   0.6666667   0.6666667   0.0000000  )
       193        C      tau( 193) = (   0.7500000   0.7500000   0.0833333  )
       194        C      tau( 194) = (   0.6666667   0.8333333   0.1666667  )
       195        C      tau( 195) = (   0.7500000   0.9166667   0.2500000  )
       196        C      tau( 196) = (   0.8333333   0.6666667   0.1666667  )
       197        C      tau( 197) = (   0.9166667   0.7500000   0.2500000  )
       198        C      tau( 198) = (   0.8333333   0.8333333   0.0000000  )
       199        C      tau( 199) = (   0.9166667   0.9166667   0.0833333  )
       200        C      tau( 200) = (   0.6666667   0.6666667   0.3333333  )
       201        C      tau( 201) = (   0.7500000   0.7500000   0.4166667  )
       202        C      tau( 202) = (   0.6666667   0.8333333   0.5000000  )
       203        C      tau( 203) = (   0.7500000   0.9166667   0.5833333  )
       204        C      tau( 204) = (   0.8333333   0.6666667   0.5000000  )
       205        C      tau( 205) = (   0.9166667   0.7500000   0.5833333  )
       206        C      tau( 206) = (   0.8333333   0.8333333   0.3333333  )
       207        C      tau( 207) = (   0.9166667   0.9166667   0.4166667  )
       208        C      tau( 208) = (   0.6666667   0.6666667   0.6666667  )
       209        C      tau( 209) = (   0.7500000   0.7500000   0.7500000  )
       210        C      tau( 210) = (   0.6666667   0.8333333   0.8333333  )
       211        C      tau( 211) = (   0.7500000   0.9166667   0.9166667  )
       212        C      tau( 212) = (   0.8333333   0.6666667   0.8333333  )
       213        C      tau( 213) = (   0.9166667   0.7500000   0.9166667  )
       214        C      tau( 214) = (   0.8333333   0.8333333   0.6666667  )
       215        C      tau( 215) = (   0.9166667   0.9166667   0.7500000  )

   Crystallographic axes

     site n.     atom                  positions (cryst. coord.)
         1        N      tau(   1) = (  0.0000000  0.0000000  0.0000000  )
         2        C      tau(   2) = (  0.0000000  0.1666667  0.1666667  )
         3        C      tau(   3) = (  0.0833333  0.2500000  0.2500000  )
         4        C      tau(   4) = (  0.1666667  0.0000000  0.1666667  )
         5        C      tau(   5) = (  0.2500000  0.0833333  0.2500000  )
         6        C      tau(   6) = (  0.1666667  0.1666667  0.0000000  )
         7        C      tau(   7) = (  0.2500000  0.2500000  0.0833333  )
         8        C      tau(   8) = (  0.0000000  0.0000000  0.3333333  )
         9        C      tau(   9) = (  0.0833333  0.0833333  0.4166667  )
        10        C      tau(  10) = (  0.0000000  0.1666667  0.5000000  )
        11        C      tau(  11) = (  0.0833333  0.2500000  0.5833333  )
        12        C      tau(  12) = (  0.1666667  0.0000000  0.5000000  )
        13        C      tau(  13) = (  0.2500000  0.0833333  0.5833333  )
        14        C      tau(  14) = (  0.1666667  0.1666667  0.3333333  )
        15        C      tau(  15) = (  0.2500000  0.2500000  0.4166667  )
        16        C      tau(  16) = (  0.0000000  0.0000000  0.6666667  )
        17        C      tau(  17) = (  0.0833333  0.0833333  0.7500000  )
        18        C      tau(  18) = (  0.0000000  0.1666667  0.8333333  )
        19        C      tau(  19) = (  0.0833333  0.2500000  0.9166667  )
        20        C      tau(  20) = (  0.1666667  0.0000000  0.8333333  )
        21        C      tau(  21) = (  0.2500000  0.0833333  0.9166667  )
        22        C      tau(  22) = (  0.1666667  0.1666667  0.6666667  )
        23        C      tau(  23) = (  0.2500000  0.2500000  0.7500000  )
        24        C      tau(  24) = (  0.0000000  0.3333333  0.0000000  )
        25        C      tau(  25) = (  0.0833333  0.4166667  0.0833333  )
        26        C      tau(  26) = (  0.0000000  0.5000000  0.1666667  )
        27        C      tau(  27) = (  0.0833333  0.5833333  0.2500000  )
        28        C      tau(  28) = (  0.1666667  0.3333333  0.1666667  )
        29        C      tau(  29) = (  0.2500000  0.4166667  0.2500000  )
        30        C      tau(  30) = (  0.1666667  0.5000000  0.0000000  )
        31        C      tau(  31) = (  0.2500000  0.5833333  0.0833333  )
        32        C      tau(  32) = (  0.0000000  0.3333333  0.3333333  )
        33        C      tau(  33) = (  0.0833333  0.4166667  0.4166667  )
        34        C      tau(  34) = (  0.0000000  0.5000000  0.5000000  )
        35        C      tau(  35) = (  0.0833333  0.5833333  0.5833333  )
        36        C      tau(  36) = (  0.1666667  0.3333333  0.5000000  )
        37        C      tau(  37) = (  0.2500000  0.4166667  0.5833333  )
        38        C      tau(  38) = (  0.1666667  0.5000000  0.3333333  )
        39        C      tau(  39) = (  0.2500000  0.5833333  0.4166667  )
        40        C      tau(  40) = (  0.0000000  0.3333333  0.6666667  )
        41        C      tau(  41) = (  0.0833333  0.4166667  0.7500000  )
        42        C      tau(  42) = (  0.0000000  0.5000000  0.8333333  )
        43        C      tau(  43) = (  0.0833333  0.5833333  0.9166667  )
        44        C      tau(  44) = (  0.1666667  0.3333333  0.8333333  )
        45        C      tau(  45) = (  0.2500000  0.4166667  0.9166667  )
        46        C      tau(  46) = (  0.1666667  0.5000000  0.6666667  )
        47        C      tau(  47) = (  0.2500000  0.5833333  0.7500000  )
        48        C      tau(  48) = (  0.0000000  0.6666667  0.0000000  )
        49        C      tau(  49) = (  0.0833333  0.7500000  0.0833333  )
        50        C      tau(  50) = (  0.0000000  0.8333333  0.1666667  )
        51        C      tau(  51) = (  0.0833333  0.9166667  0.2500000  )
        52        C      tau(  52) = (  0.1666667  0.6666667  0.1666667  )
        53        C      tau(  53) = (  0.2500000  0.7500000  0.2500000  )
        54        C      tau(  54) = (  0.1666667  0.8333333  0.0000000  )
        55        C      tau(  55) = (  0.2500000  0.9166667  0.0833333  )
        56        C      tau(  56) = (  0.0000000  0.6666667  0.3333333  )
        57        C      tau(  57) = (  0.0833333  0.7500000  0.4166667  )
        58        C      tau(  58) = (  0.0000000  0.8333333  0.5000000  )
        59        C      tau(  59) = (  0.0833333  0.9166667  0.5833333  )
        60        C      tau(  60) = (  0.1666667  0.6666667  0.5000000  )
        61        C      tau(  61) = (  0.2500000  0.7500000  0.5833333  )
        62        C      tau(  62) = (  0.1666667  0.8333333  0.3333333  )
        63        C      tau(  63) = (  0.2500000  0.9166667  0.4166667  )
        64        C      tau(  64) = (  0.0000000  0.6666667  0.6666667  )
        65        C      tau(  65) = (  0.0833333  0.7500000  0.7500000  )
        66        C      tau(  66) = (  0.0000000  0.8333333  0.8333333  )
        67        C      tau(  67) = (  0.0833333  0.9166667  0.9166667  )
        68        C      tau(  68) = (  0.1666667  0.6666667  0.8333333  )
        69        C      tau(  69) = (  0.2500000  0.7500000  0.9166667  )
        70        C      tau(  70) = (  0.1666667  0.8333333  0.6666667  )
        71        C      tau(  71) = (  0.2500000  0.9166667  0.7500000  )
        72        C      tau(  72) = (  0.3333333  0.0000000  0.0000000  )
        73        C      tau(  73) = (  0.4166667  0.0833333  0.0833333  )
        74        C      tau(  74) = (  0.3333333  0.1666667  0.1666667  )
        75        C      tau(  75) = (  0.4166667  0.2500000  0.2500000  )
        76        C      tau(  76) = (  0.5000000  0.0000000  0.1666667  )
        77        C      tau(  77) = (  0.5833333  0.0833333  0.2500000  )
        78        C      tau(  78) = (  0.5000000  0.1666667  0.0000000  )
        79        C      tau(  79) = (  0.5833333  0.2500000  0.0833333  )
        80        C      tau(  80) = (  0.3333333  0.0000000  0.3333333  )
        81        C      tau(  81) = (  0.4166667  0.0833333  0.4166667  )
        82        C      tau(  82) = (  0.3333333  0.1666667  0.5000000  )
        83        C      tau(  83) = (  0.4166667  0.2500000  0.5833333  )
        84        C      tau(  84) = (  0.5000000  0.0000000  0.5000000  )
        85        C      tau(  85) = (  0.5833333  0.0833333  0.5833333  )
        86        C      tau(  86) = (  0.5000000  0.1666667  0.3333333  )
        87        C      tau(  87) = (  0.5833333  0.2500000  0.4166667  )
        88        C      tau(  88) = (  0.3333333  0.0000000  0.6666667  )
        89        C      tau(  89) = (  0.4166667  0.0833333  0.7500000  )
        90        C      tau(  90) = (  0.3333333  0.1666667  0.8333333  )
        91        C      tau(  91) = (  0.4166667  0.2500000  0.9166667  )
        92        C      tau(  92) = (  0.5000000  0.0000000  0.8333333  )
        93        C      tau(  93) = (  0.5833333  0.0833333  0.9166667  )
        94        C      tau(  94) = (  0.5000000  0.1666667  0.6666667  )
        95        C      tau(  95) = (  0.5833333  0.2500000  0.7500000  )
        96        C      tau(  96) = (  0.3333333  0.3333333  0.0000000  )
        97        C      tau(  97) = (  0.4166667  0.4166667  0.0833333  )
        98        C      tau(  98) = (  0.3333333  0.5000000  0.1666667  )
        99        C      tau(  99) = (  0.4166667  0.5833333  0.2500000  )
       100        C      tau( 100) = (  0.5000000  0.3333333  0.1666667  )
       101        C      tau( 101) = (  0.5833333  0.4166667  0.2500000  )
       102        C      tau( 102) = (  0.5000000  0.5000000  0.0000000  )
       103        C      tau( 103) = (  0.5833333  0.5833333  0.0833333  )
       104        C      tau( 104) = (  0.3333333  0.3333333  0.3333333  )
       105        C      tau( 105) = (  0.4166667  0.4166667  0.4166667  )
       106        C      tau( 106) = (  0.3333333  0.5000000  0.5000000  )
       107        C      tau( 107) = (  0.4166667  0.5833333  0.5833333  )
       108        C      tau( 108) = (  0.5000000  0.3333333  0.5000000  )
       109        C      tau( 109) = (  0.5833333  0.4166667  0.5833333  )
       110        C      tau( 110) = (  0.5000000  0.5000000  0.3333333  )
       111        C      tau( 111) = (  0.5833333  0.5833333  0.4166667  )
       112        C      tau( 112) = (  0.3333333  0.3333333  0.6666667  )
       113        C      tau( 113) = (  0.4166667  0.4166667  0.7500000  )
       114        C      tau( 114) = (  0.3333333  0.5000000  0.8333333  )
       115        C      tau( 115) = (  0.4166667  0.5833333  0.9166667  )
       116        C      tau( 116) = (  0.5000000  0.3333333  0.8333333  )
       117        C      tau( 117) = (  0.5833333  0.4166667  0.9166667  )
       118        C      tau( 118) = (  0.5000000  0.5000000  0.6666667  )
       119        C      tau( 119) = (  0.5833333  0.5833333  0.7500000  )
       120        C      tau( 120) = (  0.3333333  0.6666667  0.0000000  )
       121        C      tau( 121) = (  0.4166667  0.7500000  0.0833333  )
       122        C      tau( 122) = (  0.3333333  0.8333333  0.1666667  )
       123        C      tau( 123) = (  0.4166667  0.9166667  0.2500000  )
       124        C      tau( 124) = (  0.5000000  0.6666667  0.1666667  )
       125        C      tau( 125) = (  0.5833333  0.7500000  0.2500000  )
       126        C      tau( 126) = (  0.5000000  0.8333333  0.0000000  )
       127        C      tau( 127) = (  0.5833333  0.9166667  0.0833333  )
       128        C      tau( 128) = (  0.3333333  0.6666667  0.3333333  )
       129        C      tau( 129) = (  0.4166667  0.7500000  0.4166667  )
       130        C      tau( 130) = (  0.3333333  0.8333333  0.5000000  )
       131        C      tau( 131) = (  0.4166667  0.9166667  0.5833333  )
       132        C      tau( 132) = (  0.5000000  0.6666667  0.5000000  )
       133        C      tau( 133) = (  0.5833333  0.7500000  0.5833333  )
       134        C      tau( 134) = (  0.5000000  0.8333333  0.3333333  )
       135        C      tau( 135) = (  0.5833333  0.9166667  0.4166667  )
       136        C      tau( 136) = (  0.3333333  0.6666667  0.6666667  )
       137        C      tau( 137) = (  0.4166667  0.7500000  0.7500000  )
       138        C      tau( 138) = (  0.3333333  0.8333333  0.8333333  )
       139        C      tau( 139) = (  0.4166667  0.9166667  0.9166667  )
       140        C      tau( 140) = (  0.5000000  0.6666667  0.8333333  )
       141        C      tau( 141) = (  0.5833333  0.7500000  0.9166667  )
       142        C      tau( 142) = (  0.5000000  0.8333333  0.6666667  )
       143        C      tau( 143) = (  0.5833333  0.9166667  0.7500000  )
       144        C      tau( 144) = (  0.6666667  0.0000000  0.0000000  )
       145        C      tau( 145) = (  0.7500000  0.0833333  0.0833333  )
       146        C      tau( 146) = (  0.6666667  0.1666667  0.1666667  )
       147        C      tau( 147) = (  0.7500000  0.2500000  0.2500000  )
       148        C      tau( 148) = (  0.8333333  0.0000000  0.1666667  )
       149        C      tau( 149) = (  0.9166667  0.0833333  0.2500000  )
       150        C      tau( 150) = (  0.8333333  0.1666667  0.0000000  )
       151        C      tau( 151) = (  0.9166667  0.2500000  0.0833333  )
       152        C      tau( 152) = (  0.6666667  0.0000000  0.3333333  )
       153        C      tau( 153) = (  0.7500000  0.0833333  0.4166667  )
       154        C      tau( 154) = (  0.6666667  0.1666667  0.5000000  )
       155        C      tau( 155) = (  0.7500000  0.2500000  0.5833333  )
       156        C      tau( 156) = (  0.8333333  0.0000000  0.5000000  )
       157        C      tau( 157) = (  0.9166667  0.0833333  0.5833333  )
       158        C      tau( 158) = (  0.8333333  0.1666667  0.3333333  )
       159        C      tau( 159) = (  0.9166667  0.2500000  0.4166667  )
       160        C      tau( 160) = (  0.6666667  0.0000000  0.6666667  )
       161        C      tau( 161) = (  0.7500000  0.0833333  0.7500000  )
       162        C      tau( 162) = (  0.6666667  0.1666667  0.8333333  )
       163        C      tau( 163) = (  0.7500000  0.2500000  0.9166667  )
       164        C      tau( 164) = (  0.8333333  0.0000000  0.8333333  )
       165        C      tau( 165) = (  0.9166667  0.0833333  0.9166667  )
       166        C      tau( 166) = (  0.8333333  0.1666667  0.6666667  )
       167        C      tau( 167) = (  0.9166667  0.2500000  0.7500000  )
       168        C      tau( 168) = (  0.6666667  0.3333333  0.0000000  )
       169        C      tau( 169) = (  0.7500000  0.4166667  0.0833333  )
       170        C      tau( 170) = (  0.6666667  0.5000000  0.1666667  )
       171        C      tau( 171) = (  0.7500000  0.5833333  0.2500000  )
       172        C      tau( 172) = (  0.8333333  0.3333333  0.1666667  )
       173        C      tau( 173) = (  0.9166667  0.4166667  0.2500000  )
       174        C      tau( 174) = (  0.8333333  0.5000000  0.0000000  )
       175        C      tau( 175) = (  0.9166667  0.5833333  0.0833333  )
       176        C      tau( 176) = (  0.6666667  0.3333333  0.3333333  )
       177        C      tau( 177) = (  0.7500000  0.4166667  0.4166667  )
       178        C      tau( 178) = (  0.6666667  0.5000000  0.5000000  )
       179        C      tau( 179) = (  0.7500000  0.5833333  0.5833333  )
       180        C      tau( 180) = (  0.8333333  0.3333333  0.5000000  )
       181        C      tau( 181) = (  0.9166667  0.4166667  0.5833333  )
       182        C      tau( 182) = (  0.8333333  0.5000000  0.3333333  )
       183        C      tau( 183) = (  0.9166667  0.5833333  0.4166667  )
       184        C      tau( 184) = (  0.6666667  0.3333333  0.6666667  )
       185        C      tau( 185) = (  0.7500000  0.4166667  0.7500000  )
       186        C      tau( 186) = (  0.6666667  0.5000000  0.8333333  )
       187        C      tau( 187) = (  0.7500000  0.5833333  0.9166667  )
       188        C      tau( 188) = (  0.8333333  0.3333333  0.8333333  )
       189        C      tau( 189) = (  0.9166667  0.4166667  0.9166667  )
       190        C      tau( 190) = (  0.8333333  0.5000000  0.6666667  )
       191        C      tau( 191) = (  0.9166667  0.5833333  0.7500000  )
       192        C      tau( 192) = (  0.6666667  0.6666667  0.0000000  )
       193        C      tau( 193) = (  0.7500000  0.7500000  0.0833333  )
       194        C      tau( 194) = (  0.6666667  0.8333333  0.1666667  )
       195        C      tau( 195) = (  0.7500000  0.9166667  0.2500000  )
       196        C      tau( 196) = (  0.8333333  0.6666667  0.1666667  )
       197        C      tau( 197) = (  0.9166667  0.7500000  0.2500000  )
       198        C      tau( 198) = (  0.8333333  0.8333333  0.0000000  )
       199        C      tau( 199) = (  0.9166667  0.9166667  0.0833333  )
       200        C      tau( 200) = (  0.6666667  0.6666667  0.3333333  )
       201        C      tau( 201) = (  0.7500000  0.7500000  0.4166667  )
       202        C      tau( 202) = (  0.6666667  0.8333333  0.5000000  )
       203        C      tau( 203) = (  0.7500000  0.9166667  0.5833333  )
       204        C      tau( 204) = (  0.8333333  0.6666667  0.5000000  )
       205        C      tau( 205) = (  0.9166667  0.7500000  0.5833333  )
       206        C      tau( 206) = (  0.8333333  0.8333333  0.3333333  )
       207        C      tau( 207) = (  0.9166667  0.9166667  0.4166667  )
       208        C      tau( 208) = (  0.6666667  0.6666667  0.6666667  )
       209        C      tau( 209) = (  0.7500000  0.7500000  0.7500000  )
       210        C      tau( 210) = (  0.6666667  0.8333333  0.8333333  )
       211        C      tau( 211) = (  0.7500000  0.9166667  0.9166667  )
       212        C      tau( 212) = (  0.8333333  0.6666667  0.8333333  )
       213        C      tau( 213) = (  0.9166667  0.7500000  0.9166667  )
       214        C      tau( 214) = (  0.8333333  0.8333333  0.6666667  )
       215        C      tau( 215) = (  0.9166667  0.9166667  0.7500000  )

     number of k points=     1
                       cart. coord. in units 2pi/alat
        k(    1) = (   0.0000000   0.0000000   0.0000000), wk =   1.0000000

                       cryst. coord.
        k(    1) = (   0.0000000   0.0000000   0.0000000), wk =   1.0000000

     Dense  grid:   259646 G-vectors     FFT dimensions: ( 100, 100, 100)

     Occupations read from input 

      Spin-up

        1.0000   1.0000   1.0000   1.0000   1.0000   1.0000   1.0000   1.0000
        1.0000   1.0000   1.0000   1.0000   1.0000   1.0000   1.0000   1.0000
        1.0000   1.0000   1.0000   1.0000   1.0000   1.0000   1.0000   1.0000
        1.0000   1.0000   1.0000   1.0000   1.0000   1.0000   1.0000   1.0000
        1.0000   1.0000   1.0000   1.0000   1.0000   1.0000   1.0000   1.0000
        1.0000   1.0000   1.0000   1.0000   1.0000   1.0000   1.0000   1.0000
        1.0000   1.0000   1.0000   1.0000   1.0000   1.0000   1.0000   1.0000
        1.0000   1.0000   1.0000   1.0000   1.0000   1.0000   1.0000   1.0000
        1.0000   1.0000   1.0000   1.0000   1.0000   1.0000   1.0000   1.0000
        1.0000   1.0000   1.0000   1.0000   1.0000   1.0000   1.0000   1.0000
        1.0000   1.0000   1.0000   1.0000   1.0000   1.0000   1.0000   1.0000
        1.0000   1.0000   1.0000   1.0000   1.0000   1.0000   1.0000   1.0000
        1.0000   1.0000   1.0000   1.0000   1.0000   1.0000   1.0000   1.0000
        1.0000   1.0000   1.0000   1.0000   1.0000   1.0000   1.0000   1.0000
        1.0000   1.0000   1.0000   1.0000   1.0000   1.0000   1.0000   1.0000
        1.0000   1.0000   1.0000   1.0000   1.0000   1.0000   1.0000   1.0000
        1.0000   1.0000   1.0000   1.0000   1.0000   1.0000   1.0000   1.0000
        1.0000   1.0000   1.0000   1.0000   1.0000   1.0000   1.0000   1.0000
        1.0000   1.0000   1.0000   1.0000   1.0000   1.0000   1.0000   1.0000
        1.0000   1.0000   1.0000   1.0000   1.0000   1.0000   1.0000   1.0000
        1.0000   1.0000   1.0000   1.0000   1.0000   1.0000   1.0000   1.0000
        1.0000   1.0000   1.0000   1.0000   1.0000   1.0000   1.0000   1.0000
        1.0000   1.0000   1.0000   1.0000   1.0000   1.0000   1.0000   1.0000
        1.0000   1.0000   1.0000   1.0000   1.0000   1.0000   1.0000   1.0000
        1.0000   1.0000   1.0000   1.0000   1.0000   1.0000   1.0000   1.0000
        1.0000   1.0000   1.0000   1.0000   1.0000   1.0000   1.0000   1.0000
        1.0000   1.0000   1.0000   1.0000   1.0000   1.0000   1.0000   1.0000
        1.0000   1.0000   1.0000   1.0000   1.0000   1.0000   1.0000   1.0000
        1.0000   1.0000   1.0000   1.0000   1.0000   1.0000   1.0000   1.0000
        1.0000   1.0000   1.0000   1.0000   1.0000   1.0000   1.0000   1.0000
        1.0000   1.0000   1.0000   1.0000   1.0000   1.0000   1.0000   1.0000
        1.0000   1.0000   1.0000   1.0000   1.0000   1.0000   1.0000   1.0000
        1.0000   1.0000   1.0000   1.0000   1.0000   1.0000   1.0000   1.0000
        1.0000   1.0000   1.0000   1.0000   1.0000   1.0000   1.0000   1.0000
        1.0000   1.0000   1.0000   1.0000   1.0000   1.0000   1.0000   1.0000
        1.0000   1.0000   1.0000   1.0000   1.0000   1.0000   1.0000   1.0000
        1.0000   1.0000   1.0000   1.0000   1.0000   1.0000   1.0000   1.0000
        1.0000   1.0000   1.0000   1.0000   1.0000   1.0000   1.0000   1.0000
        1.0000   1.0000   1.0000   1.0000   1.0000   1.0000   1.0000   1.0000
        1.0000   1.0000   1.0000   1.0000   1.0000   1.0000   1.0000   1.0000
        1.0000   1.0000   1.0000   1.0000   1.0000   1.0000   1.0000   1.0000
        1.0000   1.0000   1.0000   1.0000   1.0000   1.0000   1.0000   1.0000
        1.0000   1.0000   1.0000   1.0000   1.0000   1.0000   1.0000   1.0000
        1.0000   1.0000   1.0000   1.0000   1.0000   1.0000   1.0000   1.0000
        1.0000   1.0000   1.0000   1.0000   1.0000   1.0000   1.0000   1.0000
        1.0000   1.0000   1.0000   1.0000   1.0000   1.0000   1.0000   1.0000
        1.0000   1.0000   1.0000   1.0000   1.0000   1.0000   1.0000   1.0000
        1.0000   1.0000   1.0000   1.0000   1.0000   1.0000   1.0000   1.0000
        1.0000   1.0000   1.0000   1.0000   1.0000   1.0000   1.0000   1.0000
        1.0000   1.0000   1.0000   1.0000   1.0000   1.0000   1.0000   1.0000
        1.0000   1.0000   1.0000   1.0000   1.0000   1.0000   1.0000   1.0000
        1.0000   1.0000   1.0000   1.0000   1.0000   1.0000   1.0000   1.0000
        1.0000   1.0000   1.0000   1.0000   1.0000   1.0000   1.0000   1.0000
        1.0000   1.0000   1.0000   1.0000   1.0000   1.0000   1.0000   1.0000
        0.0000   0.0000   0.0000   0.0000   0.0000   0.0000   0.0000   0.0000
        0.0000   0.0000   0.0000   0.0000   0.0000   0.0000   0.0000   0.0000
        0.0000   0.0000   0.0000   0.0000   0.0000   0.0000   0.0000   0.0000

      Spin-down

        1.0000   1.0000   1.0000   1.0000   1.0000   1.0000   1.0000   1.0000
        1.0000   1.0000   1.0000   1.0000   1.0000   1.0000   1.0000   1.0000
        1.0000   1.0000   1.0000   1.0000   1.0000   1.0000   1.0000   1.0000
        1.0000   1.0000   1.0000   1.0000   1.0000   1.0000   1.0000   1.0000
        1.0000   1.0000   1.0000   1.0000   1.0000   1.0000   1.0000   1.0000
        1.0000   1.0000   1.0000   1.0000   1.0000   1.0000   1.0000   1.0000
        1.0000   1.0000   1.0000   1.0000   1.0000   1.0000   1.0000   1.0000
        1.0000   1.0000   1.0000   1.0000   1.0000   1.0000   1.0000   1.0000
        1.0000   1.0000   1.0000   1.0000   1.0000   1.0000   1.0000   1.0000
        1.0000   1.0000   1.0000   1.0000   1.0000   1.0000   1.0000   1.0000
        1.0000   1.0000   1.0000   1.0000   1.0000   1.0000   1.0000   1.0000
        1.0000   1.0000   1.0000   1.0000   1.0000   1.0000   1.0000   1.0000
        1.0000   1.0000   1.0000   1.0000   1.0000   1.0000   1.0000   1.0000
        1.0000   1.0000   1.0000   1.0000   1.0000   1.0000   1.0000   1.0000
        1.0000   1.0000   1.0000   1.0000   1.0000   1.0000   1.0000   1.0000
        1.0000   1.0000   1.0000   1.0000   1.0000   1.0000   1.0000   1.0000
        1.0000   1.0000   1.0000   1.0000   1.0000   1.0000   1.0000   1.0000
        1.0000   1.0000   1.0000   1.0000   1.0000   1.0000   1.0000   1.0000
        1.0000   1.0000   1.0000   1.0000   1.0000   1.0000   1.0000   1.0000
        1.0000   1.0000   1.0000   1.0000   1.0000   1.0000   1.0000   1.0000
        1.0000   1.0000   1.0000   1.0000   1.0000   1.0000   1.0000   1.0000
        1.0000   1.0000   1.0000   1.0000   1.0000   1.0000   1.0000   1.0000
        1.0000   1.0000   1.0000   1.0000   1.0000   1.0000   1.0000   1.0000
        1.0000   1.0000   1.0000   1.0000   1.0000   1.0000   1.0000   1.0000
        1.0000   1.0000   1.0000   1.0000   1.0000   1.0000   1.0000   1.0000
        1.0000   1.0000   1.0000   1.0000   1.0000   1.0000   1.0000   1.0000
        1.0000   1.0000   1.0000   1.0000   1.0000   1.0000   1.0000   1.0000
        1.0000   1.0000   1.0000   1.0000   1.0000   1.0000   1.0000   1.0000
        1.0000   1.0000   1.0000   1.0000   1.0000   1.0000   1.0000   1.0000
        1.0000   1.0000   1.0000   1.0000   1.0000   1.0000   1.0000   1.0000
        1.0000   1.0000   1.0000   1.0000   1.0000   1.0000   1.0000   1.0000
        1.0000   1.0000   1.0000   1.0000   1.0000   1.0000   1.0000   1.0000
        1.0000   1.0000   1.0000   1.0000   1.0000   1.0000   1.0000   1.0000
        1.0000   1.0000   1.0000   1.0000   1.0000   1.0000   1.0000   1.0000
        1.0000   1.0000   1.0000   1.0000   1.0000   1.0000   1.0000   1.0000
        1.0000   1.0000   1.0000   1.0000   1.0000   1.0000   1.0000   1.0000
        1.0000   1.0000   1.0000   1.0000   1.0000   1.0000   1.0000   1.0000
        1.0000   1.0000   1.0000   1.0000   1.0000   1.0000   1.0000   1.0000
        1.0000   1.0000   1.0000   1.0000   1.0000   1.0000   1.0000   1.0000
        1.0000   1.0000   1.0000   1.0000   1.0000   1.0000   1.0000   1.0000
        1.0000   1.0000   1.0000   1.0000   1.0000   1.0000   1.0000   1.0000
        1.0000   1.0000   1.0000   1.0000   1.0000   1.0000   1.0000   1.0000
        1.0000   1.0000   1.0000   1.0000   1.0000   1.0000   1.0000   1.0000
        1.0000   1.0000   1.0000   1.0000   1.0000   1.0000   1.0000   1.0000
        1.0000   1.0000   1.0000   1.0000   1.0000   1.0000   1.0000   1.0000
        1.0000   1.0000   1.0000   1.0000   1.0000   1.0000   1.0000   1.0000
        1.0000   1.0000   1.0000   1.0000   1.0000   1.0000   1.0000   1.0000
        1.0000   1.0000   1.0000   1.0000   1.0000   1.0000   1.0000   1.0000
        1.0000   1.0000   1.0000   1.0000   1.0000   1.0000   1.0000   1.0000
        1.0000   1.0000   1.0000   1.0000   1.0000   1.0000   1.0000   1.0000
        1.0000   1.0000   1.0000   1.0000   1.0000   1.0000   1.0000   1.0000
        1.0000   1.0000   1.0000   1.0000   1.0000   1.0000   1.0000   1.0000
        1.0000   1.0000   1.0000   1.0000   1.0000   1.0000   1.0000   1.0000
        1.0000   1.0000   1.0000   1.0000   1.0000   0.0000   1.0000   0.0000
        0.0000   0.0000   0.0000   0.0000   0.0000   0.0000   0.0000   0.0000
        0.0000   0.0000   0.0000   0.0000   0.0000   0.0000   0.0000   0.0000
        0.0000   0.0000   0.0000   0.0000   0.0000   0.0000   0.0000   0.0000

     Dynamical RAM for                 wfc:       4.70 MB

     Dynamical RAM for     wfc (w. buffer):       4.70 MB

     Dynamical RAM for           str. fact:       0.17 MB

     Dynamical RAM for           local pot:       0.00 MB

     Dynamical RAM for          nlocal pot:      17.74 MB

     Dynamical RAM for                qrad:       0.71 MB

     Dynamical RAM for          rho,v,vnew:       1.87 MB

     Dynamical RAM for               rhoin:       0.62 MB

     Dynamical RAM for            rho*nmix:       2.64 MB

     Dynamical RAM for           G-vectors:       0.35 MB

     Dynamical RAM for          h,s,v(r/c):       0.76 MB

     Dynamical RAM for          <psi|beta>:       5.98 MB

     Dynamical RAM for                 psi:       9.41 MB

     Dynamical RAM for                hpsi:       9.41 MB

     Dynamical RAM for      wfcinit/wfcrot:      14.17 MB

     Estimated static dynamical RAM per process >      27.79 MB

     Estimated max dynamical RAM per process >      55.99 MB

     Estimated total dynamical RAM >       5.12 GB
     Generating pointlists ...
     new r_m :   0.0595 (alat units)  1.2040 (a.u.) for type    1
     new r_m :   0.0595 (alat units)  1.2040 (a.u.) for type    2

     Initial potential from superposition of free atoms

     starting charge     859.5066, renormalised to     862.0000
     Starting wfcs are random

     total cpu time spent up to now is        2.2 secs

     Self-consistent Calculation

     iteration #  1     ecut=    60.00 Ry     beta= 0.30
     Davidson diagonalization with overlap

---- Real-time Memory Report at c_bands before calling an iterative solver
           202 MiB given to the printing process from OS
             0 MiB allocation reported by mallinfo(arena+hblkhd)
        145327 MiB available memory on the node where the printing process lives
------------------
     ethr =  1.00E-02,  avg # of iterations = 18.0

     total cpu time spent up to now is       17.0 secs

     total energy              =   -2456.12432073 Ry
     estimated scf accuracy    <      12.34176178 Ry

     total magnetization       =     2.00 Bohr mag/cell
     absolute magnetization    =     2.00 Bohr mag/cell

     iteration #  2     ecut=    60.00 Ry     beta= 0.30
     Davidson diagonalization with overlap

---- Real-time Memory Report at c_bands before calling an iterative solver
           218 MiB given to the printing process from OS
             0 MiB allocation reported by mallinfo(arena+hblkhd)
        144764 MiB available memory on the node where the printing process lives
------------------
     ethr =  1.43E-03,  avg # of iterations = 12.0

     total cpu time spent up to now is       21.1 secs

     total energy              =   -2455.37249334 Ry
     estimated scf accuracy    <       4.96016768 Ry

     total magnetization       =     2.00 Bohr mag/cell
     absolute magnetization    =     2.02 Bohr mag/cell

     iteration #  3     ecut=    60.00 Ry     beta= 0.30
     Davidson diagonalization with overlap

---- Real-time Memory Report at c_bands before calling an iterative solver
           222 MiB given to the printing process from OS
             0 MiB allocation reported by mallinfo(arena+hblkhd)
        144805 MiB available memory on the node where the printing process lives
------------------
     ethr =  5.75E-04,  avg # of iterations =  6.0

     total cpu time spent up to now is       25.8 secs

     total energy              =   -2455.79207958 Ry
     estimated scf accuracy    <       0.64556812 Ry

     total magnetization       =     2.00 Bohr mag/cell
     absolute magnetization    =     2.05 Bohr mag/cell

     iteration #  4     ecut=    60.00 Ry     beta= 0.30
     Davidson diagonalization with overlap

---- Real-time Memory Report at c_bands before calling an iterative solver
           222 MiB given to the printing process from OS
             0 MiB allocation reported by mallinfo(arena+hblkhd)
        144808 MiB available memory on the node where the printing process lives
------------------
     ethr =  7.49E-05,  avg # of iterations =  8.0

     total cpu time spent up to now is       29.1 secs

     total energy              =   -2455.84305380 Ry
     estimated scf accuracy    <       0.14738708 Ry

     total magnetization       =     2.00 Bohr mag/cell
     absolute magnetization    =     2.09 Bohr mag/cell

     iteration #  5     ecut=    60.00 Ry     beta= 0.30
     Davidson diagonalization with overlap

---- Real-time Memory Report at c_bands before calling an iterative solver
           223 MiB given to the printing process from OS
             0 MiB allocation reported by mallinfo(arena+hblkhd)
        144794 MiB available memory on the node where the printing process lives
------------------
     c_bands:  2 eigenvalues not converged
     ethr =  1.71E-05,  avg # of iterations = 20.0

     total cpu time spent up to now is       37.6 secs

     total energy              =   -2455.87500527 Ry
     estimated scf accuracy    <       0.09186706 Ry

     total magnetization       =     2.00 Bohr mag/cell
     absolute magnetization    =     2.11 Bohr mag/cell

     iteration #  6     ecut=    60.00 Ry     beta= 0.30
     Davidson diagonalization with overlap

---- Real-time Memory Report at c_bands before calling an iterative solver
           223 MiB given to the printing process from OS
             0 MiB allocation reported by mallinfo(arena+hblkhd)
        144778 MiB available memory on the node where the printing process lives
------------------
     ethr =  1.07E-05,  avg # of iterations =  6.0

     total cpu time spent up to now is       40.8 secs

     total energy              =   -2455.87588759 Ry
     estimated scf accuracy    <       0.05246487 Ry

     total magnetization       =     2.00 Bohr mag/cell
     absolute magnetization    =     2.14 Bohr mag/cell

     iteration #  7     ecut=    60.00 Ry     beta= 0.30
     Davidson diagonalization with overlap

---- Real-time Memory Report at c_bands before calling an iterative solver
           224 MiB given to the printing process from OS
             0 MiB allocation reported by mallinfo(arena+hblkhd)
        144763 MiB available memory on the node where the printing process lives
------------------
     ethr =  6.09E-06,  avg # of iterations =  3.5

     total cpu time spent up to now is       43.0 secs

     total energy              =   -2455.88444012 Ry
     estimated scf accuracy    <       0.05803115 Ry

     total magnetization       =     2.00 Bohr mag/cell
     absolute magnetization    =     2.14 Bohr mag/cell

     iteration #  8     ecut=    60.00 Ry     beta= 0.30
     Davidson diagonalization with overlap

---- Real-time Memory Report at c_bands before calling an iterative solver
           224 MiB given to the printing process from OS
             0 MiB allocation reported by mallinfo(arena+hblkhd)
        144744 MiB available memory on the node where the printing process lives
------------------
     ethr =  6.09E-06,  avg # of iterations =  2.0

     total cpu time spent up to now is       46.9 secs

     total energy              =   -2455.88264667 Ry
     estimated scf accuracy    <       0.04541663 Ry

     total magnetization       =     2.00 Bohr mag/cell
     absolute magnetization    =     2.15 Bohr mag/cell

     iteration #  9     ecut=    60.00 Ry     beta= 0.30
     Davidson diagonalization with overlap

---- Real-time Memory Report at c_bands before calling an iterative solver
           224 MiB given to the printing process from OS
             0 MiB allocation reported by mallinfo(arena+hblkhd)
        144733 MiB available memory on the node where the printing process lives
------------------
     ethr =  5.27E-06,  avg # of iterations =  2.0

     total cpu time spent up to now is       65.5 secs

     total energy              =   -2455.88292578 Ry
     estimated scf accuracy    <       0.03930731 Ry

     total magnetization       =     2.00 Bohr mag/cell
     absolute magnetization    =     2.16 Bohr mag/cell

     iteration # 10     ecut=    60.00 Ry     beta= 0.30
     Davidson diagonalization with overlap

---- Real-time Memory Report at c_bands before calling an iterative solver
           225 MiB given to the printing process from OS
             0 MiB allocation reported by mallinfo(arena+hblkhd)
        144720 MiB available memory on the node where the printing process lives
------------------
     ethr =  4.56E-06,  avg # of iterations =  2.5

     total cpu time spent up to now is       67.4 secs

     total energy              =   -2455.88312417 Ry
     estimated scf accuracy    <       0.04391449 Ry

     total magnetization       =     2.00 Bohr mag/cell
     absolute magnetization    =     2.17 Bohr mag/cell

     iteration # 11     ecut=    60.00 Ry     beta= 0.30
     Davidson diagonalization with overlap

---- Real-time Memory Report at c_bands before calling an iterative solver
           225 MiB given to the printing process from OS
             0 MiB allocation reported by mallinfo(arena+hblkhd)
        144709 MiB available memory on the node where the printing process lives
------------------
     ethr =  4.56E-06,  avg # of iterations =  1.5

     total cpu time spent up to now is       70.5 secs

     total energy              =   -2455.88315468 Ry
     estimated scf accuracy    <       0.03506517 Ry

     total magnetization       =     2.00 Bohr mag/cell
     absolute magnetization    =     2.17 Bohr mag/cell

     iteration # 12     ecut=    60.00 Ry     beta= 0.30
     Davidson diagonalization with overlap

---- Real-time Memory Report at c_bands before calling an iterative solver
           225 MiB given to the printing process from OS
             0 MiB allocation reported by mallinfo(arena+hblkhd)
        144710 MiB available memory on the node where the printing process lives
------------------
     ethr =  4.07E-06,  avg # of iterations =  1.0

     total cpu time spent up to now is       71.7 secs

     total energy              =   -2455.88300938 Ry
     estimated scf accuracy    <       0.03539405 Ry

     total magnetization       =     2.00 Bohr mag/cell
     absolute magnetization    =     2.18 Bohr mag/cell

     iteration # 13     ecut=    60.00 Ry     beta= 0.30
     Davidson diagonalization with overlap

---- Real-time Memory Report at c_bands before calling an iterative solver
           225 MiB given to the printing process from OS
             0 MiB allocation reported by mallinfo(arena+hblkhd)
        144707 MiB available memory on the node where the printing process lives
------------------
     ethr =  4.07E-06,  avg # of iterations =  1.0

     total cpu time spent up to now is       74.1 secs

     total energy              =   -2455.88328475 Ry
     estimated scf accuracy    <       0.03913732 Ry

     total magnetization       =     2.00 Bohr mag/cell
     absolute magnetization    =     2.18 Bohr mag/cell

     iteration # 14     ecut=    60.00 Ry     beta= 0.30
     Davidson diagonalization with overlap

---- Real-time Memory Report at c_bands before calling an iterative solver
           225 MiB given to the printing process from OS
             0 MiB allocation reported by mallinfo(arena+hblkhd)
        144708 MiB available memory on the node where the printing process lives
------------------
     ethr =  4.07E-06,  avg # of iterations =  1.0

     total cpu time spent up to now is       77.3 secs

     total energy              =   -2455.88295671 Ry
     estimated scf accuracy    <       0.03371438 Ry

     total magnetization       =     2.00 Bohr mag/cell
     absolute magnetization    =     2.18 Bohr mag/cell

     iteration # 15     ecut=    60.00 Ry     beta= 0.30
     Davidson diagonalization with overlap

---- Real-time Memory Report at c_bands before calling an iterative solver
           225 MiB given to the printing process from OS
             0 MiB allocation reported by mallinfo(arena+hblkhd)
        144708 MiB available memory on the node where the printing process lives
------------------
     ethr =  3.91E-06,  avg # of iterations =  1.0

     total cpu time spent up to now is       79.2 secs

     total energy              =   -2455.88341676 Ry
     estimated scf accuracy    <       0.04021541 Ry

     total magnetization       =     2.00 Bohr mag/cell
     absolute magnetization    =     2.19 Bohr mag/cell

     iteration # 16     ecut=    60.00 Ry     beta= 0.30
     Davidson diagonalization with overlap

---- Real-time Memory Report at c_bands before calling an iterative solver
           225 MiB given to the printing process from OS
             0 MiB allocation reported by mallinfo(arena+hblkhd)
        144708 MiB available memory on the node where the printing process lives
------------------
     ethr =  3.91E-06,  avg # of iterations =  1.0

     total cpu time spent up to now is       84.1 secs

     total energy              =   -2455.88322907 Ry
     estimated scf accuracy    <       0.03774835 Ry

     total magnetization       =     2.00 Bohr mag/cell
     absolute magnetization    =     2.19 Bohr mag/cell

     iteration # 17     ecut=    60.00 Ry     beta= 0.30
     Davidson diagonalization with overlap

---- Real-time Memory Report at c_bands before calling an iterative solver
           225 MiB given to the printing process from OS
             0 MiB allocation reported by mallinfo(arena+hblkhd)
        144709 MiB available memory on the node where the printing process lives
------------------
     ethr =  3.91E-06,  avg # of iterations =  1.0

     total cpu time spent up to now is       85.4 secs

     total energy              =   -2455.88340163 Ry
     estimated scf accuracy    <       0.03416111 Ry

     total magnetization       =     2.00 Bohr mag/cell
     absolute magnetization    =     2.19 Bohr mag/cell

     iteration # 18     ecut=    60.00 Ry     beta= 0.30
     Davidson diagonalization with overlap

---- Real-time Memory Report at c_bands before calling an iterative solver
           225 MiB given to the printing process from OS
             0 MiB allocation reported by mallinfo(arena+hblkhd)
        144709 MiB available memory on the node where the printing process lives
------------------
     ethr =  3.91E-06,  avg # of iterations =  1.0

     total cpu time spent up to now is       86.4 secs

     total energy              =   -2455.88329638 Ry
     estimated scf accuracy    <       0.03698335 Ry

     total magnetization       =     2.00 Bohr mag/cell
     absolute magnetization    =     2.19 Bohr mag/cell

     iteration # 19     ecut=    60.00 Ry     beta= 0.30
     Davidson diagonalization with overlap

---- Real-time Memory Report at c_bands before calling an iterative solver
           225 MiB given to the printing process from OS
             0 MiB allocation reported by mallinfo(arena+hblkhd)
        144709 MiB available memory on the node where the printing process lives
------------------
     ethr =  3.91E-06,  avg # of iterations =  1.0

     total cpu time spent up to now is       88.8 secs

     total energy              =   -2455.88337739 Ry
     estimated scf accuracy    <       0.03380047 Ry

     total magnetization       =     2.00 Bohr mag/cell
     absolute magnetization    =     2.19 Bohr mag/cell

     iteration # 20     ecut=    60.00 Ry     beta= 0.30
     Davidson diagonalization with overlap

---- Real-time Memory Report at c_bands before calling an iterative solver
           225 MiB given to the printing process from OS
             0 MiB allocation reported by mallinfo(arena+hblkhd)
        144709 MiB available memory on the node where the printing process lives
------------------
     ethr =  3.91E-06,  avg # of iterations =  1.0

     total cpu time spent up to now is       91.2 secs

     total energy              =   -2455.88344507 Ry
     estimated scf accuracy    <       0.03795078 Ry

     total magnetization       =     2.00 Bohr mag/cell
     absolute magnetization    =     2.19 Bohr mag/cell

     iteration # 21     ecut=    60.00 Ry     beta= 0.30
     Davidson diagonalization with overlap

---- Real-time Memory Report at c_bands before calling an iterative solver
           225 MiB given to the printing process from OS
             0 MiB allocation reported by mallinfo(arena+hblkhd)
        144709 MiB available memory on the node where the printing process lives
------------------
     ethr =  3.91E-06,  avg # of iterations =  1.0

     total cpu time spent up to now is       93.9 secs

     total energy              =   -2455.88341945 Ry
     estimated scf accuracy    <       0.03822793 Ry

     total magnetization       =     2.00 Bohr mag/cell
     absolute magnetization    =     2.20 Bohr mag/cell

     iteration # 22     ecut=    60.00 Ry     beta= 0.30
     Davidson diagonalization with overlap

---- Real-time Memory Report at c_bands before calling an iterative solver
           225 MiB given to the printing process from OS
             0 MiB allocation reported by mallinfo(arena+hblkhd)
        144709 MiB available memory on the node where the printing process lives
------------------
     ethr =  3.91E-06,  avg # of iterations =  1.0

     total cpu time spent up to now is      124.6 secs

     total energy              =   -2455.88342166 Ry
     estimated scf accuracy    <       0.03796804 Ry

     total magnetization       =     2.00 Bohr mag/cell
     absolute magnetization    =     2.20 Bohr mag/cell

     iteration # 23     ecut=    60.00 Ry     beta= 0.30
     Davidson diagonalization with overlap

---- Real-time Memory Report at c_bands before calling an iterative solver
           225 MiB given to the printing process from OS
             0 MiB allocation reported by mallinfo(arena+hblkhd)
        144709 MiB available memory on the node where the printing process lives
------------------
     ethr =  3.91E-06,  avg # of iterations =  1.0

     total cpu time spent up to now is      127.4 secs

     total energy              =   -2455.88341898 Ry
     estimated scf accuracy    <       0.03799386 Ry

     total magnetization       =     2.00 Bohr mag/cell
     absolute magnetization    =     2.20 Bohr mag/cell

     iteration # 24     ecut=    60.00 Ry     beta= 0.30
     Davidson diagonalization with overlap

---- Real-time Memory Report at c_bands before calling an iterative solver
           225 MiB given to the printing process from OS
             0 MiB allocation reported by mallinfo(arena+hblkhd)
        144710 MiB available memory on the node where the printing process lives
------------------
     ethr =  3.91E-06,  avg # of iterations =  1.0

     total cpu time spent up to now is      138.0 secs

     total energy              =   -2455.88343315 Ry
     estimated scf accuracy    <       0.03785970 Ry

     total magnetization       =     2.00 Bohr mag/cell
     absolute magnetization    =     2.20 Bohr mag/cell

     iteration # 25     ecut=    60.00 Ry     beta= 0.30
     Davidson diagonalization with overlap

---- Real-time Memory Report at c_bands before calling an iterative solver
           225 MiB given to the printing process from OS
             0 MiB allocation reported by mallinfo(arena+hblkhd)
        144685 MiB available memory on the node where the printing process lives
------------------
     ethr =  3.91E-06,  avg # of iterations =  1.0

     total cpu time spent up to now is      141.0 secs

     total energy              =   -2455.88344379 Ry
     estimated scf accuracy    <       0.03831806 Ry

     total magnetization       =     2.00 Bohr mag/cell
     absolute magnetization    =     2.20 Bohr mag/cell

     iteration # 26     ecut=    60.00 Ry     beta= 0.30
     Davidson diagonalization with overlap

---- Real-time Memory Report at c_bands before calling an iterative solver
           225 MiB given to the printing process from OS
             0 MiB allocation reported by mallinfo(arena+hblkhd)
        144710 MiB available memory on the node where the printing process lives
------------------
     ethr =  3.91E-06,  avg # of iterations =  1.0

     total cpu time spent up to now is      144.1 secs

     total energy              =   -2455.88341752 Ry
     estimated scf accuracy    <       0.03790131 Ry

     total magnetization       =     2.00 Bohr mag/cell
     absolute magnetization    =     2.19 Bohr mag/cell

     iteration # 27     ecut=    60.00 Ry     beta= 0.30
     Davidson diagonalization with overlap

---- Real-time Memory Report at c_bands before calling an iterative solver
           225 MiB given to the printing process from OS
             0 MiB allocation reported by mallinfo(arena+hblkhd)
        144709 MiB available memory on the node where the printing process lives
------------------
     ethr =  3.91E-06,  avg # of iterations =  1.0

     total cpu time spent up to now is      145.4 secs

     total energy              =   -2455.88347726 Ry
     estimated scf accuracy    <       0.03816886 Ry

     total magnetization       =     2.00 Bohr mag/cell
     absolute magnetization    =     2.20 Bohr mag/cell

     iteration # 28     ecut=    60.00 Ry     beta= 0.30
     Davidson diagonalization with overlap

---- Real-time Memory Report at c_bands before calling an iterative solver
           225 MiB given to the printing process from OS
             0 MiB allocation reported by mallinfo(arena+hblkhd)
        144709 MiB available memory on the node where the printing process lives
------------------
     ethr =  3.91E-06,  avg # of iterations =  1.0

     total cpu time spent up to now is      147.5 secs

     total energy              =   -2455.88357608 Ry
     estimated scf accuracy    <       0.03783514 Ry

     total magnetization       =     2.00 Bohr mag/cell
     absolute magnetization    =     2.19 Bohr mag/cell

     iteration # 29     ecut=    60.00 Ry     beta= 0.30
     Davidson diagonalization with overlap

---- Real-time Memory Report at c_bands before calling an iterative solver
           225 MiB given to the printing process from OS
             0 MiB allocation reported by mallinfo(arena+hblkhd)
        144709 MiB available memory on the node where the printing process lives
------------------
     ethr =  3.91E-06,  avg # of iterations =  1.0

     total cpu time spent up to now is      150.2 secs

     total energy              =   -2455.88350398 Ry
     estimated scf accuracy    <       0.03818183 Ry

     total magnetization       =     2.00 Bohr mag/cell
     absolute magnetization    =     2.19 Bohr mag/cell

     iteration # 30     ecut=    60.00 Ry     beta= 0.30
     Davidson diagonalization with overlap

---- Real-time Memory Report at c_bands before calling an iterative solver
           225 MiB given to the printing process from OS
             0 MiB allocation reported by mallinfo(arena+hblkhd)
        144710 MiB available memory on the node where the printing process lives
------------------
     ethr =  3.91E-06,  avg # of iterations =  1.0

     total cpu time spent up to now is      152.8 secs

     total energy              =   -2455.88366677 Ry
     estimated scf accuracy    <       0.03815998 Ry

     total magnetization       =     2.00 Bohr mag/cell
     absolute magnetization    =     2.20 Bohr mag/cell

     iteration # 31     ecut=    60.00 Ry     beta= 0.30
     Davidson diagonalization with overlap

---- Real-time Memory Report at c_bands before calling an iterative solver
           225 MiB given to the printing process from OS
             0 MiB allocation reported by mallinfo(arena+hblkhd)
        144709 MiB available memory on the node where the printing process lives
------------------
     ethr =  3.91E-06,  avg # of iterations =  1.0

     total cpu time spent up to now is      155.3 secs

     total energy              =   -2455.88342763 Ry
     estimated scf accuracy    <       0.03894423 Ry

     total magnetization       =     2.00 Bohr mag/cell
     absolute magnetization    =     2.20 Bohr mag/cell

     iteration # 32     ecut=    60.00 Ry     beta= 0.30
     Davidson diagonalization with overlap

---- Real-time Memory Report at c_bands before calling an iterative solver
           225 MiB given to the printing process from OS
             0 MiB allocation reported by mallinfo(arena+hblkhd)
        144709 MiB available memory on the node where the printing process lives
------------------
     ethr =  3.91E-06,  avg # of iterations =  1.0

     total cpu time spent up to now is      157.7 secs

     total energy              =   -2455.88360193 Ry
     estimated scf accuracy    <       0.03773994 Ry

     total magnetization       =     2.00 Bohr mag/cell
     absolute magnetization    =     2.20 Bohr mag/cell

     iteration # 33     ecut=    60.00 Ry     beta= 0.30
     Davidson diagonalization with overlap

---- Real-time Memory Report at c_bands before calling an iterative solver
           225 MiB given to the printing process from OS
             0 MiB allocation reported by mallinfo(arena+hblkhd)
        144709 MiB available memory on the node where the printing process lives
------------------
     ethr =  3.91E-06,  avg # of iterations =  1.0

     total cpu time spent up to now is      159.3 secs

     total energy              =   -2455.88315272 Ry
     estimated scf accuracy    <       0.03838337 Ry

     total magnetization       =     2.00 Bohr mag/cell
     absolute magnetization    =     2.20 Bohr mag/cell

     iteration # 34     ecut=    60.00 Ry     beta= 0.30
     Davidson diagonalization with overlap

---- Real-time Memory Report at c_bands before calling an iterative solver
           225 MiB given to the printing process from OS
             0 MiB allocation reported by mallinfo(arena+hblkhd)
        144709 MiB available memory on the node where the printing process lives
------------------
     ethr =  3.91E-06,  avg # of iterations =  1.0

     total cpu time spent up to now is      161.7 secs

     total energy              =   -2455.88354695 Ry
     estimated scf accuracy    <       0.03558528 Ry

     total magnetization       =     2.00 Bohr mag/cell
     absolute magnetization    =     2.19 Bohr mag/cell

     iteration # 35     ecut=    60.00 Ry     beta= 0.30
     Davidson diagonalization with overlap

---- Real-time Memory Report at c_bands before calling an iterative solver
           225 MiB given to the printing process from OS
             0 MiB allocation reported by mallinfo(arena+hblkhd)
        144709 MiB available memory on the node where the printing process lives
------------------
     ethr =  3.91E-06,  avg # of iterations =  1.0

     total cpu time spent up to now is      164.9 secs

     total energy              =   -2455.88358032 Ry
     estimated scf accuracy    <       0.03486060 Ry

     total magnetization       =     2.00 Bohr mag/cell
     absolute magnetization    =     2.19 Bohr mag/cell

     iteration # 36     ecut=    60.00 Ry     beta= 0.30
     Davidson diagonalization with overlap

---- Real-time Memory Report at c_bands before calling an iterative solver
           225 MiB given to the printing process from OS
             0 MiB allocation reported by mallinfo(arena+hblkhd)
        144709 MiB available memory on the node where the printing process lives
------------------
     ethr =  3.91E-06,  avg # of iterations =  1.0

     total cpu time spent up to now is      168.4 secs

     total energy              =   -2455.88354651 Ry
     estimated scf accuracy    <       0.03495095 Ry

     total magnetization       =     2.00 Bohr mag/cell
     absolute magnetization    =     2.19 Bohr mag/cell

     iteration # 37     ecut=    60.00 Ry     beta= 0.30
     Davidson diagonalization with overlap

---- Real-time Memory Report at c_bands before calling an iterative solver
           225 MiB given to the printing process from OS
             0 MiB allocation reported by mallinfo(arena+hblkhd)
        144709 MiB available memory on the node where the printing process lives
------------------
     ethr =  3.91E-06,  avg # of iterations =  1.0

     total cpu time spent up to now is      171.2 secs

     total energy              =   -2455.88344165 Ry
     estimated scf accuracy    <       0.03482716 Ry

     total magnetization       =     2.00 Bohr mag/cell
     absolute magnetization    =     2.19 Bohr mag/cell

     iteration # 38     ecut=    60.00 Ry     beta= 0.30
     Davidson diagonalization with overlap

---- Real-time Memory Report at c_bands before calling an iterative solver
           225 MiB given to the printing process from OS
             0 MiB allocation reported by mallinfo(arena+hblkhd)
        144709 MiB available memory on the node where the printing process lives
------------------
     ethr =  3.91E-06,  avg # of iterations =  1.0

     total cpu time spent up to now is      176.2 secs

     total energy              =   -2455.88331773 Ry
     estimated scf accuracy    <       0.03426995 Ry

     total magnetization       =     2.00 Bohr mag/cell
     absolute magnetization    =     2.19 Bohr mag/cell

     iteration # 39     ecut=    60.00 Ry     beta= 0.30
     Davidson diagonalization with overlap

---- Real-time Memory Report at c_bands before calling an iterative solver
           225 MiB given to the printing process from OS
             0 MiB allocation reported by mallinfo(arena+hblkhd)
        144709 MiB available memory on the node where the printing process lives
------------------
     ethr =  3.91E-06,  avg # of iterations =  1.0

     total cpu time spent up to now is      177.7 secs

     total energy              =   -2455.88345559 Ry
     estimated scf accuracy    <       0.03763075 Ry

     total magnetization       =     2.00 Bohr mag/cell
     absolute magnetization    =     2.20 Bohr mag/cell

     iteration # 40     ecut=    60.00 Ry     beta= 0.30
     Davidson diagonalization with overlap

---- Real-time Memory Report at c_bands before calling an iterative solver
           225 MiB given to the printing process from OS
             0 MiB allocation reported by mallinfo(arena+hblkhd)
        144709 MiB available memory on the node where the printing process lives
------------------
     ethr =  3.91E-06,  avg # of iterations =  1.0

     total cpu time spent up to now is      179.2 secs

     total energy              =   -2455.88344045 Ry
     estimated scf accuracy    <       0.03746289 Ry

     total magnetization       =     2.00 Bohr mag/cell
     absolute magnetization    =     2.20 Bohr mag/cell

     iteration # 41     ecut=    60.00 Ry     beta= 0.30
     Davidson diagonalization with overlap

---- Real-time Memory Report at c_bands before calling an iterative solver
           225 MiB given to the printing process from OS
             0 MiB allocation reported by mallinfo(arena+hblkhd)
        144709 MiB available memory on the node where the printing process lives
------------------
     ethr =  3.91E-06,  avg # of iterations =  1.0

     total cpu time spent up to now is      180.8 secs

     total energy              =   -2455.88342432 Ry
     estimated scf accuracy    <       0.03733724 Ry

     total magnetization       =     2.00 Bohr mag/cell
     absolute magnetization    =     2.20 Bohr mag/cell

     iteration # 42     ecut=    60.00 Ry     beta= 0.30
     Davidson diagonalization with overlap

---- Real-time Memory Report at c_bands before calling an iterative solver
           225 MiB given to the printing process from OS
             0 MiB allocation reported by mallinfo(arena+hblkhd)
        144709 MiB available memory on the node where the printing process lives
------------------
     ethr =  3.91E-06,  avg # of iterations =  1.0

     total cpu time spent up to now is      191.9 secs

     total energy              =   -2455.88338317 Ry
     estimated scf accuracy    <       0.03712440 Ry

     total magnetization       =     2.00 Bohr mag/cell
     absolute magnetization    =     2.20 Bohr mag/cell

     iteration # 43     ecut=    60.00 Ry     beta= 0.30
     Davidson diagonalization with overlap

---- Real-time Memory Report at c_bands before calling an iterative solver
           225 MiB given to the printing process from OS
             0 MiB allocation reported by mallinfo(arena+hblkhd)
        144709 MiB available memory on the node where the printing process lives
------------------
     ethr =  3.91E-06,  avg # of iterations =  1.0

     total cpu time spent up to now is      194.3 secs

     total energy              =   -2455.88340795 Ry
     estimated scf accuracy    <       0.03441112 Ry

     total magnetization       =     2.00 Bohr mag/cell
     absolute magnetization    =     2.19 Bohr mag/cell

     iteration # 44     ecut=    60.00 Ry     beta= 0.30
     Davidson diagonalization with overlap

---- Real-time Memory Report at c_bands before calling an iterative solver
           225 MiB given to the printing process from OS
             0 MiB allocation reported by mallinfo(arena+hblkhd)
        144709 MiB available memory on the node where the printing process lives
------------------
     ethr =  3.91E-06,  avg # of iterations =  1.0

     total cpu time spent up to now is      197.2 secs

     total energy              =   -2455.88338740 Ry
     estimated scf accuracy    <       0.03441276 Ry

     total magnetization       =     2.00 Bohr mag/cell
     absolute magnetization    =     2.20 Bohr mag/cell

     iteration # 45     ecut=    60.00 Ry     beta= 0.30
     Davidson diagonalization with overlap

---- Real-time Memory Report at c_bands before calling an iterative solver
           225 MiB given to the printing process from OS
             0 MiB allocation reported by mallinfo(arena+hblkhd)
        144709 MiB available memory on the node where the printing process lives
------------------
     ethr =  3.91E-06,  avg # of iterations =  1.0

     total cpu time spent up to now is      221.4 secs

     total energy              =   -2455.88339999 Ry
     estimated scf accuracy    <       0.03686380 Ry

     total magnetization       =     2.00 Bohr mag/cell
     absolute magnetization    =     2.20 Bohr mag/cell

     iteration # 46     ecut=    60.00 Ry     beta= 0.30
     Davidson diagonalization with overlap

---- Real-time Memory Report at c_bands before calling an iterative solver
           225 MiB given to the printing process from OS
             0 MiB allocation reported by mallinfo(arena+hblkhd)
        144709 MiB available memory on the node where the printing process lives
------------------
     ethr =  3.91E-06,  avg # of iterations =  1.0

     total cpu time spent up to now is      223.0 secs

     total energy              =   -2455.88340692 Ry
     estimated scf accuracy    <       0.03669745 Ry

     total magnetization       =     2.00 Bohr mag/cell
     absolute magnetization    =     2.20 Bohr mag/cell

     iteration # 47     ecut=    60.00 Ry     beta= 0.30
     Davidson diagonalization with overlap

---- Real-time Memory Report at c_bands before calling an iterative solver
           225 MiB given to the printing process from OS
             0 MiB allocation reported by mallinfo(arena+hblkhd)
        144709 MiB available memory on the node where the printing process lives
------------------
     ethr =  3.91E-06,  avg # of iterations =  1.0

     total cpu time spent up to now is      227.4 secs

     total energy              =   -2455.88339936 Ry
     estimated scf accuracy    <       0.03677286 Ry

     total magnetization       =     2.00 Bohr mag/cell
     absolute magnetization    =     2.20 Bohr mag/cell

     iteration # 48     ecut=    60.00 Ry     beta= 0.30
     Davidson diagonalization with overlap

---- Real-time Memory Report at c_bands before calling an iterative solver
           225 MiB given to the printing process from OS
             0 MiB allocation reported by mallinfo(arena+hblkhd)
        144709 MiB available memory on the node where the printing process lives
------------------
     ethr =  3.91E-06,  avg # of iterations =  1.0

     total cpu time spent up to now is      259.8 secs

     total energy              =   -2455.88339312 Ry
     estimated scf accuracy    <       0.03635952 Ry

     total magnetization       =     2.00 Bohr mag/cell
     absolute magnetization    =     2.19 Bohr mag/cell

     iteration # 49     ecut=    60.00 Ry     beta= 0.30
     Davidson diagonalization with overlap

---- Real-time Memory Report at c_bands before calling an iterative solver
           225 MiB given to the printing process from OS
             0 MiB allocation reported by mallinfo(arena+hblkhd)
        144708 MiB available memory on the node where the printing process lives
------------------
     ethr =  3.91E-06,  avg # of iterations =  1.0

     total cpu time spent up to now is      262.5 secs

     total energy              =   -2455.88339730 Ry
     estimated scf accuracy    <       0.03457299 Ry

     total magnetization       =     2.00 Bohr mag/cell
     absolute magnetization    =     2.19 Bohr mag/cell

     iteration # 50     ecut=    60.00 Ry     beta= 0.30
     Davidson diagonalization with overlap

---- Real-time Memory Report at c_bands before calling an iterative solver
           225 MiB given to the printing process from OS
             0 MiB allocation reported by mallinfo(arena+hblkhd)
        144709 MiB available memory on the node where the printing process lives
------------------
     ethr =  3.91E-06,  avg # of iterations =  1.0

     total cpu time spent up to now is      268.5 secs

     total energy              =   -2455.88339862 Ry
     estimated scf accuracy    <       0.03474086 Ry

     total magnetization       =     2.00 Bohr mag/cell
     absolute magnetization    =     2.20 Bohr mag/cell

     iteration # 51     ecut=    60.00 Ry     beta= 0.30
     Davidson diagonalization with overlap

---- Real-time Memory Report at c_bands before calling an iterative solver
           225 MiB given to the printing process from OS
             0 MiB allocation reported by mallinfo(arena+hblkhd)
        144708 MiB available memory on the node where the printing process lives
------------------
     ethr =  3.91E-06,  avg # of iterations =  1.0

     total cpu time spent up to now is      272.1 secs

     total energy              =   -2455.88340063 Ry
     estimated scf accuracy    <       0.03454163 Ry

     total magnetization       =     2.00 Bohr mag/cell
     absolute magnetization    =     2.19 Bohr mag/cell

     iteration # 52     ecut=    60.00 Ry     beta= 0.30
     Davidson diagonalization with overlap

---- Real-time Memory Report at c_bands before calling an iterative solver
           225 MiB given to the printing process from OS
             0 MiB allocation reported by mallinfo(arena+hblkhd)
        144708 MiB available memory on the node where the printing process lives
------------------
     ethr =  3.91E-06,  avg # of iterations =  1.0

     total cpu time spent up to now is      283.3 secs

     total energy              =   -2455.88339706 Ry
     estimated scf accuracy    <       0.03462040 Ry

     total magnetization       =     2.00 Bohr mag/cell
     absolute magnetization    =     2.19 Bohr mag/cell

     iteration # 53     ecut=    60.00 Ry     beta= 0.30
     Davidson diagonalization with overlap

---- Real-time Memory Report at c_bands before calling an iterative solver
           225 MiB given to the printing process from OS
             0 MiB allocation reported by mallinfo(arena+hblkhd)
        144709 MiB available memory on the node where the printing process lives
------------------
     ethr =  3.91E-06,  avg # of iterations =  1.0

     total cpu time spent up to now is      284.6 secs

     total energy              =   -2455.88339907 Ry
     estimated scf accuracy    <       0.03472188 Ry

     total magnetization       =     2.00 Bohr mag/cell
     absolute magnetization    =     2.20 Bohr mag/cell

     iteration # 54     ecut=    60.00 Ry     beta= 0.30
     Davidson diagonalization with overlap

---- Real-time Memory Report at c_bands before calling an iterative solver
           225 MiB given to the printing process from OS
             0 MiB allocation reported by mallinfo(arena+hblkhd)
        144709 MiB available memory on the node where the printing process lives
------------------
     ethr =  3.91E-06,  avg # of iterations =  1.0

     total cpu time spent up to now is      287.5 secs

     total energy              =   -2455.88339478 Ry
     estimated scf accuracy    <       0.03462681 Ry

     total magnetization       =     2.00 Bohr mag/cell
     absolute magnetization    =     2.19 Bohr mag/cell

     iteration # 55     ecut=    60.00 Ry     beta= 0.30
     Davidson diagonalization with overlap

---- Real-time Memory Report at c_bands before calling an iterative solver
           225 MiB given to the printing process from OS
             0 MiB allocation reported by mallinfo(arena+hblkhd)
        144709 MiB available memory on the node where the printing process lives
------------------
     ethr =  3.91E-06,  avg # of iterations =  1.0

     total cpu time spent up to now is      303.2 secs

     total energy              =   -2455.88340010 Ry
     estimated scf accuracy    <       0.03616125 Ry

     total magnetization       =     2.00 Bohr mag/cell
     absolute magnetization    =     2.20 Bohr mag/cell

     iteration # 56     ecut=    60.00 Ry     beta= 0.30
     Davidson diagonalization with overlap

---- Real-time Memory Report at c_bands before calling an iterative solver
           225 MiB given to the printing process from OS
             0 MiB allocation reported by mallinfo(arena+hblkhd)
        144709 MiB available memory on the node where the printing process lives
------------------
     ethr =  3.91E-06,  avg # of iterations =  1.0

     total cpu time spent up to now is      305.1 secs

     total energy              =   -2455.88339935 Ry
     estimated scf accuracy    <       0.03614677 Ry

     total magnetization       =     2.00 Bohr mag/cell
     absolute magnetization    =     2.20 Bohr mag/cell

     iteration # 57     ecut=    60.00 Ry     beta= 0.30
     Davidson diagonalization with overlap

---- Real-time Memory Report at c_bands before calling an iterative solver
           225 MiB given to the printing process from OS
             0 MiB allocation reported by mallinfo(arena+hblkhd)
        144708 MiB available memory on the node where the printing process lives
------------------
     ethr =  3.91E-06,  avg # of iterations =  1.0

     total cpu time spent up to now is      309.1 secs

     total energy              =   -2455.88340037 Ry
     estimated scf accuracy    <       0.03584885 Ry

     total magnetization       =     2.00 Bohr mag/cell
     absolute magnetization    =     2.20 Bohr mag/cell

     iteration # 58     ecut=    60.00 Ry     beta= 0.30
     Davidson diagonalization with overlap

---- Real-time Memory Report at c_bands before calling an iterative solver
           225 MiB given to the printing process from OS
             0 MiB allocation reported by mallinfo(arena+hblkhd)
        144707 MiB available memory on the node where the printing process lives
------------------
     ethr =  3.91E-06,  avg # of iterations =  1.0

     total cpu time spent up to now is      317.2 secs

     total energy              =   -2455.88340101 Ry
     estimated scf accuracy    <       0.03533362 Ry

     total magnetization       =     2.00 Bohr mag/cell
     absolute magnetization    =     2.20 Bohr mag/cell

     iteration # 59     ecut=    60.00 Ry     beta= 0.30
     Davidson diagonalization with overlap

---- Real-time Memory Report at c_bands before calling an iterative solver
           225 MiB given to the printing process from OS
             0 MiB allocation reported by mallinfo(arena+hblkhd)
        144707 MiB available memory on the node where the printing process lives
------------------
     ethr =  3.91E-06,  avg # of iterations =  1.0

     total cpu time spent up to now is      318.9 secs

     total energy              =   -2455.88340183 Ry
     estimated scf accuracy    <       0.03549955 Ry

     total magnetization       =     2.00 Bohr mag/cell
     absolute magnetization    =     2.20 Bohr mag/cell

     iteration # 60     ecut=    60.00 Ry     beta= 0.30
     Davidson diagonalization with overlap

---- Real-time Memory Report at c_bands before calling an iterative solver
           225 MiB given to the printing process from OS
             0 MiB allocation reported by mallinfo(arena+hblkhd)
        144707 MiB available memory on the node where the printing process lives
------------------
     ethr =  3.91E-06,  avg # of iterations =  1.0

     total cpu time spent up to now is      328.6 secs

     total energy              =   -2455.88340261 Ry
     estimated scf accuracy    <       0.03529756 Ry

     total magnetization       =     2.00 Bohr mag/cell
     absolute magnetization    =     2.20 Bohr mag/cell

     iteration # 61     ecut=    60.00 Ry     beta= 0.30
     Davidson diagonalization with overlap

---- Real-time Memory Report at c_bands before calling an iterative solver
           225 MiB given to the printing process from OS
             0 MiB allocation reported by mallinfo(arena+hblkhd)
        144707 MiB available memory on the node where the printing process lives
------------------
     ethr =  3.91E-06,  avg # of iterations =  1.0

     total cpu time spent up to now is      331.3 secs

     total energy              =   -2455.88340489 Ry
     estimated scf accuracy    <       0.03514902 Ry

     total magnetization       =     2.00 Bohr mag/cell
     absolute magnetization    =     2.20 Bohr mag/cell

     iteration # 62     ecut=    60.00 Ry     beta= 0.30
     Davidson diagonalization with overlap

---- Real-time Memory Report at c_bands before calling an iterative solver
           225 MiB given to the printing process from OS
             0 MiB allocation reported by mallinfo(arena+hblkhd)
        144708 MiB available memory on the node where the printing process lives
------------------
     ethr =  3.91E-06,  avg # of iterations =  1.0

     total cpu time spent up to now is      334.2 secs

     total energy              =   -2455.88340213 Ry
     estimated scf accuracy    <       0.03536127 Ry

     total magnetization       =     2.00 Bohr mag/cell
     absolute magnetization    =     2.20 Bohr mag/cell

     iteration # 63     ecut=    60.00 Ry     beta= 0.30
     Davidson diagonalization with overlap

---- Real-time Memory Report at c_bands before calling an iterative solver
           225 MiB given to the printing process from OS
             0 MiB allocation reported by mallinfo(arena+hblkhd)
        144708 MiB available memory on the node where the printing process lives
------------------
     ethr =  3.91E-06,  avg # of iterations =  1.0

     total cpu time spent up to now is      339.9 secs

     total energy              =   -2455.88340525 Ry
     estimated scf accuracy    <       0.03566659 Ry

     total magnetization       =     2.00 Bohr mag/cell
     absolute magnetization    =     2.20 Bohr mag/cell

     iteration # 64     ecut=    60.00 Ry     beta= 0.30
     Davidson diagonalization with overlap

---- Real-time Memory Report at c_bands before calling an iterative solver
           225 MiB given to the printing process from OS
             0 MiB allocation reported by mallinfo(arena+hblkhd)
        144708 MiB available memory on the node where the printing process lives
------------------
     ethr =  3.91E-06,  avg # of iterations =  1.0

     total cpu time spent up to now is      342.5 secs

     total energy              =   -2455.88340506 Ry
     estimated scf accuracy    <       0.03565852 Ry

     total magnetization       =     2.00 Bohr mag/cell
     absolute magnetization    =     2.20 Bohr mag/cell

     iteration # 65     ecut=    60.00 Ry     beta= 0.30
     Davidson diagonalization with overlap

---- Real-time Memory Report at c_bands before calling an iterative solver
           225 MiB given to the printing process from OS
             0 MiB allocation reported by mallinfo(arena+hblkhd)
        144708 MiB available memory on the node where the printing process lives
------------------
     ethr =  3.91E-06,  avg # of iterations =  1.0

     total cpu time spent up to now is      344.1 secs

     total energy              =   -2455.88338733 Ry
     estimated scf accuracy    <       0.03567728 Ry

     total magnetization       =     2.00 Bohr mag/cell
     absolute magnetization    =     2.20 Bohr mag/cell

     iteration # 66     ecut=    60.00 Ry     beta= 0.30
     Davidson diagonalization with overlap

---- Real-time Memory Report at c_bands before calling an iterative solver
           225 MiB given to the printing process from OS
             0 MiB allocation reported by mallinfo(arena+hblkhd)
        144708 MiB available memory on the node where the printing process lives
------------------
     ethr =  3.91E-06,  avg # of iterations =  1.0

     total cpu time spent up to now is      346.0 secs

     total energy              =   -2455.88339126 Ry
     estimated scf accuracy    <       0.03415602 Ry

     total magnetization       =     2.00 Bohr mag/cell
     absolute magnetization    =     2.20 Bohr mag/cell

     iteration # 67     ecut=    60.00 Ry     beta= 0.30
     Davidson diagonalization with overlap

---- Real-time Memory Report at c_bands before calling an iterative solver
           225 MiB given to the printing process from OS
             0 MiB allocation reported by mallinfo(arena+hblkhd)
        144708 MiB available memory on the node where the printing process lives
------------------
     ethr =  3.91E-06,  avg # of iterations =  1.0

     total cpu time spent up to now is      347.6 secs

     total energy              =   -2455.88339176 Ry
     estimated scf accuracy    <       0.03553176 Ry

     total magnetization       =     2.00 Bohr mag/cell
     absolute magnetization    =     2.20 Bohr mag/cell

     iteration # 68     ecut=    60.00 Ry     beta= 0.30
     Davidson diagonalization with overlap

---- Real-time Memory Report at c_bands before calling an iterative solver
           225 MiB given to the printing process from OS
             0 MiB allocation reported by mallinfo(arena+hblkhd)
        144708 MiB available memory on the node where the printing process lives
------------------
     ethr =  3.91E-06,  avg # of iterations =  1.0

     total cpu time spent up to now is      353.4 secs

     total energy              =   -2455.88338870 Ry
     estimated scf accuracy    <       0.03600093 Ry

     total magnetization       =     2.00 Bohr mag/cell
     absolute magnetization    =     2.20 Bohr mag/cell

     iteration # 69     ecut=    60.00 Ry     beta= 0.30
     Davidson diagonalization with overlap

---- Real-time Memory Report at c_bands before calling an iterative solver
           225 MiB given to the printing process from OS
             0 MiB allocation reported by mallinfo(arena+hblkhd)
        144707 MiB available memory on the node where the printing process lives
------------------
     ethr =  3.91E-06,  avg # of iterations =  1.0

     total cpu time spent up to now is      354.6 secs

     total energy              =   -2455.88340119 Ry
     estimated scf accuracy    <       0.03559853 Ry

     total magnetization       =     2.00 Bohr mag/cell
     absolute magnetization    =     2.20 Bohr mag/cell

     iteration # 70     ecut=    60.00 Ry     beta= 0.30
     Davidson diagonalization with overlap

---- Real-time Memory Report at c_bands before calling an iterative solver
           225 MiB given to the printing process from OS
             0 MiB allocation reported by mallinfo(arena+hblkhd)
        144707 MiB available memory on the node where the printing process lives
------------------
     ethr =  3.91E-06,  avg # of iterations =  1.0

     total cpu time spent up to now is      356.2 secs

     total energy              =   -2455.88340049 Ry
     estimated scf accuracy    <       0.03562141 Ry

     total magnetization       =     2.00 Bohr mag/cell
     absolute magnetization    =     2.20 Bohr mag/cell

     iteration # 71     ecut=    60.00 Ry     beta= 0.30
     Davidson diagonalization with overlap

---- Real-time Memory Report at c_bands before calling an iterative solver
           225 MiB given to the printing process from OS
             0 MiB allocation reported by mallinfo(arena+hblkhd)
        144707 MiB available memory on the node where the printing process lives
------------------
     ethr =  3.91E-06,  avg # of iterations =  1.0

     total cpu time spent up to now is      377.1 secs

     total energy              =   -2455.88339964 Ry
     estimated scf accuracy    <       0.03547553 Ry

     total magnetization       =     2.00 Bohr mag/cell
     absolute magnetization    =     2.20 Bohr mag/cell

     iteration # 72     ecut=    60.00 Ry     beta= 0.30
     Davidson diagonalization with overlap

---- Real-time Memory Report at c_bands before calling an iterative solver
           225 MiB given to the printing process from OS
             0 MiB allocation reported by mallinfo(arena+hblkhd)
        144707 MiB available memory on the node where the printing process lives
------------------
     ethr =  3.91E-06,  avg # of iterations =  1.0

     total cpu time spent up to now is      380.9 secs

     total energy              =   -2455.88340000 Ry
     estimated scf accuracy    <       0.03548328 Ry

     total magnetization       =     2.00 Bohr mag/cell
     absolute magnetization    =     2.20 Bohr mag/cell

     iteration # 73     ecut=    60.00 Ry     beta= 0.30
     Davidson diagonalization with overlap

---- Real-time Memory Report at c_bands before calling an iterative solver
           225 MiB given to the printing process from OS
             0 MiB allocation reported by mallinfo(arena+hblkhd)
        144707 MiB available memory on the node where the printing process lives
------------------
     ethr =  3.91E-06,  avg # of iterations =  1.0

     total cpu time spent up to now is      383.4 secs

     total energy              =   -2455.88339942 Ry
     estimated scf accuracy    <       0.03555187 Ry

     total magnetization       =     2.00 Bohr mag/cell
     absolute magnetization    =     2.20 Bohr mag/cell

     iteration # 74     ecut=    60.00 Ry     beta= 0.30
     Davidson diagonalization with overlap

---- Real-time Memory Report at c_bands before calling an iterative solver
           225 MiB given to the printing process from OS
             0 MiB allocation reported by mallinfo(arena+hblkhd)
        144707 MiB available memory on the node where the printing process lives
------------------
     ethr =  3.91E-06,  avg # of iterations =  1.0

     total cpu time spent up to now is      385.5 secs

     total energy              =   -2455.88339830 Ry
     estimated scf accuracy    <       0.03555070 Ry

     total magnetization       =     2.00 Bohr mag/cell
     absolute magnetization    =     2.20 Bohr mag/cell

     iteration # 75     ecut=    60.00 Ry     beta= 0.30
     Davidson diagonalization with overlap

---- Real-time Memory Report at c_bands before calling an iterative solver
           225 MiB given to the printing process from OS
             0 MiB allocation reported by mallinfo(arena+hblkhd)
        144707 MiB available memory on the node where the printing process lives
------------------
     ethr =  3.91E-06,  avg # of iterations =  1.0

     total cpu time spent up to now is      388.1 secs

     total energy              =   -2455.88339858 Ry
     estimated scf accuracy    <       0.03557641 Ry

     total magnetization       =     2.00 Bohr mag/cell
     absolute magnetization    =     2.20 Bohr mag/cell

     iteration # 76     ecut=    60.00 Ry     beta= 0.30
     Davidson diagonalization with overlap

---- Real-time Memory Report at c_bands before calling an iterative solver
           225 MiB given to the printing process from OS
             0 MiB allocation reported by mallinfo(arena+hblkhd)
        144707 MiB available memory on the node where the printing process lives
------------------
     ethr =  3.91E-06,  avg # of iterations =  1.0

     total cpu time spent up to now is      396.5 secs

     total energy              =   -2455.88339981 Ry
     estimated scf accuracy    <       0.03558793 Ry

     total magnetization       =     2.00 Bohr mag/cell
     absolute magnetization    =     2.20 Bohr mag/cell

     iteration # 77     ecut=    60.00 Ry     beta= 0.30
     Davidson diagonalization with overlap

---- Real-time Memory Report at c_bands before calling an iterative solver
           225 MiB given to the printing process from OS
             0 MiB allocation reported by mallinfo(arena+hblkhd)
        144708 MiB available memory on the node where the printing process lives
------------------
     ethr =  3.91E-06,  avg # of iterations =  1.0

     total cpu time spent up to now is      402.3 secs

     total energy              =   -2455.88353809 Ry
     estimated scf accuracy    <       0.03560958 Ry

     total magnetization       =     2.00 Bohr mag/cell
     absolute magnetization    =     2.20 Bohr mag/cell

     iteration # 78     ecut=    60.00 Ry     beta= 0.30
     Davidson diagonalization with overlap

---- Real-time Memory Report at c_bands before calling an iterative solver
           225 MiB given to the printing process from OS
             0 MiB allocation reported by mallinfo(arena+hblkhd)
        144708 MiB available memory on the node where the printing process lives
------------------
     ethr =  3.91E-06,  avg # of iterations =  2.5

     total cpu time spent up to now is      406.7 secs

     total energy              =   -2455.88338960 Ry
     estimated scf accuracy    <       0.04079986 Ry

     total magnetization       =     2.00 Bohr mag/cell
     absolute magnetization    =     2.19 Bohr mag/cell

     iteration # 79     ecut=    60.00 Ry     beta= 0.30
     Davidson diagonalization with overlap

---- Real-time Memory Report at c_bands before calling an iterative solver
           225 MiB given to the printing process from OS
             0 MiB allocation reported by mallinfo(arena+hblkhd)
        144708 MiB available memory on the node where the printing process lives
------------------
     ethr =  3.91E-06,  avg # of iterations =  1.5

     total cpu time spent up to now is      409.9 secs

     total energy              =   -2455.88347546 Ry
     estimated scf accuracy    <       0.03176345 Ry

     total magnetization       =     2.00 Bohr mag/cell
     absolute magnetization    =     2.19 Bohr mag/cell

     iteration # 80     ecut=    60.00 Ry     beta= 0.30
     Davidson diagonalization with overlap

---- Real-time Memory Report at c_bands before calling an iterative solver
           225 MiB given to the printing process from OS
             0 MiB allocation reported by mallinfo(arena+hblkhd)
        144708 MiB available memory on the node where the printing process lives
------------------
     ethr =  3.68E-06,  avg # of iterations =  1.0

     total cpu time spent up to now is      414.4 secs

     total energy              =   -2455.88366491 Ry
     estimated scf accuracy    <       0.03035736 Ry

     total magnetization       =     2.00 Bohr mag/cell
     absolute magnetization    =     2.19 Bohr mag/cell

     iteration # 81     ecut=    60.00 Ry     beta= 0.30
     Davidson diagonalization with overlap

---- Real-time Memory Report at c_bands before calling an iterative solver
           225 MiB given to the printing process from OS
             0 MiB allocation reported by mallinfo(arena+hblkhd)
        144708 MiB available memory on the node where the printing process lives
------------------
     ethr =  3.52E-06,  avg # of iterations =  1.5

     total cpu time spent up to now is      417.1 secs

     total energy              =   -2455.88364962 Ry
     estimated scf accuracy    <       0.03670412 Ry

     total magnetization       =     2.00 Bohr mag/cell
     absolute magnetization    =     2.20 Bohr mag/cell

     iteration # 82     ecut=    60.00 Ry     beta= 0.30
     Davidson diagonalization with overlap

---- Real-time Memory Report at c_bands before calling an iterative solver
           225 MiB given to the printing process from OS
             0 MiB allocation reported by mallinfo(arena+hblkhd)
        144707 MiB available memory on the node where the printing process lives
------------------
     ethr =  3.52E-06,  avg # of iterations =  1.0

     total cpu time spent up to now is      421.1 secs

     total energy              =   -2455.88353922 Ry
     estimated scf accuracy    <       0.03588790 Ry

     total magnetization       =     2.00 Bohr mag/cell
     absolute magnetization    =     2.20 Bohr mag/cell

     iteration # 83     ecut=    60.00 Ry     beta= 0.30
     Davidson diagonalization with overlap

---- Real-time Memory Report at c_bands before calling an iterative solver
           225 MiB given to the printing process from OS
             0 MiB allocation reported by mallinfo(arena+hblkhd)
        144707 MiB available memory on the node where the printing process lives
------------------
     ethr =  3.52E-06,  avg # of iterations =  1.0

     total cpu time spent up to now is      426.0 secs

     total energy              =   -2455.88355063 Ry
     estimated scf accuracy    <       0.03489544 Ry

     total magnetization       =     2.00 Bohr mag/cell
     absolute magnetization    =     2.20 Bohr mag/cell

     iteration # 84     ecut=    60.00 Ry     beta= 0.30
     Davidson diagonalization with overlap

---- Real-time Memory Report at c_bands before calling an iterative solver
           225 MiB given to the printing process from OS
             0 MiB allocation reported by mallinfo(arena+hblkhd)
        144708 MiB available memory on the node where the printing process lives
------------------
     ethr =  3.52E-06,  avg # of iterations =  1.0

     total cpu time spent up to now is      428.8 secs

     total energy              =   -2455.88359935 Ry
     estimated scf accuracy    <       0.03470151 Ry

     total magnetization       =     2.00 Bohr mag/cell
     absolute magnetization    =     2.20 Bohr mag/cell

     iteration # 85     ecut=    60.00 Ry     beta= 0.30
     Davidson diagonalization with overlap

---- Real-time Memory Report at c_bands before calling an iterative solver
           225 MiB given to the printing process from OS
             0 MiB allocation reported by mallinfo(arena+hblkhd)
        144708 MiB available memory on the node where the printing process lives
------------------
     ethr =  3.52E-06,  avg # of iterations =  1.0

     total cpu time spent up to now is      432.0 secs

     total energy              =   -2455.88342533 Ry
     estimated scf accuracy    <       0.03593317 Ry

     total magnetization       =     2.00 Bohr mag/cell
     absolute magnetization    =     2.20 Bohr mag/cell

     iteration # 86     ecut=    60.00 Ry     beta= 0.30
     Davidson diagonalization with overlap

---- Real-time Memory Report at c_bands before calling an iterative solver
           225 MiB given to the printing process from OS
             0 MiB allocation reported by mallinfo(arena+hblkhd)
        144708 MiB available memory on the node where the printing process lives
------------------
     ethr =  3.52E-06,  avg # of iterations =  1.0

     total cpu time spent up to now is      434.2 secs

     total energy              =   -2455.88338862 Ry
     estimated scf accuracy    <       0.03536880 Ry

     total magnetization       =     2.00 Bohr mag/cell
     absolute magnetization    =     2.20 Bohr mag/cell

     iteration # 87     ecut=    60.00 Ry     beta= 0.30
     Davidson diagonalization with overlap

---- Real-time Memory Report at c_bands before calling an iterative solver
           225 MiB given to the printing process from OS
             0 MiB allocation reported by mallinfo(arena+hblkhd)
        144707 MiB available memory on the node where the printing process lives
------------------
     ethr =  3.52E-06,  avg # of iterations =  1.0

     total cpu time spent up to now is      438.3 secs

     total energy              =   -2455.88323693 Ry
     estimated scf accuracy    <       0.03526442 Ry

     total magnetization       =     2.00 Bohr mag/cell
     absolute magnetization    =     2.20 Bohr mag/cell

     iteration # 88     ecut=    60.00 Ry     beta= 0.30
     Davidson diagonalization with overlap

---- Real-time Memory Report at c_bands before calling an iterative solver
           225 MiB given to the printing process from OS
             0 MiB allocation reported by mallinfo(arena+hblkhd)
        144708 MiB available memory on the node where the printing process lives
------------------
     ethr =  3.52E-06,  avg # of iterations =  1.0

     total cpu time spent up to now is      447.8 secs

     total energy              =   -2455.88363178 Ry
     estimated scf accuracy    <       0.03712075 Ry

     total magnetization       =     2.00 Bohr mag/cell
     absolute magnetization    =     2.20 Bohr mag/cell

     iteration # 89     ecut=    60.00 Ry     beta= 0.30
     Davidson diagonalization with overlap

---- Real-time Memory Report at c_bands before calling an iterative solver
           225 MiB given to the printing process from OS
             0 MiB allocation reported by mallinfo(arena+hblkhd)
        144707 MiB available memory on the node where the printing process lives
------------------
     ethr =  3.52E-06,  avg # of iterations =  1.0

     total cpu time spent up to now is      454.3 secs

     total energy              =   -2455.88364797 Ry
     estimated scf accuracy    <       0.03777113 Ry

     total magnetization       =     2.00 Bohr mag/cell
     absolute magnetization    =     2.20 Bohr mag/cell

     iteration # 90     ecut=    60.00 Ry     beta= 0.30
     Davidson diagonalization with overlap

---- Real-time Memory Report at c_bands before calling an iterative solver
           225 MiB given to the printing process from OS
             0 MiB allocation reported by mallinfo(arena+hblkhd)
        144707 MiB available memory on the node where the printing process lives
------------------
     ethr =  3.52E-06,  avg # of iterations =  1.0

     total cpu time spent up to now is      458.7 secs

     total energy              =   -2455.88360665 Ry
     estimated scf accuracy    <       0.03825480 Ry

     total magnetization       =     2.00 Bohr mag/cell
     absolute magnetization    =     2.20 Bohr mag/cell

     iteration # 91     ecut=    60.00 Ry     beta= 0.30
     Davidson diagonalization with overlap

---- Real-time Memory Report at c_bands before calling an iterative solver
           225 MiB given to the printing process from OS
             0 MiB allocation reported by mallinfo(arena+hblkhd)
        144708 MiB available memory on the node where the printing process lives
------------------
     ethr =  3.52E-06,  avg # of iterations =  1.0

     total cpu time spent up to now is      466.9 secs

     total energy              =   -2455.88358571 Ry
     estimated scf accuracy    <       0.03870656 Ry

     total magnetization       =     2.00 Bohr mag/cell
     absolute magnetization    =     2.20 Bohr mag/cell

     iteration # 92     ecut=    60.00 Ry     beta= 0.30
     Davidson diagonalization with overlap

---- Real-time Memory Report at c_bands before calling an iterative solver
           225 MiB given to the printing process from OS
             0 MiB allocation reported by mallinfo(arena+hblkhd)
        144707 MiB available memory on the node where the printing process lives
------------------
     ethr =  3.52E-06,  avg # of iterations =  1.0

     total cpu time spent up to now is      468.0 secs

     total energy              =   -2455.88361295 Ry
     estimated scf accuracy    <       0.03861367 Ry

     total magnetization       =     2.00 Bohr mag/cell
     absolute magnetization    =     2.20 Bohr mag/cell

     iteration # 93     ecut=    60.00 Ry     beta= 0.30
     Davidson diagonalization with overlap

---- Real-time Memory Report at c_bands before calling an iterative solver
           225 MiB given to the printing process from OS
             0 MiB allocation reported by mallinfo(arena+hblkhd)
        144707 MiB available memory on the node where the printing process lives
------------------
     ethr =  3.52E-06,  avg # of iterations =  1.0

     total cpu time spent up to now is      470.7 secs

     total energy              =   -2455.88364847 Ry
     estimated scf accuracy    <       0.03898690 Ry

     total magnetization       =     2.00 Bohr mag/cell
     absolute magnetization    =     2.20 Bohr mag/cell

     iteration # 94     ecut=    60.00 Ry     beta= 0.30
     Davidson diagonalization with overlap

---- Real-time Memory Report at c_bands before calling an iterative solver
           225 MiB given to the printing process from OS
             0 MiB allocation reported by mallinfo(arena+hblkhd)
        144705 MiB available memory on the node where the printing process lives
------------------
     ethr =  3.52E-06,  avg # of iterations =  1.0

     total cpu time spent up to now is      477.2 secs

     total energy              =   -2455.88352429 Ry
     estimated scf accuracy    <       0.03858006 Ry

     total magnetization       =     2.00 Bohr mag/cell
     absolute magnetization    =     2.20 Bohr mag/cell

     iteration # 95     ecut=    60.00 Ry     beta= 0.30
     Davidson diagonalization with overlap

---- Real-time Memory Report at c_bands before calling an iterative solver
           225 MiB given to the printing process from OS
             0 MiB allocation reported by mallinfo(arena+hblkhd)
        144707 MiB available memory on the node where the printing process lives
------------------
     ethr =  3.52E-06,  avg # of iterations =  1.0

     total cpu time spent up to now is      480.1 secs

     total energy              =   -2455.88370963 Ry
     estimated scf accuracy    <       0.03809892 Ry

     total magnetization       =     2.00 Bohr mag/cell
     absolute magnetization    =     2.20 Bohr mag/cell

     iteration # 96     ecut=    60.00 Ry     beta= 0.30
     Davidson diagonalization with overlap

---- Real-time Memory Report at c_bands before calling an iterative solver
           225 MiB given to the printing process from OS
             0 MiB allocation reported by mallinfo(arena+hblkhd)
        144707 MiB available memory on the node where the printing process lives
------------------
     ethr =  3.52E-06,  avg # of iterations =  1.0

     total cpu time spent up to now is      487.2 secs

     total energy              =   -2455.87694505 Ry
     estimated scf accuracy    <       0.03918088 Ry

     total magnetization       =     2.00 Bohr mag/cell
     absolute magnetization    =     2.20 Bohr mag/cell

     iteration # 97     ecut=    60.00 Ry     beta= 0.30
     Davidson diagonalization with overlap

---- Real-time Memory Report at c_bands before calling an iterative solver
           225 MiB given to the printing process from OS
             0 MiB allocation reported by mallinfo(arena+hblkhd)
        144707 MiB available memory on the node where the printing process lives
------------------
     ethr =  3.52E-06,  avg # of iterations =  7.0

     total cpu time spent up to now is      491.4 secs

     total energy              =   -2455.88863830 Ry
     estimated scf accuracy    <       0.09355963 Ry

     total magnetization       =     2.00 Bohr mag/cell
     absolute magnetization    =     2.19 Bohr mag/cell

     iteration # 98     ecut=    60.00 Ry     beta= 0.30
     Davidson diagonalization with overlap

---- Real-time Memory Report at c_bands before calling an iterative solver
           225 MiB given to the printing process from OS
             0 MiB allocation reported by mallinfo(arena+hblkhd)
        144707 MiB available memory on the node where the printing process lives
------------------
     ethr =  3.52E-06,  avg # of iterations =  3.5

     total cpu time spent up to now is      495.8 secs

     total energy              =   -2455.88272087 Ry
     estimated scf accuracy    <       0.08320967 Ry

     total magnetization       =     2.00 Bohr mag/cell
     absolute magnetization    =     2.19 Bohr mag/cell

     iteration # 99     ecut=    60.00 Ry     beta= 0.30
     Davidson diagonalization with overlap

---- Real-time Memory Report at c_bands before calling an iterative solver
           225 MiB given to the printing process from OS
             0 MiB allocation reported by mallinfo(arena+hblkhd)
        144707 MiB available memory on the node where the printing process lives
------------------
     ethr =  3.52E-06,  avg # of iterations =  5.0

     total cpu time spent up to now is      503.0 secs

     total energy              =   -2455.88311523 Ry
     estimated scf accuracy    <       0.05102309 Ry

     total magnetization       =     2.00 Bohr mag/cell
     absolute magnetization    =     2.19 Bohr mag/cell

     iteration #100     ecut=    60.00 Ry     beta= 0.30
     Davidson diagonalization with overlap

---- Real-time Memory Report at c_bands before calling an iterative solver
           225 MiB given to the printing process from OS
             0 MiB allocation reported by mallinfo(arena+hblkhd)
        144708 MiB available memory on the node where the printing process lives
------------------
     ethr =  3.52E-06,  avg # of iterations =  2.0

     total cpu time spent up to now is      506.1 secs

     total energy              =   -2455.88336890 Ry
     estimated scf accuracy    <       0.03631053 Ry

     total magnetization       =     2.00 Bohr mag/cell
     absolute magnetization    =     2.19 Bohr mag/cell

     iteration #101     ecut=    60.00 Ry     beta= 0.30
     Davidson diagonalization with overlap

---- Real-time Memory Report at c_bands before calling an iterative solver
           225 MiB given to the printing process from OS
             0 MiB allocation reported by mallinfo(arena+hblkhd)
        144707 MiB available memory on the node where the printing process lives
------------------
     ethr =  3.52E-06,  avg # of iterations =  1.5

     total cpu time spent up to now is      509.9 secs

     total energy              =   -2455.88329783 Ry
     estimated scf accuracy    <       0.03922201 Ry

     total magnetization       =     2.00 Bohr mag/cell
     absolute magnetization    =     2.20 Bohr mag/cell

     iteration #102     ecut=    60.00 Ry     beta= 0.30
     Davidson diagonalization with overlap

---- Real-time Memory Report at c_bands before calling an iterative solver
           225 MiB given to the printing process from OS
             0 MiB allocation reported by mallinfo(arena+hblkhd)
        144707 MiB available memory on the node where the printing process lives
------------------
     ethr =  3.52E-06,  avg # of iterations =  1.5

     total cpu time spent up to now is      527.8 secs

     total energy              =   -2455.88310882 Ry
     estimated scf accuracy    <       0.03527283 Ry

     total magnetization       =     2.00 Bohr mag/cell
     absolute magnetization    =     2.19 Bohr mag/cell

     iteration #103     ecut=    60.00 Ry     beta= 0.30
     Davidson diagonalization with overlap

---- Real-time Memory Report at c_bands before calling an iterative solver
           225 MiB given to the printing process from OS
             0 MiB allocation reported by mallinfo(arena+hblkhd)
        144708 MiB available memory on the node where the printing process lives
------------------
     ethr =  3.52E-06,  avg # of iterations =  1.5

     total cpu time spent up to now is      540.9 secs

     total energy              =   -2455.88340434 Ry
     estimated scf accuracy    <       0.03881813 Ry

     total magnetization       =     2.00 Bohr mag/cell
     absolute magnetization    =     2.20 Bohr mag/cell

     iteration #104     ecut=    60.00 Ry     beta= 0.30
     Davidson diagonalization with overlap

---- Real-time Memory Report at c_bands before calling an iterative solver
           225 MiB given to the printing process from OS
             0 MiB allocation reported by mallinfo(arena+hblkhd)
        144707 MiB available memory on the node where the printing process lives
------------------
     ethr =  3.52E-06,  avg # of iterations =  1.0

     total cpu time spent up to now is      542.6 secs

     total energy              =   -2455.88341195 Ry
     estimated scf accuracy    <       0.03708015 Ry

     total magnetization       =     2.00 Bohr mag/cell
     absolute magnetization    =     2.20 Bohr mag/cell

     iteration #105     ecut=    60.00 Ry     beta= 0.30
     Davidson diagonalization with overlap

---- Real-time Memory Report at c_bands before calling an iterative solver
           225 MiB given to the printing process from OS
             0 MiB allocation reported by mallinfo(arena+hblkhd)
        144707 MiB available memory on the node where the printing process lives
------------------
     ethr =  3.52E-06,  avg # of iterations =  1.0

     total cpu time spent up to now is      543.8 secs

     total energy              =   -2455.88331314 Ry
     estimated scf accuracy    <       0.03673805 Ry

     total magnetization       =     2.00 Bohr mag/cell
     absolute magnetization    =     2.20 Bohr mag/cell

     iteration #106     ecut=    60.00 Ry     beta= 0.30
     Davidson diagonalization with overlap

---- Real-time Memory Report at c_bands before calling an iterative solver
           225 MiB given to the printing process from OS
             0 MiB allocation reported by mallinfo(arena+hblkhd)
        144707 MiB available memory on the node where the printing process lives
------------------
     ethr =  3.52E-06,  avg # of iterations =  1.0

     total cpu time spent up to now is      546.9 secs

     total energy              =   -2455.88345814 Ry
     estimated scf accuracy    <       0.03949815 Ry

     total magnetization       =     2.00 Bohr mag/cell
     absolute magnetization    =     2.20 Bohr mag/cell

     iteration #107     ecut=    60.00 Ry     beta= 0.30
     Davidson diagonalization with overlap

---- Real-time Memory Report at c_bands before calling an iterative solver
           225 MiB given to the printing process from OS
             0 MiB allocation reported by mallinfo(arena+hblkhd)
        144707 MiB available memory on the node where the printing process lives
------------------
     ethr =  3.52E-06,  avg # of iterations =  1.0

     total cpu time spent up to now is      548.9 secs

     total energy              =   -2455.88341091 Ry
     estimated scf accuracy    <       0.03727418 Ry

     total magnetization       =     2.00 Bohr mag/cell
     absolute magnetization    =     2.20 Bohr mag/cell

     iteration #108     ecut=    60.00 Ry     beta= 0.30
     Davidson diagonalization with overlap

---- Real-time Memory Report at c_bands before calling an iterative solver
           225 MiB given to the printing process from OS
             0 MiB allocation reported by mallinfo(arena+hblkhd)
        144707 MiB available memory on the node where the printing process lives
------------------
     ethr =  3.52E-06,  avg # of iterations =  1.0

     total cpu time spent up to now is      553.6 secs

     total energy              =   -2455.88343181 Ry
     estimated scf accuracy    <       0.03500452 Ry

     total magnetization       =     2.00 Bohr mag/cell
     absolute magnetization    =     2.20 Bohr mag/cell

     iteration #109     ecut=    60.00 Ry     beta= 0.30
     Davidson diagonalization with overlap

---- Real-time Memory Report at c_bands before calling an iterative solver
           225 MiB given to the printing process from OS
             0 MiB allocation reported by mallinfo(arena+hblkhd)
        144707 MiB available memory on the node where the printing process lives
------------------
     ethr =  3.52E-06,  avg # of iterations =  1.0

     total cpu time spent up to now is      562.4 secs

     total energy              =   -2455.88342948 Ry
     estimated scf accuracy    <       0.03564978 Ry

     total magnetization       =     2.00 Bohr mag/cell
     absolute magnetization    =     2.20 Bohr mag/cell

     iteration #110     ecut=    60.00 Ry     beta= 0.30
     Davidson diagonalization with overlap

---- Real-time Memory Report at c_bands before calling an iterative solver
           225 MiB given to the printing process from OS
             0 MiB allocation reported by mallinfo(arena+hblkhd)
        144708 MiB available memory on the node where the printing process lives
------------------
     ethr =  3.52E-06,  avg # of iterations =  1.0

     total cpu time spent up to now is      565.6 secs

     total energy              =   -2455.88338804 Ry
     estimated scf accuracy    <       0.03495237 Ry

     total magnetization       =     2.00 Bohr mag/cell
     absolute magnetization    =     2.20 Bohr mag/cell

     iteration #111     ecut=    60.00 Ry     beta= 0.30
     Davidson diagonalization with overlap

---- Real-time Memory Report at c_bands before calling an iterative solver
           225 MiB given to the printing process from OS
             0 MiB allocation reported by mallinfo(arena+hblkhd)
        144707 MiB available memory on the node where the printing process lives
------------------
     ethr =  3.52E-06,  avg # of iterations =  1.0

     total cpu time spent up to now is      567.1 secs

     total energy              =   -2455.88336247 Ry
     estimated scf accuracy    <       0.03646703 Ry

     total magnetization       =     2.00 Bohr mag/cell
     absolute magnetization    =     2.20 Bohr mag/cell

     iteration #112     ecut=    60.00 Ry     beta= 0.30
     Davidson diagonalization with overlap

---- Real-time Memory Report at c_bands before calling an iterative solver
           225 MiB given to the printing process from OS
             0 MiB allocation reported by mallinfo(arena+hblkhd)
        144707 MiB available memory on the node where the printing process lives
------------------
     ethr =  3.52E-06,  avg # of iterations =  1.0

     total cpu time spent up to now is      568.5 secs

     total energy              =   -2455.88338262 Ry
     estimated scf accuracy    <       0.03491437 Ry

     total magnetization       =     2.00 Bohr mag/cell
     absolute magnetization    =     2.19 Bohr mag/cell

     iteration #113     ecut=    60.00 Ry     beta= 0.30
     Davidson diagonalization with overlap

---- Real-time Memory Report at c_bands before calling an iterative solver
           225 MiB given to the printing process from OS
             0 MiB allocation reported by mallinfo(arena+hblkhd)
        144707 MiB available memory on the node where the printing process lives
------------------
     ethr =  3.52E-06,  avg # of iterations =  1.0

     total cpu time spent up to now is      570.1 secs

     total energy              =   -2455.88340160 Ry
     estimated scf accuracy    <       0.03639894 Ry

     total magnetization       =     2.00 Bohr mag/cell
     absolute magnetization    =     2.20 Bohr mag/cell

     iteration #114     ecut=    60.00 Ry     beta= 0.30
     Davidson diagonalization with overlap

---- Real-time Memory Report at c_bands before calling an iterative solver
           225 MiB given to the printing process from OS
             0 MiB allocation reported by mallinfo(arena+hblkhd)
        144707 MiB available memory on the node where the printing process lives
------------------
     ethr =  3.52E-06,  avg # of iterations =  1.0

     total cpu time spent up to now is      573.7 secs

     total energy              =   -2455.88338987 Ry
     estimated scf accuracy    <       0.03622430 Ry

     total magnetization       =     2.00 Bohr mag/cell
     absolute magnetization    =     2.20 Bohr mag/cell

     iteration #115     ecut=    60.00 Ry     beta= 0.30
     Davidson diagonalization with overlap

---- Real-time Memory Report at c_bands before calling an iterative solver
           225 MiB given to the printing process from OS
             0 MiB allocation reported by mallinfo(arena+hblkhd)
        144707 MiB available memory on the node where the printing process lives
------------------
     ethr =  3.52E-06,  avg # of iterations =  1.0

     total cpu time spent up to now is      581.8 secs

     total energy              =   -2455.88339143 Ry
     estimated scf accuracy    <       0.03495369 Ry

     total magnetization       =     2.00 Bohr mag/cell
     absolute magnetization    =     2.19 Bohr mag/cell

     iteration #116     ecut=    60.00 Ry     beta= 0.30
     Davidson diagonalization with overlap

---- Real-time Memory Report at c_bands before calling an iterative solver
           225 MiB given to the printing process from OS
             0 MiB allocation reported by mallinfo(arena+hblkhd)
        144707 MiB available memory on the node where the printing process lives
------------------
     ethr =  3.52E-06,  avg # of iterations =  1.0

     total cpu time spent up to now is      584.3 secs

     total energy              =   -2455.88339105 Ry
     estimated scf accuracy    <       0.03622786 Ry

     total magnetization       =     2.00 Bohr mag/cell
     absolute magnetization    =     2.20 Bohr mag/cell

     iteration #117     ecut=    60.00 Ry     beta= 0.30
     Davidson diagonalization with overlap

---- Real-time Memory Report at c_bands before calling an iterative solver
           225 MiB given to the printing process from OS
             0 MiB allocation reported by mallinfo(arena+hblkhd)
        144707 MiB available memory on the node where the printing process lives
------------------
     ethr =  3.52E-06,  avg # of iterations =  1.0

     total cpu time spent up to now is      587.2 secs

     total energy              =   -2455.88338878 Ry
     estimated scf accuracy    <       0.03504692 Ry

     total magnetization       =     2.00 Bohr mag/cell
     absolute magnetization    =     2.20 Bohr mag/cell

     iteration #118     ecut=    60.00 Ry     beta= 0.30
     Davidson diagonalization with overlap

---- Real-time Memory Report at c_bands before calling an iterative solver
           225 MiB given to the printing process from OS
             0 MiB allocation reported by mallinfo(arena+hblkhd)
        144707 MiB available memory on the node where the printing process lives
------------------
     ethr =  3.52E-06,  avg # of iterations =  1.0

     total cpu time spent up to now is      588.8 secs

     total energy              =   -2455.88340815 Ry
     estimated scf accuracy    <       0.03616399 Ry

     total magnetization       =     2.00 Bohr mag/cell
     absolute magnetization    =     2.20 Bohr mag/cell

     iteration #119     ecut=    60.00 Ry     beta= 0.30
     Davidson diagonalization with overlap

---- Real-time Memory Report at c_bands before calling an iterative solver
           225 MiB given to the printing process from OS
             0 MiB allocation reported by mallinfo(arena+hblkhd)
        144707 MiB available memory on the node where the printing process lives
------------------
     ethr =  3.52E-06,  avg # of iterations =  1.0

     total cpu time spent up to now is      590.4 secs

     total energy              =   -2455.88340789 Ry
     estimated scf accuracy    <       0.03615551 Ry

     total magnetization       =     2.00 Bohr mag/cell
     absolute magnetization    =     2.20 Bohr mag/cell

     iteration #120     ecut=    60.00 Ry     beta= 0.30
     Davidson diagonalization with overlap

---- Real-time Memory Report at c_bands before calling an iterative solver
           225 MiB given to the printing process from OS
             0 MiB allocation reported by mallinfo(arena+hblkhd)
        144708 MiB available memory on the node where the printing process lives
------------------
     ethr =  3.52E-06,  avg # of iterations =  1.0

     total cpu time spent up to now is      617.3 secs

     total energy              =   -2455.88340429 Ry
     estimated scf accuracy    <       0.03608934 Ry

     total magnetization       =     2.00 Bohr mag/cell
     absolute magnetization    =     2.20 Bohr mag/cell

     iteration #121     ecut=    60.00 Ry     beta= 0.30
     Davidson diagonalization with overlap

---- Real-time Memory Report at c_bands before calling an iterative solver
           225 MiB given to the printing process from OS
             0 MiB allocation reported by mallinfo(arena+hblkhd)
        144707 MiB available memory on the node where the printing process lives
------------------
     ethr =  3.52E-06,  avg # of iterations =  1.0

     total cpu time spent up to now is      622.2 secs

     total energy              =   -2455.88340354 Ry
     estimated scf accuracy    <       0.03605613 Ry

     total magnetization       =     2.00 Bohr mag/cell
     absolute magnetization    =     2.20 Bohr mag/cell

     iteration #122     ecut=    60.00 Ry     beta= 0.30
     Davidson diagonalization with overlap

---- Real-time Memory Report at c_bands before calling an iterative solver
           225 MiB given to the printing process from OS
             0 MiB allocation reported by mallinfo(arena+hblkhd)
        144707 MiB available memory on the node where the printing process lives
------------------
     ethr =  3.52E-06,  avg # of iterations =  1.0

     total cpu time spent up to now is      636.7 secs

     total energy              =   -2455.88340398 Ry
     estimated scf accuracy    <       0.03605298 Ry

     total magnetization       =     2.00 Bohr mag/cell
     absolute magnetization    =     2.20 Bohr mag/cell

     iteration #123     ecut=    60.00 Ry     beta= 0.30
     Davidson diagonalization with overlap

---- Real-time Memory Report at c_bands before calling an iterative solver
           225 MiB given to the printing process from OS
             0 MiB allocation reported by mallinfo(arena+hblkhd)
        144707 MiB available memory on the node where the printing process lives
------------------
     ethr =  3.52E-06,  avg # of iterations =  1.0

     total cpu time spent up to now is      639.5 secs

     total energy              =   -2455.88340074 Ry
     estimated scf accuracy    <       0.03605857 Ry

     total magnetization       =     2.00 Bohr mag/cell
     absolute magnetization    =     2.20 Bohr mag/cell

     iteration #124     ecut=    60.00 Ry     beta= 0.30
     Davidson diagonalization with overlap

---- Real-time Memory Report at c_bands before calling an iterative solver
           225 MiB given to the printing process from OS
             0 MiB allocation reported by mallinfo(arena+hblkhd)
        144707 MiB available memory on the node where the printing process lives
------------------
     ethr =  3.52E-06,  avg # of iterations =  1.0

     total cpu time spent up to now is      641.1 secs

     total energy              =   -2455.88339845 Ry
     estimated scf accuracy    <       0.03602618 Ry

     total magnetization       =     2.00 Bohr mag/cell
     absolute magnetization    =     2.20 Bohr mag/cell

     iteration #125     ecut=    60.00 Ry     beta= 0.30
     Davidson diagonalization with overlap

---- Real-time Memory Report at c_bands before calling an iterative solver
           225 MiB given to the printing process from OS
             0 MiB allocation reported by mallinfo(arena+hblkhd)
        144707 MiB available memory on the node where the printing process lives
------------------
     ethr =  3.52E-06,  avg # of iterations =  1.0

     total cpu time spent up to now is      654.8 secs

     total energy              =   -2455.88339753 Ry
     estimated scf accuracy    <       0.03601185 Ry

     total magnetization       =     2.00 Bohr mag/cell
     absolute magnetization    =     2.20 Bohr mag/cell

     iteration #126     ecut=    60.00 Ry     beta= 0.30
     Davidson diagonalization with overlap

---- Real-time Memory Report at c_bands before calling an iterative solver
           225 MiB given to the printing process from OS
             0 MiB allocation reported by mallinfo(arena+hblkhd)
        144707 MiB available memory on the node where the printing process lives
------------------
     ethr =  3.52E-06,  avg # of iterations =  1.0

     total cpu time spent up to now is      656.6 secs

     total energy              =   -2455.88331691 Ry
     estimated scf accuracy    <       0.03600268 Ry

     total magnetization       =     2.00 Bohr mag/cell
     absolute magnetization    =     2.20 Bohr mag/cell

     iteration #127     ecut=    60.00 Ry     beta= 0.30
     Davidson diagonalization with overlap

---- Real-time Memory Report at c_bands before calling an iterative solver
           225 MiB given to the printing process from OS
             0 MiB allocation reported by mallinfo(arena+hblkhd)
        144707 MiB available memory on the node where the printing process lives
------------------
     ethr =  3.52E-06,  avg # of iterations =  1.0

     total cpu time spent up to now is      660.1 secs

     total energy              =   -2455.88342206 Ry
     estimated scf accuracy    <       0.03685376 Ry

     total magnetization       =     2.00 Bohr mag/cell
     absolute magnetization    =     2.20 Bohr mag/cell

     iteration #128     ecut=    60.00 Ry     beta= 0.30
     Davidson diagonalization with overlap

---- Real-time Memory Report at c_bands before calling an iterative solver
           225 MiB given to the printing process from OS
             0 MiB allocation reported by mallinfo(arena+hblkhd)
        144707 MiB available memory on the node where the printing process lives
------------------
     ethr =  3.52E-06,  avg # of iterations =  1.0

     total cpu time spent up to now is      661.2 secs

     total energy              =   -2455.88336894 Ry
     estimated scf accuracy    <       0.03588800 Ry

     total magnetization       =     2.00 Bohr mag/cell
     absolute magnetization    =     2.20 Bohr mag/cell

     iteration #129     ecut=    60.00 Ry     beta= 0.30
     Davidson diagonalization with overlap

---- Real-time Memory Report at c_bands before calling an iterative solver
           225 MiB given to the printing process from OS
             0 MiB allocation reported by mallinfo(arena+hblkhd)
        144707 MiB available memory on the node where the printing process lives
------------------
     ethr =  3.52E-06,  avg # of iterations =  1.0

     total cpu time spent up to now is      662.6 secs

     total energy              =   -2455.88343988 Ry
     estimated scf accuracy    <       0.03636508 Ry

     total magnetization       =     2.00 Bohr mag/cell
     absolute magnetization    =     2.20 Bohr mag/cell

     iteration #130     ecut=    60.00 Ry     beta= 0.30
     Davidson diagonalization with overlap

---- Real-time Memory Report at c_bands before calling an iterative solver
           225 MiB given to the printing process from OS
             0 MiB allocation reported by mallinfo(arena+hblkhd)
        144708 MiB available memory on the node where the printing process lives
------------------
     ethr =  3.52E-06,  avg # of iterations =  1.0

     total cpu time spent up to now is      665.5 secs

     total energy              =   -2455.88341421 Ry
     estimated scf accuracy    <       0.03634006 Ry

     total magnetization       =     2.00 Bohr mag/cell
     absolute magnetization    =     2.20 Bohr mag/cell

     iteration #131     ecut=    60.00 Ry     beta= 0.30
     Davidson diagonalization with overlap

---- Real-time Memory Report at c_bands before calling an iterative solver
           225 MiB given to the printing process from OS
             0 MiB allocation reported by mallinfo(arena+hblkhd)
        144707 MiB available memory on the node where the printing process lives
------------------
     ethr =  3.52E-06,  avg # of iterations =  1.0

     total cpu time spent up to now is      668.2 secs

     total energy              =   -2455.88340401 Ry
     estimated scf accuracy    <       0.03619367 Ry

     total magnetization       =     2.00 Bohr mag/cell
     absolute magnetization    =     2.20 Bohr mag/cell

     iteration #132     ecut=    60.00 Ry     beta= 0.30
     Davidson diagonalization with overlap

---- Real-time Memory Report at c_bands before calling an iterative solver
           225 MiB given to the printing process from OS
             0 MiB allocation reported by mallinfo(arena+hblkhd)
        144707 MiB available memory on the node where the printing process lives
------------------
     ethr =  3.52E-06,  avg # of iterations =  1.0

     total cpu time spent up to now is      687.5 secs

     total energy              =   -2455.88338278 Ry
     estimated scf accuracy    <       0.03613308 Ry

     total magnetization       =     2.00 Bohr mag/cell
     absolute magnetization    =     2.20 Bohr mag/cell

     iteration #133     ecut=    60.00 Ry     beta= 0.30
     Davidson diagonalization with overlap

---- Real-time Memory Report at c_bands before calling an iterative solver
           225 MiB given to the printing process from OS
             0 MiB allocation reported by mallinfo(arena+hblkhd)
        144707 MiB available memory on the node where the printing process lives
------------------
     ethr =  3.52E-06,  avg # of iterations =  1.0

     total cpu time spent up to now is      694.4 secs

     total energy              =   -2455.88339587 Ry
     estimated scf accuracy    <       0.03510823 Ry

     total magnetization       =     2.00 Bohr mag/cell
     absolute magnetization    =     2.20 Bohr mag/cell

     iteration #134     ecut=    60.00 Ry     beta= 0.30
     Davidson diagonalization with overlap

---- Real-time Memory Report at c_bands before calling an iterative solver
           225 MiB given to the printing process from OS
             0 MiB allocation reported by mallinfo(arena+hblkhd)
        144707 MiB available memory on the node where the printing process lives
------------------
     ethr =  3.52E-06,  avg # of iterations =  1.0

     total cpu time spent up to now is      696.4 secs

     total energy              =   -2455.88339800 Ry
     estimated scf accuracy    <       0.03518249 Ry

     total magnetization       =     2.00 Bohr mag/cell
     absolute magnetization    =     2.20 Bohr mag/cell

     iteration #135     ecut=    60.00 Ry     beta= 0.30
     Davidson diagonalization with overlap

---- Real-time Memory Report at c_bands before calling an iterative solver
           225 MiB given to the printing process from OS
             0 MiB allocation reported by mallinfo(arena+hblkhd)
        144707 MiB available memory on the node where the printing process lives
------------------
     ethr =  3.52E-06,  avg # of iterations =  1.0

     total cpu time spent up to now is      699.9 secs

     total energy              =   -2455.88339352 Ry
     estimated scf accuracy    <       0.03515760 Ry

     total magnetization       =     2.00 Bohr mag/cell
     absolute magnetization    =     2.19 Bohr mag/cell

     iteration #136     ecut=    60.00 Ry     beta= 0.30
     Davidson diagonalization with overlap

---- Real-time Memory Report at c_bands before calling an iterative solver
           225 MiB given to the printing process from OS
             0 MiB allocation reported by mallinfo(arena+hblkhd)
        144707 MiB available memory on the node where the printing process lives
------------------
     ethr =  3.52E-06,  avg # of iterations =  1.0

     total cpu time spent up to now is      702.8 secs

     total energy              =   -2455.88339786 Ry
     estimated scf accuracy    <       0.03594384 Ry

     total magnetization       =     2.00 Bohr mag/cell
     absolute magnetization    =     2.20 Bohr mag/cell

     iteration #137     ecut=    60.00 Ry     beta= 0.30
     Davidson diagonalization with overlap

---- Real-time Memory Report at c_bands before calling an iterative solver
           225 MiB given to the printing process from OS
             0 MiB allocation reported by mallinfo(arena+hblkhd)
        144707 MiB available memory on the node where the printing process lives
------------------
     ethr =  3.52E-06,  avg # of iterations =  1.0

     total cpu time spent up to now is      713.2 secs

     total energy              =   -2455.88339646 Ry
     estimated scf accuracy    <       0.03593568 Ry

     total magnetization       =     2.00 Bohr mag/cell
     absolute magnetization    =     2.20 Bohr mag/cell

     iteration #138     ecut=    60.00 Ry     beta= 0.30
     Davidson diagonalization with overlap

---- Real-time Memory Report at c_bands before calling an iterative solver
           225 MiB given to the printing process from OS
             0 MiB allocation reported by mallinfo(arena+hblkhd)
        144707 MiB available memory on the node where the printing process lives
------------------
     ethr =  3.52E-06,  avg # of iterations =  1.0

     total cpu time spent up to now is      714.4 secs

     total energy              =   -2455.88339668 Ry
     estimated scf accuracy    <       0.03590714 Ry

     total magnetization       =     2.00 Bohr mag/cell
     absolute magnetization    =     2.19 Bohr mag/cell

     iteration #139     ecut=    60.00 Ry     beta= 0.30
     Davidson diagonalization with overlap

---- Real-time Memory Report at c_bands before calling an iterative solver
           225 MiB given to the printing process from OS
             0 MiB allocation reported by mallinfo(arena+hblkhd)
        144707 MiB available memory on the node where the printing process lives
------------------
     ethr =  3.52E-06,  avg # of iterations =  1.0

     total cpu time spent up to now is      716.8 secs

     total energy              =   -2455.88339664 Ry
     estimated scf accuracy    <       0.03592517 Ry

     total magnetization       =     2.00 Bohr mag/cell
     absolute magnetization    =     2.20 Bohr mag/cell

     iteration #140     ecut=    60.00 Ry     beta= 0.30
     Davidson diagonalization with overlap

---- Real-time Memory Report at c_bands before calling an iterative solver
           225 MiB given to the printing process from OS
             0 MiB allocation reported by mallinfo(arena+hblkhd)
        144707 MiB available memory on the node where the printing process lives
------------------
     ethr =  3.52E-06,  avg # of iterations =  1.0

     total cpu time spent up to now is      718.6 secs

     total energy              =   -2455.88339749 Ry
     estimated scf accuracy    <       0.03591395 Ry

     total magnetization       =     2.00 Bohr mag/cell
     absolute magnetization    =     2.20 Bohr mag/cell

     iteration #141     ecut=    60.00 Ry     beta= 0.30
     Davidson diagonalization with overlap

---- Real-time Memory Report at c_bands before calling an iterative solver
           225 MiB given to the printing process from OS
             0 MiB allocation reported by mallinfo(arena+hblkhd)
        144707 MiB available memory on the node where the printing process lives
------------------
     ethr =  3.52E-06,  avg # of iterations =  1.0

     total cpu time spent up to now is      724.4 secs

     total energy              =   -2455.88339525 Ry
     estimated scf accuracy    <       0.03592826 Ry

     total magnetization       =     2.00 Bohr mag/cell
     absolute magnetization    =     2.20 Bohr mag/cell

     iteration #142     ecut=    60.00 Ry     beta= 0.30
     Davidson diagonalization with overlap

---- Real-time Memory Report at c_bands before calling an iterative solver
           225 MiB given to the printing process from OS
             0 MiB allocation reported by mallinfo(arena+hblkhd)
        144707 MiB available memory on the node where the printing process lives
------------------
     ethr =  3.52E-06,  avg # of iterations =  1.0

     total cpu time spent up to now is      725.6 secs

     total energy              =   -2455.88339241 Ry
     estimated scf accuracy    <       0.03581760 Ry

     total magnetization       =     2.00 Bohr mag/cell
     absolute magnetization    =     2.20 Bohr mag/cell

     iteration #143     ecut=    60.00 Ry     beta= 0.30
     Davidson diagonalization with overlap

---- Real-time Memory Report at c_bands before calling an iterative solver
           225 MiB given to the printing process from OS
             0 MiB allocation reported by mallinfo(arena+hblkhd)
        144707 MiB available memory on the node where the printing process lives
------------------
     ethr =  3.52E-06,  avg # of iterations =  1.0

     total cpu time spent up to now is      728.3 secs

     total energy              =   -2455.88340012 Ry
     estimated scf accuracy    <       0.03520648 Ry

     total magnetization       =     2.00 Bohr mag/cell
     absolute magnetization    =     2.19 Bohr mag/cell

     iteration #144     ecut=    60.00 Ry     beta= 0.30
     Davidson diagonalization with overlap

---- Real-time Memory Report at c_bands before calling an iterative solver
           225 MiB given to the printing process from OS
             0 MiB allocation reported by mallinfo(arena+hblkhd)
        144707 MiB available memory on the node where the printing process lives
------------------
     ethr =  3.52E-06,  avg # of iterations =  1.0

     total cpu time spent up to now is      746.5 secs

     total energy              =   -2455.88340061 Ry
     estimated scf accuracy    <       0.03526903 Ry

     total magnetization       =     2.00 Bohr mag/cell
     absolute magnetization    =     2.19 Bohr mag/cell

     iteration #145     ecut=    60.00 Ry     beta= 0.30
     Davidson diagonalization with overlap

---- Real-time Memory Report at c_bands before calling an iterative solver
           225 MiB given to the printing process from OS
             0 MiB allocation reported by mallinfo(arena+hblkhd)
        144708 MiB available memory on the node where the printing process lives
------------------
     ethr =  3.52E-06,  avg # of iterations =  1.0

     total cpu time spent up to now is      750.7 secs

     total energy              =   -2455.88340036 Ry
     estimated scf accuracy    <       0.03527628 Ry

     total magnetization       =     2.00 Bohr mag/cell
     absolute magnetization    =     2.19 Bohr mag/cell

     iteration #146     ecut=    60.00 Ry     beta= 0.30
     Davidson diagonalization with overlap

---- Real-time Memory Report at c_bands before calling an iterative solver
           225 MiB given to the printing process from OS
             0 MiB allocation reported by mallinfo(arena+hblkhd)
        144707 MiB available memory on the node where the printing process lives
------------------
     ethr =  3.52E-06,  avg # of iterations =  1.0

     total cpu time spent up to now is      754.6 secs

     total energy              =   -2455.88340121 Ry
     estimated scf accuracy    <       0.03528680 Ry

     total magnetization       =     2.00 Bohr mag/cell
     absolute magnetization    =     2.19 Bohr mag/cell

     iteration #147     ecut=    60.00 Ry     beta= 0.30
     Davidson diagonalization with overlap

---- Real-time Memory Report at c_bands before calling an iterative solver
           225 MiB given to the printing process from OS
             0 MiB allocation reported by mallinfo(arena+hblkhd)
        144708 MiB available memory on the node where the printing process lives
------------------
     ethr =  3.52E-06,  avg # of iterations =  1.0

     total cpu time spent up to now is      798.1 secs

     total energy              =   -2455.88340137 Ry
     estimated scf accuracy    <       0.03529802 Ry

     total magnetization       =     2.00 Bohr mag/cell
     absolute magnetization    =     2.19 Bohr mag/cell

     iteration #148     ecut=    60.00 Ry     beta= 0.30
     Davidson diagonalization with overlap

---- Real-time Memory Report at c_bands before calling an iterative solver
           225 MiB given to the printing process from OS
             0 MiB allocation reported by mallinfo(arena+hblkhd)
        144708 MiB available memory on the node where the printing process lives
------------------
     ethr =  3.52E-06,  avg # of iterations =  1.0

     total cpu time spent up to now is      800.6 secs

     total energy              =   -2455.88340190 Ry
     estimated scf accuracy    <       0.03530399 Ry

     total magnetization       =     2.00 Bohr mag/cell
     absolute magnetization    =     2.19 Bohr mag/cell

     iteration #149     ecut=    60.00 Ry     beta= 0.30
     Davidson diagonalization with overlap

---- Real-time Memory Report at c_bands before calling an iterative solver
           225 MiB given to the printing process from OS
             0 MiB allocation reported by mallinfo(arena+hblkhd)
        144707 MiB available memory on the node where the printing process lives
------------------
     ethr =  3.52E-06,  avg # of iterations =  1.0

     total cpu time spent up to now is      802.5 secs

     total energy              =   -2455.88340242 Ry
     estimated scf accuracy    <       0.03534284 Ry

     total magnetization       =     2.00 Bohr mag/cell
     absolute magnetization    =     2.19 Bohr mag/cell

     iteration #150     ecut=    60.00 Ry     beta= 0.30
     Davidson diagonalization with overlap

---- Real-time Memory Report at c_bands before calling an iterative solver
           225 MiB given to the printing process from OS
             0 MiB allocation reported by mallinfo(arena+hblkhd)
        144707 MiB available memory on the node where the printing process lives
------------------
     ethr =  3.52E-06,  avg # of iterations =  1.0

     total cpu time spent up to now is      816.9 secs

     total energy              =   -2455.88339063 Ry
     estimated scf accuracy    <       0.03544517 Ry

     total magnetization       =     2.00 Bohr mag/cell
     absolute magnetization    =     2.20 Bohr mag/cell

     iteration #151     ecut=    60.00 Ry     beta= 0.30
     Davidson diagonalization with overlap

---- Real-time Memory Report at c_bands before calling an iterative solver
           225 MiB given to the printing process from OS
             0 MiB allocation reported by mallinfo(arena+hblkhd)
        144706 MiB available memory on the node where the printing process lives
------------------
     ethr =  3.52E-06,  avg # of iterations =  1.0

     total cpu time spent up to now is      819.5 secs

     total energy              =   -2455.88339668 Ry
     estimated scf accuracy    <       0.03576118 Ry

     total magnetization       =     2.00 Bohr mag/cell
     absolute magnetization    =     2.20 Bohr mag/cell

     iteration #152     ecut=    60.00 Ry     beta= 0.30
     Davidson diagonalization with overlap

---- Real-time Memory Report at c_bands before calling an iterative solver
           225 MiB given to the printing process from OS
             0 MiB allocation reported by mallinfo(arena+hblkhd)
        144706 MiB available memory on the node where the printing process lives
------------------
     ethr =  3.52E-06,  avg # of iterations =  1.0

     total cpu time spent up to now is      833.3 secs

     total energy              =   -2455.88339691 Ry
     estimated scf accuracy    <       0.03565030 Ry

     total magnetization       =     2.00 Bohr mag/cell
     absolute magnetization    =     2.20 Bohr mag/cell

     iteration #153     ecut=    60.00 Ry     beta= 0.30
     Davidson diagonalization with overlap

---- Real-time Memory Report at c_bands before calling an iterative solver
           225 MiB given to the printing process from OS
             0 MiB allocation reported by mallinfo(arena+hblkhd)
        144705 MiB available memory on the node where the printing process lives
------------------
     ethr =  3.52E-06,  avg # of iterations =  1.0

     total cpu time spent up to now is      836.4 secs

     total energy              =   -2455.88339087 Ry
     estimated scf accuracy    <       0.03572677 Ry

     total magnetization       =     2.00 Bohr mag/cell
     absolute magnetization    =     2.20 Bohr mag/cell

     iteration #154     ecut=    60.00 Ry     beta= 0.30
     Davidson diagonalization with overlap

---- Real-time Memory Report at c_bands before calling an iterative solver
           225 MiB given to the printing process from OS
             0 MiB allocation reported by mallinfo(arena+hblkhd)
        144705 MiB available memory on the node where the printing process lives
------------------
     ethr =  3.52E-06,  avg # of iterations =  1.0

     total cpu time spent up to now is      851.7 secs

     total energy              =   -2455.88339399 Ry
     estimated scf accuracy    <       0.03537781 Ry

     total magnetization       =     2.00 Bohr mag/cell
     absolute magnetization    =     2.19 Bohr mag/cell

     iteration #155     ecut=    60.00 Ry     beta= 0.30
     Davidson diagonalization with overlap

---- Real-time Memory Report at c_bands before calling an iterative solver
           225 MiB given to the printing process from OS
             0 MiB allocation reported by mallinfo(arena+hblkhd)
        144706 MiB available memory on the node where the printing process lives
------------------
     ethr =  3.52E-06,  avg # of iterations =  1.0

     total cpu time spent up to now is      854.9 secs

     total energy              =   -2455.88339510 Ry
     estimated scf accuracy    <       0.03568941 Ry

     total magnetization       =     2.00 Bohr mag/cell
     absolute magnetization    =     2.20 Bohr mag/cell

     iteration #156     ecut=    60.00 Ry     beta= 0.30
     Davidson diagonalization with overlap

---- Real-time Memory Report at c_bands before calling an iterative solver
           225 MiB given to the printing process from OS
             0 MiB allocation reported by mallinfo(arena+hblkhd)
        144707 MiB available memory on the node where the printing process lives
------------------
     ethr =  3.52E-06,  avg # of iterations =  1.0

     total cpu time spent up to now is      862.8 secs

     total energy              =   -2455.88339607 Ry
     estimated scf accuracy    <       0.03552086 Ry

     total magnetization       =     2.00 Bohr mag/cell
     absolute magnetization    =     2.20 Bohr mag/cell

     iteration #157     ecut=    60.00 Ry     beta= 0.30
     Davidson diagonalization with overlap

---- Real-time Memory Report at c_bands before calling an iterative solver
           225 MiB given to the printing process from OS
             0 MiB allocation reported by mallinfo(arena+hblkhd)
        144707 MiB available memory on the node where the printing process lives
------------------
     ethr =  3.52E-06,  avg # of iterations =  1.0

     total cpu time spent up to now is      865.5 secs

     total energy              =   -2455.88339482 Ry
     estimated scf accuracy    <       0.03540177 Ry

     total magnetization       =     2.00 Bohr mag/cell
     absolute magnetization    =     2.20 Bohr mag/cell

     iteration #158     ecut=    60.00 Ry     beta= 0.30
     Davidson diagonalization with overlap

---- Real-time Memory Report at c_bands before calling an iterative solver
           225 MiB given to the printing process from OS
             0 MiB allocation reported by mallinfo(arena+hblkhd)
        144706 MiB available memory on the node where the printing process lives
------------------
     ethr =  3.52E-06,  avg # of iterations =  1.0

     total cpu time spent up to now is      874.5 secs

     total energy              =   -2455.88339541 Ry
     estimated scf accuracy    <       0.03569068 Ry

     total magnetization       =     2.00 Bohr mag/cell
     absolute magnetization    =     2.19 Bohr mag/cell

     iteration #159     ecut=    60.00 Ry     beta= 0.30
     Davidson diagonalization with overlap

---- Real-time Memory Report at c_bands before calling an iterative solver
           225 MiB given to the printing process from OS
             0 MiB allocation reported by mallinfo(arena+hblkhd)
        144707 MiB available memory on the node where the printing process lives
------------------
     ethr =  3.52E-06,  avg # of iterations =  1.0

     total cpu time spent up to now is      878.5 secs

     total energy              =   -2455.88339567 Ry
     estimated scf accuracy    <       0.03560100 Ry

     total magnetization       =     2.00 Bohr mag/cell
     absolute magnetization    =     2.20 Bohr mag/cell

     iteration #160     ecut=    60.00 Ry     beta= 0.30
     Davidson diagonalization with overlap

---- Real-time Memory Report at c_bands before calling an iterative solver
           225 MiB given to the printing process from OS
             0 MiB allocation reported by mallinfo(arena+hblkhd)
        144708 MiB available memory on the node where the printing process lives
------------------
     ethr =  3.52E-06,  avg # of iterations =  1.0

     total cpu time spent up to now is      879.7 secs

     total energy              =   -2455.88339595 Ry
     estimated scf accuracy    <       0.03567963 Ry

     total magnetization       =     2.00 Bohr mag/cell
     absolute magnetization    =     2.19 Bohr mag/cell

     iteration #161     ecut=    60.00 Ry     beta= 0.30
     Davidson diagonalization with overlap

---- Real-time Memory Report at c_bands before calling an iterative solver
           225 MiB given to the printing process from OS
             0 MiB allocation reported by mallinfo(arena+hblkhd)
        144707 MiB available memory on the node where the printing process lives
------------------
     ethr =  3.52E-06,  avg # of iterations =  1.0

     total cpu time spent up to now is      882.7 secs

     total energy              =   -2455.88339515 Ry
     estimated scf accuracy    <       0.03567939 Ry

     total magnetization       =     2.00 Bohr mag/cell
     absolute magnetization    =     2.20 Bohr mag/cell

     iteration #162     ecut=    60.00 Ry     beta= 0.30
     Davidson diagonalization with overlap

---- Real-time Memory Report at c_bands before calling an iterative solver
           225 MiB given to the printing process from OS
             0 MiB allocation reported by mallinfo(arena+hblkhd)
        144708 MiB available memory on the node where the printing process lives
------------------
     ethr =  3.52E-06,  avg # of iterations =  1.0

     total cpu time spent up to now is      884.3 secs

     total energy              =   -2455.88339600 Ry
     estimated scf accuracy    <       0.03550448 Ry

     total magnetization       =     2.00 Bohr mag/cell
     absolute magnetization    =     2.20 Bohr mag/cell

     iteration #163     ecut=    60.00 Ry     beta= 0.30
     Davidson diagonalization with overlap

---- Real-time Memory Report at c_bands before calling an iterative solver
           225 MiB given to the printing process from OS
             0 MiB allocation reported by mallinfo(arena+hblkhd)
        144707 MiB available memory on the node where the printing process lives
------------------
     ethr =  3.52E-06,  avg # of iterations =  1.0

     total cpu time spent up to now is      886.1 secs

     total energy              =   -2455.88339656 Ry
     estimated scf accuracy    <       0.03561462 Ry

     total magnetization       =     2.00 Bohr mag/cell
     absolute magnetization    =     2.20 Bohr mag/cell

     iteration #164     ecut=    60.00 Ry     beta= 0.30
     Davidson diagonalization with overlap

---- Real-time Memory Report at c_bands before calling an iterative solver
           225 MiB given to the printing process from OS
             0 MiB allocation reported by mallinfo(arena+hblkhd)
        144707 MiB available memory on the node where the printing process lives
------------------
     ethr =  3.52E-06,  avg # of iterations =  1.0

     total cpu time spent up to now is      888.0 secs

     total energy              =   -2455.88339657 Ry
     estimated scf accuracy    <       0.03557944 Ry

     total magnetization       =     2.00 Bohr mag/cell
     absolute magnetization    =     2.20 Bohr mag/cell

     iteration #165     ecut=    60.00 Ry     beta= 0.30
     Davidson diagonalization with overlap

---- Real-time Memory Report at c_bands before calling an iterative solver
           225 MiB given to the printing process from OS
             0 MiB allocation reported by mallinfo(arena+hblkhd)
        144707 MiB available memory on the node where the printing process lives
------------------
     ethr =  3.52E-06,  avg # of iterations =  1.0

     total cpu time spent up to now is      890.9 secs

     total energy              =   -2455.88339673 Ry
     estimated scf accuracy    <       0.03559569 Ry

     total magnetization       =     2.00 Bohr mag/cell
     absolute magnetization    =     2.20 Bohr mag/cell

     iteration #166     ecut=    60.00 Ry     beta= 0.30
     Davidson diagonalization with overlap

---- Real-time Memory Report at c_bands before calling an iterative solver
           225 MiB given to the printing process from OS
             0 MiB allocation reported by mallinfo(arena+hblkhd)
        144707 MiB available memory on the node where the printing process lives
------------------
     ethr =  3.52E-06,  avg # of iterations =  1.0

     total cpu time spent up to now is      900.6 secs

     total energy              =   -2455.88339669 Ry
     estimated scf accuracy    <       0.03558430 Ry

     total magnetization       =     2.00 Bohr mag/cell
     absolute magnetization    =     2.20 Bohr mag/cell

     iteration #167     ecut=    60.00 Ry     beta= 0.30
     Davidson diagonalization with overlap

---- Real-time Memory Report at c_bands before calling an iterative solver
           225 MiB given to the printing process from OS
             0 MiB allocation reported by mallinfo(arena+hblkhd)
        144707 MiB available memory on the node where the printing process lives
------------------
     ethr =  3.52E-06,  avg # of iterations =  1.0

     total cpu time spent up to now is      903.5 secs

     total energy              =   -2455.88339677 Ry
     estimated scf accuracy    <       0.03554972 Ry

     total magnetization       =     2.00 Bohr mag/cell
     absolute magnetization    =     2.20 Bohr mag/cell

     iteration #168     ecut=    60.00 Ry     beta= 0.30
     Davidson diagonalization with overlap

---- Real-time Memory Report at c_bands before calling an iterative solver
           225 MiB given to the printing process from OS
             0 MiB allocation reported by mallinfo(arena+hblkhd)
        144707 MiB available memory on the node where the printing process lives
------------------
     ethr =  3.52E-06,  avg # of iterations =  1.0

     total cpu time spent up to now is      906.0 secs

     total energy              =   -2455.88339662 Ry
     estimated scf accuracy    <       0.03557745 Ry

     total magnetization       =     2.00 Bohr mag/cell
     absolute magnetization    =     2.20 Bohr mag/cell

     iteration #169     ecut=    60.00 Ry     beta= 0.30
     Davidson diagonalization with overlap

---- Real-time Memory Report at c_bands before calling an iterative solver
           225 MiB given to the printing process from OS
             0 MiB allocation reported by mallinfo(arena+hblkhd)
        144707 MiB available memory on the node where the printing process lives
------------------
     ethr =  3.52E-06,  avg # of iterations =  1.0

     total cpu time spent up to now is      907.7 secs

     total energy              =   -2455.88339578 Ry
     estimated scf accuracy    <       0.03557109 Ry

     total magnetization       =     2.00 Bohr mag/cell
     absolute magnetization    =     2.20 Bohr mag/cell

     iteration #170     ecut=    60.00 Ry     beta= 0.30
     Davidson diagonalization with overlap

---- Real-time Memory Report at c_bands before calling an iterative solver
           225 MiB given to the printing process from OS
             0 MiB allocation reported by mallinfo(arena+hblkhd)
        144707 MiB available memory on the node where the printing process lives
------------------
     ethr =  3.52E-06,  avg # of iterations =  1.0

     total cpu time spent up to now is      912.8 secs

     total energy              =   -2455.88339146 Ry
     estimated scf accuracy    <       0.03550548 Ry

     total magnetization       =     2.00 Bohr mag/cell
     absolute magnetization    =     2.20 Bohr mag/cell

     iteration #171     ecut=    60.00 Ry     beta= 0.30
     Davidson diagonalization with overlap

---- Real-time Memory Report at c_bands before calling an iterative solver
           225 MiB given to the printing process from OS
             0 MiB allocation reported by mallinfo(arena+hblkhd)
        144707 MiB available memory on the node where the printing process lives
------------------
     ethr =  3.52E-06,  avg # of iterations =  1.0

     total cpu time spent up to now is      915.5 secs

     total energy              =   -2455.88339645 Ry
     estimated scf accuracy    <       0.03562253 Ry

     total magnetization       =     2.00 Bohr mag/cell
     absolute magnetization    =     2.20 Bohr mag/cell

     iteration #172     ecut=    60.00 Ry     beta= 0.30
     Davidson diagonalization with overlap

---- Real-time Memory Report at c_bands before calling an iterative solver
           225 MiB given to the printing process from OS
             0 MiB allocation reported by mallinfo(arena+hblkhd)
        144707 MiB available memory on the node where the printing process lives
------------------
     ethr =  3.52E-06,  avg # of iterations =  1.0

     total cpu time spent up to now is      918.3 secs

     total energy              =   -2455.88339591 Ry
     estimated scf accuracy    <       0.03558029 Ry

     total magnetization       =     2.00 Bohr mag/cell
     absolute magnetization    =     2.20 Bohr mag/cell

     iteration #173     ecut=    60.00 Ry     beta= 0.30
     Davidson diagonalization with overlap

---- Real-time Memory Report at c_bands before calling an iterative solver
           225 MiB given to the printing process from OS
             0 MiB allocation reported by mallinfo(arena+hblkhd)
        144706 MiB available memory on the node where the printing process lives
------------------
     ethr =  3.52E-06,  avg # of iterations =  1.0

     total cpu time spent up to now is      936.4 secs

     total energy              =   -2455.88339644 Ry
     estimated scf accuracy    <       0.03559882 Ry

     total magnetization       =     2.00 Bohr mag/cell
     absolute magnetization    =     2.19 Bohr mag/cell

     iteration #174     ecut=    60.00 Ry     beta= 0.30
     Davidson diagonalization with overlap

---- Real-time Memory Report at c_bands before calling an iterative solver
           225 MiB given to the printing process from OS
             0 MiB allocation reported by mallinfo(arena+hblkhd)
        144706 MiB available memory on the node where the printing process lives
------------------
     ethr =  3.52E-06,  avg # of iterations =  1.0

     total cpu time spent up to now is      942.7 secs

     total energy              =   -2455.88339629 Ry
     estimated scf accuracy    <       0.03563452 Ry

     total magnetization       =     2.00 Bohr mag/cell
     absolute magnetization    =     2.19 Bohr mag/cell

     iteration #175     ecut=    60.00 Ry     beta= 0.30
     Davidson diagonalization with overlap

---- Real-time Memory Report at c_bands before calling an iterative solver
           225 MiB given to the printing process from OS
             0 MiB allocation reported by mallinfo(arena+hblkhd)
        144696 MiB available memory on the node where the printing process lives
------------------
     ethr =  3.52E-06,  avg # of iterations =  1.0

     total cpu time spent up to now is      945.4 secs

     total energy              =   -2455.88339542 Ry
     estimated scf accuracy    <       0.03567465 Ry

     total magnetization       =     2.00 Bohr mag/cell
     absolute magnetization    =     2.20 Bohr mag/cell

     iteration #176     ecut=    60.00 Ry     beta= 0.30
     Davidson diagonalization with overlap

---- Real-time Memory Report at c_bands before calling an iterative solver
           225 MiB given to the printing process from OS
             0 MiB allocation reported by mallinfo(arena+hblkhd)
        144707 MiB available memory on the node where the printing process lives
------------------
     ethr =  3.52E-06,  avg # of iterations =  1.0

     total cpu time spent up to now is      948.5 secs

     total energy              =   -2455.88339483 Ry
     estimated scf accuracy    <       0.03562048 Ry

     total magnetization       =     2.00 Bohr mag/cell
     absolute magnetization    =     2.20 Bohr mag/cell

     iteration #177     ecut=    60.00 Ry     beta= 0.30
     Davidson diagonalization with overlap

---- Real-time Memory Report at c_bands before calling an iterative solver
           225 MiB given to the printing process from OS
             0 MiB allocation reported by mallinfo(arena+hblkhd)
        144707 MiB available memory on the node where the printing process lives
------------------
     ethr =  3.52E-06,  avg # of iterations =  1.0

     total cpu time spent up to now is      957.7 secs

     total energy              =   -2455.88339540 Ry
     estimated scf accuracy    <       0.03543101 Ry

     total magnetization       =     2.00 Bohr mag/cell
     absolute magnetization    =     2.20 Bohr mag/cell

     iteration #178     ecut=    60.00 Ry     beta= 0.30
     Davidson diagonalization with overlap

---- Real-time Memory Report at c_bands before calling an iterative solver
           225 MiB given to the printing process from OS
             0 MiB allocation reported by mallinfo(arena+hblkhd)
        144707 MiB available memory on the node where the printing process lives
------------------
     ethr =  3.52E-06,  avg # of iterations =  1.0

     total cpu time spent up to now is      960.5 secs

     total energy              =   -2455.88339519 Ry
     estimated scf accuracy    <       0.03544868 Ry

     total magnetization       =     2.00 Bohr mag/cell
     absolute magnetization    =     2.20 Bohr mag/cell

     iteration #179     ecut=    60.00 Ry     beta= 0.30
     Davidson diagonalization with overlap

---- Real-time Memory Report at c_bands before calling an iterative solver
           225 MiB given to the printing process from OS
             0 MiB allocation reported by mallinfo(arena+hblkhd)
        144707 MiB available memory on the node where the printing process lives
------------------
     ethr =  3.52E-06,  avg # of iterations =  1.0

     total cpu time spent up to now is      962.2 secs

     total energy              =   -2455.88339520 Ry
     estimated scf accuracy    <       0.03537044 Ry

     total magnetization       =     2.00 Bohr mag/cell
     absolute magnetization    =     2.20 Bohr mag/cell

     iteration #180     ecut=    60.00 Ry     beta= 0.30
     Davidson diagonalization with overlap

---- Real-time Memory Report at c_bands before calling an iterative solver
           225 MiB given to the printing process from OS
             0 MiB allocation reported by mallinfo(arena+hblkhd)
        144707 MiB available memory on the node where the printing process lives
------------------
     ethr =  3.52E-06,  avg # of iterations =  1.0

     total cpu time spent up to now is      979.5 secs

     total energy              =   -2455.88339483 Ry
     estimated scf accuracy    <       0.03543684 Ry

     total magnetization       =     2.00 Bohr mag/cell
     absolute magnetization    =     2.20 Bohr mag/cell

     iteration #181     ecut=    60.00 Ry     beta= 0.30
     Davidson diagonalization with overlap

---- Real-time Memory Report at c_bands before calling an iterative solver
           225 MiB given to the printing process from OS
             0 MiB allocation reported by mallinfo(arena+hblkhd)
        144703 MiB available memory on the node where the printing process lives
------------------
     ethr =  3.52E-06,  avg # of iterations =  1.0

     total cpu time spent up to now is      980.9 secs

     total energy              =   -2455.88339520 Ry
     estimated scf accuracy    <       0.03566722 Ry

     total magnetization       =     2.00 Bohr mag/cell
     absolute magnetization    =     2.20 Bohr mag/cell

     iteration #182     ecut=    60.00 Ry     beta= 0.30
     Davidson diagonalization with overlap

---- Real-time Memory Report at c_bands before calling an iterative solver
           225 MiB given to the printing process from OS
             0 MiB allocation reported by mallinfo(arena+hblkhd)
        144703 MiB available memory on the node where the printing process lives
------------------
     ethr =  3.52E-06,  avg # of iterations =  1.0

     total cpu time spent up to now is      984.3 secs

     total energy              =   -2455.88339528 Ry
     estimated scf accuracy    <       0.03562279 Ry

     total magnetization       =     2.00 Bohr mag/cell
     absolute magnetization    =     2.20 Bohr mag/cell

     iteration #183     ecut=    60.00 Ry     beta= 0.30
     Davidson diagonalization with overlap

---- Real-time Memory Report at c_bands before calling an iterative solver
           225 MiB given to the printing process from OS
             0 MiB allocation reported by mallinfo(arena+hblkhd)
        144707 MiB available memory on the node where the printing process lives
------------------
     ethr =  3.52E-06,  avg # of iterations =  1.0

     total cpu time spent up to now is      986.8 secs

     total energy              =   -2455.88339542 Ry
     estimated scf accuracy    <       0.03558024 Ry

     total magnetization       =     2.00 Bohr mag/cell
     absolute magnetization    =     2.20 Bohr mag/cell

     iteration #184     ecut=    60.00 Ry     beta= 0.30
     Davidson diagonalization with overlap

---- Real-time Memory Report at c_bands before calling an iterative solver
           225 MiB given to the printing process from OS
             0 MiB allocation reported by mallinfo(arena+hblkhd)
        144707 MiB available memory on the node where the printing process lives
------------------
     ethr =  3.52E-06,  avg # of iterations =  1.0

     total cpu time spent up to now is      990.3 secs

     total energy              =   -2455.88339545 Ry
     estimated scf accuracy    <       0.03561325 Ry

     total magnetization       =     2.00 Bohr mag/cell
     absolute magnetization    =     2.20 Bohr mag/cell

     iteration #185     ecut=    60.00 Ry     beta= 0.30
     Davidson diagonalization with overlap

---- Real-time Memory Report at c_bands before calling an iterative solver
           225 MiB given to the printing process from OS
             0 MiB allocation reported by mallinfo(arena+hblkhd)
        144707 MiB available memory on the node where the printing process lives
------------------
     ethr =  3.52E-06,  avg # of iterations =  1.0

     total cpu time spent up to now is      991.8 secs

     total energy              =   -2455.88339543 Ry
     estimated scf accuracy    <       0.03560776 Ry

     total magnetization       =     2.00 Bohr mag/cell
     absolute magnetization    =     2.20 Bohr mag/cell

     iteration #186     ecut=    60.00 Ry     beta= 0.30
     Davidson diagonalization with overlap

---- Real-time Memory Report at c_bands before calling an iterative solver
           225 MiB given to the printing process from OS
             0 MiB allocation reported by mallinfo(arena+hblkhd)
        144707 MiB available memory on the node where the printing process lives
------------------
     ethr =  3.52E-06,  avg # of iterations =  1.0

     total cpu time spent up to now is      992.8 secs

     total energy              =   -2455.88339526 Ry
     estimated scf accuracy    <       0.03560693 Ry

     total magnetization       =     2.00 Bohr mag/cell
     absolute magnetization    =     2.20 Bohr mag/cell

     iteration #187     ecut=    60.00 Ry     beta= 0.30
     Davidson diagonalization with overlap

---- Real-time Memory Report at c_bands before calling an iterative solver
           225 MiB given to the printing process from OS
             0 MiB allocation reported by mallinfo(arena+hblkhd)
        144707 MiB available memory on the node where the printing process lives
------------------
     ethr =  3.52E-06,  avg # of iterations =  1.0

     total cpu time spent up to now is      993.9 secs

     total energy              =   -2455.88339525 Ry
     estimated scf accuracy    <       0.03560152 Ry

     total magnetization       =     2.00 Bohr mag/cell
     absolute magnetization    =     2.20 Bohr mag/cell

     iteration #188     ecut=    60.00 Ry     beta= 0.30
     Davidson diagonalization with overlap

---- Real-time Memory Report at c_bands before calling an iterative solver
           225 MiB given to the printing process from OS
             0 MiB allocation reported by mallinfo(arena+hblkhd)
        144707 MiB available memory on the node where the printing process lives
------------------
     ethr =  3.52E-06,  avg # of iterations =  1.0

     total cpu time spent up to now is      995.3 secs

     total energy              =   -2455.88339551 Ry
     estimated scf accuracy    <       0.03561598 Ry

     total magnetization       =     2.00 Bohr mag/cell
     absolute magnetization    =     2.20 Bohr mag/cell

     iteration #189     ecut=    60.00 Ry     beta= 0.30
     Davidson diagonalization with overlap

---- Real-time Memory Report at c_bands before calling an iterative solver
           225 MiB given to the printing process from OS
             0 MiB allocation reported by mallinfo(arena+hblkhd)
        144707 MiB available memory on the node where the printing process lives
------------------
     ethr =  3.52E-06,  avg # of iterations =  1.0

     total cpu time spent up to now is      996.5 secs

     total energy              =   -2455.88339382 Ry
     estimated scf accuracy    <       0.03561432 Ry

     total magnetization       =     2.00 Bohr mag/cell
     absolute magnetization    =     2.19 Bohr mag/cell

     iteration #190     ecut=    60.00 Ry     beta= 0.30
     Davidson diagonalization with overlap

---- Real-time Memory Report at c_bands before calling an iterative solver
           225 MiB given to the printing process from OS
             0 MiB allocation reported by mallinfo(arena+hblkhd)
        144707 MiB available memory on the node where the printing process lives
------------------
     ethr =  3.52E-06,  avg # of iterations =  1.0

     total cpu time spent up to now is      997.9 secs

     total energy              =   -2455.88339585 Ry
     estimated scf accuracy    <       0.03549728 Ry

     total magnetization       =     2.00 Bohr mag/cell
     absolute magnetization    =     2.20 Bohr mag/cell

     iteration #191     ecut=    60.00 Ry     beta= 0.30
     Davidson diagonalization with overlap

---- Real-time Memory Report at c_bands before calling an iterative solver
           225 MiB given to the printing process from OS
             0 MiB allocation reported by mallinfo(arena+hblkhd)
        144707 MiB available memory on the node where the printing process lives
------------------
     ethr =  3.52E-06,  avg # of iterations =  1.0

     total cpu time spent up to now is      999.0 secs

     total energy              =   -2455.88339556 Ry
     estimated scf accuracy    <       0.03554545 Ry

     total magnetization       =     2.00 Bohr mag/cell
     absolute magnetization    =     2.19 Bohr mag/cell

     iteration #192     ecut=    60.00 Ry     beta= 0.30
     Davidson diagonalization with overlap

---- Real-time Memory Report at c_bands before calling an iterative solver
           225 MiB given to the printing process from OS
             0 MiB allocation reported by mallinfo(arena+hblkhd)
        144707 MiB available memory on the node where the printing process lives
------------------
     ethr =  3.52E-06,  avg # of iterations =  1.0

     total cpu time spent up to now is     1000.2 secs

     total energy              =   -2455.88339567 Ry
     estimated scf accuracy    <       0.03558738 Ry

     total magnetization       =     2.00 Bohr mag/cell
     absolute magnetization    =     2.20 Bohr mag/cell

     iteration #193     ecut=    60.00 Ry     beta= 0.30
     Davidson diagonalization with overlap

---- Real-time Memory Report at c_bands before calling an iterative solver
           225 MiB given to the printing process from OS
             0 MiB allocation reported by mallinfo(arena+hblkhd)
        144707 MiB available memory on the node where the printing process lives
------------------
     ethr =  3.52E-06,  avg # of iterations =  1.0

     total cpu time spent up to now is     1005.3 secs

     total energy              =   -2455.88339565 Ry
     estimated scf accuracy    <       0.03558237 Ry

     total magnetization       =     2.00 Bohr mag/cell
     absolute magnetization    =     2.20 Bohr mag/cell

     iteration #194     ecut=    60.00 Ry     beta= 0.30
     Davidson diagonalization with overlap

---- Real-time Memory Report at c_bands before calling an iterative solver
           225 MiB given to the printing process from OS
             0 MiB allocation reported by mallinfo(arena+hblkhd)
        144707 MiB available memory on the node where the printing process lives
------------------
     ethr =  3.52E-06,  avg # of iterations =  1.0

     total cpu time spent up to now is     1008.7 secs

     total energy              =   -2455.88339617 Ry
     estimated scf accuracy    <       0.03562518 Ry

     total magnetization       =     2.00 Bohr mag/cell
     absolute magnetization    =     2.20 Bohr mag/cell

     iteration #195     ecut=    60.00 Ry     beta= 0.30
     Davidson diagonalization with overlap

---- Real-time Memory Report at c_bands before calling an iterative solver
           225 MiB given to the printing process from OS
             0 MiB allocation reported by mallinfo(arena+hblkhd)
        144707 MiB available memory on the node where the printing process lives
------------------
     ethr =  3.52E-06,  avg # of iterations =  1.0

     total cpu time spent up to now is     1011.4 secs

     total energy              =   -2455.88339651 Ry
     estimated scf accuracy    <       0.03560205 Ry

     total magnetization       =     2.00 Bohr mag/cell
     absolute magnetization    =     2.20 Bohr mag/cell

     iteration #196     ecut=    60.00 Ry     beta= 0.30
     Davidson diagonalization with overlap

---- Real-time Memory Report at c_bands before calling an iterative solver
           225 MiB given to the printing process from OS
             0 MiB allocation reported by mallinfo(arena+hblkhd)
        144707 MiB available memory on the node where the printing process lives
------------------
     ethr =  3.52E-06,  avg # of iterations =  1.0

     total cpu time spent up to now is     1014.2 secs

     total energy              =   -2455.88339692 Ry
     estimated scf accuracy    <       0.03559011 Ry

     total magnetization       =     2.00 Bohr mag/cell
     absolute magnetization    =     2.20 Bohr mag/cell

     iteration #197     ecut=    60.00 Ry     beta= 0.30
     Davidson diagonalization with overlap

---- Real-time Memory Report at c_bands before calling an iterative solver
           225 MiB given to the printing process from OS
             0 MiB allocation reported by mallinfo(arena+hblkhd)
        144706 MiB available memory on the node where the printing process lives
------------------
     ethr =  3.52E-06,  avg # of iterations =  1.0

     total cpu time spent up to now is     1022.8 secs

     total energy              =   -2455.88339709 Ry
     estimated scf accuracy    <       0.03560072 Ry

     total magnetization       =     2.00 Bohr mag/cell
     absolute magnetization    =     2.20 Bohr mag/cell

     iteration #198     ecut=    60.00 Ry     beta= 0.30
     Davidson diagonalization with overlap

---- Real-time Memory Report at c_bands before calling an iterative solver
           225 MiB given to the printing process from OS
             0 MiB allocation reported by mallinfo(arena+hblkhd)
        144706 MiB available memory on the node where the printing process lives
------------------
     ethr =  3.52E-06,  avg # of iterations =  1.0

     total cpu time spent up to now is     1044.2 secs

     total energy              =   -2455.88339805 Ry
     estimated scf accuracy    <       0.03558342 Ry

     total magnetization       =     2.00 Bohr mag/cell
     absolute magnetization    =     2.20 Bohr mag/cell

     iteration #199     ecut=    60.00 Ry     beta= 0.30
     Davidson diagonalization with overlap

---- Real-time Memory Report at c_bands before calling an iterative solver
           225 MiB given to the printing process from OS
             0 MiB allocation reported by mallinfo(arena+hblkhd)
        144699 MiB available memory on the node where the printing process lives
------------------
     ethr =  3.52E-06,  avg # of iterations =  1.0

     total cpu time spent up to now is     1046.4 secs

     total energy              =   -2455.88339509 Ry
     estimated scf accuracy    <       0.03559368 Ry

     total magnetization       =     2.00 Bohr mag/cell
     absolute magnetization    =     2.20 Bohr mag/cell

     iteration #200     ecut=    60.00 Ry     beta= 0.30
     Davidson diagonalization with overlap

---- Real-time Memory Report at c_bands before calling an iterative solver
           225 MiB given to the printing process from OS
             0 MiB allocation reported by mallinfo(arena+hblkhd)
        144707 MiB available memory on the node where the printing process lives
------------------
     ethr =  3.52E-06,  avg # of iterations =  1.0

     total cpu time spent up to now is     1047.6 secs

     total energy              =   -2455.88339429 Ry
     estimated scf accuracy    <       0.03562875 Ry

     total magnetization       =     2.00 Bohr mag/cell
     absolute magnetization    =     2.19 Bohr mag/cell

     iteration #201     ecut=    60.00 Ry     beta= 0.30
     Davidson diagonalization with overlap

---- Real-time Memory Report at c_bands before calling an iterative solver
           225 MiB given to the printing process from OS
             0 MiB allocation reported by mallinfo(arena+hblkhd)
        144706 MiB available memory on the node where the printing process lives
------------------
     ethr =  3.52E-06,  avg # of iterations =  1.0

     total cpu time spent up to now is     1049.8 secs

     total energy              =   -2455.88339637 Ry
     estimated scf accuracy    <       0.03561926 Ry

     total magnetization       =     2.00 Bohr mag/cell
     absolute magnetization    =     2.20 Bohr mag/cell

     iteration #202     ecut=    60.00 Ry     beta= 0.30
     Davidson diagonalization with overlap

---- Real-time Memory Report at c_bands before calling an iterative solver
           225 MiB given to the printing process from OS
             0 MiB allocation reported by mallinfo(arena+hblkhd)
        144707 MiB available memory on the node where the printing process lives
------------------
     ethr =  3.52E-06,  avg # of iterations =  1.0

     total cpu time spent up to now is     1052.8 secs

     total energy              =   -2455.88339559 Ry
     estimated scf accuracy    <       0.03550487 Ry

     total magnetization       =     2.00 Bohr mag/cell
     absolute magnetization    =     2.20 Bohr mag/cell

     iteration #203     ecut=    60.00 Ry     beta= 0.30
     Davidson diagonalization with overlap

---- Real-time Memory Report at c_bands before calling an iterative solver
           225 MiB given to the printing process from OS
             0 MiB allocation reported by mallinfo(arena+hblkhd)
        144706 MiB available memory on the node where the printing process lives
------------------
     ethr =  3.52E-06,  avg # of iterations =  1.0

     total cpu time spent up to now is     1065.1 secs

     total energy              =   -2455.88339388 Ry
     estimated scf accuracy    <       0.03542400 Ry

     total magnetization       =     2.00 Bohr mag/cell
     absolute magnetization    =     2.20 Bohr mag/cell

     iteration #204     ecut=    60.00 Ry     beta= 0.30
     Davidson diagonalization with overlap

---- Real-time Memory Report at c_bands before calling an iterative solver
           225 MiB given to the printing process from OS
             0 MiB allocation reported by mallinfo(arena+hblkhd)
        144707 MiB available memory on the node where the printing process lives
------------------
     ethr =  3.52E-06,  avg # of iterations =  1.0

     total cpu time spent up to now is     1067.0 secs

     total energy              =   -2455.88339764 Ry
     estimated scf accuracy    <       0.03558621 Ry

     total magnetization       =     2.00 Bohr mag/cell
     absolute magnetization    =     2.20 Bohr mag/cell

     iteration #205     ecut=    60.00 Ry     beta= 0.30
     Davidson diagonalization with overlap

---- Real-time Memory Report at c_bands before calling an iterative solver
           225 MiB given to the printing process from OS
             0 MiB allocation reported by mallinfo(arena+hblkhd)
        144706 MiB available memory on the node where the printing process lives
------------------
     ethr =  3.52E-06,  avg # of iterations =  1.0

     total cpu time spent up to now is     1069.4 secs

     total energy              =   -2455.88339682 Ry
     estimated scf accuracy    <       0.03557167 Ry

     total magnetization       =     2.00 Bohr mag/cell
     absolute magnetization    =     2.20 Bohr mag/cell

     iteration #206     ecut=    60.00 Ry     beta= 0.30
     Davidson diagonalization with overlap

---- Real-time Memory Report at c_bands before calling an iterative solver
           225 MiB given to the printing process from OS
             0 MiB allocation reported by mallinfo(arena+hblkhd)
        144706 MiB available memory on the node where the printing process lives
------------------
     ethr =  3.52E-06,  avg # of iterations =  1.0

     total cpu time spent up to now is     1070.7 secs

     total energy              =   -2455.88339654 Ry
     estimated scf accuracy    <       0.03555173 Ry

     total magnetization       =     2.00 Bohr mag/cell
     absolute magnetization    =     2.20 Bohr mag/cell

     iteration #207     ecut=    60.00 Ry     beta= 0.30
     Davidson diagonalization with overlap

---- Real-time Memory Report at c_bands before calling an iterative solver
           225 MiB given to the printing process from OS
             0 MiB allocation reported by mallinfo(arena+hblkhd)
        144706 MiB available memory on the node where the printing process lives
------------------
     ethr =  3.52E-06,  avg # of iterations =  1.0

     total cpu time spent up to now is     1098.7 secs

     total energy              =   -2455.88339626 Ry
     estimated scf accuracy    <       0.03554996 Ry

     total magnetization       =     2.00 Bohr mag/cell
     absolute magnetization    =     2.20 Bohr mag/cell

     iteration #208     ecut=    60.00 Ry     beta= 0.30
     Davidson diagonalization with overlap

---- Real-time Memory Report at c_bands before calling an iterative solver
           225 MiB given to the printing process from OS
             0 MiB allocation reported by mallinfo(arena+hblkhd)
        144699 MiB available memory on the node where the printing process lives
------------------
     ethr =  3.52E-06,  avg # of iterations =  1.0

     total cpu time spent up to now is     1099.9 secs

     total energy              =   -2455.88339621 Ry
     estimated scf accuracy    <       0.03554008 Ry

     total magnetization       =     2.00 Bohr mag/cell
     absolute magnetization    =     2.20 Bohr mag/cell

     iteration #209     ecut=    60.00 Ry     beta= 0.30
     Davidson diagonalization with overlap

---- Real-time Memory Report at c_bands before calling an iterative solver
           225 MiB given to the printing process from OS
             0 MiB allocation reported by mallinfo(arena+hblkhd)
        144706 MiB available memory on the node where the printing process lives
------------------
     ethr =  3.52E-06,  avg # of iterations =  1.0

     total cpu time spent up to now is     1101.8 secs

     total energy              =   -2455.88339558 Ry
     estimated scf accuracy    <       0.03554879 Ry

     total magnetization       =     2.00 Bohr mag/cell
     absolute magnetization    =     2.20 Bohr mag/cell

     iteration #210     ecut=    60.00 Ry     beta= 0.30
     Davidson diagonalization with overlap

---- Real-time Memory Report at c_bands before calling an iterative solver
           225 MiB given to the printing process from OS
             0 MiB allocation reported by mallinfo(arena+hblkhd)
        144705 MiB available memory on the node where the printing process lives
------------------
     ethr =  3.52E-06,  avg # of iterations =  1.0

     total cpu time spent up to now is     1104.7 secs

     total energy              =   -2455.88339568 Ry
     estimated scf accuracy    <       0.03554252 Ry

     total magnetization       =     2.00 Bohr mag/cell
     absolute magnetization    =     2.20 Bohr mag/cell

     iteration #211     ecut=    60.00 Ry     beta= 0.30
     Davidson diagonalization with overlap

---- Real-time Memory Report at c_bands before calling an iterative solver
           225 MiB given to the printing process from OS
             0 MiB allocation reported by mallinfo(arena+hblkhd)
        144706 MiB available memory on the node where the printing process lives
------------------
     ethr =  3.52E-06,  avg # of iterations =  1.0

     total cpu time spent up to now is     1123.7 secs

     total energy              =   -2455.88339705 Ry
     estimated scf accuracy    <       0.03554349 Ry

     total magnetization       =     2.00 Bohr mag/cell
     absolute magnetization    =     2.20 Bohr mag/cell

     iteration #212     ecut=    60.00 Ry     beta= 0.30
     Davidson diagonalization with overlap

---- Real-time Memory Report at c_bands before calling an iterative solver
           225 MiB given to the printing process from OS
             0 MiB allocation reported by mallinfo(arena+hblkhd)
        144706 MiB available memory on the node where the printing process lives
------------------
     ethr =  3.52E-06,  avg # of iterations =  1.0

     total cpu time spent up to now is     1128.1 secs

     total energy              =   -2455.88330709 Ry
     estimated scf accuracy    <       0.03557422 Ry

     total magnetization       =     2.00 Bohr mag/cell
     absolute magnetization    =     2.20 Bohr mag/cell

     iteration #213     ecut=    60.00 Ry     beta= 0.30
     Davidson diagonalization with overlap

---- Real-time Memory Report at c_bands before calling an iterative solver
           225 MiB given to the printing process from OS
             0 MiB allocation reported by mallinfo(arena+hblkhd)
        144706 MiB available memory on the node where the printing process lives
------------------
     ethr =  3.52E-06,  avg # of iterations =  1.0

     total cpu time spent up to now is     1130.7 secs

     total energy              =   -2455.88345033 Ry
     estimated scf accuracy    <       0.03709632 Ry

     total magnetization       =     2.00 Bohr mag/cell
     absolute magnetization    =     2.20 Bohr mag/cell

     iteration #214     ecut=    60.00 Ry     beta= 0.30
     Davidson diagonalization with overlap

---- Real-time Memory Report at c_bands before calling an iterative solver
           225 MiB given to the printing process from OS
             0 MiB allocation reported by mallinfo(arena+hblkhd)
        144707 MiB available memory on the node where the printing process lives
------------------
     ethr =  3.52E-06,  avg # of iterations =  1.0

     total cpu time spent up to now is     1156.0 secs

     total energy              =   -2455.88346249 Ry
     estimated scf accuracy    <       0.03647511 Ry

     total magnetization       =     2.00 Bohr mag/cell
     absolute magnetization    =     2.20 Bohr mag/cell

     iteration #215     ecut=    60.00 Ry     beta= 0.30
     Davidson diagonalization with overlap

---- Real-time Memory Report at c_bands before calling an iterative solver
           225 MiB given to the printing process from OS
             0 MiB allocation reported by mallinfo(arena+hblkhd)
        144707 MiB available memory on the node where the printing process lives
------------------
     ethr =  3.52E-06,  avg # of iterations =  1.0

     total cpu time spent up to now is     1158.2 secs

     total energy              =   -2455.88346248 Ry
     estimated scf accuracy    <       0.03668188 Ry

     total magnetization       =     2.00 Bohr mag/cell
     absolute magnetization    =     2.20 Bohr mag/cell

     iteration #216     ecut=    60.00 Ry     beta= 0.30
     Davidson diagonalization with overlap

---- Real-time Memory Report at c_bands before calling an iterative solver
           225 MiB given to the printing process from OS
             0 MiB allocation reported by mallinfo(arena+hblkhd)
        144706 MiB available memory on the node where the printing process lives
------------------
     ethr =  3.52E-06,  avg # of iterations =  1.0

     total cpu time spent up to now is     1159.6 secs

     total energy              =   -2455.88344056 Ry
     estimated scf accuracy    <       0.03668255 Ry

     total magnetization       =     2.00 Bohr mag/cell
     absolute magnetization    =     2.20 Bohr mag/cell

     iteration #217     ecut=    60.00 Ry     beta= 0.30
     Davidson diagonalization with overlap

---- Real-time Memory Report at c_bands before calling an iterative solver
           225 MiB given to the printing process from OS
             0 MiB allocation reported by mallinfo(arena+hblkhd)
        144706 MiB available memory on the node where the printing process lives
------------------
     ethr =  3.52E-06,  avg # of iterations =  1.0

     total cpu time spent up to now is     1167.9 secs

     total energy              =   -2455.88343349 Ry
     estimated scf accuracy    <       0.03638419 Ry

     total magnetization       =     2.00 Bohr mag/cell
     absolute magnetization    =     2.20 Bohr mag/cell

     iteration #218     ecut=    60.00 Ry     beta= 0.30
     Davidson diagonalization with overlap

---- Real-time Memory Report at c_bands before calling an iterative solver
           225 MiB given to the printing process from OS
             0 MiB allocation reported by mallinfo(arena+hblkhd)
        144707 MiB available memory on the node where the printing process lives
------------------
     ethr =  3.52E-06,  avg # of iterations =  1.0

     total cpu time spent up to now is     1169.7 secs

     total energy              =   -2455.88342109 Ry
     estimated scf accuracy    <       0.03623237 Ry

     total magnetization       =     2.00 Bohr mag/cell
     absolute magnetization    =     2.20 Bohr mag/cell

     iteration #219     ecut=    60.00 Ry     beta= 0.30
     Davidson diagonalization with overlap

---- Real-time Memory Report at c_bands before calling an iterative solver
           225 MiB given to the printing process from OS
             0 MiB allocation reported by mallinfo(arena+hblkhd)
        144706 MiB available memory on the node where the printing process lives
------------------
     ethr =  3.52E-06,  avg # of iterations =  1.0

     total cpu time spent up to now is     1177.9 secs

     total energy              =   -2455.88339786 Ry
     estimated scf accuracy    <       0.03599334 Ry

     total magnetization       =     2.00 Bohr mag/cell
     absolute magnetization    =     2.20 Bohr mag/cell

     iteration #220     ecut=    60.00 Ry     beta= 0.30
     Davidson diagonalization with overlap

---- Real-time Memory Report at c_bands before calling an iterative solver
           225 MiB given to the printing process from OS
             0 MiB allocation reported by mallinfo(arena+hblkhd)
        144706 MiB available memory on the node where the printing process lives
------------------
     ethr =  3.52E-06,  avg # of iterations =  1.0

     total cpu time spent up to now is     1181.3 secs

     total energy              =   -2455.88340210 Ry
     estimated scf accuracy    <       0.03563062 Ry

     total magnetization       =     2.00 Bohr mag/cell
     absolute magnetization    =     2.20 Bohr mag/cell

     iteration #221     ecut=    60.00 Ry     beta= 0.30
     Davidson diagonalization with overlap

---- Real-time Memory Report at c_bands before calling an iterative solver
           225 MiB given to the printing process from OS
             0 MiB allocation reported by mallinfo(arena+hblkhd)
        144706 MiB available memory on the node where the printing process lives
------------------
     ethr =  3.52E-06,  avg # of iterations =  1.0

     total cpu time spent up to now is     1213.1 secs

     total energy              =   -2455.88354501 Ry
     estimated scf accuracy    <       0.03566019 Ry

     total magnetization       =     2.00 Bohr mag/cell
     absolute magnetization    =     2.20 Bohr mag/cell

     iteration #222     ecut=    60.00 Ry     beta= 0.30
     Davidson diagonalization with overlap

---- Real-time Memory Report at c_bands before calling an iterative solver
           225 MiB given to the printing process from OS
             0 MiB allocation reported by mallinfo(arena+hblkhd)
        144706 MiB available memory on the node where the printing process lives
------------------
     ethr =  3.52E-06,  avg # of iterations =  1.5

     total cpu time spent up to now is     1236.7 secs

     total energy              =   -2455.88374586 Ry
     estimated scf accuracy    <       0.04224154 Ry

     total magnetization       =     2.00 Bohr mag/cell
     absolute magnetization    =     2.20 Bohr mag/cell

     iteration #223     ecut=    60.00 Ry     beta= 0.30
     Davidson diagonalization with overlap

---- Real-time Memory Report at c_bands before calling an iterative solver
           225 MiB given to the printing process from OS
             0 MiB allocation reported by mallinfo(arena+hblkhd)
        144698 MiB available memory on the node where the printing process lives
------------------
     ethr =  3.52E-06,  avg # of iterations =  1.5

     total cpu time spent up to now is     1238.4 secs

     total energy              =   -2455.88413995 Ry
     estimated scf accuracy    <       0.04828200 Ry

     total magnetization       =     2.00 Bohr mag/cell
     absolute magnetization    =     2.20 Bohr mag/cell

     iteration #224     ecut=    60.00 Ry     beta= 0.30
     Davidson diagonalization with overlap

---- Real-time Memory Report at c_bands before calling an iterative solver
           225 MiB given to the printing process from OS
             0 MiB allocation reported by mallinfo(arena+hblkhd)
        144705 MiB available memory on the node where the printing process lives
------------------
     ethr =  3.52E-06,  avg # of iterations =  3.5

     total cpu time spent up to now is     1242.9 secs

     total energy              =   -2455.88509667 Ry
     estimated scf accuracy    <       0.07328858 Ry

     total magnetization       =     2.00 Bohr mag/cell
     absolute magnetization    =     2.20 Bohr mag/cell

     iteration #225     ecut=    60.00 Ry     beta= 0.30
     Davidson diagonalization with overlap

---- Real-time Memory Report at c_bands before calling an iterative solver
           225 MiB given to the printing process from OS
             0 MiB allocation reported by mallinfo(arena+hblkhd)
        144707 MiB available memory on the node where the printing process lives
------------------
     ethr =  3.52E-06,  avg # of iterations =  1.5

     total cpu time spent up to now is     1248.3 secs

     total energy              =   -2455.88553318 Ry
     estimated scf accuracy    <       0.07959411 Ry

     total magnetization       =     2.00 Bohr mag/cell
     absolute magnetization    =     2.20 Bohr mag/cell

     iteration #226     ecut=    60.00 Ry     beta= 0.30
     Davidson diagonalization with overlap

---- Real-time Memory Report at c_bands before calling an iterative solver
           225 MiB given to the printing process from OS
             0 MiB allocation reported by mallinfo(arena+hblkhd)
        144706 MiB available memory on the node where the printing process lives
------------------
     ethr =  3.52E-06,  avg # of iterations =  1.5

     total cpu time spent up to now is     1251.2 secs

     total energy              =   -2455.88398172 Ry
     estimated scf accuracy    <       0.08686479 Ry

     total magnetization       =     2.00 Bohr mag/cell
     absolute magnetization    =     2.20 Bohr mag/cell

     iteration #227     ecut=    60.00 Ry     beta= 0.30
     Davidson diagonalization with overlap

---- Real-time Memory Report at c_bands before calling an iterative solver
           225 MiB given to the printing process from OS
             0 MiB allocation reported by mallinfo(arena+hblkhd)
        144706 MiB available memory on the node where the printing process lives
------------------
     ethr =  3.52E-06,  avg # of iterations =  3.0

     total cpu time spent up to now is     1257.9 secs

     total energy              =   -2455.88459740 Ry
     estimated scf accuracy    <       0.06485686 Ry

     total magnetization       =     2.00 Bohr mag/cell
     absolute magnetization    =     2.20 Bohr mag/cell

     iteration #228     ecut=    60.00 Ry     beta= 0.30
     Davidson diagonalization with overlap

---- Real-time Memory Report at c_bands before calling an iterative solver
           225 MiB given to the printing process from OS
             0 MiB allocation reported by mallinfo(arena+hblkhd)
        144706 MiB available memory on the node where the printing process lives
------------------
     ethr =  3.52E-06,  avg # of iterations =  1.0

     total cpu time spent up to now is     1260.3 secs

     total energy              =   -2455.87946928 Ry
     estimated scf accuracy    <       0.06658005 Ry

     total magnetization       =     2.00 Bohr mag/cell
     absolute magnetization    =     2.20 Bohr mag/cell

     iteration #229     ecut=    60.00 Ry     beta= 0.30
     Davidson diagonalization with overlap

---- Real-time Memory Report at c_bands before calling an iterative solver
           225 MiB given to the printing process from OS
             0 MiB allocation reported by mallinfo(arena+hblkhd)
        144706 MiB available memory on the node where the printing process lives
------------------
     ethr =  3.52E-06,  avg # of iterations =  5.0

     total cpu time spent up to now is     1266.7 secs

     total energy              =   -2455.88496939 Ry
     estimated scf accuracy    <       0.05221816 Ry

     total magnetization       =     2.00 Bohr mag/cell
     absolute magnetization    =     2.19 Bohr mag/cell

     iteration #230     ecut=    60.00 Ry     beta= 0.30
     Davidson diagonalization with overlap

---- Real-time Memory Report at c_bands before calling an iterative solver
           225 MiB given to the printing process from OS
             0 MiB allocation reported by mallinfo(arena+hblkhd)
        144707 MiB available memory on the node where the printing process lives
------------------
     ethr =  3.52E-06,  avg # of iterations =  6.0

     total cpu time spent up to now is     1271.8 secs

     total energy              =   -2455.88604436 Ry
     estimated scf accuracy    <       0.08162066 Ry

     total magnetization       =     2.00 Bohr mag/cell
     absolute magnetization    =     2.20 Bohr mag/cell

     iteration #231     ecut=    60.00 Ry     beta= 0.30
     Davidson diagonalization with overlap

---- Real-time Memory Report at c_bands before calling an iterative solver
           225 MiB given to the printing process from OS
             0 MiB allocation reported by mallinfo(arena+hblkhd)
        144703 MiB available memory on the node where the printing process lives
------------------
     ethr =  3.52E-06,  avg # of iterations =  1.5

     total cpu time spent up to now is     1278.3 secs

     total energy              =   -2455.88588496 Ry
     estimated scf accuracy    <       0.08268531 Ry

     total magnetization       =     2.00 Bohr mag/cell
     absolute magnetization    =     2.20 Bohr mag/cell

     iteration #232     ecut=    60.00 Ry     beta= 0.30
     Davidson diagonalization with overlap

---- Real-time Memory Report at c_bands before calling an iterative solver
           225 MiB given to the printing process from OS
             0 MiB allocation reported by mallinfo(arena+hblkhd)
        144704 MiB available memory on the node where the printing process lives
------------------
     ethr =  3.52E-06,  avg # of iterations =  1.0

     total cpu time spent up to now is     1306.3 secs

     total energy              =   -2455.88652419 Ry
     estimated scf accuracy    <       0.08313839 Ry

     total magnetization       =     2.00 Bohr mag/cell
     absolute magnetization    =     2.21 Bohr mag/cell

     iteration #233     ecut=    60.00 Ry     beta= 0.30
     Davidson diagonalization with overlap

---- Real-time Memory Report at c_bands before calling an iterative solver
           225 MiB given to the printing process from OS
             0 MiB allocation reported by mallinfo(arena+hblkhd)
        144707 MiB available memory on the node where the printing process lives
------------------
     ethr =  3.52E-06,  avg # of iterations =  1.5

     total cpu time spent up to now is     1308.5 secs

     total energy              =   -2455.88325673 Ry
     estimated scf accuracy    <       0.08997567 Ry

     total magnetization       =     2.00 Bohr mag/cell
     absolute magnetization    =     2.21 Bohr mag/cell

     iteration #234     ecut=    60.00 Ry     beta= 0.30
     Davidson diagonalization with overlap

---- Real-time Memory Report at c_bands before calling an iterative solver
           225 MiB given to the printing process from OS
             0 MiB allocation reported by mallinfo(arena+hblkhd)
        144706 MiB available memory on the node where the printing process lives
------------------
     ethr =  3.52E-06,  avg # of iterations =  3.5

     total cpu time spent up to now is     1310.4 secs

     total energy              =   -2455.87958012 Ry
     estimated scf accuracy    <       0.06422895 Ry

     total magnetization       =     2.00 Bohr mag/cell
     absolute magnetization    =     2.21 Bohr mag/cell

     iteration #235     ecut=    60.00 Ry     beta= 0.30
     Davidson diagonalization with overlap

---- Real-time Memory Report at c_bands before calling an iterative solver
           225 MiB given to the printing process from OS
             0 MiB allocation reported by mallinfo(arena+hblkhd)
        144707 MiB available memory on the node where the printing process lives
------------------
     ethr =  3.52E-06,  avg # of iterations =  5.5

     total cpu time spent up to now is     1322.4 secs

     total energy              =   -2455.88295589 Ry
     estimated scf accuracy    <       0.03696458 Ry

     total magnetization       =     2.00 Bohr mag/cell
     absolute magnetization    =     2.20 Bohr mag/cell

     iteration #236     ecut=    60.00 Ry     beta= 0.30
     Davidson diagonalization with overlap

---- Real-time Memory Report at c_bands before calling an iterative solver
           225 MiB given to the printing process from OS
             0 MiB allocation reported by mallinfo(arena+hblkhd)
        144712 MiB available memory on the node where the printing process lives
------------------
     ethr =  3.52E-06,  avg # of iterations =  2.0

     total cpu time spent up to now is     1324.0 secs

     total energy              =   -2455.88355126 Ry
     estimated scf accuracy    <       0.03960824 Ry

     total magnetization       =     2.00 Bohr mag/cell
     absolute magnetization    =     2.20 Bohr mag/cell

     iteration #237     ecut=    60.00 Ry     beta= 0.30
     Davidson diagonalization with overlap

---- Real-time Memory Report at c_bands before calling an iterative solver
           225 MiB given to the printing process from OS
             0 MiB allocation reported by mallinfo(arena+hblkhd)
        144712 MiB available memory on the node where the printing process lives
------------------
     ethr =  3.52E-06,  avg # of iterations =  1.0

     total cpu time spent up to now is     1327.7 secs

     total energy              =   -2455.88307334 Ry
     estimated scf accuracy    <       0.03656468 Ry

     total magnetization       =     2.00 Bohr mag/cell
     absolute magnetization    =     2.20 Bohr mag/cell

     iteration #238     ecut=    60.00 Ry     beta= 0.30
     Davidson diagonalization with overlap

---- Real-time Memory Report at c_bands before calling an iterative solver
           225 MiB given to the printing process from OS
             0 MiB allocation reported by mallinfo(arena+hblkhd)
        144712 MiB available memory on the node where the printing process lives
------------------
     ethr =  3.52E-06,  avg # of iterations =  3.0

     total cpu time spent up to now is     1332.5 secs

     total energy              =   -2455.88353435 Ry
     estimated scf accuracy    <       0.04052379 Ry

     total magnetization       =     2.00 Bohr mag/cell
     absolute magnetization    =     2.20 Bohr mag/cell

     iteration #239     ecut=    60.00 Ry     beta= 0.30
     Davidson diagonalization with overlap

---- Real-time Memory Report at c_bands before calling an iterative solver
           225 MiB given to the printing process from OS
             0 MiB allocation reported by mallinfo(arena+hblkhd)
        144712 MiB available memory on the node where the printing process lives
------------------
     ethr =  3.52E-06,  avg # of iterations =  1.0

     total cpu time spent up to now is     1349.9 secs

     total energy              =   -2455.88354838 Ry
     estimated scf accuracy    <       0.03934004 Ry

     total magnetization       =     2.00 Bohr mag/cell
     absolute magnetization    =     2.20 Bohr mag/cell

     iteration #240     ecut=    60.00 Ry     beta= 0.30
     Davidson diagonalization with overlap

---- Real-time Memory Report at c_bands before calling an iterative solver
           225 MiB given to the printing process from OS
             0 MiB allocation reported by mallinfo(arena+hblkhd)
        144713 MiB available memory on the node where the printing process lives
------------------
     ethr =  3.52E-06,  avg # of iterations =  1.0

     total cpu time spent up to now is     1351.2 secs

     total energy              =   -2455.88357509 Ry
     estimated scf accuracy    <       0.04135013 Ry

     total magnetization       =     2.00 Bohr mag/cell
     absolute magnetization    =     2.20 Bohr mag/cell

     iteration #241     ecut=    60.00 Ry     beta= 0.30
     Davidson diagonalization with overlap

---- Real-time Memory Report at c_bands before calling an iterative solver
           225 MiB given to the printing process from OS
             0 MiB allocation reported by mallinfo(arena+hblkhd)
        144712 MiB available memory on the node where the printing process lives
------------------
     ethr =  3.52E-06,  avg # of iterations =  1.0

     total cpu time spent up to now is     1352.7 secs

     total energy              =   -2455.88357203 Ry
     estimated scf accuracy    <       0.04436809 Ry

     total magnetization       =     2.00 Bohr mag/cell
     absolute magnetization    =     2.20 Bohr mag/cell

     iteration #242     ecut=    60.00 Ry     beta= 0.30
     Davidson diagonalization with overlap

---- Real-time Memory Report at c_bands before calling an iterative solver
           225 MiB given to the printing process from OS
             0 MiB allocation reported by mallinfo(arena+hblkhd)
        144712 MiB available memory on the node where the printing process lives
------------------
     ethr =  3.52E-06,  avg # of iterations =  1.0

     total cpu time spent up to now is     1355.6 secs

     total energy              =   -2455.88357998 Ry
     estimated scf accuracy    <       0.04231700 Ry

     total magnetization       =     2.00 Bohr mag/cell
     absolute magnetization    =     2.20 Bohr mag/cell

     iteration #243     ecut=    60.00 Ry     beta= 0.30
     Davidson diagonalization with overlap

---- Real-time Memory Report at c_bands before calling an iterative solver
           225 MiB given to the printing process from OS
             0 MiB allocation reported by mallinfo(arena+hblkhd)
        144712 MiB available memory on the node where the printing process lives
------------------
     ethr =  3.52E-06,  avg # of iterations =  1.0

     total cpu time spent up to now is     1365.9 secs

     total energy              =   -2455.88333289 Ry
     estimated scf accuracy    <       0.04651109 Ry

     total magnetization       =     2.00 Bohr mag/cell
     absolute magnetization    =     2.20 Bohr mag/cell

     iteration #244     ecut=    60.00 Ry     beta= 0.30
     Davidson diagonalization with overlap

---- Real-time Memory Report at c_bands before calling an iterative solver
           225 MiB given to the printing process from OS
             0 MiB allocation reported by mallinfo(arena+hblkhd)
        144712 MiB available memory on the node where the printing process lives
------------------
     ethr =  3.52E-06,  avg # of iterations =  2.0

     total cpu time spent up to now is     1368.8 secs

     total energy              =   -2455.88344782 Ry
     estimated scf accuracy    <       0.03947310 Ry

     total magnetization       =     2.00 Bohr mag/cell
     absolute magnetization    =     2.20 Bohr mag/cell

     iteration #245     ecut=    60.00 Ry     beta= 0.30
     Davidson diagonalization with overlap

---- Real-time Memory Report at c_bands before calling an iterative solver
           225 MiB given to the printing process from OS
             0 MiB allocation reported by mallinfo(arena+hblkhd)
        144712 MiB available memory on the node where the printing process lives
------------------
     ethr =  3.52E-06,  avg # of iterations =  1.0

     total cpu time spent up to now is     1385.3 secs

     total energy              =   -2455.88339674 Ry
     estimated scf accuracy    <       0.03993189 Ry

     total magnetization       =     2.00 Bohr mag/cell
     absolute magnetization    =     2.20 Bohr mag/cell

     iteration #246     ecut=    60.00 Ry     beta= 0.30
     Davidson diagonalization with overlap

---- Real-time Memory Report at c_bands before calling an iterative solver
           225 MiB given to the printing process from OS
             0 MiB allocation reported by mallinfo(arena+hblkhd)
        144703 MiB available memory on the node where the printing process lives
------------------
     ethr =  3.52E-06,  avg # of iterations =  1.0

     total cpu time spent up to now is     1402.1 secs

     total energy              =   -2455.88347953 Ry
     estimated scf accuracy    <       0.03620211 Ry

     total magnetization       =     2.00 Bohr mag/cell
     absolute magnetization    =     2.20 Bohr mag/cell

     iteration #247     ecut=    60.00 Ry     beta= 0.30
     Davidson diagonalization with overlap

---- Real-time Memory Report at c_bands before calling an iterative solver
           225 MiB given to the printing process from OS
             0 MiB allocation reported by mallinfo(arena+hblkhd)
        144713 MiB available memory on the node where the printing process lives
------------------
     ethr =  3.52E-06,  avg # of iterations =  1.5

     total cpu time spent up to now is     1406.8 secs

     total energy              =   -2455.88362831 Ry
     estimated scf accuracy    <       0.04253293 Ry

     total magnetization       =     2.00 Bohr mag/cell
     absolute magnetization    =     2.20 Bohr mag/cell

     iteration #248     ecut=    60.00 Ry     beta= 0.30
     Davidson diagonalization with overlap

---- Real-time Memory Report at c_bands before calling an iterative solver
           225 MiB given to the printing process from OS
             0 MiB allocation reported by mallinfo(arena+hblkhd)
        144713 MiB available memory on the node where the printing process lives
------------------
     ethr =  3.52E-06,  avg # of iterations =  1.0

     total cpu time spent up to now is     1408.0 secs

     total energy              =   -2455.88333790 Ry
     estimated scf accuracy    <       0.04152972 Ry

     total magnetization       =     2.00 Bohr mag/cell
     absolute magnetization    =     2.20 Bohr mag/cell

     iteration #249     ecut=    60.00 Ry     beta= 0.30
     Davidson diagonalization with overlap

---- Real-time Memory Report at c_bands before calling an iterative solver
           225 MiB given to the printing process from OS
             0 MiB allocation reported by mallinfo(arena+hblkhd)
        144712 MiB available memory on the node where the printing process lives
------------------
     ethr =  3.52E-06,  avg # of iterations =  2.5

     total cpu time spent up to now is     1410.5 secs

     total energy              =   -2455.88354777 Ry
     estimated scf accuracy    <       0.03381231 Ry

     total magnetization       =     2.00 Bohr mag/cell
     absolute magnetization    =     2.20 Bohr mag/cell

     iteration #250     ecut=    60.00 Ry     beta= 0.30
     Davidson diagonalization with overlap

---- Real-time Memory Report at c_bands before calling an iterative solver
           225 MiB given to the printing process from OS
             0 MiB allocation reported by mallinfo(arena+hblkhd)
        144713 MiB available memory on the node where the printing process lives
------------------
     ethr =  3.52E-06,  avg # of iterations =  1.0

     total cpu time spent up to now is     1416.1 secs

     total energy              =   -2455.88351975 Ry
     estimated scf accuracy    <       0.03458098 Ry

     total magnetization       =     2.00 Bohr mag/cell
     absolute magnetization    =     2.20 Bohr mag/cell

     iteration #251     ecut=    60.00 Ry     beta= 0.30
     Davidson diagonalization with overlap

---- Real-time Memory Report at c_bands before calling an iterative solver
           225 MiB given to the printing process from OS
             0 MiB allocation reported by mallinfo(arena+hblkhd)
        144712 MiB available memory on the node where the printing process lives
------------------
     ethr =  3.52E-06,  avg # of iterations =  1.5

     total cpu time spent up to now is     1428.0 secs

     total energy              =   -2455.88322403 Ry
     estimated scf accuracy    <       0.03049515 Ry

     total magnetization       =     2.00 Bohr mag/cell
     absolute magnetization    =     2.20 Bohr mag/cell

     iteration #252     ecut=    60.00 Ry     beta= 0.30
     Davidson diagonalization with overlap

---- Real-time Memory Report at c_bands before calling an iterative solver
           225 MiB given to the printing process from OS
             0 MiB allocation reported by mallinfo(arena+hblkhd)
        144713 MiB available memory on the node where the printing process lives
------------------
     ethr =  3.52E-06,  avg # of iterations =  3.0

     total cpu time spent up to now is     1460.0 secs

     total energy              =   -2455.88337311 Ry
     estimated scf accuracy    <       0.02714899 Ry

     total magnetization       =     2.00 Bohr mag/cell
     absolute magnetization    =     2.19 Bohr mag/cell

     iteration #253     ecut=    60.00 Ry     beta= 0.30
     Davidson diagonalization with overlap

---- Real-time Memory Report at c_bands before calling an iterative solver
           225 MiB given to the printing process from OS
             0 MiB allocation reported by mallinfo(arena+hblkhd)
        144713 MiB available memory on the node where the printing process lives
------------------
     ethr =  3.15E-06,  avg # of iterations =  2.5

     total cpu time spent up to now is     1461.5 secs

     total energy              =   -2455.88353950 Ry
     estimated scf accuracy    <       0.03497556 Ry

     total magnetization       =     2.00 Bohr mag/cell
     absolute magnetization    =     2.19 Bohr mag/cell

     iteration #254     ecut=    60.00 Ry     beta= 0.30
     Davidson diagonalization with overlap

---- Real-time Memory Report at c_bands before calling an iterative solver
           225 MiB given to the printing process from OS
             0 MiB allocation reported by mallinfo(arena+hblkhd)
        144712 MiB available memory on the node where the printing process lives
------------------
     ethr =  3.15E-06,  avg # of iterations =  1.0

     total cpu time spent up to now is     1463.9 secs

     total energy              =   -2455.88352544 Ry
     estimated scf accuracy    <       0.03155544 Ry

     total magnetization       =     2.00 Bohr mag/cell
     absolute magnetization    =     2.19 Bohr mag/cell

     iteration #255     ecut=    60.00 Ry     beta= 0.30
     Davidson diagonalization with overlap

---- Real-time Memory Report at c_bands before calling an iterative solver
           225 MiB given to the printing process from OS
             0 MiB allocation reported by mallinfo(arena+hblkhd)
        144711 MiB available memory on the node where the printing process lives
------------------
     ethr =  3.15E-06,  avg # of iterations =  1.0

     total cpu time spent up to now is     1467.6 secs

     total energy              =   -2455.88359942 Ry
     estimated scf accuracy    <       0.03403546 Ry

     total magnetization       =     2.00 Bohr mag/cell
     absolute magnetization    =     2.19 Bohr mag/cell

     iteration #256     ecut=    60.00 Ry     beta= 0.30
     Davidson diagonalization with overlap

---- Real-time Memory Report at c_bands before calling an iterative solver
           225 MiB given to the printing process from OS
             0 MiB allocation reported by mallinfo(arena+hblkhd)
        144712 MiB available memory on the node where the printing process lives
------------------
     ethr =  3.15E-06,  avg # of iterations =  1.5

     total cpu time spent up to now is     1473.7 secs

     total energy              =   -2455.88373169 Ry
     estimated scf accuracy    <       0.03247782 Ry

     total magnetization       =     2.00 Bohr mag/cell
     absolute magnetization    =     2.19 Bohr mag/cell

     iteration #257     ecut=    60.00 Ry     beta= 0.30
     Davidson diagonalization with overlap

---- Real-time Memory Report at c_bands before calling an iterative solver
           225 MiB given to the printing process from OS
             0 MiB allocation reported by mallinfo(arena+hblkhd)
        144712 MiB available memory on the node where the printing process lives
------------------
     ethr =  3.15E-06,  avg # of iterations =  1.0

     total cpu time spent up to now is     1475.1 secs

     total energy              =   -2455.88385882 Ry
     estimated scf accuracy    <       0.03212635 Ry

     total magnetization       =     2.00 Bohr mag/cell
     absolute magnetization    =     2.19 Bohr mag/cell

     iteration #258     ecut=    60.00 Ry     beta= 0.30
     Davidson diagonalization with overlap

---- Real-time Memory Report at c_bands before calling an iterative solver
           225 MiB given to the printing process from OS
             0 MiB allocation reported by mallinfo(arena+hblkhd)
        144712 MiB available memory on the node where the printing process lives
------------------
     ethr =  3.15E-06,  avg # of iterations =  1.5

     total cpu time spent up to now is     1477.6 secs

     total energy              =   -2455.88405900 Ry
     estimated scf accuracy    <       0.04027705 Ry

     total magnetization       =     2.00 Bohr mag/cell
     absolute magnetization    =     2.19 Bohr mag/cell

     iteration #259     ecut=    60.00 Ry     beta= 0.30
     Davidson diagonalization with overlap

---- Real-time Memory Report at c_bands before calling an iterative solver
           225 MiB given to the printing process from OS
             0 MiB allocation reported by mallinfo(arena+hblkhd)
        144712 MiB available memory on the node where the printing process lives
------------------
     ethr =  3.15E-06,  avg # of iterations =  1.5

     total cpu time spent up to now is     1479.3 secs

     total energy              =   -2455.88315486 Ry
     estimated scf accuracy    <       0.03775097 Ry

     total magnetization       =     2.00 Bohr mag/cell
     absolute magnetization    =     2.19 Bohr mag/cell

     iteration #260     ecut=    60.00 Ry     beta= 0.30
     Davidson diagonalization with overlap

---- Real-time Memory Report at c_bands before calling an iterative solver
           225 MiB given to the printing process from OS
             0 MiB allocation reported by mallinfo(arena+hblkhd)
        144712 MiB available memory on the node where the printing process lives
------------------
     ethr =  3.15E-06,  avg # of iterations =  3.0

     total cpu time spent up to now is     1482.1 secs

     total energy              =   -2455.88327136 Ry
     estimated scf accuracy    <       0.04869394 Ry

     total magnetization       =     2.00 Bohr mag/cell
     absolute magnetization    =     2.20 Bohr mag/cell

     iteration #261     ecut=    60.00 Ry     beta= 0.30
     Davidson diagonalization with overlap

---- Real-time Memory Report at c_bands before calling an iterative solver
           225 MiB given to the printing process from OS
             0 MiB allocation reported by mallinfo(arena+hblkhd)
        144712 MiB available memory on the node where the printing process lives
------------------
     ethr =  3.15E-06,  avg # of iterations =  1.5

     total cpu time spent up to now is     1492.4 secs

     total energy              =   -2455.88347846 Ry
     estimated scf accuracy    <       0.02524277 Ry

     total magnetization       =     2.00 Bohr mag/cell
     absolute magnetization    =     2.19 Bohr mag/cell

     iteration #262     ecut=    60.00 Ry     beta= 0.30
     Davidson diagonalization with overlap

---- Real-time Memory Report at c_bands before calling an iterative solver
           225 MiB given to the printing process from OS
             0 MiB allocation reported by mallinfo(arena+hblkhd)
        144711 MiB available memory on the node where the printing process lives
------------------
     ethr =  2.93E-06,  avg # of iterations =  1.0

     total cpu time spent up to now is     1515.5 secs

     total energy              =   -2455.88295654 Ry
     estimated scf accuracy    <       0.02283567 Ry

     total magnetization       =     2.00 Bohr mag/cell
     absolute magnetization    =     2.19 Bohr mag/cell

     iteration #263     ecut=    60.00 Ry     beta= 0.30
     Davidson diagonalization with overlap

---- Real-time Memory Report at c_bands before calling an iterative solver
           225 MiB given to the printing process from OS
             0 MiB allocation reported by mallinfo(arena+hblkhd)
        144712 MiB available memory on the node where the printing process lives
------------------
     ethr =  2.65E-06,  avg # of iterations =  1.5

     total cpu time spent up to now is     1521.8 secs

     total energy              =   -2455.88361515 Ry
     estimated scf accuracy    <       0.06183579 Ry

     total magnetization       =     2.00 Bohr mag/cell
     absolute magnetization    =     2.20 Bohr mag/cell

     iteration #264     ecut=    60.00 Ry     beta= 0.30
     Davidson diagonalization with overlap

---- Real-time Memory Report at c_bands before calling an iterative solver
           225 MiB given to the printing process from OS
             0 MiB allocation reported by mallinfo(arena+hblkhd)
        144712 MiB available memory on the node where the printing process lives
------------------
     ethr =  2.65E-06,  avg # of iterations =  1.5

     total cpu time spent up to now is     1530.9 secs

     total energy              =   -2455.88324253 Ry
     estimated scf accuracy    <       0.05385459 Ry

     total magnetization       =     2.00 Bohr mag/cell
     absolute magnetization    =     2.20 Bohr mag/cell

     iteration #265     ecut=    60.00 Ry     beta= 0.30
     Davidson diagonalization with overlap

---- Real-time Memory Report at c_bands before calling an iterative solver
           225 MiB given to the printing process from OS
             0 MiB allocation reported by mallinfo(arena+hblkhd)
        144712 MiB available memory on the node where the printing process lives
------------------
     ethr =  2.65E-06,  avg # of iterations =  2.5

     total cpu time spent up to now is     1533.4 secs

     total energy              =   -2455.88340673 Ry
     estimated scf accuracy    <       0.03410534 Ry

     total magnetization       =     2.00 Bohr mag/cell
     absolute magnetization    =     2.19 Bohr mag/cell

     iteration #266     ecut=    60.00 Ry     beta= 0.30
     Davidson diagonalization with overlap

---- Real-time Memory Report at c_bands before calling an iterative solver
           225 MiB given to the printing process from OS
             0 MiB allocation reported by mallinfo(arena+hblkhd)
        144712 MiB available memory on the node where the printing process lives
------------------
     ethr =  2.65E-06,  avg # of iterations =  1.0

     total cpu time spent up to now is     1536.3 secs

     total energy              =   -2455.88344316 Ry
     estimated scf accuracy    <       0.03899393 Ry

     total magnetization       =     2.00 Bohr mag/cell
     absolute magnetization    =     2.20 Bohr mag/cell

     iteration #267     ecut=    60.00 Ry     beta= 0.30
     Davidson diagonalization with overlap

---- Real-time Memory Report at c_bands before calling an iterative solver
           225 MiB given to the printing process from OS
             0 MiB allocation reported by mallinfo(arena+hblkhd)
        144712 MiB available memory on the node where the printing process lives
------------------
     ethr =  2.65E-06,  avg # of iterations =  1.0

     total cpu time spent up to now is     1558.5 secs

     total energy              =   -2455.88335859 Ry
     estimated scf accuracy    <       0.04039812 Ry

     total magnetization       =     2.00 Bohr mag/cell
     absolute magnetization    =     2.20 Bohr mag/cell

     iteration #268     ecut=    60.00 Ry     beta= 0.30
     Davidson diagonalization with overlap

---- Real-time Memory Report at c_bands before calling an iterative solver
           225 MiB given to the printing process from OS
             0 MiB allocation reported by mallinfo(arena+hblkhd)
        144713 MiB available memory on the node where the printing process lives
------------------
     ethr =  2.65E-06,  avg # of iterations =  1.0

     total cpu time spent up to now is     1560.2 secs

     total energy              =   -2455.88338298 Ry
     estimated scf accuracy    <       0.04437341 Ry

     total magnetization       =     2.00 Bohr mag/cell
     absolute magnetization    =     2.20 Bohr mag/cell

     iteration #269     ecut=    60.00 Ry     beta= 0.30
     Davidson diagonalization with overlap

---- Real-time Memory Report at c_bands before calling an iterative solver
           225 MiB given to the printing process from OS
             0 MiB allocation reported by mallinfo(arena+hblkhd)
        144712 MiB available memory on the node where the printing process lives
------------------
     ethr =  2.65E-06,  avg # of iterations =  1.0

     total cpu time spent up to now is     1570.9 secs

     total energy              =   -2455.88338723 Ry
     estimated scf accuracy    <       0.03291159 Ry

     total magnetization       =     2.00 Bohr mag/cell
     absolute magnetization    =     2.20 Bohr mag/cell

     iteration #270     ecut=    60.00 Ry     beta= 0.30
     Davidson diagonalization with overlap

---- Real-time Memory Report at c_bands before calling an iterative solver
           225 MiB given to the printing process from OS
             0 MiB allocation reported by mallinfo(arena+hblkhd)
        144712 MiB available memory on the node where the printing process lives
------------------
     ethr =  2.65E-06,  avg # of iterations =  1.0

     total cpu time spent up to now is     1580.6 secs

     total energy              =   -2455.88333196 Ry
     estimated scf accuracy    <       0.04428275 Ry

     total magnetization       =     2.00 Bohr mag/cell
     absolute magnetization    =     2.20 Bohr mag/cell

     iteration #271     ecut=    60.00 Ry     beta= 0.30
     Davidson diagonalization with overlap

---- Real-time Memory Report at c_bands before calling an iterative solver
           225 MiB given to the printing process from OS
             0 MiB allocation reported by mallinfo(arena+hblkhd)
        144712 MiB available memory on the node where the printing process lives
------------------
     ethr =  2.65E-06,  avg # of iterations =  1.0

     total cpu time spent up to now is     1583.3 secs

     total energy              =   -2455.88341032 Ry
     estimated scf accuracy    <       0.02764840 Ry

     total magnetization       =     2.00 Bohr mag/cell
     absolute magnetization    =     2.20 Bohr mag/cell

     iteration #272     ecut=    60.00 Ry     beta= 0.30
     Davidson diagonalization with overlap

---- Real-time Memory Report at c_bands before calling an iterative solver
           225 MiB given to the printing process from OS
             0 MiB allocation reported by mallinfo(arena+hblkhd)
        144713 MiB available memory on the node where the printing process lives
------------------
     ethr =  2.65E-06,  avg # of iterations =  1.0

     total cpu time spent up to now is     1586.4 secs

     total energy              =   -2455.88340939 Ry
     estimated scf accuracy    <       0.02890547 Ry

     total magnetization       =     2.00 Bohr mag/cell
     absolute magnetization    =     2.19 Bohr mag/cell

     iteration #273     ecut=    60.00 Ry     beta= 0.30
     Davidson diagonalization with overlap

---- Real-time Memory Report at c_bands before calling an iterative solver
           225 MiB given to the printing process from OS
             0 MiB allocation reported by mallinfo(arena+hblkhd)
        144713 MiB available memory on the node where the printing process lives
------------------
     ethr =  2.65E-06,  avg # of iterations =  1.0

     total cpu time spent up to now is     1588.9 secs

     total energy              =   -2455.88337971 Ry
     estimated scf accuracy    <       0.02935623 Ry

     total magnetization       =     2.00 Bohr mag/cell
     absolute magnetization    =     2.19 Bohr mag/cell

     iteration #274     ecut=    60.00 Ry     beta= 0.30
     Davidson diagonalization with overlap

---- Real-time Memory Report at c_bands before calling an iterative solver
           225 MiB given to the printing process from OS
             0 MiB allocation reported by mallinfo(arena+hblkhd)
        144712 MiB available memory on the node where the printing process lives
------------------
     ethr =  2.65E-06,  avg # of iterations =  1.0

     total cpu time spent up to now is     1591.9 secs

     total energy              =   -2455.88337092 Ry
     estimated scf accuracy    <       0.04306964 Ry

     total magnetization       =     2.00 Bohr mag/cell
     absolute magnetization    =     2.20 Bohr mag/cell

     iteration #275     ecut=    60.00 Ry     beta= 0.30
     Davidson diagonalization with overlap

---- Real-time Memory Report at c_bands before calling an iterative solver
           225 MiB given to the printing process from OS
             0 MiB allocation reported by mallinfo(arena+hblkhd)
        144713 MiB available memory on the node where the printing process lives
------------------
     ethr =  2.65E-06,  avg # of iterations =  1.0

     total cpu time spent up to now is     1602.6 secs

     total energy              =   -2455.88336574 Ry
     estimated scf accuracy    <       0.02938603 Ry

     total magnetization       =     2.00 Bohr mag/cell
     absolute magnetization    =     2.20 Bohr mag/cell

     iteration #276     ecut=    60.00 Ry     beta= 0.30
     Davidson diagonalization with overlap

---- Real-time Memory Report at c_bands before calling an iterative solver
           225 MiB given to the printing process from OS
             0 MiB allocation reported by mallinfo(arena+hblkhd)
        144713 MiB available memory on the node where the printing process lives
------------------
     ethr =  2.65E-06,  avg # of iterations =  1.0

     total cpu time spent up to now is     1608.4 secs

     total energy              =   -2455.88341331 Ry
     estimated scf accuracy    <       0.04193893 Ry

     total magnetization       =     2.00 Bohr mag/cell
     absolute magnetization    =     2.20 Bohr mag/cell

     iteration #277     ecut=    60.00 Ry     beta= 0.30
     Davidson diagonalization with overlap

---- Real-time Memory Report at c_bands before calling an iterative solver
           225 MiB given to the printing process from OS
             0 MiB allocation reported by mallinfo(arena+hblkhd)
        144713 MiB available memory on the node where the printing process lives
------------------
     ethr =  2.65E-06,  avg # of iterations =  1.0

     total cpu time spent up to now is     1615.6 secs

     total energy              =   -2455.88342787 Ry
     estimated scf accuracy    <       0.04121593 Ry

     total magnetization       =     2.00 Bohr mag/cell
     absolute magnetization    =     2.20 Bohr mag/cell

     iteration #278     ecut=    60.00 Ry     beta= 0.30
     Davidson diagonalization with overlap

---- Real-time Memory Report at c_bands before calling an iterative solver
           225 MiB given to the printing process from OS
             0 MiB allocation reported by mallinfo(arena+hblkhd)
        144713 MiB available memory on the node where the printing process lives
------------------
     ethr =  2.65E-06,  avg # of iterations =  1.0

     total cpu time spent up to now is     1626.4 secs

     total energy              =   -2455.88343818 Ry
     estimated scf accuracy    <       0.04141772 Ry

     total magnetization       =     2.00 Bohr mag/cell
     absolute magnetization    =     2.20 Bohr mag/cell

     iteration #279     ecut=    60.00 Ry     beta= 0.30
     Davidson diagonalization with overlap

---- Real-time Memory Report at c_bands before calling an iterative solver
           225 MiB given to the printing process from OS
             0 MiB allocation reported by mallinfo(arena+hblkhd)
        144714 MiB available memory on the node where the printing process lives
------------------
     ethr =  2.65E-06,  avg # of iterations =  1.0

     total cpu time spent up to now is     1642.9 secs

     total energy              =   -2455.88343940 Ry
     estimated scf accuracy    <       0.04040123 Ry

     total magnetization       =     2.00 Bohr mag/cell
     absolute magnetization    =     2.20 Bohr mag/cell

     iteration #280     ecut=    60.00 Ry     beta= 0.30
     Davidson diagonalization with overlap

---- Real-time Memory Report at c_bands before calling an iterative solver
           225 MiB given to the printing process from OS
             0 MiB allocation reported by mallinfo(arena+hblkhd)
        144713 MiB available memory on the node where the printing process lives
------------------
     ethr =  2.65E-06,  avg # of iterations =  1.0

     total cpu time spent up to now is     1646.8 secs

     total energy              =   -2455.88342363 Ry
     estimated scf accuracy    <       0.04056822 Ry

     total magnetization       =     2.00 Bohr mag/cell
     absolute magnetization    =     2.20 Bohr mag/cell

     iteration #281     ecut=    60.00 Ry     beta= 0.30
     Davidson diagonalization with overlap

---- Real-time Memory Report at c_bands before calling an iterative solver
           225 MiB given to the printing process from OS
             0 MiB allocation reported by mallinfo(arena+hblkhd)
        144712 MiB available memory on the node where the printing process lives
------------------
     ethr =  2.65E-06,  avg # of iterations =  1.0

     total cpu time spent up to now is     1648.7 secs

     total energy              =   -2455.88341968 Ry
     estimated scf accuracy    <       0.04042938 Ry

     total magnetization       =     2.00 Bohr mag/cell
     absolute magnetization    =     2.20 Bohr mag/cell

     iteration #282     ecut=    60.00 Ry     beta= 0.30
     Davidson diagonalization with overlap

---- Real-time Memory Report at c_bands before calling an iterative solver
           225 MiB given to the printing process from OS
             0 MiB allocation reported by mallinfo(arena+hblkhd)
        144712 MiB available memory on the node where the printing process lives
------------------
     ethr =  2.65E-06,  avg # of iterations =  1.0

     total cpu time spent up to now is     1651.1 secs

     total energy              =   -2455.88342084 Ry
     estimated scf accuracy    <       0.03999565 Ry

     total magnetization       =     2.00 Bohr mag/cell
     absolute magnetization    =     2.20 Bohr mag/cell

     iteration #283     ecut=    60.00 Ry     beta= 0.30
     Davidson diagonalization with overlap

---- Real-time Memory Report at c_bands before calling an iterative solver
           225 MiB given to the printing process from OS
             0 MiB allocation reported by mallinfo(arena+hblkhd)
        144712 MiB available memory on the node where the printing process lives
------------------
     ethr =  2.65E-06,  avg # of iterations =  1.0

     total cpu time spent up to now is     1657.9 secs

     total energy              =   -2455.88342120 Ry
     estimated scf accuracy    <       0.03993162 Ry

     total magnetization       =     2.00 Bohr mag/cell
     absolute magnetization    =     2.20 Bohr mag/cell

     iteration #284     ecut=    60.00 Ry     beta= 0.30
     Davidson diagonalization with overlap

---- Real-time Memory Report at c_bands before calling an iterative solver
           225 MiB given to the printing process from OS
             0 MiB allocation reported by mallinfo(arena+hblkhd)
        144712 MiB available memory on the node where the printing process lives
------------------
     ethr =  2.65E-06,  avg # of iterations =  1.0

     total cpu time spent up to now is     1660.5 secs

     total energy              =   -2455.88163216 Ry
     estimated scf accuracy    <       0.04049392 Ry

     total magnetization       =     2.00 Bohr mag/cell
     absolute magnetization    =     2.20 Bohr mag/cell

     iteration #285     ecut=    60.00 Ry     beta= 0.30
     Davidson diagonalization with overlap

---- Real-time Memory Report at c_bands before calling an iterative solver
           225 MiB given to the printing process from OS
             0 MiB allocation reported by mallinfo(arena+hblkhd)
        144712 MiB available memory on the node where the printing process lives
------------------
     ethr =  2.65E-06,  avg # of iterations =  3.5

     total cpu time spent up to now is     1663.7 secs

     total energy              =   -2455.88345911 Ry
     estimated scf accuracy    <       0.05774836 Ry

     total magnetization       =     2.00 Bohr mag/cell
     absolute magnetization    =     2.20 Bohr mag/cell

     iteration #286     ecut=    60.00 Ry     beta= 0.30
     Davidson diagonalization with overlap

---- Real-time Memory Report at c_bands before calling an iterative solver
           225 MiB given to the printing process from OS
             0 MiB allocation reported by mallinfo(arena+hblkhd)
        144713 MiB available memory on the node where the printing process lives
------------------
     ethr =  2.65E-06,  avg # of iterations =  3.0

     total cpu time spent up to now is     1677.0 secs

     total energy              =   -2455.88338179 Ry
     estimated scf accuracy    <       0.04452974 Ry

     total magnetization       =     2.00 Bohr mag/cell
     absolute magnetization    =     2.20 Bohr mag/cell

     iteration #287     ecut=    60.00 Ry     beta= 0.30
     Davidson diagonalization with overlap

---- Real-time Memory Report at c_bands before calling an iterative solver
           225 MiB given to the printing process from OS
             0 MiB allocation reported by mallinfo(arena+hblkhd)
        144712 MiB available memory on the node where the printing process lives
------------------
     ethr =  2.65E-06,  avg # of iterations =  1.5

     total cpu time spent up to now is     1682.6 secs

     total energy              =   -2455.88334158 Ry
     estimated scf accuracy    <       0.03840363 Ry

     total magnetization       =     2.00 Bohr mag/cell
     absolute magnetization    =     2.20 Bohr mag/cell

     iteration #288     ecut=    60.00 Ry     beta= 0.30
     Davidson diagonalization with overlap

---- Real-time Memory Report at c_bands before calling an iterative solver
           225 MiB given to the printing process from OS
             0 MiB allocation reported by mallinfo(arena+hblkhd)
        144713 MiB available memory on the node where the printing process lives
------------------
     ethr =  2.65E-06,  avg # of iterations =  1.5

     total cpu time spent up to now is     1690.5 secs

     total energy              =   -2455.88335033 Ry
     estimated scf accuracy    <       0.03553179 Ry

     total magnetization       =     2.00 Bohr mag/cell
     absolute magnetization    =     2.20 Bohr mag/cell

     iteration #289     ecut=    60.00 Ry     beta= 0.30
     Davidson diagonalization with overlap

---- Real-time Memory Report at c_bands before calling an iterative solver
           225 MiB given to the printing process from OS
             0 MiB allocation reported by mallinfo(arena+hblkhd)
        144713 MiB available memory on the node where the printing process lives
------------------
     ethr =  2.65E-06,  avg # of iterations =  1.0

     total cpu time spent up to now is     1714.3 secs

     total energy              =   -2455.88338407 Ry
     estimated scf accuracy    <       0.03617497 Ry

     total magnetization       =     2.00 Bohr mag/cell
     absolute magnetization    =     2.20 Bohr mag/cell

     iteration #290     ecut=    60.00 Ry     beta= 0.30
     Davidson diagonalization with overlap

---- Real-time Memory Report at c_bands before calling an iterative solver
           225 MiB given to the printing process from OS
             0 MiB allocation reported by mallinfo(arena+hblkhd)
        144712 MiB available memory on the node where the printing process lives
------------------
     ethr =  2.65E-06,  avg # of iterations =  1.0

     total cpu time spent up to now is     1722.6 secs

     total energy              =   -2455.88330610 Ry
     estimated scf accuracy    <       0.03597887 Ry

     total magnetization       =     2.00 Bohr mag/cell
     absolute magnetization    =     2.20 Bohr mag/cell

     iteration #291     ecut=    60.00 Ry     beta= 0.30
     Davidson diagonalization with overlap

---- Real-time Memory Report at c_bands before calling an iterative solver
           225 MiB given to the printing process from OS
             0 MiB allocation reported by mallinfo(arena+hblkhd)
        144712 MiB available memory on the node where the printing process lives
------------------
     ethr =  2.65E-06,  avg # of iterations =  1.5

     total cpu time spent up to now is     1741.9 secs

     total energy              =   -2455.88347855 Ry
     estimated scf accuracy    <       0.03951789 Ry

     total magnetization       =     2.00 Bohr mag/cell
     absolute magnetization    =     2.20 Bohr mag/cell

     iteration #292     ecut=    60.00 Ry     beta= 0.30
     Davidson diagonalization with overlap

---- Real-time Memory Report at c_bands before calling an iterative solver
           225 MiB given to the printing process from OS
             0 MiB allocation reported by mallinfo(arena+hblkhd)
        144712 MiB available memory on the node where the printing process lives
------------------
     ethr =  2.65E-06,  avg # of iterations =  1.0

     total cpu time spent up to now is     1743.5 secs

     total energy              =   -2455.88349350 Ry
     estimated scf accuracy    <       0.03920078 Ry

     total magnetization       =     2.00 Bohr mag/cell
     absolute magnetization    =     2.20 Bohr mag/cell

     iteration #293     ecut=    60.00 Ry     beta= 0.30
     Davidson diagonalization with overlap

---- Real-time Memory Report at c_bands before calling an iterative solver
           225 MiB given to the printing process from OS
             0 MiB allocation reported by mallinfo(arena+hblkhd)
        144711 MiB available memory on the node where the printing process lives
------------------
     ethr =  2.65E-06,  avg # of iterations =  1.0

     total cpu time spent up to now is     1750.7 secs

     total energy              =   -2455.88347809 Ry
     estimated scf accuracy    <       0.03944909 Ry

     total magnetization       =     2.00 Bohr mag/cell
     absolute magnetization    =     2.20 Bohr mag/cell

     iteration #294     ecut=    60.00 Ry     beta= 0.30
     Davidson diagonalization with overlap

---- Real-time Memory Report at c_bands before calling an iterative solver
           225 MiB given to the printing process from OS
             0 MiB allocation reported by mallinfo(arena+hblkhd)
        144711 MiB available memory on the node where the printing process lives
------------------
     ethr =  2.65E-06,  avg # of iterations =  1.0

     total cpu time spent up to now is     1755.2 secs

     total energy              =   -2455.88342618 Ry
     estimated scf accuracy    <       0.03851269 Ry

     total magnetization       =     2.00 Bohr mag/cell
     absolute magnetization    =     2.20 Bohr mag/cell

     iteration #295     ecut=    60.00 Ry     beta= 0.30
     Davidson diagonalization with overlap

---- Real-time Memory Report at c_bands before calling an iterative solver
           225 MiB given to the printing process from OS
             0 MiB allocation reported by mallinfo(arena+hblkhd)
        144712 MiB available memory on the node where the printing process lives
------------------
     ethr =  2.65E-06,  avg # of iterations =  1.0

     total cpu time spent up to now is     1766.4 secs

     total energy              =   -2455.88343597 Ry
     estimated scf accuracy    <       0.03701577 Ry

     total magnetization       =     2.00 Bohr mag/cell
     absolute magnetization    =     2.20 Bohr mag/cell

     iteration #296     ecut=    60.00 Ry     beta= 0.30
     Davidson diagonalization with overlap

---- Real-time Memory Report at c_bands before calling an iterative solver
           225 MiB given to the printing process from OS
             0 MiB allocation reported by mallinfo(arena+hblkhd)
        144712 MiB available memory on the node where the printing process lives
------------------
     ethr =  2.65E-06,  avg # of iterations =  1.0

     total cpu time spent up to now is     1768.8 secs

     total energy              =   -2455.88342821 Ry
     estimated scf accuracy    <       0.03722138 Ry

     total magnetization       =     2.00 Bohr mag/cell
     absolute magnetization    =     2.20 Bohr mag/cell

     iteration #297     ecut=    60.00 Ry     beta= 0.30
     Davidson diagonalization with overlap

---- Real-time Memory Report at c_bands before calling an iterative solver
           225 MiB given to the printing process from OS
             0 MiB allocation reported by mallinfo(arena+hblkhd)
        144711 MiB available memory on the node where the printing process lives
------------------
     ethr =  2.65E-06,  avg # of iterations =  1.0

     total cpu time spent up to now is     1770.4 secs

     total energy              =   -2455.88355924 Ry
     estimated scf accuracy    <       0.03709047 Ry

     total magnetization       =     2.00 Bohr mag/cell
     absolute magnetization    =     2.19 Bohr mag/cell

     iteration #298     ecut=    60.00 Ry     beta= 0.30
     Davidson diagonalization with overlap

---- Real-time Memory Report at c_bands before calling an iterative solver
           225 MiB given to the printing process from OS
             0 MiB allocation reported by mallinfo(arena+hblkhd)
        144712 MiB available memory on the node where the printing process lives
------------------
     ethr =  2.65E-06,  avg # of iterations =  1.0

     total cpu time spent up to now is     1803.9 secs

     total energy              =   -2455.88354376 Ry
     estimated scf accuracy    <       0.03858175 Ry

     total magnetization       =     2.00 Bohr mag/cell
     absolute magnetization    =     2.20 Bohr mag/cell

     iteration #299     ecut=    60.00 Ry     beta= 0.30
     Davidson diagonalization with overlap

---- Real-time Memory Report at c_bands before calling an iterative solver
           225 MiB given to the printing process from OS
             0 MiB allocation reported by mallinfo(arena+hblkhd)
        144712 MiB available memory on the node where the printing process lives
------------------
     ethr =  2.65E-06,  avg # of iterations =  1.0

     total cpu time spent up to now is     1808.0 secs

     total energy              =   -2455.86235849 Ry
     estimated scf accuracy    <       0.03889610 Ry

     total magnetization       =     2.00 Bohr mag/cell
     absolute magnetization    =     2.20 Bohr mag/cell

     iteration #300     ecut=    60.00 Ry     beta= 0.30
     Davidson diagonalization with overlap

---- Real-time Memory Report at c_bands before calling an iterative solver
           225 MiB given to the printing process from OS
             0 MiB allocation reported by mallinfo(arena+hblkhd)
        144712 MiB available memory on the node where the printing process lives
------------------
     ethr =  2.65E-06,  avg # of iterations = 12.0

     total cpu time spent up to now is     1814.4 secs

     total energy              =   -2455.88468515 Ry
     estimated scf accuracy    <       0.09567966 Ry

     total magnetization       =     2.00 Bohr mag/cell
     absolute magnetization    =     2.23 Bohr mag/cell

     End of self-consistent calculation

     convergence NOT achieved after 300 iterations: stopping

     Writing config to output data dir ./pwscf.save/ :
     XML data file, charge density distributed wavefunctions
 
     init_run     :      0.96s CPU      1.33s WALL (       1 calls)
     electrons    :   1745.40s CPU   1812.75s WALL (       1 calls)

     Called by init_run:
     wfcinit      :      0.48s CPU      0.56s WALL (       1 calls)
     wfcinit:wfcr :      0.46s CPU      0.52s WALL (       1 calls)
     potinit      :      0.18s CPU      0.20s WALL (       1 calls)
     hinit0       :      0.20s CPU      0.47s WALL (       1 calls)

     Called by electrons:
     c_bands      :   1395.56s CPU   1445.01s WALL (     300 calls)
     sum_band     :     75.50s CPU     77.56s WALL (     300 calls)
     v_of_rho     :     57.23s CPU     60.01s WALL (     301 calls)
     v_h          :      8.37s CPU      9.08s WALL (     301 calls)
     v_xc         :     48.86s CPU     50.93s WALL (     301 calls)
     mix_rho      :    161.86s CPU    172.36s WALL (     300 calls)

     Called by c_bands:
     init_us_2    :     10.42s CPU     10.86s WALL (     601 calls)
     regterg      :   1056.70s CPU   1104.16s WALL (     300 calls)

     Called by sum_band:
     sum_band:wei :      0.79s CPU      0.81s WALL (     300 calls)
     sum_band:loo :     33.35s CPU     34.31s WALL (     300 calls)
     sum_band:buf :      0.00s CPU      0.00s WALL (     300 calls)
     sum_band:ini :      5.27s CPU      5.41s WALL (     300 calls)

     Called by *egterg:
     rdiaghg      :     70.45s CPU     71.25s WALL (     771 calls)
     regterg:over :     19.12s CPU     19.37s WALL (     471 calls)
     regterg:upda :     25.33s CPU     25.56s WALL (     471 calls)
     regterg:last :     17.68s CPU     17.79s WALL (     363 calls)
     rdiaghg:chol :      2.23s CPU      2.29s WALL (     771 calls)
     rdiaghg:inve :      2.56s CPU      2.60s WALL (     771 calls)
     rdiaghg:para :      3.82s CPU      3.84s WALL (    1542 calls)
     h_psi        :    905.06s CPU    947.36s WALL (     772 calls)
     g_psi        :      0.64s CPU      0.66s WALL (     471 calls)

     Called by h_psi:
     h_psi:calbec :    259.51s CPU    271.31s WALL (     772 calls)
     vloc_psi     :    613.52s CPU    642.95s WALL (     772 calls)
                                        0.00s GPU  (     772 calls)
     add_vuspsi   :     30.17s CPU     31.22s WALL (     772 calls)

     General routines
     calbec       :    259.51s CPU    271.31s WALL (     772 calls)
     fft          :     34.41s CPU     35.94s WALL (    3913 calls)
     ffts         :      6.70s CPU      6.95s WALL (     300 calls)
     fftw         :    627.73s CPU    657.81s WALL (  348566 calls)
     davcio       :      0.00s CPU      0.00s WALL (      19 calls)
 
     Parallel routines
 
     PWSCF        :  29m 7.03s CPU  30m15.17s WALL

 
   This run was terminated on:  22:11:29   4Dec2025            

=------------------------------------------------------------------------------=
   JOB DONE.
=------------------------------------------------------------------------------=
