
     Program PWSCF v.7.5 starts on  4Dec2025 at 23:26:23 

     This program is part of the open-source Quantum ESPRESSO suite
     for quantum simulation of materials; please cite
         "P. Giannozzi et al., J. Phys.:Condens. Matter 21 395502 (2009);
         "P. Giannozzi et al., J. Phys.:Condens. Matter 29 465901 (2017);
         "P. Giannozzi et al., J. Chem. Phys. 152 154105 (2020);
          URL http://www.quantum-espresso.org", 
     in publications or presentations arising from this work. More details at
     http://www.quantum-espresso.org/quote

     Parallel version (MPI), running on    96 processors

     MPI processes distributed on     2 nodes
     173596 MiB available memory on the printing compute node when the environment starts
 
     Reading input from pw.in

     Current dimensions of program PWSCF are:
     Max number of different atomic species (ntypx) = 10
     Max number of k-points (npk) =  40000
     Max angular momentum in pseudopotentials (lmaxx) =  4

     gamma-point specific algorithms are used
     Message from routine setup:
     using ibrav=0 with symmetry is DISCOURAGED, use correct ibrav instead
 
     K-points division:     npool     =       2
     R & G space division:  proc/nbgrp/npool/nimage =      48
     Subspace diagonalization in iterative solution of the eigenvalue problem:
     one sub-group per band group will be used
     scalapack distributed-memory algorithm (size of sub-group:  6*  6 procs)

 
     Parallelization info
     --------------------
     sticks:   dense  smooth     PW     G-vecs:    dense   smooth      PW
     Min         384     384     96                39496    39496    4936
     Max         386     386     98                39521    39521    4949
     Sum       18505   18505   4637              1896521  1896521  237129
 
     Using Slab Decomposition
 


     bravais-lattice index     =            0
     lattice parameter (alat)  =      26.9702  a.u.
     unit-cell volume          =   19617.8366 (a.u.)^3
     number of atoms/cell      =          511
     number of atomic types    =            2
     number of electrons       =      2046.00 (up:1024.00, down:1022.00)
     number of Kohn-Sham states=         1032
     kinetic-energy cutoff     =      80.0000  Ry
     charge density cutoff     =     320.0000  Ry
     scf convergence threshold =      1.0E-10
     mixing beta               =       0.7000
     number of iterations used =            8  plain     mixing
     Exchange-correlation= PBE
                           (   1   4   3   4   0   0   0)

     celldm(1)=  26.970171  celldm(2)=   0.000000  celldm(3)=   0.000000
     celldm(4)=   0.000000  celldm(5)=   0.000000  celldm(6)=   0.000000

     crystal axes: (cart. coord. in units of alat)
               a(1) = (   1.000000   0.000000   0.000000 )  
               a(2) = (   0.000000   1.000000   0.000000 )  
               a(3) = (   0.000000   0.000000   1.000000 )  

     reciprocal axes: (cart. coord. in units 2 pi/alat)
               b(1) = (  1.000000  0.000000  0.000000 )  
               b(2) = (  0.000000  1.000000  0.000000 )  
               b(3) = (  0.000000  0.000000  1.000000 )  


     PseudoPot. # 1 for C  read from file:
     ./C_ONCV_PBE-1.2.upf
     MD5 check sum: d60b57d9bdca4133f5fde4b584ee909d
     Pseudo is Norm-conserving, Zval =  4.0
     Generated using ONCVPSP code by D. R. Hamann
     Using radial grid of  602 points,  4 beta functions with: 
                l(1) =   0
                l(2) =   0
                l(3) =   1
                l(4) =   1

     PseudoPot. # 2 for N  read from file:
     ./N_ONCV_PBE-1.2.upf
     MD5 check sum: 5312fdf34e96954e02a33bdc911c617a
     Pseudo is Norm-conserving, Zval =  5.0
     Generated using ONCVPSP code by D. R. Hamann
     Using radial grid of  602 points,  4 beta functions with: 
                l(1) =   0
                l(2) =   0
                l(3) =   1
                l(4) =   1

     atomic species   valence    mass     pseudopotential
     C                 4.00    12.01100     C ( 1.00)
     N                 5.00    14.00670     N ( 1.00)

     Starting magnetic structure 
     atomic species   magnetization
     C               0.000
     N               0.000

      2 Sym. Ops. (no inversion) found


                                    s                        frac. trans.

      isym =  1     identity                                     

 cryst.   s( 1) = (     1          0          0      )
                  (     0          1          0      )
                  (     0          0          1      )

 cart.    s( 1) = (  1.0000000  0.0000000  0.0000000 )
                  (  0.0000000  1.0000000  0.0000000 )
                  (  0.0000000  0.0000000  1.0000000 )


      isym =  2     inv. 180 deg rotation - cart. axis [0,1,-1]  

 cryst.   s( 2) = (     1          0          0      )
                  (     0          0          1      )
                  (     0          1          0      )

 cart.    s( 2) = (  1.0000000  0.0000000  0.0000000 )
                  (  0.0000000  0.0000000  1.0000000 )
                  (  0.0000000  1.0000000  0.0000000 )


   Cartesian axes

     site n.     atom                  positions (alat units)
         1        C      tau(   1) = (   0.0000184   0.0000166   0.0000118  )
         2        C      tau(   2) = (  -0.0000542  -0.0000676   0.2500164  )
         3        C      tau(   3) = (   0.0000242   0.0000069   0.5000071  )
         4        C      tau(   4) = (   0.0000947   0.0001038   0.7499980  )
         5        C      tau(   5) = (  -0.0000540   0.2500212  -0.0000727  )
         6        C      tau(   6) = (  -0.0001308   0.2499453   0.2499403  )
         7        C      tau(   7) = (  -0.0001571   0.2500433   0.4999484  )
         8        C      tau(   8) = (  -0.0000696   0.2500918   0.7499214  )
         9        C      tau(   9) = (   0.0000242   0.5000119   0.0000011  )
        10        C      tau(  10) = (  -0.0001570   0.4999536   0.2500377  )
        11        C      tau(  11) = (  -0.0000553   0.5000071   0.5000016  )
        12        C      tau(  12) = (   0.0000968   0.5000620   0.7499873  )
        13        C      tau(  13) = (   0.0000946   0.7500029   0.0000983  )
        14        C      tau(  14) = (  -0.0000698   0.7499269   0.2500862  )
        15        C      tau(  15) = (   0.0000968   0.7499929   0.5000567  )
        16        C      tau(  16) = (   0.0002850   0.7501010   0.7500956  )
        17        C      tau(  17) = (   0.2500294  -0.0000552  -0.0000613  )
        18        C      tau(  18) = (   0.2499695  -0.0001481   0.2499584  )
        19        C      tau(  19) = (   0.2500587  -0.0001532   0.4999581  )
        20        C      tau(  20) = (   0.2500936  -0.0000506   0.7499263  )
        21        C      tau(  21) = (   0.2499700   0.2499646  -0.0001546  )
        22        C      tau(  22) = (   0.2499130   0.2498966   0.2498904  )
        23        C      tau(  23) = (   0.2494774   0.2494955   0.4998653  )
        24        C      tau(  24) = (   0.2500239   0.2500441   0.7498162  )
        25        C      tau(  25) = (   0.2500586   0.4999639  -0.0001597  )
        26        C      tau(  26) = (   0.2494774   0.4998722   0.2494888  )
        27        C      tau(  27) = (   0.2502038   0.4997389   0.4997318  )
        28        C      tau(  28) = (   0.2500623   0.4999155   0.7498536  )
        29        C      tau(  29) = (   0.2500932   0.7499326  -0.0000583  )
        30        C      tau(  30) = (   0.2500231   0.7498236   0.2500363  )
        31        C      tau(  31) = (   0.2500624   0.7498605   0.4999086  )
        32        C      tau(  32) = (   0.2504190   0.7497822   0.7497751  )
        33        C      tau(  33) = (   0.5000182   0.0000080   0.0000019  )
        34        C      tau(  34) = (   0.4999669  -0.0001752   0.2500521  )
        35        C      tau(  35) = (   0.5000096  -0.0000422   0.5000014  )
        36        C      tau(  36) = (   0.5000565   0.0001236   0.7499734  )
        37        C      tau(  37) = (   0.4999670   0.2500576  -0.0001808  )
        38        C      tau(  38) = (   0.4999422   0.2494351   0.2494291  )
        39        C      tau(  39) = (   0.4997425   0.2503387   0.4996888  )
        40        C      tau(  40) = (   0.4998890   0.2501801   0.7497522  )
        41        C      tau(  41) = (   0.5000095   0.5000068  -0.0000479  )
        42        C      tau(  42) = (   0.4997422   0.4996957   0.2503319  )
        43        C      tau(  43) = (   0.5001982   0.5002360   0.7494757  )
        44        C      tau(  44) = (   0.5000562   0.7499794   0.0001170  )
        45        C      tau(  45) = (   0.4998885   0.7497583   0.2501738  )
        46        C      tau(  46) = (   0.5001979   0.7494819   0.5002297  )
        47        C      tau(  47) = (   0.5004791   0.7506301   0.7506241  )
        48        C      tau(  48) = (   0.7500009   0.0000921   0.0000874  )
        49        C      tau(  49) = (   0.7499336  -0.0000907   0.2500799  )
        50        C      tau(  50) = (   0.7499845   0.0001000   0.5000472  )
        51        C      tau(  51) = (   0.7500854   0.0003034   0.7500796  )
        52        C      tau(  52) = (   0.7499337   0.2500845  -0.0000955  )
        53        C      tau(  53) = (   0.7498539   0.2500068   0.2500019  )
        54        C      tau(  54) = (   0.7499127   0.2500461   0.4998293  )
        55        C      tau(  55) = (   0.7497523   0.2504488   0.7497262  )
        56        C      tau(  56) = (   0.7499845   0.5000518   0.0000950  )
        57        C      tau(  57) = (   0.7499128   0.4998352   0.2500398  )
        58        C      tau(  58) = (   0.7495199   0.5001940   0.5001876  )
        59        C      tau(  59) = (   0.7506137   0.5004860   0.7505907  )
        60        C      tau(  60) = (   0.7500853   0.7500843   0.0002983  )
        61        C      tau(  61) = (   0.7497528   0.7497321   0.2504428  )
        62        C      tau(  62) = (   0.7506139   0.7505963   0.5004804  )
        63        C      tau(  63) = (   0.7503971   0.7504010   0.7503960  )
        64        C      tau(  64) = (  -0.0000571   0.1249741   0.1249693  )
        65        C      tau(  65) = (  -0.0001003   0.1249473   0.3749630  )
        66        C      tau(  66) = (  -0.0000708   0.1251040   0.6249666  )
        67        C      tau(  67) = (  -0.0000089   0.1250742   0.8749488  )
        68        C      tau(  68) = (  -0.0001001   0.3749678   0.1249420  )
        69        C      tau(  69) = (  -0.0001811   0.3749875   0.3749820  )
        70        C      tau(  70) = (  -0.0000653   0.3750648   0.6249415  )
        71        C      tau(  71) = (  -0.0000110   0.3750477   0.8749322  )
        72        C      tau(  72) = (  -0.0000709   0.6249717   0.1250981  )
        73        C      tau(  73) = (  -0.0000652   0.6249469   0.3750592  )
        74        C      tau(  74) = (   0.0001447   0.6250445   0.6250389  )
        75        C      tau(  75) = (   0.0002060   0.6250578   0.8750882  )
        76        C      tau(  76) = (  -0.0000091   0.8749538   0.1250691  )
        77        C      tau(  77) = (  -0.0000113   0.8749377   0.3750426  )
        78        C      tau(  78) = (   0.0002061   0.8750938   0.6250528  )
        79        C      tau(  79) = (   0.0001561   0.8750623   0.8750573  )
        80        C      tau(  80) = (   0.2499622   0.1249163   0.1249104  )
        81        C      tau(  81) = (   0.2499250   0.1248236   0.3748998  )
        82        C      tau(  82) = (   0.2499519   0.1249195   0.6248953  )
        83        C      tau(  83) = (   0.2500203   0.1250033   0.8748823  )
        84        C      tau(  84) = (   0.2499249   0.3749057   0.1248176  )
        85        C      tau(  85) = (   0.2498843   0.3748941   0.3748874  )
        86        C      tau(  86) = (   0.2499527   0.3749005   0.6247259  )
        87        C      tau(  87) = (   0.2500328   0.3750100   0.8748321  )
        88        C      tau(  88) = (   0.2499512   0.6249022   0.1249118  )
        89        C      tau(  89) = (   0.2499523   0.6247334   0.3748929  )
        90        C      tau(  90) = (   0.2504637   0.6246172   0.6246103  )
        91        C      tau(  91) = (   0.2503674   0.6249523   0.8746937  )
        92        C      tau(  92) = (   0.2500196   0.8748888   0.1249961  )
        93        C      tau(  93) = (   0.2500322   0.8748393   0.3750031  )
        94        C      tau(  94) = (   0.2503674   0.8747010   0.6249460  )
        95        C      tau(  95) = (   0.2501449   0.8749281   0.8749214  )
        96        C      tau(  96) = (   0.4999764   0.1247756   0.1247702  )
        97        C      tau(  97) = (   0.4999075   0.1249429   0.3749203  )
        98        C      tau(  98) = (   0.4999331   0.1251619   0.6248303  )
        99        C      tau(  99) = (   0.4999804   0.1250976   0.8748998  )
       100        C      tau( 100) = (   0.4999074   0.3749259   0.1249372  )
       101        C      tau( 101) = (   0.5002798   0.3749557   0.3749488  )
       102        C      tau( 102) = (   0.4993723   0.3763450   0.6231253  )
       103        C      tau( 103) = (   0.5000110   0.3752241   0.8746724  )
       104        C      tau( 104) = (   0.4999324   0.6248368   0.1251550  )
       105        C      tau( 105) = (   0.4993720   0.6231315   0.3763386  )
       106        C      tau( 106) = (   0.5034011   0.6251287   0.6251226  )
       107        C      tau( 107) = (   0.5001849   0.6250809   0.8750036  )
       108        C      tau( 108) = (   0.4999801   0.8749061   0.1250910  )
       109        C      tau( 109) = (   0.5000107   0.8746783   0.3752181  )
       110        C      tau( 110) = (   0.5001850   0.8750096   0.6250753  )
       111        C      tau( 111) = (   0.5001528   0.8752359   0.8752299  )
       112        C      tau( 112) = (   0.7499347   0.1250034   0.1249988  )
       113        C      tau( 113) = (   0.7499248   0.1249897   0.3749793  )
       114        C      tau( 114) = (   0.7498566   0.1252683   0.6249106  )
       115        C      tau( 115) = (   0.7499489   0.1252484   0.8749152  )
       116        C      tau( 116) = (   0.7499249   0.3749841   0.1249846  )
       117        C      tau( 117) = (   0.7497201   0.3750418   0.3750359  )
       118        C      tau( 118) = (   0.7491441   0.3759400   0.6247652  )
       119        C      tau( 119) = (   0.7499066   0.3751954   0.8748807  )
       120        C      tau( 120) = (   0.7498566   0.6249159   0.1252627  )
       121        C      tau( 121) = (   0.7491439   0.6247714   0.3759338  )
       122        C      tau( 122) = (   0.7507767   0.6255996   0.6255938  )
       123        C      tau( 123) = (   0.7503157   0.6252583   0.8754058  )
       124        C      tau( 124) = (   0.7499489   0.8749203   0.1252433  )
       125        C      tau( 125) = (   0.7499067   0.8748858   0.3751904  )
       126        C      tau( 126) = (   0.7503159   0.8754109   0.6252536  )
       127        C      tau( 127) = (   0.7501560   0.8752361   0.8752314  )
       128        C      tau( 128) = (   0.1249866  -0.0000663   0.1249767  )
       129        C      tau( 129) = (   0.1249726  -0.0001140   0.3749704  )
       130        C      tau( 130) = (   0.1251087  -0.0000650   0.6249721  )
       131        C      tau( 131) = (   0.1250732  -0.0000014   0.8749555  )
       132        C      tau( 132) = (   0.1249288   0.2499457   0.1249053  )
       133        C      tau( 133) = (   0.1248146   0.2499003   0.3748947  )
       134        C      tau( 134) = (   0.1248937   0.2499484   0.6249006  )
       135        C      tau( 135) = (   0.1249943   0.2500198   0.8748847  )
       136        C      tau( 136) = (   0.1248083   0.4999573   0.1247969  )
       137        C      tau( 137) = (   0.1249140   0.4998889   0.3749220  )
       138        C      tau( 138) = (   0.1250966   0.4999446   0.6248668  )
       139        C      tau( 139) = (   0.1250607   0.4999841   0.8749411  )
       140        C      tau( 140) = (   0.1250190   0.7499272   0.1250187  )
       141        C      tau( 141) = (   0.1250023   0.7499089   0.3750022  )
       142        C      tau( 142) = (   0.1252329   0.7498853   0.6249448  )
       143        C      tau( 143) = (   0.1252376   0.7499628   0.8749451  )
       144        C      tau( 144) = (   0.3749832  -0.0001207   0.1249640  )
       145        C      tau( 145) = (   0.3750052  -0.0001854   0.3749977  )
       146        C      tau( 146) = (   0.3750681  -0.0000434   0.6249405  )
       147        C      tau( 147) = (   0.3750505   0.0000039   0.8749317  )
       148        C      tau( 148) = (   0.3749248   0.2499119   0.1248113  )
       149        C      tau( 149) = (   0.3749442   0.2499577   0.3748976  )
       150        C      tau( 150) = (   0.3748785   0.2500429   0.6246825  )
       151        C      tau( 151) = (   0.3750010   0.2500563   0.8748135  )
       152        C      tau( 152) = (   0.3749415   0.4998847   0.1249502  )
       153        C      tau( 153) = (   0.3748475   0.5000036   0.3749641  )
       154        C      tau( 154) = (   0.3760091   0.4994103   0.6233433  )
       155        C      tau( 155) = (   0.3752027   0.5000270   0.8746939  )
       156        C      tau( 156) = (   0.3750045   0.7498828   0.1250399  )
       157        C      tau( 157) = (   0.3750584   0.7496337   0.3751158  )
       158        C      tau( 158) = (   0.3759142   0.7491435   0.6248312  )
       159        C      tau( 159) = (   0.3751878   0.7499244   0.8749163  )
       160        C      tau( 160) = (   0.6249772  -0.0000947   0.1250961  )
       161        C      tau( 161) = (   0.6249491  -0.0000717   0.3750591  )
       162        C      tau( 162) = (   0.6250320   0.0001671   0.6250242  )
       163        C      tau( 163) = (   0.6250504   0.0002205   0.8750707  )
       164        C      tau( 164) = (   0.6249266   0.2499262   0.1248705  )
       165        C      tau( 165) = (   0.6247742   0.2499749   0.3748492  )
       166        C      tau( 166) = (   0.6245759   0.2505946   0.6245130  )
       167        C      tau( 167) = (   0.6249335   0.2503901   0.8746477  )
       168        C      tau( 168) = (   0.6248621   0.4999133   0.1251363  )
       169        C      tau( 169) = (   0.6233795   0.4991286   0.3761641  )
       170        C      tau( 170) = (   0.6251197   0.5033999   0.6250520  )
       171        C      tau( 171) = (   0.6250684   0.5001949   0.8749874  )
       172        C      tau( 172) = (   0.6249279   0.7498360   0.1252800  )
       173        C      tau( 173) = (   0.6248059   0.7490828   0.3759514  )
       174        C      tau( 174) = (   0.6256041   0.7507620   0.6256043  )
       175        C      tau( 175) = (   0.6252558   0.7503206   0.8754115  )
       176        C      tau( 176) = (   0.8749594  -0.0000188   0.1250633  )
       177        C      tau( 177) = (   0.8749457  -0.0000292   0.3750370  )
       178        C      tau( 178) = (   0.8750814   0.0002140   0.6250456  )
       179        C      tau( 179) = (   0.8750540   0.0001621   0.8750492  )
       180        C      tau( 180) = (   0.8749031   0.2500034   0.1249698  )
       181        C      tau( 181) = (   0.8748725   0.2500042   0.3749715  )
       182        C      tau( 182) = (   0.8746923   0.2503706   0.6249184  )
       183        C      tau( 183) = (   0.8749131   0.2501457   0.8748966  )
       184        C      tau( 184) = (   0.8749676   0.4999617   0.1250289  )
       185        C      tau( 185) = (   0.8747141   0.4999983   0.3751913  )
       186        C      tau( 186) = (   0.8750084   0.5001893   0.6250641  )
       187        C      tau( 187) = (   0.8752261   0.5001534   0.8752207  )
       188        C      tau( 188) = (   0.8749322   0.7499425   0.1252426  )
       189        C      tau( 189) = (   0.8749064   0.7499048   0.3751880  )
       190        C      tau( 190) = (   0.8754071   0.7503222   0.6252565  )
       191        C      tau( 191) = (   0.8752290   0.7501625   0.8752348  )
       192        C      tau( 192) = (   0.1249869   0.1249821  -0.0000717  )
       193        C      tau( 193) = (   0.1249287   0.1249110   0.2499404  )
       194        C      tau( 194) = (   0.1248086   0.1248035   0.4999514  )
       195        C      tau( 195) = (   0.1250195   0.1250253   0.7499213  )
       196        C      tau( 196) = (   0.1249730   0.3749759  -0.0001201  )
       197        C      tau( 197) = (   0.1248146   0.3749004   0.2498944  )
       198        C      tau( 198) = (   0.1249139   0.3749282   0.4998827  )
       199        C      tau( 199) = (   0.1250029   0.3750087   0.7499023  )
       200        C      tau( 200) = (   0.1251085   0.6249777  -0.0000719  )
       201        C      tau( 201) = (   0.1248932   0.6249070   0.2499417  )
       202        C      tau( 202) = (   0.1250966   0.6248734   0.4999381  )
       203        C      tau( 203) = (   0.1252330   0.6249512   0.7498786  )
       204        C      tau( 204) = (   0.1250730   0.8749609  -0.0000074  )
       205        C      tau( 205) = (   0.1249937   0.8748907   0.2500138  )
       206        C      tau( 206) = (   0.1250603   0.8749478   0.4999781  )
       207        C      tau( 207) = (   0.1252376   0.8749517   0.7499570  )
       208        C      tau( 208) = (   0.3749835   0.1249705  -0.0001272  )
       209        C      tau( 209) = (   0.3749247   0.1248171   0.2499063  )
       210        C      tau( 210) = (   0.3749420   0.1249567   0.4998783  )
       211        C      tau( 211) = (   0.3750052   0.1250478   0.7498756  )
       212        C      tau( 212) = (   0.3750053   0.3750035  -0.0001913  )
       213        C      tau( 213) = (   0.3749441   0.3749045   0.2499509  )
       214        C      tau( 214) = (   0.3748478   0.3749708   0.4999968  )
       215        C      tau( 215) = (   0.3750588   0.3751227   0.7496271  )
       216        C      tau( 216) = (   0.3750678   0.6249466  -0.0000504  )
       217        C      tau( 217) = (   0.3748780   0.6246895   0.2500357  )
       218        C      tau( 218) = (   0.3760089   0.6233498   0.4994038  )
       219        C      tau( 219) = (   0.3759142   0.6248378   0.7491368  )
       220        C      tau( 220) = (   0.3750503   0.8749383  -0.0000035  )
       221        C      tau( 221) = (   0.3750004   0.8748205   0.2500491  )
       222        C      tau( 222) = (   0.3752026   0.8747002   0.5000208  )
       223        C      tau( 223) = (   0.3751878   0.8749234   0.7499180  )
       224        C      tau( 224) = (   0.6249773   0.1251012  -0.0000998  )
       225        C      tau( 225) = (   0.6249265   0.1248756   0.2499213  )
       226        C      tau( 226) = (   0.6248623   0.1251419   0.4999078  )
       227        C      tau( 227) = (   0.6249283   0.1252861   0.7498302  )
       228        C      tau( 228) = (   0.6249491   0.3750640  -0.0000768  )
       229        C      tau( 229) = (   0.6247741   0.3748550   0.2499689  )
       230        C      tau( 230) = (   0.6233799   0.3761705   0.4991221  )
       231        C      tau( 231) = (   0.6248062   0.3759573   0.7490770  )
       232        C      tau( 232) = (   0.6250318   0.6250293   0.0001617  )
       233        C      tau( 233) = (   0.6245756   0.6245197   0.2505878  )
       234        C      tau( 234) = (   0.6251194   0.6250579   0.5033940  )
       235        C      tau( 235) = (   0.6256040   0.6256101   0.7507560  )
       236        C      tau( 236) = (   0.6250504   0.8750761   0.0002150  )
       237        C      tau( 237) = (   0.6249334   0.8746530   0.2503846  )
       238        C      tau( 238) = (   0.6250685   0.8749927   0.5001896  )
       239        C      tau( 239) = (   0.6252559   0.8754168   0.7503156  )
       240        C      tau( 240) = (   0.8749594   0.1250679  -0.0000235  )
       241        C      tau( 241) = (   0.8749030   0.1249745   0.2499989  )
       242        C      tau( 242) = (   0.8749674   0.1250343   0.4999569  )
       243        C      tau( 243) = (   0.8749321   0.1252481   0.7499375  )
       244        C      tau( 244) = (   0.8749458   0.3750414  -0.0000342  )
       245        C      tau( 245) = (   0.8748725   0.3749766   0.2499990  )
       246        C      tau( 246) = (   0.8747140   0.3751973   0.4999925  )
       247        C      tau( 247) = (   0.8749060   0.3751935   0.7498993  )
       248        C      tau( 248) = (   0.8750813   0.6250502   0.0002088  )
       249        C      tau( 249) = (   0.8746928   0.6249241   0.2503645  )
       250        C      tau( 250) = (   0.8750085   0.6250696   0.5001837  )
       251        C      tau( 251) = (   0.8754071   0.6252615   0.7503171  )
       252        C      tau( 252) = (   0.8750540   0.8750539   0.0001573  )
       253        C      tau( 253) = (   0.8749132   0.8749018   0.2501407  )
       254        C      tau( 254) = (   0.8752262   0.8752258   0.5001488  )
       255        C      tau( 255) = (   0.8752291   0.8752396   0.7501578  )
       256        C      tau( 256) = (   0.1874650   0.0624049   0.1874480  )
       257        C      tau( 257) = (   0.1874431   0.0623384   0.4374375  )
       258        C      tau( 258) = (   0.1875540   0.0624576   0.6874332  )
       259        C      tau( 259) = (   0.1875346   0.0624880   0.9374283  )
       260        C      tau( 260) = (   0.1873926   0.3124014   0.1873733  )
       261        C      tau( 261) = (   0.1872748   0.3123003   0.4373083  )
       262        C      tau( 262) = (   0.1874553   0.3125174   0.6873339  )
       263        C      tau( 263) = (   0.1874995   0.3124990   0.9373586  )
       264        C      tau( 264) = (   0.1871873   0.5623407   0.1871888  )
       265        C      tau( 265) = (   0.1875178   0.5622962   0.4374282  )
       266        C      tau( 266) = (   0.1877156   0.5624352   0.6873203  )
       267        C      tau( 267) = (   0.1876762   0.5624677   0.9373159  )
       268        C      tau( 268) = (   0.1875263   0.8123778   0.1875275  )
       269        C      tau( 269) = (   0.1875083   0.8124380   0.4375362  )
       270        C      tau( 270) = (   0.1878076   0.8123343   0.6874132  )
       271        C      tau( 271) = (   0.1876380   0.8124545   0.9374580  )
       272        C      tau( 272) = (   0.4374552   0.0623235   0.1874238  )
       273        C      tau( 273) = (   0.4374600   0.0624108   0.4374402  )
       274        C      tau( 274) = (   0.4375355   0.0625751   0.6874016  )
       275        C      tau( 275) = (   0.4375261   0.0625115   0.9374289  )
       276        C      tau( 276) = (   0.4373548   0.3122923   0.1872950  )
       277        C      tau( 277) = (   0.4372997   0.3125963   0.4372031  )
       278        C      tau( 278) = (   0.4376348   0.3125330   0.6872911  )
       279        C      tau( 279) = (   0.4375167   0.3125860   0.9372593  )
       280        C      tau( 280) = (   0.4374367   0.5622641   0.1875964  )
       281        C      tau( 281) = (   0.4388793   0.5620329   0.6861173  )
       282        C      tau( 282) = (   0.4375966   0.5625245   0.9374012  )
       283        C      tau( 283) = (   0.4375293   0.8123806   0.1875669  )
       284        C      tau( 284) = (   0.4376320   0.8121067   0.4376545  )
       285        C      tau( 285) = (   0.4378596   0.8123952   0.6875527  )
       286        C      tau( 286) = (   0.4376142   0.8124989   0.9375399  )
       287        C      tau( 287) = (   0.6874459   0.0624207   0.1875337  )
       288        C      tau( 288) = (   0.6874256   0.0625438   0.4375156  )
       289        C      tau( 289) = (   0.6874969   0.0627409   0.6874812  )
       290        C      tau( 290) = (   0.6874988   0.0626756   0.9374954  )
       291        C      tau( 291) = (   0.6873603   0.3124909   0.1874443  )
       292        C      tau( 292) = (   0.6875069   0.3123521   0.4376456  )
       293        C      tau( 293) = (   0.6871244   0.3131075   0.6870694  )
       294        C      tau( 294) = (   0.6874410   0.3126599   0.9373579  )
       295        C      tau( 295) = (   0.6873128   0.5623724   0.1877722  )
       296        C      tau( 296) = (   0.6861380   0.5619369   0.4388782  )
       297        C      tau( 297) = (   0.6887564   0.5630485   0.6887263  )
       298        C      tau( 298) = (   0.6875915   0.5626275   0.9376402  )
       299        C      tau( 299) = (   0.6874006   0.8122900   0.1878292  )
       300        C      tau( 300) = (   0.6875342   0.8123546   0.4378734  )
       301        C      tau( 301) = (   0.6879193   0.8130783   0.6879186  )
       302        C      tau( 302) = (   0.6876528   0.8126984   0.9378251  )
       303        C      tau( 303) = (   0.9374405   0.0624715   0.1875183  )
       304        C      tau( 304) = (   0.9374670   0.0624729   0.4375134  )
       305        C      tau( 305) = (   0.9375112   0.0626778   0.6874909  )
       306        C      tau( 306) = (   0.9375153   0.0625861   0.9375057  )
       307        C      tau( 307) = (   0.9373871   0.3124822   0.1874684  )
       308        C      tau( 308) = (   0.9372907   0.3125596   0.4374943  )
       309        C      tau( 309) = (   0.9373837   0.3126525   0.6874334  )
       310        C      tau( 310) = (   0.9374446   0.3125714   0.9374265  )
       311        C      tau( 311) = (   0.9373215   0.5624544   0.1876577  )
       312        C      tau( 312) = (   0.9374025   0.5625156   0.4375854  )
       313        C      tau( 313) = (   0.9376416   0.5626308   0.6875937  )
       314        C      tau( 314) = (   0.9376522   0.5625556   0.9376499  )
       315        C      tau( 315) = (   0.9374486   0.8124397   0.1876334  )
       316        C      tau( 316) = (   0.9375280   0.8124950   0.4376082  )
       317        C      tau( 317) = (   0.9378179   0.8127085   0.6876556  )
       318        C      tau( 318) = (   0.9376473   0.8125825   0.9376499  )
       319        C      tau( 319) = (   0.0624890   0.0624810   0.0624760  )
       320        C      tau( 320) = (   0.0624409   0.0624219   0.3124787  )
       321        C      tau( 321) = (   0.0624487   0.0624430   0.5624529  )
       322        C      tau( 322) = (   0.0625527   0.0625575   0.8124620  )
       323        C      tau( 323) = (   0.0624412   0.3124837   0.0624163  )
       324        C      tau( 324) = (   0.0623063   0.3124169   0.3124114  )
       325        C      tau( 325) = (   0.0623972   0.3125041   0.5624168  )
       326        C      tau( 326) = (   0.0624775   0.3125518   0.8124092  )
       327        C      tau( 327) = (   0.0624484   0.5624584   0.0624366  )
       328        C      tau( 328) = (   0.0623972   0.5624225   0.3124982  )
       329        C      tau( 329) = (   0.0625563   0.5624837   0.5624777  )
       330        C      tau( 330) = (   0.0626499   0.5625295   0.8124716  )
       331        C      tau( 331) = (   0.0625523   0.8124672   0.0625517  )
       332        C      tau( 332) = (   0.0624770   0.8124152   0.3125460  )
       333        C      tau( 333) = (   0.0626499   0.8124777   0.5625239  )
       334        C      tau( 334) = (   0.0627446   0.8125277   0.8125219  )
       335        C      tau( 335) = (   0.3124966   0.0624300   0.0624237  )
       336        C      tau( 336) = (   0.3124387   0.0623029   0.3124208  )
       337        C      tau( 337) = (   0.3125156   0.0624230   0.5624137  )
       338        C      tau( 338) = (   0.3125559   0.0625028   0.8124017  )
       339        C      tau( 339) = (   0.3124388   0.3124266   0.0622970  )
       340        C      tau( 340) = (   0.3123741   0.3123584   0.3123516  )
       341        C      tau( 341) = (   0.3117147   0.3117761   0.5619232  )
       342        C      tau( 342) = (   0.3125613   0.3125848   0.8122768  )
       343        C      tau( 343) = (   0.3125152   0.5624200   0.0624161  )
       344        C      tau( 344) = (   0.3117145   0.5619302   0.3117693  )
       345        C      tau( 345) = (   0.3129968   0.5620942   0.5620876  )
       346        C      tau( 346) = (   0.3129883   0.5624277   0.8119837  )
       347        C      tau( 347) = (   0.3125552   0.8124086   0.0624948  )
       348        C      tau( 348) = (   0.3125606   0.8122841   0.3125774  )
       349        C      tau( 349) = (   0.3129882   0.8119907   0.5624211  )
       350        C      tau( 350) = (   0.3127129   0.8123968   0.8123898  )
       351        C      tau( 351) = (   0.5624613   0.0624239   0.0624187  )
       352        C      tau( 352) = (   0.5624333   0.0623971   0.3124970  )
       353        C      tau( 353) = (   0.5624781   0.0625926   0.5624575  )
       354        C      tau( 354) = (   0.5625217   0.0626841   0.8124396  )
       355        C      tau( 355) = (   0.5624334   0.3125021   0.0623918  )
       356        C      tau( 356) = (   0.5619601   0.3116956   0.3116894  )
       357        C      tau( 357) = (   0.5620672   0.3132253   0.5619080  )
       358        C      tau( 358) = (   0.5624042   0.3130375   0.8119276  )
       359        C      tau( 359) = (   0.5624778   0.5624630   0.0625869  )
       360        C      tau( 360) = (   0.5620669   0.5619149   0.3132185  )
       361        C      tau( 361) = (   0.5627275   0.5627465   0.8125244  )
       362        C      tau( 362) = (   0.5625214   0.8124456   0.0626777  )
       363        C      tau( 363) = (   0.5624038   0.8119334   0.3130316  )
       364        C      tau( 364) = (   0.5627274   0.8125301   0.5627408  )
       365        C      tau( 365) = (   0.5627422   0.8130000   0.8129946  )
       366        C      tau( 366) = (   0.8124699   0.0625436   0.0625390  )
       367        C      tau( 367) = (   0.8124237   0.0624582   0.3125364  )
       368        C      tau( 368) = (   0.8124668   0.0626581   0.5625082  )
       369        C      tau( 369) = (   0.8125146   0.0627544   0.8125042  )
       370        C      tau( 370) = (   0.8124238   0.3125408   0.0624534  )
       371        C      tau( 371) = (   0.8123412   0.3125397   0.3125345  )
       372        C      tau( 372) = (   0.8119999   0.3129827   0.5623736  )
       373        C      tau( 373) = (   0.8123747   0.3127220   0.8123566  )
       374        C      tau( 374) = (   0.8124668   0.5625129   0.0626529  )
       375        C      tau( 375) = (   0.8120000   0.5623797   0.3129764  )
       376        C      tau( 376) = (   0.8125492   0.5627246   0.5627188  )
       377        C      tau( 377) = (   0.8129871   0.5627457   0.8129815  )
       378        C      tau( 378) = (   0.8125146   0.8125090   0.0627493  )
       379        C      tau( 379) = (   0.8123749   0.8123620   0.3127167  )
       380        C      tau( 380) = (   0.8129872   0.8129866   0.5627408  )
       381        C      tau( 381) = (   0.8127813   0.8127883   0.8127836  )
       382        C      tau( 382) = (   0.0624214   0.1874466   0.1874414  )
       383        C      tau( 383) = (   0.0623380   0.1874229   0.4374332  )
       384        C      tau( 384) = (   0.0624418   0.1875497   0.6874327  )
       385        C      tau( 385) = (   0.0624860   0.1875300   0.9374247  )
       386        C      tau( 386) = (   0.0623380   0.4374386   0.1874172  )
       387        C      tau( 387) = (   0.0623897   0.4374458   0.4374400  )
       388        C      tau( 388) = (   0.0625331   0.4375338   0.6874213  )
       389        C      tau( 389) = (   0.0625015   0.4375235   0.9374426  )
       390        C      tau( 390) = (   0.0624414   0.6874384   0.1875434  )
       391        C      tau( 391) = (   0.0625330   0.6874273   0.4375280  )
       392        C      tau( 392) = (   0.0627093   0.6875143   0.6875083  )
       393        C      tau( 393) = (   0.0626725   0.6875037   0.9375176  )
       394        C      tau( 394) = (   0.0624855   0.9374301   0.1875247  )
       395        C      tau( 395) = (   0.0625011   0.9374486   0.4375180  )
       396        C      tau( 396) = (   0.0626726   0.9375239   0.6874984  )
       397        C      tau( 397) = (   0.0625872   0.9375183   0.9375131  )
       398        C      tau( 398) = (   0.3124212   0.1873802   0.1873744  )
       399        C      tau( 399) = (   0.3123272   0.1873167   0.4373064  )
       400        C      tau( 400) = (   0.3125125   0.1875092   0.6873150  )
       401        C      tau( 401) = (   0.3125032   0.1875039   0.9373501  )
       402        C      tau( 402) = (   0.3123269   0.4373131   0.1873102  )
       403        C      tau( 403) = (   0.3124252   0.4372155   0.4372088  )
       404        C      tau( 404) = (   0.3123471   0.4376913   0.6874179  )
       405        C      tau( 405) = (   0.3125779   0.4375188   0.9372744  )
       406        C      tau( 406) = (   0.3125117   0.6873224   0.1875013  )
       407        C      tau( 407) = (   0.3123469   0.6874246   0.4376844  )
       408        C      tau( 408) = (   0.3130566   0.6871454   0.6871385  )
       409        C      tau( 409) = (   0.3126557   0.6874503   0.9373948  )
       410        C      tau( 410) = (   0.3125025   0.9373571   0.1874968  )
       411        C      tau( 411) = (   0.3125777   0.9372807   0.4375127  )
       412        C      tau( 412) = (   0.3126558   0.9374022   0.6874441  )
       413        C      tau( 413) = (   0.3125779   0.9374513   0.9374446  )
       414        C      tau( 414) = (   0.5623565   0.1871433   0.1871380  )
       415        C      tau( 415) = (   0.5623102   0.1875791   0.4373937  )
       416        C      tau( 416) = (   0.5624165   0.1878123   0.6872424  )
       417        C      tau( 417) = (   0.5624634   0.1876882   0.9372829  )
       418        C      tau( 418) = (   0.5623100   0.4373997   0.1875732  )
       419        C      tau( 419) = (   0.5619966   0.4389699   0.6860554  )
       420        C      tau( 420) = (   0.5625193   0.4376015   0.9373863  )
       421        C      tau( 421) = (   0.5624158   0.6872491   0.1878054  )
       422        C      tau( 422) = (   0.5619961   0.6860613   0.4389638  )
       423        C      tau( 423) = (   0.5630365   0.6887709   0.6887647  )
       424        C      tau( 424) = (   0.5626270   0.6875944   0.9376515  )
       425        C      tau( 425) = (   0.5624632   0.9372884   0.1876826  )
       426        C      tau( 426) = (   0.5625192   0.9373917   0.4375962  )
       427        C      tau( 427) = (   0.5626271   0.9376573   0.6875891  )
       428        C      tau( 428) = (   0.5625543   0.9376533   0.9376476  )
       429        C      tau( 429) = (   0.8123926   0.1875093   0.1875047  )
       430        C      tau( 430) = (   0.8124801   0.1874735   0.4375160  )
       431        C      tau( 431) = (   0.8123117   0.1878261   0.6873811  )
       432        C      tau( 432) = (   0.8124474   0.1876360   0.9374303  )
       433        C      tau( 433) = (   0.8124804   0.4375211   0.1874678  )
       434        C      tau( 434) = (   0.8121506   0.4376173   0.4376112  )
       435        C      tau( 435) = (   0.8123850   0.4378622   0.6875202  )
       436        C      tau( 436) = (   0.8124926   0.4376122   0.9375148  )
       437        C      tau( 437) = (   0.8123120   0.6873865   0.1878202  )
       438        C      tau( 438) = (   0.8123853   0.6875259   0.4378563  )
       439        C      tau( 439) = (   0.8130759   0.6879227   0.6879175  )
       440        C      tau( 440) = (   0.8126973   0.6876542   0.9378228  )
       441        C      tau( 441) = (   0.8124474   0.9374351   0.1876312  )
       442        C      tau( 442) = (   0.8124927   0.9375197   0.4376076  )
       443        C      tau( 443) = (   0.8126974   0.9378278   0.6876496  )
       444        C      tau( 444) = (   0.8125792   0.9376493   0.9376446  )
       445        C      tau( 445) = (   0.1874653   0.1874537   0.0623989  )
       446        C      tau( 446) = (   0.1873927   0.1873792   0.3123957  )
       447        C      tau( 447) = (   0.1871876   0.1871958   0.5623340  )
       448        C      tau( 448) = (   0.1875271   0.1875345   0.8123712  )
       449        C      tau( 449) = (   0.1874430   0.4374432   0.0623323  )
       450        C      tau( 450) = (   0.1872748   0.4373149   0.3122938  )
       451        C      tau( 451) = (   0.1875178   0.4374353   0.5622892  )
       452        C      tau( 452) = (   0.1875086   0.4375429   0.8124310  )
       453        C      tau( 453) = (   0.1875533   0.6874396   0.0624501  )
       454        C      tau( 454) = (   0.1874546   0.6873411   0.3125099  )
       455        C      tau( 455) = (   0.1877156   0.6873273   0.5624283  )
       456        C      tau( 456) = (   0.1878077   0.6874197   0.8123271  )
       457        C      tau( 457) = (   0.1875341   0.9374342   0.0624817  )
       458        C      tau( 458) = (   0.1874988   0.9373652   0.3124927  )
       459        C      tau( 459) = (   0.1876761   0.9373226   0.5624619  )
       460        C      tau( 460) = (   0.1876382   0.9374649   0.8124484  )
       461        C      tau( 461) = (   0.4374553   0.1874294   0.0623178  )
       462        C      tau( 462) = (   0.4373549   0.1873010   0.3122864  )
       463        C      tau( 463) = (   0.4374374   0.1876034   0.5622570  )
       464        C      tau( 464) = (   0.4375299   0.1875735   0.8123742  )
       465        C      tau( 465) = (   0.4374598   0.4374459   0.0624049  )
       466        C      tau( 466) = (   0.4372996   0.4372101   0.3125892  )
       467        C      tau( 467) = (   0.4376324   0.4376611   0.8121004  )
       468        C      tau( 468) = (   0.4375349   0.6874081   0.0625678  )
       469        C      tau( 469) = (   0.4376343   0.6872975   0.3125264  )
       470        C      tau( 470) = (   0.4388792   0.6861236   0.5620265  )
       471        C      tau( 471) = (   0.4378597   0.6875589   0.8123886  )
       472        C      tau( 472) = (   0.4375257   0.9374356   0.0625045  )
       473        C      tau( 473) = (   0.4375163   0.9372654   0.3125799  )
       474        C      tau( 474) = (   0.4375967   0.9374073   0.5625188  )
       475        C      tau( 475) = (   0.4376144   0.9375467   0.8124928  )
       476        C      tau( 476) = (   0.6874459   0.1875384   0.0624159  )
       477        C      tau( 477) = (   0.6873603   0.1874494   0.3124858  )
       478        C      tau( 478) = (   0.6873130   0.1877781   0.5623666  )
       479        C      tau( 479) = (   0.6874007   0.1878349   0.8122845  )
       480        C      tau( 480) = (   0.6874256   0.4375205   0.0625387  )
       481        C      tau( 481) = (   0.6875067   0.4376517   0.3123462  )
       482        C      tau( 482) = (   0.6861383   0.4388844   0.5619307  )
       483        C      tau( 483) = (   0.6875342   0.4378788   0.8123492  )
       484        C      tau( 484) = (   0.6874967   0.6874863   0.0627354  )
       485        C      tau( 485) = (   0.6871244   0.6870758   0.3131009  )
       486        C      tau( 486) = (   0.6887564   0.6887322   0.5630424  )
       487        C      tau( 487) = (   0.6879192   0.6879236   0.8130730  )
       488        C      tau( 488) = (   0.6874988   0.9375004   0.0626706  )
       489        C      tau( 489) = (   0.6874409   0.9373629   0.3126549  )
       490        C      tau( 490) = (   0.6875916   0.9376453   0.5626227  )
       491        C      tau( 491) = (   0.6876529   0.9378301   0.8126935  )
       492        C      tau( 492) = (   0.9374407   0.1875229   0.0624667  )
       493        C      tau( 493) = (   0.9373870   0.1874733   0.3124774  )
       494        C      tau( 494) = (   0.9373213   0.1876634   0.5624493  )
       495        C      tau( 495) = (   0.9374487   0.1876386   0.8124346  )
       496        C      tau( 496) = (   0.9374672   0.4375180   0.0624676  )
       497        C      tau( 497) = (   0.9372907   0.4374996   0.3125541  )
       498        C      tau( 498) = (   0.9374024   0.4375910   0.5625101  )
       499        C      tau( 499) = (   0.9375279   0.4376132   0.8124897  )
       500        C      tau( 500) = (   0.9375111   0.6874958   0.0626723  )
       501        C      tau( 501) = (   0.9373839   0.6874388   0.3126469  )
       502        C      tau( 502) = (   0.9376416   0.6875991   0.5626255  )
       503        C      tau( 503) = (   0.9378178   0.6876605   0.8127033  )
       504        C      tau( 504) = (   0.9375152   0.9375104   0.0625814  )
       505        C      tau( 505) = (   0.9374444   0.9374316   0.3125667  )
       506        C      tau( 506) = (   0.9376523   0.9376553   0.5625509  )
       507        C      tau( 507) = (   0.9376474   0.9376549   0.8125778  )
       508        C      tau( 508) = (   0.5642919   0.4333206   0.4333143  )
       509        C      tau( 509) = (   0.4330531   0.4335313   0.5640698  )
       510        C      tau( 510) = (   0.4330529   0.5640760   0.4335250  )
       511        N      tau( 511) = (   0.5691184   0.5691588   0.5691529  )

   Crystallographic axes

     site n.     atom                  positions (cryst. coord.)
         1        C      tau(   1) = (  0.0000184  0.0000166  0.0000118  )
         2        C      tau(   2) = ( -0.0000542 -0.0000676  0.2500164  )
         3        C      tau(   3) = (  0.0000242  0.0000069  0.5000071  )
         4        C      tau(   4) = (  0.0000947  0.0001038  0.7499980  )
         5        C      tau(   5) = ( -0.0000540  0.2500212 -0.0000727  )
         6        C      tau(   6) = ( -0.0001308  0.2499453  0.2499403  )
         7        C      tau(   7) = ( -0.0001571  0.2500433  0.4999484  )
         8        C      tau(   8) = ( -0.0000696  0.2500918  0.7499214  )
         9        C      tau(   9) = (  0.0000242  0.5000119  0.0000011  )
        10        C      tau(  10) = ( -0.0001570  0.4999536  0.2500377  )
        11        C      tau(  11) = ( -0.0000553  0.5000071  0.5000016  )
        12        C      tau(  12) = (  0.0000968  0.5000620  0.7499873  )
        13        C      tau(  13) = (  0.0000946  0.7500029  0.0000983  )
        14        C      tau(  14) = ( -0.0000698  0.7499269  0.2500862  )
        15        C      tau(  15) = (  0.0000968  0.7499929  0.5000567  )
        16        C      tau(  16) = (  0.0002850  0.7501010  0.7500956  )
        17        C      tau(  17) = (  0.2500294 -0.0000552 -0.0000613  )
        18        C      tau(  18) = (  0.2499695 -0.0001481  0.2499584  )
        19        C      tau(  19) = (  0.2500587 -0.0001532  0.4999581  )
        20        C      tau(  20) = (  0.2500936 -0.0000506  0.7499263  )
        21        C      tau(  21) = (  0.2499700  0.2499646 -0.0001546  )
        22        C      tau(  22) = (  0.2499130  0.2498966  0.2498904  )
        23        C      tau(  23) = (  0.2494774  0.2494955  0.4998653  )
        24        C      tau(  24) = (  0.2500239  0.2500441  0.7498162  )
        25        C      tau(  25) = (  0.2500586  0.4999639 -0.0001597  )
        26        C      tau(  26) = (  0.2494774  0.4998722  0.2494888  )
        27        C      tau(  27) = (  0.2502038  0.4997389  0.4997318  )
        28        C      tau(  28) = (  0.2500623  0.4999155  0.7498536  )
        29        C      tau(  29) = (  0.2500932  0.7499326 -0.0000583  )
        30        C      tau(  30) = (  0.2500231  0.7498236  0.2500363  )
        31        C      tau(  31) = (  0.2500624  0.7498605  0.4999086  )
        32        C      tau(  32) = (  0.2504190  0.7497822  0.7497751  )
        33        C      tau(  33) = (  0.5000182  0.0000080  0.0000019  )
        34        C      tau(  34) = (  0.4999669 -0.0001752  0.2500521  )
        35        C      tau(  35) = (  0.5000096 -0.0000422  0.5000014  )
        36        C      tau(  36) = (  0.5000565  0.0001236  0.7499734  )
        37        C      tau(  37) = (  0.4999670  0.2500576 -0.0001808  )
        38        C      tau(  38) = (  0.4999422  0.2494351  0.2494291  )
        39        C      tau(  39) = (  0.4997425  0.2503387  0.4996888  )
        40        C      tau(  40) = (  0.4998890  0.2501801  0.7497522  )
        41        C      tau(  41) = (  0.5000095  0.5000068 -0.0000479  )
        42        C      tau(  42) = (  0.4997422  0.4996957  0.2503319  )
        43        C      tau(  43) = (  0.5001982  0.5002360  0.7494757  )
        44        C      tau(  44) = (  0.5000562  0.7499794  0.0001170  )
        45        C      tau(  45) = (  0.4998885  0.7497583  0.2501738  )
        46        C      tau(  46) = (  0.5001979  0.7494819  0.5002297  )
        47        C      tau(  47) = (  0.5004791  0.7506301  0.7506241  )
        48        C      tau(  48) = (  0.7500009  0.0000921  0.0000874  )
        49        C      tau(  49) = (  0.7499336 -0.0000907  0.2500799  )
        50        C      tau(  50) = (  0.7499845  0.0001000  0.5000472  )
        51        C      tau(  51) = (  0.7500854  0.0003034  0.7500796  )
        52        C      tau(  52) = (  0.7499337  0.2500845 -0.0000955  )
        53        C      tau(  53) = (  0.7498539  0.2500068  0.2500019  )
        54        C      tau(  54) = (  0.7499127  0.2500461  0.4998293  )
        55        C      tau(  55) = (  0.7497523  0.2504488  0.7497262  )
        56        C      tau(  56) = (  0.7499845  0.5000518  0.0000950  )
        57        C      tau(  57) = (  0.7499128  0.4998352  0.2500398  )
        58        C      tau(  58) = (  0.7495199  0.5001940  0.5001876  )
        59        C      tau(  59) = (  0.7506137  0.5004860  0.7505907  )
        60        C      tau(  60) = (  0.7500853  0.7500843  0.0002983  )
        61        C      tau(  61) = (  0.7497528  0.7497321  0.2504428  )
        62        C      tau(  62) = (  0.7506139  0.7505963  0.5004804  )
        63        C      tau(  63) = (  0.7503971  0.7504010  0.7503960  )
        64        C      tau(  64) = ( -0.0000571  0.1249741  0.1249693  )
        65        C      tau(  65) = ( -0.0001003  0.1249473  0.3749630  )
        66        C      tau(  66) = ( -0.0000708  0.1251040  0.6249666  )
        67        C      tau(  67) = ( -0.0000089  0.1250742  0.8749488  )
        68        C      tau(  68) = ( -0.0001001  0.3749678  0.1249420  )
        69        C      tau(  69) = ( -0.0001811  0.3749875  0.3749820  )
        70        C      tau(  70) = ( -0.0000653  0.3750648  0.6249415  )
        71        C      tau(  71) = ( -0.0000110  0.3750477  0.8749322  )
        72        C      tau(  72) = ( -0.0000709  0.6249717  0.1250981  )
        73        C      tau(  73) = ( -0.0000652  0.6249469  0.3750592  )
        74        C      tau(  74) = (  0.0001447  0.6250445  0.6250389  )
        75        C      tau(  75) = (  0.0002060  0.6250578  0.8750882  )
        76        C      tau(  76) = ( -0.0000091  0.8749538  0.1250691  )
        77        C      tau(  77) = ( -0.0000113  0.8749377  0.3750426  )
        78        C      tau(  78) = (  0.0002061  0.8750938  0.6250528  )
        79        C      tau(  79) = (  0.0001561  0.8750623  0.8750573  )
        80        C      tau(  80) = (  0.2499622  0.1249163  0.1249104  )
        81        C      tau(  81) = (  0.2499250  0.1248236  0.3748998  )
        82        C      tau(  82) = (  0.2499519  0.1249195  0.6248953  )
        83        C      tau(  83) = (  0.2500203  0.1250033  0.8748823  )
        84        C      tau(  84) = (  0.2499249  0.3749057  0.1248176  )
        85        C      tau(  85) = (  0.2498843  0.3748941  0.3748874  )
        86        C      tau(  86) = (  0.2499527  0.3749005  0.6247259  )
        87        C      tau(  87) = (  0.2500328  0.3750100  0.8748321  )
        88        C      tau(  88) = (  0.2499512  0.6249022  0.1249118  )
        89        C      tau(  89) = (  0.2499523  0.6247334  0.3748929  )
        90        C      tau(  90) = (  0.2504637  0.6246172  0.6246103  )
        91        C      tau(  91) = (  0.2503674  0.6249523  0.8746937  )
        92        C      tau(  92) = (  0.2500196  0.8748888  0.1249961  )
        93        C      tau(  93) = (  0.2500322  0.8748393  0.3750031  )
        94        C      tau(  94) = (  0.2503674  0.8747010  0.6249460  )
        95        C      tau(  95) = (  0.2501449  0.8749281  0.8749214  )
        96        C      tau(  96) = (  0.4999764  0.1247756  0.1247702  )
        97        C      tau(  97) = (  0.4999075  0.1249429  0.3749203  )
        98        C      tau(  98) = (  0.4999331  0.1251619  0.6248303  )
        99        C      tau(  99) = (  0.4999804  0.1250976  0.8748998  )
       100        C      tau( 100) = (  0.4999074  0.3749259  0.1249372  )
       101        C      tau( 101) = (  0.5002798  0.3749557  0.3749488  )
       102        C      tau( 102) = (  0.4993723  0.3763450  0.6231253  )
       103        C      tau( 103) = (  0.5000110  0.3752241  0.8746724  )
       104        C      tau( 104) = (  0.4999324  0.6248368  0.1251550  )
       105        C      tau( 105) = (  0.4993720  0.6231315  0.3763386  )
       106        C      tau( 106) = (  0.5034011  0.6251287  0.6251226  )
       107        C      tau( 107) = (  0.5001849  0.6250809  0.8750036  )
       108        C      tau( 108) = (  0.4999801  0.8749061  0.1250910  )
       109        C      tau( 109) = (  0.5000107  0.8746783  0.3752181  )
       110        C      tau( 110) = (  0.5001850  0.8750096  0.6250753  )
       111        C      tau( 111) = (  0.5001528  0.8752359  0.8752299  )
       112        C      tau( 112) = (  0.7499347  0.1250034  0.1249988  )
       113        C      tau( 113) = (  0.7499248  0.1249897  0.3749793  )
       114        C      tau( 114) = (  0.7498566  0.1252683  0.6249106  )
       115        C      tau( 115) = (  0.7499489  0.1252484  0.8749152  )
       116        C      tau( 116) = (  0.7499249  0.3749841  0.1249846  )
       117        C      tau( 117) = (  0.7497201  0.3750418  0.3750359  )
       118        C      tau( 118) = (  0.7491441  0.3759400  0.6247652  )
       119        C      tau( 119) = (  0.7499066  0.3751954  0.8748807  )
       120        C      tau( 120) = (  0.7498566  0.6249159  0.1252627  )
       121        C      tau( 121) = (  0.7491439  0.6247714  0.3759338  )
       122        C      tau( 122) = (  0.7507767  0.6255996  0.6255938  )
       123        C      tau( 123) = (  0.7503157  0.6252583  0.8754058  )
       124        C      tau( 124) = (  0.7499489  0.8749203  0.1252433  )
       125        C      tau( 125) = (  0.7499067  0.8748858  0.3751904  )
       126        C      tau( 126) = (  0.7503159  0.8754109  0.6252536  )
       127        C      tau( 127) = (  0.7501560  0.8752361  0.8752314  )
       128        C      tau( 128) = (  0.1249866 -0.0000663  0.1249767  )
       129        C      tau( 129) = (  0.1249726 -0.0001140  0.3749704  )
       130        C      tau( 130) = (  0.1251087 -0.0000650  0.6249721  )
       131        C      tau( 131) = (  0.1250732 -0.0000014  0.8749555  )
       132        C      tau( 132) = (  0.1249288  0.2499457  0.1249053  )
       133        C      tau( 133) = (  0.1248146  0.2499003  0.3748947  )
       134        C      tau( 134) = (  0.1248937  0.2499484  0.6249006  )
       135        C      tau( 135) = (  0.1249943  0.2500198  0.8748847  )
       136        C      tau( 136) = (  0.1248083  0.4999573  0.1247969  )
       137        C      tau( 137) = (  0.1249140  0.4998889  0.3749220  )
       138        C      tau( 138) = (  0.1250966  0.4999446  0.6248668  )
       139        C      tau( 139) = (  0.1250607  0.4999841  0.8749411  )
       140        C      tau( 140) = (  0.1250190  0.7499272  0.1250187  )
       141        C      tau( 141) = (  0.1250023  0.7499089  0.3750022  )
       142        C      tau( 142) = (  0.1252329  0.7498853  0.6249448  )
       143        C      tau( 143) = (  0.1252376  0.7499628  0.8749451  )
       144        C      tau( 144) = (  0.3749832 -0.0001207  0.1249640  )
       145        C      tau( 145) = (  0.3750052 -0.0001854  0.3749977  )
       146        C      tau( 146) = (  0.3750681 -0.0000434  0.6249405  )
       147        C      tau( 147) = (  0.3750505  0.0000039  0.8749317  )
       148        C      tau( 148) = (  0.3749248  0.2499119  0.1248113  )
       149        C      tau( 149) = (  0.3749442  0.2499577  0.3748976  )
       150        C      tau( 150) = (  0.3748785  0.2500429  0.6246825  )
       151        C      tau( 151) = (  0.3750010  0.2500563  0.8748135  )
       152        C      tau( 152) = (  0.3749415  0.4998847  0.1249502  )
       153        C      tau( 153) = (  0.3748475  0.5000036  0.3749641  )
       154        C      tau( 154) = (  0.3760091  0.4994103  0.6233433  )
       155        C      tau( 155) = (  0.3752027  0.5000270  0.8746939  )
       156        C      tau( 156) = (  0.3750045  0.7498828  0.1250399  )
       157        C      tau( 157) = (  0.3750584  0.7496337  0.3751158  )
       158        C      tau( 158) = (  0.3759142  0.7491435  0.6248312  )
       159        C      tau( 159) = (  0.3751878  0.7499244  0.8749163  )
       160        C      tau( 160) = (  0.6249772 -0.0000947  0.1250961  )
       161        C      tau( 161) = (  0.6249491 -0.0000717  0.3750591  )
       162        C      tau( 162) = (  0.6250320  0.0001671  0.6250242  )
       163        C      tau( 163) = (  0.6250504  0.0002205  0.8750707  )
       164        C      tau( 164) = (  0.6249266  0.2499262  0.1248705  )
       165        C      tau( 165) = (  0.6247742  0.2499749  0.3748492  )
       166        C      tau( 166) = (  0.6245759  0.2505946  0.6245130  )
       167        C      tau( 167) = (  0.6249335  0.2503901  0.8746477  )
       168        C      tau( 168) = (  0.6248621  0.4999133  0.1251363  )
       169        C      tau( 169) = (  0.6233795  0.4991286  0.3761641  )
       170        C      tau( 170) = (  0.6251197  0.5033999  0.6250520  )
       171        C      tau( 171) = (  0.6250684  0.5001949  0.8749874  )
       172        C      tau( 172) = (  0.6249279  0.7498360  0.1252800  )
       173        C      tau( 173) = (  0.6248059  0.7490828  0.3759514  )
       174        C      tau( 174) = (  0.6256041  0.7507620  0.6256043  )
       175        C      tau( 175) = (  0.6252558  0.7503206  0.8754115  )
       176        C      tau( 176) = (  0.8749594 -0.0000188  0.1250633  )
       177        C      tau( 177) = (  0.8749457 -0.0000292  0.3750370  )
       178        C      tau( 178) = (  0.8750814  0.0002140  0.6250456  )
       179        C      tau( 179) = (  0.8750540  0.0001621  0.8750492  )
       180        C      tau( 180) = (  0.8749031  0.2500034  0.1249698  )
       181        C      tau( 181) = (  0.8748725  0.2500042  0.3749715  )
       182        C      tau( 182) = (  0.8746923  0.2503706  0.6249184  )
       183        C      tau( 183) = (  0.8749131  0.2501457  0.8748966  )
       184        C      tau( 184) = (  0.8749676  0.4999617  0.1250289  )
       185        C      tau( 185) = (  0.8747141  0.4999983  0.3751913  )
       186        C      tau( 186) = (  0.8750084  0.5001893  0.6250641  )
       187        C      tau( 187) = (  0.8752261  0.5001534  0.8752207  )
       188        C      tau( 188) = (  0.8749322  0.7499425  0.1252426  )
       189        C      tau( 189) = (  0.8749064  0.7499048  0.3751880  )
       190        C      tau( 190) = (  0.8754071  0.7503222  0.6252565  )
       191        C      tau( 191) = (  0.8752290  0.7501625  0.8752348  )
       192        C      tau( 192) = (  0.1249869  0.1249821 -0.0000717  )
       193        C      tau( 193) = (  0.1249287  0.1249110  0.2499404  )
       194        C      tau( 194) = (  0.1248086  0.1248035  0.4999514  )
       195        C      tau( 195) = (  0.1250195  0.1250253  0.7499213  )
       196        C      tau( 196) = (  0.1249730  0.3749759 -0.0001201  )
       197        C      tau( 197) = (  0.1248146  0.3749004  0.2498944  )
       198        C      tau( 198) = (  0.1249139  0.3749282  0.4998827  )
       199        C      tau( 199) = (  0.1250029  0.3750087  0.7499023  )
       200        C      tau( 200) = (  0.1251085  0.6249777 -0.0000719  )
       201        C      tau( 201) = (  0.1248932  0.6249070  0.2499417  )
       202        C      tau( 202) = (  0.1250966  0.6248734  0.4999381  )
       203        C      tau( 203) = (  0.1252330  0.6249512  0.7498786  )
       204        C      tau( 204) = (  0.1250730  0.8749609 -0.0000074  )
       205        C      tau( 205) = (  0.1249937  0.8748907  0.2500138  )
       206        C      tau( 206) = (  0.1250603  0.8749478  0.4999781  )
       207        C      tau( 207) = (  0.1252376  0.8749517  0.7499570  )
       208        C      tau( 208) = (  0.3749835  0.1249705 -0.0001272  )
       209        C      tau( 209) = (  0.3749247  0.1248171  0.2499063  )
       210        C      tau( 210) = (  0.3749420  0.1249567  0.4998783  )
       211        C      tau( 211) = (  0.3750052  0.1250478  0.7498756  )
       212        C      tau( 212) = (  0.3750053  0.3750035 -0.0001913  )
       213        C      tau( 213) = (  0.3749441  0.3749045  0.2499509  )
       214        C      tau( 214) = (  0.3748478  0.3749708  0.4999968  )
       215        C      tau( 215) = (  0.3750588  0.3751227  0.7496271  )
       216        C      tau( 216) = (  0.3750678  0.6249466 -0.0000504  )
       217        C      tau( 217) = (  0.3748780  0.6246895  0.2500357  )
       218        C      tau( 218) = (  0.3760089  0.6233498  0.4994038  )
       219        C      tau( 219) = (  0.3759142  0.6248378  0.7491368  )
       220        C      tau( 220) = (  0.3750503  0.8749383 -0.0000035  )
       221        C      tau( 221) = (  0.3750004  0.8748205  0.2500491  )
       222        C      tau( 222) = (  0.3752026  0.8747002  0.5000208  )
       223        C      tau( 223) = (  0.3751878  0.8749234  0.7499180  )
       224        C      tau( 224) = (  0.6249773  0.1251012 -0.0000998  )
       225        C      tau( 225) = (  0.6249265  0.1248756  0.2499213  )
       226        C      tau( 226) = (  0.6248623  0.1251419  0.4999078  )
       227        C      tau( 227) = (  0.6249283  0.1252861  0.7498302  )
       228        C      tau( 228) = (  0.6249491  0.3750640 -0.0000768  )
       229        C      tau( 229) = (  0.6247741  0.3748550  0.2499689  )
       230        C      tau( 230) = (  0.6233799  0.3761705  0.4991221  )
       231        C      tau( 231) = (  0.6248062  0.3759573  0.7490770  )
       232        C      tau( 232) = (  0.6250318  0.6250293  0.0001617  )
       233        C      tau( 233) = (  0.6245756  0.6245197  0.2505878  )
       234        C      tau( 234) = (  0.6251194  0.6250579  0.5033940  )
       235        C      tau( 235) = (  0.6256040  0.6256101  0.7507560  )
       236        C      tau( 236) = (  0.6250504  0.8750761  0.0002150  )
       237        C      tau( 237) = (  0.6249334  0.8746530  0.2503846  )
       238        C      tau( 238) = (  0.6250685  0.8749927  0.5001896  )
       239        C      tau( 239) = (  0.6252559  0.8754168  0.7503156  )
       240        C      tau( 240) = (  0.8749594  0.1250679 -0.0000235  )
       241        C      tau( 241) = (  0.8749030  0.1249745  0.2499989  )
       242        C      tau( 242) = (  0.8749674  0.1250343  0.4999569  )
       243        C      tau( 243) = (  0.8749321  0.1252481  0.7499375  )
       244        C      tau( 244) = (  0.8749458  0.3750414 -0.0000342  )
       245        C      tau( 245) = (  0.8748725  0.3749766  0.2499990  )
       246        C      tau( 246) = (  0.8747140  0.3751973  0.4999925  )
       247        C      tau( 247) = (  0.8749060  0.3751935  0.7498993  )
       248        C      tau( 248) = (  0.8750813  0.6250502  0.0002088  )
       249        C      tau( 249) = (  0.8746928  0.6249241  0.2503645  )
       250        C      tau( 250) = (  0.8750085  0.6250696  0.5001837  )
       251        C      tau( 251) = (  0.8754071  0.6252615  0.7503171  )
       252        C      tau( 252) = (  0.8750540  0.8750539  0.0001573  )
       253        C      tau( 253) = (  0.8749132  0.8749018  0.2501407  )
       254        C      tau( 254) = (  0.8752262  0.8752258  0.5001488  )
       255        C      tau( 255) = (  0.8752291  0.8752396  0.7501578  )
       256        C      tau( 256) = (  0.1874650  0.0624049  0.1874480  )
       257        C      tau( 257) = (  0.1874431  0.0623384  0.4374375  )
       258        C      tau( 258) = (  0.1875540  0.0624576  0.6874332  )
       259        C      tau( 259) = (  0.1875346  0.0624880  0.9374283  )
       260        C      tau( 260) = (  0.1873926  0.3124014  0.1873733  )
       261        C      tau( 261) = (  0.1872748  0.3123003  0.4373083  )
       262        C      tau( 262) = (  0.1874553  0.3125174  0.6873339  )
       263        C      tau( 263) = (  0.1874995  0.3124990  0.9373586  )
       264        C      tau( 264) = (  0.1871873  0.5623407  0.1871888  )
       265        C      tau( 265) = (  0.1875178  0.5622962  0.4374282  )
       266        C      tau( 266) = (  0.1877156  0.5624352  0.6873203  )
       267        C      tau( 267) = (  0.1876762  0.5624677  0.9373159  )
       268        C      tau( 268) = (  0.1875263  0.8123778  0.1875275  )
       269        C      tau( 269) = (  0.1875083  0.8124380  0.4375362  )
       270        C      tau( 270) = (  0.1878076  0.8123343  0.6874132  )
       271        C      tau( 271) = (  0.1876380  0.8124545  0.9374580  )
       272        C      tau( 272) = (  0.4374552  0.0623235  0.1874238  )
       273        C      tau( 273) = (  0.4374600  0.0624108  0.4374402  )
       274        C      tau( 274) = (  0.4375355  0.0625751  0.6874016  )
       275        C      tau( 275) = (  0.4375261  0.0625115  0.9374289  )
       276        C      tau( 276) = (  0.4373548  0.3122923  0.1872950  )
       277        C      tau( 277) = (  0.4372997  0.3125963  0.4372031  )
       278        C      tau( 278) = (  0.4376348  0.3125330  0.6872911  )
       279        C      tau( 279) = (  0.4375167  0.3125860  0.9372593  )
       280        C      tau( 280) = (  0.4374367  0.5622641  0.1875964  )
       281        C      tau( 281) = (  0.4388793  0.5620329  0.6861173  )
       282        C      tau( 282) = (  0.4375966  0.5625245  0.9374012  )
       283        C      tau( 283) = (  0.4375293  0.8123806  0.1875669  )
       284        C      tau( 284) = (  0.4376320  0.8121067  0.4376545  )
       285        C      tau( 285) = (  0.4378596  0.8123952  0.6875527  )
       286        C      tau( 286) = (  0.4376142  0.8124989  0.9375399  )
       287        C      tau( 287) = (  0.6874459  0.0624207  0.1875337  )
       288        C      tau( 288) = (  0.6874256  0.0625438  0.4375156  )
       289        C      tau( 289) = (  0.6874969  0.0627409  0.6874812  )
       290        C      tau( 290) = (  0.6874988  0.0626756  0.9374954  )
       291        C      tau( 291) = (  0.6873603  0.3124909  0.1874443  )
       292        C      tau( 292) = (  0.6875069  0.3123521  0.4376456  )
       293        C      tau( 293) = (  0.6871244  0.3131075  0.6870694  )
       294        C      tau( 294) = (  0.6874410  0.3126599  0.9373579  )
       295        C      tau( 295) = (  0.6873128  0.5623724  0.1877722  )
       296        C      tau( 296) = (  0.6861380  0.5619369  0.4388782  )
       297        C      tau( 297) = (  0.6887564  0.5630485  0.6887263  )
       298        C      tau( 298) = (  0.6875915  0.5626275  0.9376402  )
       299        C      tau( 299) = (  0.6874006  0.8122900  0.1878292  )
       300        C      tau( 300) = (  0.6875342  0.8123546  0.4378734  )
       301        C      tau( 301) = (  0.6879193  0.8130783  0.6879186  )
       302        C      tau( 302) = (  0.6876528  0.8126984  0.9378251  )
       303        C      tau( 303) = (  0.9374405  0.0624715  0.1875183  )
       304        C      tau( 304) = (  0.9374670  0.0624729  0.4375134  )
       305        C      tau( 305) = (  0.9375112  0.0626778  0.6874909  )
       306        C      tau( 306) = (  0.9375153  0.0625861  0.9375057  )
       307        C      tau( 307) = (  0.9373871  0.3124822  0.1874684  )
       308        C      tau( 308) = (  0.9372907  0.3125596  0.4374943  )
       309        C      tau( 309) = (  0.9373837  0.3126525  0.6874334  )
       310        C      tau( 310) = (  0.9374446  0.3125714  0.9374265  )
       311        C      tau( 311) = (  0.9373215  0.5624544  0.1876577  )
       312        C      tau( 312) = (  0.9374025  0.5625156  0.4375854  )
       313        C      tau( 313) = (  0.9376416  0.5626308  0.6875937  )
       314        C      tau( 314) = (  0.9376522  0.5625556  0.9376499  )
       315        C      tau( 315) = (  0.9374486  0.8124397  0.1876334  )
       316        C      tau( 316) = (  0.9375280  0.8124950  0.4376082  )
       317        C      tau( 317) = (  0.9378179  0.8127085  0.6876556  )
       318        C      tau( 318) = (  0.9376473  0.8125825  0.9376499  )
       319        C      tau( 319) = (  0.0624890  0.0624810  0.0624760  )
       320        C      tau( 320) = (  0.0624409  0.0624219  0.3124787  )
       321        C      tau( 321) = (  0.0624487  0.0624430  0.5624529  )
       322        C      tau( 322) = (  0.0625527  0.0625575  0.8124620  )
       323        C      tau( 323) = (  0.0624412  0.3124837  0.0624163  )
       324        C      tau( 324) = (  0.0623063  0.3124169  0.3124114  )
       325        C      tau( 325) = (  0.0623972  0.3125041  0.5624168  )
       326        C      tau( 326) = (  0.0624775  0.3125518  0.8124092  )
       327        C      tau( 327) = (  0.0624484  0.5624584  0.0624366  )
       328        C      tau( 328) = (  0.0623972  0.5624225  0.3124982  )
       329        C      tau( 329) = (  0.0625563  0.5624837  0.5624777  )
       330        C      tau( 330) = (  0.0626499  0.5625295  0.8124716  )
       331        C      tau( 331) = (  0.0625523  0.8124672  0.0625517  )
       332        C      tau( 332) = (  0.0624770  0.8124152  0.3125460  )
       333        C      tau( 333) = (  0.0626499  0.8124777  0.5625239  )
       334        C      tau( 334) = (  0.0627446  0.8125277  0.8125219  )
       335        C      tau( 335) = (  0.3124966  0.0624300  0.0624237  )
       336        C      tau( 336) = (  0.3124387  0.0623029  0.3124208  )
       337        C      tau( 337) = (  0.3125156  0.0624230  0.5624137  )
       338        C      tau( 338) = (  0.3125559  0.0625028  0.8124017  )
       339        C      tau( 339) = (  0.3124388  0.3124266  0.0622970  )
       340        C      tau( 340) = (  0.3123741  0.3123584  0.3123516  )
       341        C      tau( 341) = (  0.3117147  0.3117761  0.5619232  )
       342        C      tau( 342) = (  0.3125613  0.3125848  0.8122768  )
       343        C      tau( 343) = (  0.3125152  0.5624200  0.0624161  )
       344        C      tau( 344) = (  0.3117145  0.5619302  0.3117693  )
       345        C      tau( 345) = (  0.3129968  0.5620942  0.5620876  )
       346        C      tau( 346) = (  0.3129883  0.5624277  0.8119837  )
       347        C      tau( 347) = (  0.3125552  0.8124086  0.0624948  )
       348        C      tau( 348) = (  0.3125606  0.8122841  0.3125774  )
       349        C      tau( 349) = (  0.3129882  0.8119907  0.5624211  )
       350        C      tau( 350) = (  0.3127129  0.8123968  0.8123898  )
       351        C      tau( 351) = (  0.5624613  0.0624239  0.0624187  )
       352        C      tau( 352) = (  0.5624333  0.0623971  0.3124970  )
       353        C      tau( 353) = (  0.5624781  0.0625926  0.5624575  )
       354        C      tau( 354) = (  0.5625217  0.0626841  0.8124396  )
       355        C      tau( 355) = (  0.5624334  0.3125021  0.0623918  )
       356        C      tau( 356) = (  0.5619601  0.3116956  0.3116894  )
       357        C      tau( 357) = (  0.5620672  0.3132253  0.5619080  )
       358        C      tau( 358) = (  0.5624042  0.3130375  0.8119276  )
       359        C      tau( 359) = (  0.5624778  0.5624630  0.0625869  )
       360        C      tau( 360) = (  0.5620669  0.5619149  0.3132185  )
       361        C      tau( 361) = (  0.5627275  0.5627465  0.8125244  )
       362        C      tau( 362) = (  0.5625214  0.8124456  0.0626777  )
       363        C      tau( 363) = (  0.5624038  0.8119334  0.3130316  )
       364        C      tau( 364) = (  0.5627274  0.8125301  0.5627408  )
       365        C      tau( 365) = (  0.5627422  0.8130000  0.8129946  )
       366        C      tau( 366) = (  0.8124699  0.0625436  0.0625390  )
       367        C      tau( 367) = (  0.8124237  0.0624582  0.3125364  )
       368        C      tau( 368) = (  0.8124668  0.0626581  0.5625082  )
       369        C      tau( 369) = (  0.8125146  0.0627544  0.8125042  )
       370        C      tau( 370) = (  0.8124238  0.3125408  0.0624534  )
       371        C      tau( 371) = (  0.8123412  0.3125397  0.3125345  )
       372        C      tau( 372) = (  0.8119999  0.3129827  0.5623736  )
       373        C      tau( 373) = (  0.8123747  0.3127220  0.8123566  )
       374        C      tau( 374) = (  0.8124668  0.5625129  0.0626529  )
       375        C      tau( 375) = (  0.8120000  0.5623797  0.3129764  )
       376        C      tau( 376) = (  0.8125492  0.5627246  0.5627188  )
       377        C      tau( 377) = (  0.8129871  0.5627457  0.8129815  )
       378        C      tau( 378) = (  0.8125146  0.8125090  0.0627493  )
       379        C      tau( 379) = (  0.8123749  0.8123620  0.3127167  )
       380        C      tau( 380) = (  0.8129872  0.8129866  0.5627408  )
       381        C      tau( 381) = (  0.8127813  0.8127883  0.8127836  )
       382        C      tau( 382) = (  0.0624214  0.1874466  0.1874414  )
       383        C      tau( 383) = (  0.0623380  0.1874229  0.4374332  )
       384        C      tau( 384) = (  0.0624418  0.1875497  0.6874327  )
       385        C      tau( 385) = (  0.0624860  0.1875300  0.9374247  )
       386        C      tau( 386) = (  0.0623380  0.4374386  0.1874172  )
       387        C      tau( 387) = (  0.0623897  0.4374458  0.4374400  )
       388        C      tau( 388) = (  0.0625331  0.4375338  0.6874213  )
       389        C      tau( 389) = (  0.0625015  0.4375235  0.9374426  )
       390        C      tau( 390) = (  0.0624414  0.6874384  0.1875434  )
       391        C      tau( 391) = (  0.0625330  0.6874273  0.4375280  )
       392        C      tau( 392) = (  0.0627093  0.6875143  0.6875083  )
       393        C      tau( 393) = (  0.0626725  0.6875037  0.9375176  )
       394        C      tau( 394) = (  0.0624855  0.9374301  0.1875247  )
       395        C      tau( 395) = (  0.0625011  0.9374486  0.4375180  )
       396        C      tau( 396) = (  0.0626726  0.9375239  0.6874984  )
       397        C      tau( 397) = (  0.0625872  0.9375183  0.9375131  )
       398        C      tau( 398) = (  0.3124212  0.1873802  0.1873744  )
       399        C      tau( 399) = (  0.3123272  0.1873167  0.4373064  )
       400        C      tau( 400) = (  0.3125125  0.1875092  0.6873150  )
       401        C      tau( 401) = (  0.3125032  0.1875039  0.9373501  )
       402        C      tau( 402) = (  0.3123269  0.4373131  0.1873102  )
       403        C      tau( 403) = (  0.3124252  0.4372155  0.4372088  )
       404        C      tau( 404) = (  0.3123471  0.4376913  0.6874179  )
       405        C      tau( 405) = (  0.3125779  0.4375188  0.9372744  )
       406        C      tau( 406) = (  0.3125117  0.6873224  0.1875013  )
       407        C      tau( 407) = (  0.3123469  0.6874246  0.4376844  )
       408        C      tau( 408) = (  0.3130566  0.6871454  0.6871385  )
       409        C      tau( 409) = (  0.3126557  0.6874503  0.9373948  )
       410        C      tau( 410) = (  0.3125025  0.9373571  0.1874968  )
       411        C      tau( 411) = (  0.3125777  0.9372807  0.4375127  )
       412        C      tau( 412) = (  0.3126558  0.9374022  0.6874441  )
       413        C      tau( 413) = (  0.3125779  0.9374513  0.9374446  )
       414        C      tau( 414) = (  0.5623565  0.1871433  0.1871380  )
       415        C      tau( 415) = (  0.5623102  0.1875791  0.4373937  )
       416        C      tau( 416) = (  0.5624165  0.1878123  0.6872424  )
       417        C      tau( 417) = (  0.5624634  0.1876882  0.9372829  )
       418        C      tau( 418) = (  0.5623100  0.4373997  0.1875732  )
       419        C      tau( 419) = (  0.5619966  0.4389699  0.6860554  )
       420        C      tau( 420) = (  0.5625193  0.4376015  0.9373863  )
       421        C      tau( 421) = (  0.5624158  0.6872491  0.1878054  )
       422        C      tau( 422) = (  0.5619961  0.6860613  0.4389638  )
       423        C      tau( 423) = (  0.5630365  0.6887709  0.6887647  )
       424        C      tau( 424) = (  0.5626270  0.6875944  0.9376515  )
       425        C      tau( 425) = (  0.5624632  0.9372884  0.1876826  )
       426        C      tau( 426) = (  0.5625192  0.9373917  0.4375962  )
       427        C      tau( 427) = (  0.5626271  0.9376573  0.6875891  )
       428        C      tau( 428) = (  0.5625543  0.9376533  0.9376476  )
       429        C      tau( 429) = (  0.8123926  0.1875093  0.1875047  )
       430        C      tau( 430) = (  0.8124801  0.1874735  0.4375160  )
       431        C      tau( 431) = (  0.8123117  0.1878261  0.6873811  )
       432        C      tau( 432) = (  0.8124474  0.1876360  0.9374303  )
       433        C      tau( 433) = (  0.8124804  0.4375211  0.1874678  )
       434        C      tau( 434) = (  0.8121506  0.4376173  0.4376112  )
       435        C      tau( 435) = (  0.8123850  0.4378622  0.6875202  )
       436        C      tau( 436) = (  0.8124926  0.4376122  0.9375148  )
       437        C      tau( 437) = (  0.8123120  0.6873865  0.1878202  )
       438        C      tau( 438) = (  0.8123853  0.6875259  0.4378563  )
       439        C      tau( 439) = (  0.8130759  0.6879227  0.6879175  )
       440        C      tau( 440) = (  0.8126973  0.6876542  0.9378228  )
       441        C      tau( 441) = (  0.8124474  0.9374351  0.1876312  )
       442        C      tau( 442) = (  0.8124927  0.9375197  0.4376076  )
       443        C      tau( 443) = (  0.8126974  0.9378278  0.6876496  )
       444        C      tau( 444) = (  0.8125792  0.9376493  0.9376446  )
       445        C      tau( 445) = (  0.1874653  0.1874537  0.0623989  )
       446        C      tau( 446) = (  0.1873927  0.1873792  0.3123957  )
       447        C      tau( 447) = (  0.1871876  0.1871958  0.5623340  )
       448        C      tau( 448) = (  0.1875271  0.1875345  0.8123712  )
       449        C      tau( 449) = (  0.1874430  0.4374432  0.0623323  )
       450        C      tau( 450) = (  0.1872748  0.4373149  0.3122938  )
       451        C      tau( 451) = (  0.1875178  0.4374353  0.5622892  )
       452        C      tau( 452) = (  0.1875086  0.4375429  0.8124310  )
       453        C      tau( 453) = (  0.1875533  0.6874396  0.0624501  )
       454        C      tau( 454) = (  0.1874546  0.6873411  0.3125099  )
       455        C      tau( 455) = (  0.1877156  0.6873273  0.5624283  )
       456        C      tau( 456) = (  0.1878077  0.6874197  0.8123271  )
       457        C      tau( 457) = (  0.1875341  0.9374342  0.0624817  )
       458        C      tau( 458) = (  0.1874988  0.9373652  0.3124927  )
       459        C      tau( 459) = (  0.1876761  0.9373226  0.5624619  )
       460        C      tau( 460) = (  0.1876382  0.9374649  0.8124484  )
       461        C      tau( 461) = (  0.4374553  0.1874294  0.0623178  )
       462        C      tau( 462) = (  0.4373549  0.1873010  0.3122864  )
       463        C      tau( 463) = (  0.4374374  0.1876034  0.5622570  )
       464        C      tau( 464) = (  0.4375299  0.1875735  0.8123742  )
       465        C      tau( 465) = (  0.4374598  0.4374459  0.0624049  )
       466        C      tau( 466) = (  0.4372996  0.4372101  0.3125892  )
       467        C      tau( 467) = (  0.4376324  0.4376611  0.8121004  )
       468        C      tau( 468) = (  0.4375349  0.6874081  0.0625678  )
       469        C      tau( 469) = (  0.4376343  0.6872975  0.3125264  )
       470        C      tau( 470) = (  0.4388792  0.6861236  0.5620265  )
       471        C      tau( 471) = (  0.4378597  0.6875589  0.8123886  )
       472        C      tau( 472) = (  0.4375257  0.9374356  0.0625045  )
       473        C      tau( 473) = (  0.4375163  0.9372654  0.3125799  )
       474        C      tau( 474) = (  0.4375967  0.9374073  0.5625188  )
       475        C      tau( 475) = (  0.4376144  0.9375467  0.8124928  )
       476        C      tau( 476) = (  0.6874459  0.1875384  0.0624159  )
       477        C      tau( 477) = (  0.6873603  0.1874494  0.3124858  )
       478        C      tau( 478) = (  0.6873130  0.1877781  0.5623666  )
       479        C      tau( 479) = (  0.6874007  0.1878349  0.8122845  )
       480        C      tau( 480) = (  0.6874256  0.4375205  0.0625387  )
       481        C      tau( 481) = (  0.6875067  0.4376517  0.3123462  )
       482        C      tau( 482) = (  0.6861383  0.4388844  0.5619307  )
       483        C      tau( 483) = (  0.6875342  0.4378788  0.8123492  )
       484        C      tau( 484) = (  0.6874967  0.6874863  0.0627354  )
       485        C      tau( 485) = (  0.6871244  0.6870758  0.3131009  )
       486        C      tau( 486) = (  0.6887564  0.6887322  0.5630424  )
       487        C      tau( 487) = (  0.6879192  0.6879236  0.8130730  )
       488        C      tau( 488) = (  0.6874988  0.9375004  0.0626706  )
       489        C      tau( 489) = (  0.6874409  0.9373629  0.3126549  )
       490        C      tau( 490) = (  0.6875916  0.9376453  0.5626227  )
       491        C      tau( 491) = (  0.6876529  0.9378301  0.8126935  )
       492        C      tau( 492) = (  0.9374407  0.1875229  0.0624667  )
       493        C      tau( 493) = (  0.9373870  0.1874733  0.3124774  )
       494        C      tau( 494) = (  0.9373213  0.1876634  0.5624493  )
       495        C      tau( 495) = (  0.9374487  0.1876386  0.8124346  )
       496        C      tau( 496) = (  0.9374672  0.4375180  0.0624676  )
       497        C      tau( 497) = (  0.9372907  0.4374996  0.3125541  )
       498        C      tau( 498) = (  0.9374024  0.4375910  0.5625101  )
       499        C      tau( 499) = (  0.9375279  0.4376132  0.8124897  )
       500        C      tau( 500) = (  0.9375111  0.6874958  0.0626723  )
       501        C      tau( 501) = (  0.9373839  0.6874388  0.3126469  )
       502        C      tau( 502) = (  0.9376416  0.6875991  0.5626255  )
       503        C      tau( 503) = (  0.9378178  0.6876605  0.8127033  )
       504        C      tau( 504) = (  0.9375152  0.9375104  0.0625814  )
       505        C      tau( 505) = (  0.9374444  0.9374316  0.3125667  )
       506        C      tau( 506) = (  0.9376523  0.9376553  0.5625509  )
       507        C      tau( 507) = (  0.9376474  0.9376549  0.8125778  )
       508        C      tau( 508) = (  0.5642919  0.4333206  0.4333143  )
       509        C      tau( 509) = (  0.4330531  0.4335313  0.5640698  )
       510        C      tau( 510) = (  0.4330529  0.5640760  0.4335250  )
       511        N      tau( 511) = (  0.5691184  0.5691588  0.5691529  )

     number of k points=     1
                       cart. coord. in units 2pi/alat
        k(    1) = (   0.0000000   0.0000000   0.0000000), wk =   1.0000000

                       cryst. coord.
        k(    1) = (   0.0000000   0.0000000   0.0000000), wk =   1.0000000

     Dense  grid:   948261 G-vectors     FFT dimensions: ( 160, 160, 160)

     Occupations read from input 

      Spin-up

        1.0000   1.0000   1.0000   1.0000   1.0000   1.0000   1.0000   1.0000
        1.0000   1.0000   1.0000   1.0000   1.0000   1.0000   1.0000   1.0000
        1.0000   1.0000   1.0000   1.0000   1.0000   1.0000   1.0000   1.0000
        1.0000   1.0000   1.0000   1.0000   1.0000   1.0000   1.0000   1.0000
        1.0000   1.0000   1.0000   1.0000   1.0000   1.0000   1.0000   1.0000
        1.0000   1.0000   1.0000   1.0000   1.0000   1.0000   1.0000   1.0000
        1.0000   1.0000   1.0000   1.0000   1.0000   1.0000   1.0000   1.0000
        1.0000   1.0000   1.0000   1.0000   1.0000   1.0000   1.0000   1.0000
        1.0000   1.0000   1.0000   1.0000   1.0000   1.0000   1.0000   1.0000
        1.0000   1.0000   1.0000   1.0000   1.0000   1.0000   1.0000   1.0000
        1.0000   1.0000   1.0000   1.0000   1.0000   1.0000   1.0000   1.0000
        1.0000   1.0000   1.0000   1.0000   1.0000   1.0000   1.0000   1.0000
        1.0000   1.0000   1.0000   1.0000   1.0000   1.0000   1.0000   1.0000
        1.0000   1.0000   1.0000   1.0000   1.0000   1.0000   1.0000   1.0000
        1.0000   1.0000   1.0000   1.0000   1.0000   1.0000   1.0000   1.0000
        1.0000   1.0000   1.0000   1.0000   1.0000   1.0000   1.0000   1.0000
        1.0000   1.0000   1.0000   1.0000   1.0000   1.0000   1.0000   1.0000
        1.0000   1.0000   1.0000   1.0000   1.0000   1.0000   1.0000   1.0000
        1.0000   1.0000   1.0000   1.0000   1.0000   1.0000   1.0000   1.0000
        1.0000   1.0000   1.0000   1.0000   1.0000   1.0000   1.0000   1.0000
        1.0000   1.0000   1.0000   1.0000   1.0000   1.0000   1.0000   1.0000
        1.0000   1.0000   1.0000   1.0000   1.0000   1.0000   1.0000   1.0000
        1.0000   1.0000   1.0000   1.0000   1.0000   1.0000   1.0000   1.0000
        1.0000   1.0000   1.0000   1.0000   1.0000   1.0000   1.0000   1.0000
        1.0000   1.0000   1.0000   1.0000   1.0000   1.0000   1.0000   1.0000
        1.0000   1.0000   1.0000   1.0000   1.0000   1.0000   1.0000   1.0000
        1.0000   1.0000   1.0000   1.0000   1.0000   1.0000   1.0000   1.0000
        1.0000   1.0000   1.0000   1.0000   1.0000   1.0000   1.0000   1.0000
        1.0000   1.0000   1.0000   1.0000   1.0000   1.0000   1.0000   1.0000
        1.0000   1.0000   1.0000   1.0000   1.0000   1.0000   1.0000   1.0000
        1.0000   1.0000   1.0000   1.0000   1.0000   1.0000   1.0000   1.0000
        1.0000   1.0000   1.0000   1.0000   1.0000   1.0000   1.0000   1.0000
        1.0000   1.0000   1.0000   1.0000   1.0000   1.0000   1.0000   1.0000
        1.0000   1.0000   1.0000   1.0000   1.0000   1.0000   1.0000   1.0000
        1.0000   1.0000   1.0000   1.0000   1.0000   1.0000   1.0000   1.0000
        1.0000   1.0000   1.0000   1.0000   1.0000   1.0000   1.0000   1.0000
        1.0000   1.0000   1.0000   1.0000   1.0000   1.0000   1.0000   1.0000
        1.0000   1.0000   1.0000   1.0000   1.0000   1.0000   1.0000   1.0000
        1.0000   1.0000   1.0000   1.0000   1.0000   1.0000   1.0000   1.0000
        1.0000   1.0000   1.0000   1.0000   1.0000   1.0000   1.0000   1.0000
        1.0000   1.0000   1.0000   1.0000   1.0000   1.0000   1.0000   1.0000
        1.0000   1.0000   1.0000   1.0000   1.0000   1.0000   1.0000   1.0000
        1.0000   1.0000   1.0000   1.0000   1.0000   1.0000   1.0000   1.0000
        1.0000   1.0000   1.0000   1.0000   1.0000   1.0000   1.0000   1.0000
        1.0000   1.0000   1.0000   1.0000   1.0000   1.0000   1.0000   1.0000
        1.0000   1.0000   1.0000   1.0000   1.0000   1.0000   1.0000   1.0000
        1.0000   1.0000   1.0000   1.0000   1.0000   1.0000   1.0000   1.0000
        1.0000   1.0000   1.0000   1.0000   1.0000   1.0000   1.0000   1.0000
        1.0000   1.0000   1.0000   1.0000   1.0000   1.0000   1.0000   1.0000
        1.0000   1.0000   1.0000   1.0000   1.0000   1.0000   1.0000   1.0000
        1.0000   1.0000   1.0000   1.0000   1.0000   1.0000   1.0000   1.0000
        1.0000   1.0000   1.0000   1.0000   1.0000   1.0000   1.0000   1.0000
        1.0000   1.0000   1.0000   1.0000   1.0000   1.0000   1.0000   1.0000
        1.0000   1.0000   1.0000   1.0000   1.0000   1.0000   1.0000   1.0000
        1.0000   1.0000   1.0000   1.0000   1.0000   1.0000   1.0000   1.0000
        1.0000   1.0000   1.0000   1.0000   1.0000   1.0000   1.0000   1.0000
        1.0000   1.0000   1.0000   1.0000   1.0000   1.0000   1.0000   1.0000
        1.0000   1.0000   1.0000   1.0000   1.0000   1.0000   1.0000   1.0000
        1.0000   1.0000   1.0000   1.0000   1.0000   1.0000   1.0000   1.0000
        1.0000   1.0000   1.0000   1.0000   1.0000   1.0000   1.0000   1.0000
        1.0000   1.0000   1.0000   1.0000   1.0000   1.0000   1.0000   1.0000
        1.0000   1.0000   1.0000   1.0000   1.0000   1.0000   1.0000   1.0000
        1.0000   1.0000   1.0000   1.0000   1.0000   1.0000   1.0000   1.0000
        1.0000   1.0000   1.0000   1.0000   1.0000   1.0000   1.0000   1.0000
        1.0000   1.0000   1.0000   1.0000   1.0000   1.0000   1.0000   1.0000
        1.0000   1.0000   1.0000   1.0000   1.0000   1.0000   1.0000   1.0000
        1.0000   1.0000   1.0000   1.0000   1.0000   1.0000   1.0000   1.0000
        1.0000   1.0000   1.0000   1.0000   1.0000   1.0000   1.0000   1.0000
        1.0000   1.0000   1.0000   1.0000   1.0000   1.0000   1.0000   1.0000
        1.0000   1.0000   1.0000   1.0000   1.0000   1.0000   1.0000   1.0000
        1.0000   1.0000   1.0000   1.0000   1.0000   1.0000   1.0000   1.0000
        1.0000   1.0000   1.0000   1.0000   1.0000   1.0000   1.0000   1.0000
        1.0000   1.0000   1.0000   1.0000   1.0000   1.0000   1.0000   1.0000
        1.0000   1.0000   1.0000   1.0000   1.0000   1.0000   1.0000   1.0000
        1.0000   1.0000   1.0000   1.0000   1.0000   1.0000   1.0000   1.0000
        1.0000   1.0000   1.0000   1.0000   1.0000   1.0000   1.0000   1.0000
        1.0000   1.0000   1.0000   1.0000   1.0000   1.0000   1.0000   1.0000
        1.0000   1.0000   1.0000   1.0000   1.0000   1.0000   1.0000   1.0000
        1.0000   1.0000   1.0000   1.0000   1.0000   1.0000   1.0000   1.0000
        1.0000   1.0000   1.0000   1.0000   1.0000   1.0000   1.0000   1.0000
        1.0000   1.0000   1.0000   1.0000   1.0000   1.0000   1.0000   1.0000
        1.0000   1.0000   1.0000   1.0000   1.0000   1.0000   1.0000   1.0000
        1.0000   1.0000   1.0000   1.0000   1.0000   1.0000   1.0000   1.0000
        1.0000   1.0000   1.0000   1.0000   1.0000   1.0000   1.0000   1.0000
        1.0000   1.0000   1.0000   1.0000   1.0000   1.0000   1.0000   1.0000
        1.0000   1.0000   1.0000   1.0000   1.0000   1.0000   1.0000   1.0000
        1.0000   1.0000   1.0000   1.0000   1.0000   1.0000   1.0000   1.0000
        1.0000   1.0000   1.0000   1.0000   1.0000   1.0000   1.0000   1.0000
        1.0000   1.0000   1.0000   1.0000   1.0000   1.0000   1.0000   1.0000
        1.0000   1.0000   1.0000   1.0000   1.0000   1.0000   1.0000   1.0000
        1.0000   1.0000   1.0000   1.0000   1.0000   1.0000   1.0000   1.0000
        1.0000   1.0000   1.0000   1.0000   1.0000   1.0000   1.0000   1.0000
        1.0000   1.0000   1.0000   1.0000   1.0000   1.0000   1.0000   1.0000
        1.0000   1.0000   1.0000   1.0000   1.0000   1.0000   1.0000   1.0000
        1.0000   1.0000   1.0000   1.0000   1.0000   1.0000   1.0000   1.0000
        1.0000   1.0000   1.0000   1.0000   1.0000   1.0000   1.0000   1.0000
        1.0000   1.0000   1.0000   1.0000   1.0000   1.0000   1.0000   1.0000
        1.0000   1.0000   1.0000   1.0000   1.0000   1.0000   1.0000   1.0000
        1.0000   1.0000   1.0000   1.0000   1.0000   1.0000   1.0000   1.0000
        1.0000   1.0000   1.0000   1.0000   1.0000   1.0000   1.0000   1.0000
        1.0000   1.0000   1.0000   1.0000   1.0000   1.0000   1.0000   1.0000
        1.0000   1.0000   1.0000   1.0000   1.0000   1.0000   1.0000   1.0000
        1.0000   1.0000   1.0000   1.0000   1.0000   1.0000   1.0000   1.0000
        1.0000   1.0000   1.0000   1.0000   1.0000   1.0000   1.0000   1.0000
        1.0000   1.0000   1.0000   1.0000   1.0000   1.0000   1.0000   1.0000
        1.0000   1.0000   1.0000   1.0000   1.0000   1.0000   1.0000   1.0000
        1.0000   1.0000   1.0000   1.0000   1.0000   1.0000   1.0000   1.0000
        1.0000   1.0000   1.0000   1.0000   1.0000   1.0000   1.0000   1.0000
        1.0000   1.0000   1.0000   1.0000   1.0000   1.0000   1.0000   1.0000
        1.0000   1.0000   1.0000   1.0000   1.0000   1.0000   1.0000   1.0000
        1.0000   1.0000   1.0000   1.0000   1.0000   1.0000   1.0000   1.0000
        1.0000   1.0000   1.0000   1.0000   1.0000   1.0000   1.0000   1.0000
        1.0000   1.0000   1.0000   1.0000   1.0000   1.0000   1.0000   1.0000
        1.0000   1.0000   1.0000   1.0000   1.0000   1.0000   1.0000   1.0000
        1.0000   1.0000   1.0000   1.0000   1.0000   1.0000   1.0000   1.0000
        1.0000   1.0000   1.0000   1.0000   1.0000   1.0000   1.0000   1.0000
        1.0000   1.0000   1.0000   1.0000   1.0000   1.0000   1.0000   1.0000
        1.0000   1.0000   1.0000   1.0000   1.0000   1.0000   1.0000   1.0000
        1.0000   1.0000   1.0000   1.0000   1.0000   1.0000   1.0000   1.0000
        1.0000   1.0000   1.0000   1.0000   1.0000   1.0000   1.0000   1.0000
        1.0000   1.0000   1.0000   1.0000   1.0000   1.0000   1.0000   1.0000
        1.0000   1.0000   1.0000   1.0000   1.0000   1.0000   1.0000   1.0000
        1.0000   1.0000   1.0000   1.0000   1.0000   1.0000   1.0000   1.0000
        1.0000   1.0000   1.0000   1.0000   1.0000   1.0000   1.0000   1.0000
        1.0000   1.0000   1.0000   1.0000   1.0000   1.0000   1.0000   1.0000
        1.0000   1.0000   1.0000   1.0000   1.0000   1.0000   1.0000   1.0000
        1.0000   1.0000   1.0000   1.0000   1.0000   1.0000   1.0000   1.0000
        1.0000   1.0000   1.0000   1.0000   1.0000   1.0000   1.0000   1.0000
        0.0000   0.0000   0.0000   0.0000   0.0000   0.0000   0.0000   0.0000

      Spin-down

        1.0000   1.0000   1.0000   1.0000   1.0000   1.0000   1.0000   1.0000
        1.0000   1.0000   1.0000   1.0000   1.0000   1.0000   1.0000   1.0000
        1.0000   1.0000   1.0000   1.0000   1.0000   1.0000   1.0000   1.0000
        1.0000   1.0000   1.0000   1.0000   1.0000   1.0000   1.0000   1.0000
        1.0000   1.0000   1.0000   1.0000   1.0000   1.0000   1.0000   1.0000
        1.0000   1.0000   1.0000   1.0000   1.0000   1.0000   1.0000   1.0000
        1.0000   1.0000   1.0000   1.0000   1.0000   1.0000   1.0000   1.0000
        1.0000   1.0000   1.0000   1.0000   1.0000   1.0000   1.0000   1.0000
        1.0000   1.0000   1.0000   1.0000   1.0000   1.0000   1.0000   1.0000
        1.0000   1.0000   1.0000   1.0000   1.0000   1.0000   1.0000   1.0000
        1.0000   1.0000   1.0000   1.0000   1.0000   1.0000   1.0000   1.0000
        1.0000   1.0000   1.0000   1.0000   1.0000   1.0000   1.0000   1.0000
        1.0000   1.0000   1.0000   1.0000   1.0000   1.0000   1.0000   1.0000
        1.0000   1.0000   1.0000   1.0000   1.0000   1.0000   1.0000   1.0000
        1.0000   1.0000   1.0000   1.0000   1.0000   1.0000   1.0000   1.0000
        1.0000   1.0000   1.0000   1.0000   1.0000   1.0000   1.0000   1.0000
        1.0000   1.0000   1.0000   1.0000   1.0000   1.0000   1.0000   1.0000
        1.0000   1.0000   1.0000   1.0000   1.0000   1.0000   1.0000   1.0000
        1.0000   1.0000   1.0000   1.0000   1.0000   1.0000   1.0000   1.0000
        1.0000   1.0000   1.0000   1.0000   1.0000   1.0000   1.0000   1.0000
        1.0000   1.0000   1.0000   1.0000   1.0000   1.0000   1.0000   1.0000
        1.0000   1.0000   1.0000   1.0000   1.0000   1.0000   1.0000   1.0000
        1.0000   1.0000   1.0000   1.0000   1.0000   1.0000   1.0000   1.0000
        1.0000   1.0000   1.0000   1.0000   1.0000   1.0000   1.0000   1.0000
        1.0000   1.0000   1.0000   1.0000   1.0000   1.0000   1.0000   1.0000
        1.0000   1.0000   1.0000   1.0000   1.0000   1.0000   1.0000   1.0000
        1.0000   1.0000   1.0000   1.0000   1.0000   1.0000   1.0000   1.0000
        1.0000   1.0000   1.0000   1.0000   1.0000   1.0000   1.0000   1.0000
        1.0000   1.0000   1.0000   1.0000   1.0000   1.0000   1.0000   1.0000
        1.0000   1.0000   1.0000   1.0000   1.0000   1.0000   1.0000   1.0000
        1.0000   1.0000   1.0000   1.0000   1.0000   1.0000   1.0000   1.0000
        1.0000   1.0000   1.0000   1.0000   1.0000   1.0000   1.0000   1.0000
        1.0000   1.0000   1.0000   1.0000   1.0000   1.0000   1.0000   1.0000
        1.0000   1.0000   1.0000   1.0000   1.0000   1.0000   1.0000   1.0000
        1.0000   1.0000   1.0000   1.0000   1.0000   1.0000   1.0000   1.0000
        1.0000   1.0000   1.0000   1.0000   1.0000   1.0000   1.0000   1.0000
        1.0000   1.0000   1.0000   1.0000   1.0000   1.0000   1.0000   1.0000
        1.0000   1.0000   1.0000   1.0000   1.0000   1.0000   1.0000   1.0000
        1.0000   1.0000   1.0000   1.0000   1.0000   1.0000   1.0000   1.0000
        1.0000   1.0000   1.0000   1.0000   1.0000   1.0000   1.0000   1.0000
        1.0000   1.0000   1.0000   1.0000   1.0000   1.0000   1.0000   1.0000
        1.0000   1.0000   1.0000   1.0000   1.0000   1.0000   1.0000   1.0000
        1.0000   1.0000   1.0000   1.0000   1.0000   1.0000   1.0000   1.0000
        1.0000   1.0000   1.0000   1.0000   1.0000   1.0000   1.0000   1.0000
        1.0000   1.0000   1.0000   1.0000   1.0000   1.0000   1.0000   1.0000
        1.0000   1.0000   1.0000   1.0000   1.0000   1.0000   1.0000   1.0000
        1.0000   1.0000   1.0000   1.0000   1.0000   1.0000   1.0000   1.0000
        1.0000   1.0000   1.0000   1.0000   1.0000   1.0000   1.0000   1.0000
        1.0000   1.0000   1.0000   1.0000   1.0000   1.0000   1.0000   1.0000
        1.0000   1.0000   1.0000   1.0000   1.0000   1.0000   1.0000   1.0000
        1.0000   1.0000   1.0000   1.0000   1.0000   1.0000   1.0000   1.0000
        1.0000   1.0000   1.0000   1.0000   1.0000   1.0000   1.0000   1.0000
        1.0000   1.0000   1.0000   1.0000   1.0000   1.0000   1.0000   1.0000
        1.0000   1.0000   1.0000   1.0000   1.0000   1.0000   1.0000   1.0000
        1.0000   1.0000   1.0000   1.0000   1.0000   1.0000   1.0000   1.0000
        1.0000   1.0000   1.0000   1.0000   1.0000   1.0000   1.0000   1.0000
        1.0000   1.0000   1.0000   1.0000   1.0000   1.0000   1.0000   1.0000
        1.0000   1.0000   1.0000   1.0000   1.0000   1.0000   1.0000   1.0000
        1.0000   1.0000   1.0000   1.0000   1.0000   1.0000   1.0000   1.0000
        1.0000   1.0000   1.0000   1.0000   1.0000   1.0000   1.0000   1.0000
        1.0000   1.0000   1.0000   1.0000   1.0000   1.0000   1.0000   1.0000
        1.0000   1.0000   1.0000   1.0000   1.0000   1.0000   1.0000   1.0000
        1.0000   1.0000   1.0000   1.0000   1.0000   1.0000   1.0000   1.0000
        1.0000   1.0000   1.0000   1.0000   1.0000   1.0000   1.0000   1.0000
        1.0000   1.0000   1.0000   1.0000   1.0000   1.0000   1.0000   1.0000
        1.0000   1.0000   1.0000   1.0000   1.0000   1.0000   1.0000   1.0000
        1.0000   1.0000   1.0000   1.0000   1.0000   1.0000   1.0000   1.0000
        1.0000   1.0000   1.0000   1.0000   1.0000   1.0000   1.0000   1.0000
        1.0000   1.0000   1.0000   1.0000   1.0000   1.0000   1.0000   1.0000
        1.0000   1.0000   1.0000   1.0000   1.0000   1.0000   1.0000   1.0000
        1.0000   1.0000   1.0000   1.0000   1.0000   1.0000   1.0000   1.0000
        1.0000   1.0000   1.0000   1.0000   1.0000   1.0000   1.0000   1.0000
        1.0000   1.0000   1.0000   1.0000   1.0000   1.0000   1.0000   1.0000
        1.0000   1.0000   1.0000   1.0000   1.0000   1.0000   1.0000   1.0000
        1.0000   1.0000   1.0000   1.0000   1.0000   1.0000   1.0000   1.0000
        1.0000   1.0000   1.0000   1.0000   1.0000   1.0000   1.0000   1.0000
        1.0000   1.0000   1.0000   1.0000   1.0000   1.0000   1.0000   1.0000
        1.0000   1.0000   1.0000   1.0000   1.0000   1.0000   1.0000   1.0000
        1.0000   1.0000   1.0000   1.0000   1.0000   1.0000   1.0000   1.0000
        1.0000   1.0000   1.0000   1.0000   1.0000   1.0000   1.0000   1.0000
        1.0000   1.0000   1.0000   1.0000   1.0000   1.0000   1.0000   1.0000
        1.0000   1.0000   1.0000   1.0000   1.0000   1.0000   1.0000   1.0000
        1.0000   1.0000   1.0000   1.0000   1.0000   1.0000   1.0000   1.0000
        1.0000   1.0000   1.0000   1.0000   1.0000   1.0000   1.0000   1.0000
        1.0000   1.0000   1.0000   1.0000   1.0000   1.0000   1.0000   1.0000
        1.0000   1.0000   1.0000   1.0000   1.0000   1.0000   1.0000   1.0000
        1.0000   1.0000   1.0000   1.0000   1.0000   1.0000   1.0000   1.0000
        1.0000   1.0000   1.0000   1.0000   1.0000   1.0000   1.0000   1.0000
        1.0000   1.0000   1.0000   1.0000   1.0000   1.0000   1.0000   1.0000
        1.0000   1.0000   1.0000   1.0000   1.0000   1.0000   1.0000   1.0000
        1.0000   1.0000   1.0000   1.0000   1.0000   1.0000   1.0000   1.0000
        1.0000   1.0000   1.0000   1.0000   1.0000   1.0000   1.0000   1.0000
        1.0000   1.0000   1.0000   1.0000   1.0000   1.0000   1.0000   1.0000
        1.0000   1.0000   1.0000   1.0000   1.0000   1.0000   1.0000   1.0000
        1.0000   1.0000   1.0000   1.0000   1.0000   1.0000   1.0000   1.0000
        1.0000   1.0000   1.0000   1.0000   1.0000   1.0000   1.0000   1.0000
        1.0000   1.0000   1.0000   1.0000   1.0000   1.0000   1.0000   1.0000
        1.0000   1.0000   1.0000   1.0000   1.0000   1.0000   1.0000   1.0000
        1.0000   1.0000   1.0000   1.0000   1.0000   1.0000   1.0000   1.0000
        1.0000   1.0000   1.0000   1.0000   1.0000   1.0000   1.0000   1.0000
        1.0000   1.0000   1.0000   1.0000   1.0000   1.0000   1.0000   1.0000
        1.0000   1.0000   1.0000   1.0000   1.0000   1.0000   1.0000   1.0000
        1.0000   1.0000   1.0000   1.0000   1.0000   1.0000   1.0000   1.0000
        1.0000   1.0000   1.0000   1.0000   1.0000   1.0000   1.0000   1.0000
        1.0000   1.0000   1.0000   1.0000   1.0000   1.0000   1.0000   1.0000
        1.0000   1.0000   1.0000   1.0000   1.0000   1.0000   1.0000   1.0000
        1.0000   1.0000   1.0000   1.0000   1.0000   1.0000   1.0000   1.0000
        1.0000   1.0000   1.0000   1.0000   1.0000   1.0000   1.0000   1.0000
        1.0000   1.0000   1.0000   1.0000   1.0000   1.0000   1.0000   1.0000
        1.0000   1.0000   1.0000   1.0000   1.0000   1.0000   1.0000   1.0000
        1.0000   1.0000   1.0000   1.0000   1.0000   1.0000   1.0000   1.0000
        1.0000   1.0000   1.0000   1.0000   1.0000   1.0000   1.0000   1.0000
        1.0000   1.0000   1.0000   1.0000   1.0000   1.0000   1.0000   1.0000
        1.0000   1.0000   1.0000   1.0000   1.0000   1.0000   1.0000   1.0000
        1.0000   1.0000   1.0000   1.0000   1.0000   1.0000   1.0000   1.0000
        1.0000   1.0000   1.0000   1.0000   1.0000   1.0000   1.0000   1.0000
        1.0000   1.0000   1.0000   1.0000   1.0000   1.0000   1.0000   1.0000
        1.0000   1.0000   1.0000   1.0000   1.0000   1.0000   1.0000   1.0000
        1.0000   1.0000   1.0000   1.0000   1.0000   1.0000   1.0000   1.0000
        1.0000   1.0000   1.0000   1.0000   1.0000   1.0000   1.0000   1.0000
        1.0000   1.0000   1.0000   1.0000   1.0000   1.0000   1.0000   1.0000
        1.0000   1.0000   1.0000   1.0000   1.0000   1.0000   1.0000   1.0000
        1.0000   1.0000   1.0000   1.0000   1.0000   1.0000   1.0000   1.0000
        1.0000   1.0000   1.0000   1.0000   1.0000   1.0000   1.0000   1.0000
        1.0000   1.0000   1.0000   1.0000   1.0000   1.0000   1.0000   1.0000
        1.0000   1.0000   1.0000   1.0000   1.0000   1.0000   1.0000   1.0000
        1.0000   1.0000   1.0000   1.0000   1.0000   1.0000   1.0000   1.0000
        1.0000   1.0000   1.0000   1.0000   1.0000   0.0000   1.0000   0.0000
        0.0000   0.0000   0.0000   0.0000   0.0000   0.0000   0.0000   0.0000

     Dynamical RAM for                 wfc:      38.88 MB

     Dynamical RAM for     wfc (w. buffer):      38.88 MB

     Dynamical RAM for           str. fact:       0.60 MB

     Dynamical RAM for           local pot:       0.00 MB

     Dynamical RAM for          nlocal pot:     154.01 MB

     Dynamical RAM for                qrad:       0.82 MB

     Dynamical RAM for          rho,v,vnew:       6.50 MB

     Dynamical RAM for               rhoin:       2.17 MB

     Dynamical RAM for            rho*nmix:       9.65 MB

     Dynamical RAM for           G-vectors:       1.28 MB

     Dynamical RAM for          h,s,v(r/c):       2.71 MB

     Dynamical RAM for          <psi|beta>:      32.19 MB

     Dynamical RAM for                 psi:      77.76 MB

     Dynamical RAM for                hpsi:      77.76 MB

     Dynamical RAM for      wfcinit/wfcrot:     102.14 MB

     Estimated static dynamical RAM per process >     209.85 MB

     Estimated max dynamical RAM per process >     409.91 MB

     Estimated total dynamical RAM >      37.98 GB
     Generating pointlists ...
     new r_m :   0.0424 (alat units)  1.1445 (a.u.) for type    1
     new r_m :   0.0424 (alat units)  1.1445 (a.u.) for type    2

     Initial potential from superposition of free atoms

     starting charge    2041.4445, renormalised to    2046.0000
     Starting wfcs are random

     total cpu time spent up to now is       20.0 secs

     Self-consistent Calculation

     iteration #  1     ecut=    80.00 Ry     beta= 0.70
     Davidson diagonalization with overlap

---- Real-time Memory Report at c_bands before calling an iterative solver
           513 MiB given to the printing process from OS
             0 MiB allocation reported by mallinfo(arena+hblkhd)
        160796 MiB available memory on the node where the printing process lives
------------------
     ethr =  1.00E-02,  avg # of iterations = 13.0

     total cpu time spent up to now is       99.7 secs

     total energy              =   -5823.77305202 Ry
     estimated scf accuracy    <      29.21585981 Ry

     total magnetization       =     2.00 Bohr mag/cell
     absolute magnetization    =     2.00 Bohr mag/cell

     iteration #  2     ecut=    80.00 Ry     beta= 0.70
     Davidson diagonalization with overlap

---- Real-time Memory Report at c_bands before calling an iterative solver
           629 MiB given to the printing process from OS
             0 MiB allocation reported by mallinfo(arena+hblkhd)
        159269 MiB available memory on the node where the printing process lives
------------------
     ethr =  1.43E-03,  avg # of iterations = 13.5

     total cpu time spent up to now is      126.5 secs

     total energy              =   -5824.69728549 Ry
     estimated scf accuracy    <       6.01091317 Ry

     total magnetization       =     2.00 Bohr mag/cell
     absolute magnetization    =     2.08 Bohr mag/cell

     iteration #  3     ecut=    80.00 Ry     beta= 0.70
     Davidson diagonalization with overlap

---- Real-time Memory Report at c_bands before calling an iterative solver
           652 MiB given to the printing process from OS
             0 MiB allocation reported by mallinfo(arena+hblkhd)
        159075 MiB available memory on the node where the printing process lives
------------------
     ethr =  2.94E-04,  avg # of iterations = 15.5

     total cpu time spent up to now is      157.9 secs

     total energy              =   -5816.23556496 Ry
     estimated scf accuracy    <      93.33360053 Ry

     total magnetization       =     2.00 Bohr mag/cell
     absolute magnetization    =     2.40 Bohr mag/cell

     iteration #  4     ecut=    80.00 Ry     beta= 0.70
     Davidson diagonalization with overlap

---- Real-time Memory Report at c_bands before calling an iterative solver
           661 MiB given to the printing process from OS
             0 MiB allocation reported by mallinfo(arena+hblkhd)
        158885 MiB available memory on the node where the printing process lives
------------------
     c_bands:  1 eigenvalues not converged
     ethr =  2.94E-04,  avg # of iterations = 20.0

     total cpu time spent up to now is      188.8 secs

     total energy              =   -5828.66194058 Ry
     estimated scf accuracy    <       2.88985479 Ry

     total magnetization       =     2.00 Bohr mag/cell
     absolute magnetization    =     2.14 Bohr mag/cell

     iteration #  5     ecut=    80.00 Ry     beta= 0.70
     Davidson diagonalization with overlap

---- Real-time Memory Report at c_bands before calling an iterative solver
           665 MiB given to the printing process from OS
             0 MiB allocation reported by mallinfo(arena+hblkhd)
        158879 MiB available memory on the node where the printing process lives
------------------
     ethr =  1.41E-04,  avg # of iterations = 13.0

     total cpu time spent up to now is      210.0 secs

     total energy              =   -5828.89295395 Ry
     estimated scf accuracy    <       0.42414317 Ry

     total magnetization       =     2.00 Bohr mag/cell
     absolute magnetization    =     2.14 Bohr mag/cell

     iteration #  6     ecut=    80.00 Ry     beta= 0.70
     Davidson diagonalization with overlap

---- Real-time Memory Report at c_bands before calling an iterative solver
           665 MiB given to the printing process from OS
             0 MiB allocation reported by mallinfo(arena+hblkhd)
        158879 MiB available memory on the node where the printing process lives
------------------
     ethr =  2.07E-05,  avg # of iterations = 12.0

     total cpu time spent up to now is      231.0 secs

     total energy              =   -5828.93520973 Ry
     estimated scf accuracy    <       0.20545945 Ry

     total magnetization       =     2.00 Bohr mag/cell
     absolute magnetization    =     2.15 Bohr mag/cell

     iteration #  7     ecut=    80.00 Ry     beta= 0.70
     Davidson diagonalization with overlap

---- Real-time Memory Report at c_bands before calling an iterative solver
           665 MiB given to the printing process from OS
             0 MiB allocation reported by mallinfo(arena+hblkhd)
        158879 MiB available memory on the node where the printing process lives
------------------
     ethr =  1.00E-05,  avg # of iterations =  7.0

     total cpu time spent up to now is      248.8 secs

     total energy              =   -5828.94369523 Ry
     estimated scf accuracy    <       0.04429873 Ry

     total magnetization       =     2.00 Bohr mag/cell
     absolute magnetization    =     2.16 Bohr mag/cell

     iteration #  8     ecut=    80.00 Ry     beta= 0.70
     Davidson diagonalization with overlap

---- Real-time Memory Report at c_bands before calling an iterative solver
           665 MiB given to the printing process from OS
             0 MiB allocation reported by mallinfo(arena+hblkhd)
        158879 MiB available memory on the node where the printing process lives
------------------
     c_bands:  2 eigenvalues not converged
     ethr =  2.17E-06,  avg # of iterations = 20.0

     total cpu time spent up to now is      276.8 secs

     total energy              =   -5828.94710060 Ry
     estimated scf accuracy    <       0.09470226 Ry

     total magnetization       =     2.00 Bohr mag/cell
     absolute magnetization    =     2.18 Bohr mag/cell

     iteration #  9     ecut=    80.00 Ry     beta= 0.70
     Davidson diagonalization with overlap

---- Real-time Memory Report at c_bands before calling an iterative solver
           665 MiB given to the printing process from OS
             0 MiB allocation reported by mallinfo(arena+hblkhd)
        158878 MiB available memory on the node where the printing process lives
------------------
     ethr =  2.17E-06,  avg # of iterations = 13.0

     total cpu time spent up to now is      307.1 secs

     total energy              =   -5828.95120968 Ry
     estimated scf accuracy    <       0.06058007 Ry

     total magnetization       =     2.00 Bohr mag/cell
     absolute magnetization    =     2.20 Bohr mag/cell

     iteration # 10     ecut=    80.00 Ry     beta= 0.70
     Davidson diagonalization with overlap

---- Real-time Memory Report at c_bands before calling an iterative solver
           665 MiB given to the printing process from OS
             0 MiB allocation reported by mallinfo(arena+hblkhd)
        158878 MiB available memory on the node where the printing process lives
------------------
     ethr =  2.17E-06,  avg # of iterations = 11.0

     total cpu time spent up to now is      326.9 secs

     total energy              =   -5828.95358921 Ry
     estimated scf accuracy    <       0.02702314 Ry

     total magnetization       =     2.00 Bohr mag/cell
     absolute magnetization    =     2.21 Bohr mag/cell

     iteration # 11     ecut=    80.00 Ry     beta= 0.70
     Davidson diagonalization with overlap

---- Real-time Memory Report at c_bands before calling an iterative solver
           665 MiB given to the printing process from OS
             0 MiB allocation reported by mallinfo(arena+hblkhd)
        158875 MiB available memory on the node where the printing process lives
------------------
     ethr =  1.32E-06,  avg # of iterations = 11.0

     total cpu time spent up to now is      342.9 secs

     total energy              =   -5828.95358984 Ry
     estimated scf accuracy    <       0.01721393 Ry

     total magnetization       =     2.00 Bohr mag/cell
     absolute magnetization    =     2.22 Bohr mag/cell

     iteration # 12     ecut=    80.00 Ry     beta= 0.70
     Davidson diagonalization with overlap

---- Real-time Memory Report at c_bands before calling an iterative solver
           665 MiB given to the printing process from OS
             0 MiB allocation reported by mallinfo(arena+hblkhd)
        158877 MiB available memory on the node where the printing process lives
------------------
     ethr =  8.41E-07,  avg # of iterations =  6.0

     total cpu time spent up to now is      359.5 secs

     total energy              =   -5828.95427713 Ry
     estimated scf accuracy    <       0.07617342 Ry

     total magnetization       =     2.00 Bohr mag/cell
     absolute magnetization    =     2.24 Bohr mag/cell

     iteration # 13     ecut=    80.00 Ry     beta= 0.70
     Davidson diagonalization with overlap

---- Real-time Memory Report at c_bands before calling an iterative solver
           665 MiB given to the printing process from OS
             0 MiB allocation reported by mallinfo(arena+hblkhd)
        158876 MiB available memory on the node where the printing process lives
------------------
     ethr =  8.41E-07,  avg # of iterations =  2.5

     total cpu time spent up to now is      372.7 secs

     total energy              =   -5828.95393229 Ry
     estimated scf accuracy    <       0.04256768 Ry

     total magnetization       =     2.00 Bohr mag/cell
     absolute magnetization    =     2.24 Bohr mag/cell

     iteration # 14     ecut=    80.00 Ry     beta= 0.70
     Davidson diagonalization with overlap

---- Real-time Memory Report at c_bands before calling an iterative solver
           665 MiB given to the printing process from OS
             0 MiB allocation reported by mallinfo(arena+hblkhd)
        158875 MiB available memory on the node where the printing process lives
------------------
     ethr =  8.41E-07,  avg # of iterations =  2.0

     total cpu time spent up to now is      386.5 secs

     total energy              =   -5828.95435492 Ry
     estimated scf accuracy    <       0.02239642 Ry

     total magnetization       =     2.00 Bohr mag/cell
     absolute magnetization    =     2.23 Bohr mag/cell

     iteration # 15     ecut=    80.00 Ry     beta= 0.70
     Davidson diagonalization with overlap

---- Real-time Memory Report at c_bands before calling an iterative solver
           665 MiB given to the printing process from OS
             0 MiB allocation reported by mallinfo(arena+hblkhd)
        158876 MiB available memory on the node where the printing process lives
------------------
     ethr =  8.41E-07,  avg # of iterations =  2.0

     total cpu time spent up to now is      403.7 secs

     total energy              =   -5828.95434080 Ry
     estimated scf accuracy    <       0.01921370 Ry

     total magnetization       =     2.00 Bohr mag/cell
     absolute magnetization    =     2.24 Bohr mag/cell

     iteration # 16     ecut=    80.00 Ry     beta= 0.70
     Davidson diagonalization with overlap

---- Real-time Memory Report at c_bands before calling an iterative solver
           665 MiB given to the printing process from OS
             0 MiB allocation reported by mallinfo(arena+hblkhd)
        158877 MiB available memory on the node where the printing process lives
------------------
     ethr =  8.41E-07,  avg # of iterations =  1.0

     total cpu time spent up to now is      416.7 secs

     total energy              =   -5828.95433006 Ry
     estimated scf accuracy    <       0.06816096 Ry

     total magnetization       =     2.00 Bohr mag/cell
     absolute magnetization    =     2.26 Bohr mag/cell

     iteration # 17     ecut=    80.00 Ry     beta= 0.70
     Davidson diagonalization with overlap

---- Real-time Memory Report at c_bands before calling an iterative solver
           665 MiB given to the printing process from OS
             0 MiB allocation reported by mallinfo(arena+hblkhd)
        158876 MiB available memory on the node where the printing process lives
------------------
     ethr =  8.41E-07,  avg # of iterations =  1.0

     total cpu time spent up to now is      428.4 secs

     total energy              =   -5828.95450292 Ry
     estimated scf accuracy    <       0.02870536 Ry

     total magnetization       =     2.00 Bohr mag/cell
     absolute magnetization    =     2.24 Bohr mag/cell

     iteration # 18     ecut=    80.00 Ry     beta= 0.70
     Davidson diagonalization with overlap

---- Real-time Memory Report at c_bands before calling an iterative solver
           665 MiB given to the printing process from OS
             0 MiB allocation reported by mallinfo(arena+hblkhd)
        158877 MiB available memory on the node where the printing process lives
------------------
     ethr =  8.41E-07,  avg # of iterations =  1.0

     total cpu time spent up to now is      439.7 secs

     total energy              =   -5828.95439885 Ry
     estimated scf accuracy    <       0.03219288 Ry

     total magnetization       =     2.00 Bohr mag/cell
     absolute magnetization    =     2.25 Bohr mag/cell

     iteration # 19     ecut=    80.00 Ry     beta= 0.70
     Davidson diagonalization with overlap

---- Real-time Memory Report at c_bands before calling an iterative solver
           665 MiB given to the printing process from OS
             0 MiB allocation reported by mallinfo(arena+hblkhd)
        158877 MiB available memory on the node where the printing process lives
------------------
     ethr =  8.41E-07,  avg # of iterations =  1.0

     total cpu time spent up to now is      452.6 secs

     total energy              =   -5828.95438438 Ry
     estimated scf accuracy    <       0.04240262 Ry

     total magnetization       =     2.00 Bohr mag/cell
     absolute magnetization    =     2.26 Bohr mag/cell

     iteration # 20     ecut=    80.00 Ry     beta= 0.70
     Davidson diagonalization with overlap

---- Real-time Memory Report at c_bands before calling an iterative solver
           665 MiB given to the printing process from OS
             0 MiB allocation reported by mallinfo(arena+hblkhd)
        158877 MiB available memory on the node where the printing process lives
------------------
     ethr =  8.41E-07,  avg # of iterations =  1.0

     total cpu time spent up to now is      464.6 secs

     total energy              =   -5828.95444829 Ry
     estimated scf accuracy    <       0.01520208 Ry

     total magnetization       =     2.00 Bohr mag/cell
     absolute magnetization    =     2.25 Bohr mag/cell

     iteration # 21     ecut=    80.00 Ry     beta= 0.70
     Davidson diagonalization with overlap

---- Real-time Memory Report at c_bands before calling an iterative solver
           665 MiB given to the printing process from OS
             0 MiB allocation reported by mallinfo(arena+hblkhd)
        158878 MiB available memory on the node where the printing process lives
------------------
     ethr =  7.43E-07,  avg # of iterations =  1.0

     total cpu time spent up to now is      485.8 secs

     total energy              =   -5828.95442491 Ry
     estimated scf accuracy    <       0.01539514 Ry

     total magnetization       =     2.00 Bohr mag/cell
     absolute magnetization    =     2.25 Bohr mag/cell

     iteration # 22     ecut=    80.00 Ry     beta= 0.70
     Davidson diagonalization with overlap

---- Real-time Memory Report at c_bands before calling an iterative solver
           665 MiB given to the printing process from OS
             0 MiB allocation reported by mallinfo(arena+hblkhd)
        158876 MiB available memory on the node where the printing process lives
------------------
     ethr =  7.43E-07,  avg # of iterations =  1.0

     total cpu time spent up to now is      502.4 secs

     total energy              =   -5828.95448059 Ry
     estimated scf accuracy    <       0.04421335 Ry

     total magnetization       =     2.00 Bohr mag/cell
     absolute magnetization    =     2.26 Bohr mag/cell

     iteration # 23     ecut=    80.00 Ry     beta= 0.70
     Davidson diagonalization with overlap

---- Real-time Memory Report at c_bands before calling an iterative solver
           665 MiB given to the printing process from OS
             0 MiB allocation reported by mallinfo(arena+hblkhd)
        158877 MiB available memory on the node where the printing process lives
------------------
     ethr =  7.43E-07,  avg # of iterations =  1.0

     total cpu time spent up to now is      514.8 secs

     total energy              =   -5828.95445260 Ry
     estimated scf accuracy    <       0.04303627 Ry

     total magnetization       =     2.00 Bohr mag/cell
     absolute magnetization    =     2.26 Bohr mag/cell

     iteration # 24     ecut=    80.00 Ry     beta= 0.70
     Davidson diagonalization with overlap

---- Real-time Memory Report at c_bands before calling an iterative solver
           665 MiB given to the printing process from OS
             0 MiB allocation reported by mallinfo(arena+hblkhd)
        158876 MiB available memory on the node where the printing process lives
------------------
     ethr =  7.43E-07,  avg # of iterations =  1.0

     total cpu time spent up to now is      537.9 secs

     total energy              =   -5828.95448247 Ry
     estimated scf accuracy    <       0.02462767 Ry

     total magnetization       =     2.00 Bohr mag/cell
     absolute magnetization    =     2.25 Bohr mag/cell

     iteration # 25     ecut=    80.00 Ry     beta= 0.70
     Davidson diagonalization with overlap

---- Real-time Memory Report at c_bands before calling an iterative solver
           665 MiB given to the printing process from OS
             0 MiB allocation reported by mallinfo(arena+hblkhd)
        158876 MiB available memory on the node where the printing process lives
------------------
     ethr =  7.43E-07,  avg # of iterations =  1.0

     total cpu time spent up to now is      571.4 secs

     total energy              =   -5828.95447842 Ry
     estimated scf accuracy    <       0.02179207 Ry

     total magnetization       =     2.00 Bohr mag/cell
     absolute magnetization    =     2.25 Bohr mag/cell

     iteration # 26     ecut=    80.00 Ry     beta= 0.70
     Davidson diagonalization with overlap

---- Real-time Memory Report at c_bands before calling an iterative solver
           665 MiB given to the printing process from OS
             0 MiB allocation reported by mallinfo(arena+hblkhd)
        158876 MiB available memory on the node where the printing process lives
------------------
     ethr =  7.43E-07,  avg # of iterations =  1.0

     total cpu time spent up to now is      583.5 secs

     total energy              =   -5828.95447388 Ry
     estimated scf accuracy    <       0.02231669 Ry

     total magnetization       =     2.00 Bohr mag/cell
     absolute magnetization    =     2.25 Bohr mag/cell

     iteration # 27     ecut=    80.00 Ry     beta= 0.70
     Davidson diagonalization with overlap

---- Real-time Memory Report at c_bands before calling an iterative solver
           665 MiB given to the printing process from OS
             0 MiB allocation reported by mallinfo(arena+hblkhd)
        158876 MiB available memory on the node where the printing process lives
------------------
     ethr =  7.43E-07,  avg # of iterations =  1.0

     total cpu time spent up to now is      601.8 secs

     total energy              =   -5828.95448530 Ry
     estimated scf accuracy    <       0.02231201 Ry

     total magnetization       =     2.00 Bohr mag/cell
     absolute magnetization    =     2.25 Bohr mag/cell

     iteration # 28     ecut=    80.00 Ry     beta= 0.70
     Davidson diagonalization with overlap

---- Real-time Memory Report at c_bands before calling an iterative solver
           665 MiB given to the printing process from OS
             0 MiB allocation reported by mallinfo(arena+hblkhd)
        158876 MiB available memory on the node where the printing process lives
------------------
     ethr =  7.43E-07,  avg # of iterations =  1.0

     total cpu time spent up to now is      614.2 secs

     total energy              =   -5828.95442792 Ry
     estimated scf accuracy    <       0.02518576 Ry

     total magnetization       =     2.00 Bohr mag/cell
     absolute magnetization    =     2.25 Bohr mag/cell

     iteration # 29     ecut=    80.00 Ry     beta= 0.70
     Davidson diagonalization with overlap

---- Real-time Memory Report at c_bands before calling an iterative solver
           665 MiB given to the printing process from OS
             0 MiB allocation reported by mallinfo(arena+hblkhd)
        158876 MiB available memory on the node where the printing process lives
------------------
     ethr =  7.43E-07,  avg # of iterations =  1.0

     total cpu time spent up to now is      626.8 secs

     total energy              =   -5828.95440191 Ry
     estimated scf accuracy    <       0.01538355 Ry

     total magnetization       =     2.00 Bohr mag/cell
     absolute magnetization    =     2.25 Bohr mag/cell

     iteration # 30     ecut=    80.00 Ry     beta= 0.70
     Davidson diagonalization with overlap

---- Real-time Memory Report at c_bands before calling an iterative solver
           665 MiB given to the printing process from OS
             0 MiB allocation reported by mallinfo(arena+hblkhd)
        158876 MiB available memory on the node where the printing process lives
------------------
     ethr =  7.43E-07,  avg # of iterations =  1.0

     total cpu time spent up to now is      640.1 secs

     total energy              =   -5828.95438269 Ry
     estimated scf accuracy    <       0.06645663 Ry

     total magnetization       =     2.00 Bohr mag/cell
     absolute magnetization    =     2.26 Bohr mag/cell

     iteration # 31     ecut=    80.00 Ry     beta= 0.70
     Davidson diagonalization with overlap

---- Real-time Memory Report at c_bands before calling an iterative solver
           665 MiB given to the printing process from OS
             0 MiB allocation reported by mallinfo(arena+hblkhd)
        158876 MiB available memory on the node where the printing process lives
------------------
     ethr =  7.43E-07,  avg # of iterations =  1.0

     total cpu time spent up to now is      658.8 secs

     total energy              =   -5828.95444317 Ry
     estimated scf accuracy    <       0.02038790 Ry

     total magnetization       =     2.00 Bohr mag/cell
     absolute magnetization    =     2.26 Bohr mag/cell

     iteration # 32     ecut=    80.00 Ry     beta= 0.70
     Davidson diagonalization with overlap

---- Real-time Memory Report at c_bands before calling an iterative solver
           665 MiB given to the printing process from OS
             0 MiB allocation reported by mallinfo(arena+hblkhd)
        158876 MiB available memory on the node where the printing process lives
------------------
     ethr =  7.43E-07,  avg # of iterations =  1.0

     total cpu time spent up to now is      670.4 secs

     total energy              =   -5828.95441265 Ry
     estimated scf accuracy    <       0.02078823 Ry

     total magnetization       =     2.00 Bohr mag/cell
     absolute magnetization    =     2.26 Bohr mag/cell

     iteration # 33     ecut=    80.00 Ry     beta= 0.70
     Davidson diagonalization with overlap

---- Real-time Memory Report at c_bands before calling an iterative solver
           665 MiB given to the printing process from OS
             0 MiB allocation reported by mallinfo(arena+hblkhd)
        158874 MiB available memory on the node where the printing process lives
------------------
     ethr =  7.43E-07,  avg # of iterations =  1.0

     total cpu time spent up to now is      682.9 secs

     total energy              =   -5828.95442971 Ry
     estimated scf accuracy    <       0.06286692 Ry

     total magnetization       =     2.00 Bohr mag/cell
     absolute magnetization    =     2.27 Bohr mag/cell

     iteration # 34     ecut=    80.00 Ry     beta= 0.70
     Davidson diagonalization with overlap

---- Real-time Memory Report at c_bands before calling an iterative solver
           665 MiB given to the printing process from OS
             0 MiB allocation reported by mallinfo(arena+hblkhd)
        158876 MiB available memory on the node where the printing process lives
------------------
     ethr =  7.43E-07,  avg # of iterations =  1.0

     total cpu time spent up to now is      694.4 secs

     total energy              =   -5828.95441872 Ry
     estimated scf accuracy    <       0.03038742 Ry

     total magnetization       =     2.00 Bohr mag/cell
     absolute magnetization    =     2.26 Bohr mag/cell

     iteration # 35     ecut=    80.00 Ry     beta= 0.70
     Davidson diagonalization with overlap

---- Real-time Memory Report at c_bands before calling an iterative solver
           665 MiB given to the printing process from OS
             0 MiB allocation reported by mallinfo(arena+hblkhd)
        158876 MiB available memory on the node where the printing process lives
------------------
     ethr =  7.43E-07,  avg # of iterations =  1.0

     total cpu time spent up to now is      714.5 secs

     total energy              =   -5828.95443746 Ry
     estimated scf accuracy    <       0.02711319 Ry

     total magnetization       =     2.00 Bohr mag/cell
     absolute magnetization    =     2.26 Bohr mag/cell

     iteration # 36     ecut=    80.00 Ry     beta= 0.70
     Davidson diagonalization with overlap

---- Real-time Memory Report at c_bands before calling an iterative solver
           665 MiB given to the printing process from OS
             0 MiB allocation reported by mallinfo(arena+hblkhd)
        158877 MiB available memory on the node where the printing process lives
------------------
     ethr =  7.43E-07,  avg # of iterations =  1.0

     total cpu time spent up to now is      726.6 secs

     total energy              =   -5828.95443198 Ry
     estimated scf accuracy    <       0.03837192 Ry

     total magnetization       =     2.00 Bohr mag/cell
     absolute magnetization    =     2.26 Bohr mag/cell

     iteration # 37     ecut=    80.00 Ry     beta= 0.70
     Davidson diagonalization with overlap

---- Real-time Memory Report at c_bands before calling an iterative solver
           665 MiB given to the printing process from OS
             0 MiB allocation reported by mallinfo(arena+hblkhd)
        158876 MiB available memory on the node where the printing process lives
------------------
     ethr =  7.43E-07,  avg # of iterations =  1.0

     total cpu time spent up to now is      740.0 secs

     total energy              =   -5828.95443325 Ry
     estimated scf accuracy    <       0.05116860 Ry

     total magnetization       =     2.00 Bohr mag/cell
     absolute magnetization    =     2.27 Bohr mag/cell

     iteration # 38     ecut=    80.00 Ry     beta= 0.70
     Davidson diagonalization with overlap

---- Real-time Memory Report at c_bands before calling an iterative solver
           665 MiB given to the printing process from OS
             0 MiB allocation reported by mallinfo(arena+hblkhd)
        158876 MiB available memory on the node where the printing process lives
------------------
     ethr =  7.43E-07,  avg # of iterations =  1.0

     total cpu time spent up to now is      752.4 secs

     total energy              =   -5828.95444627 Ry
     estimated scf accuracy    <       0.02298619 Ry

     total magnetization       =     2.00 Bohr mag/cell
     absolute magnetization    =     2.26 Bohr mag/cell

     iteration # 39     ecut=    80.00 Ry     beta= 0.70
     Davidson diagonalization with overlap

---- Real-time Memory Report at c_bands before calling an iterative solver
           665 MiB given to the printing process from OS
             0 MiB allocation reported by mallinfo(arena+hblkhd)
        158876 MiB available memory on the node where the printing process lives
------------------
     ethr =  7.43E-07,  avg # of iterations =  1.0

     total cpu time spent up to now is      764.3 secs

     total energy              =   -5828.95444332 Ry
     estimated scf accuracy    <       0.02373947 Ry

     total magnetization       =     2.00 Bohr mag/cell
     absolute magnetization    =     2.26 Bohr mag/cell

     iteration # 40     ecut=    80.00 Ry     beta= 0.70
     Davidson diagonalization with overlap

---- Real-time Memory Report at c_bands before calling an iterative solver
           665 MiB given to the printing process from OS
             0 MiB allocation reported by mallinfo(arena+hblkhd)
        158877 MiB available memory on the node where the printing process lives
------------------
     ethr =  7.43E-07,  avg # of iterations =  1.0

     total cpu time spent up to now is      776.6 secs

     total energy              =   -5828.95444432 Ry
     estimated scf accuracy    <       0.02930735 Ry

     total magnetization       =     2.00 Bohr mag/cell
     absolute magnetization    =     2.26 Bohr mag/cell

     iteration # 41     ecut=    80.00 Ry     beta= 0.70
     Davidson diagonalization with overlap

---- Real-time Memory Report at c_bands before calling an iterative solver
           665 MiB given to the printing process from OS
             0 MiB allocation reported by mallinfo(arena+hblkhd)
        158874 MiB available memory on the node where the printing process lives
------------------
     ethr =  7.43E-07,  avg # of iterations =  1.0

     total cpu time spent up to now is      788.6 secs

     total energy              =   -5828.95444445 Ry
     estimated scf accuracy    <       0.03789715 Ry

     total magnetization       =     2.00 Bohr mag/cell
     absolute magnetization    =     2.26 Bohr mag/cell

     iteration # 42     ecut=    80.00 Ry     beta= 0.70
     Davidson diagonalization with overlap

---- Real-time Memory Report at c_bands before calling an iterative solver
           665 MiB given to the printing process from OS
             0 MiB allocation reported by mallinfo(arena+hblkhd)
        158876 MiB available memory on the node where the printing process lives
------------------
     ethr =  7.43E-07,  avg # of iterations =  1.0

     total cpu time spent up to now is      811.6 secs

     total energy              =   -5828.95444494 Ry
     estimated scf accuracy    <       0.03435014 Ry

     total magnetization       =     2.00 Bohr mag/cell
     absolute magnetization    =     2.26 Bohr mag/cell

     iteration # 43     ecut=    80.00 Ry     beta= 0.70
     Davidson diagonalization with overlap

---- Real-time Memory Report at c_bands before calling an iterative solver
           665 MiB given to the printing process from OS
             0 MiB allocation reported by mallinfo(arena+hblkhd)
        158876 MiB available memory on the node where the printing process lives
------------------
     ethr =  7.43E-07,  avg # of iterations =  1.0

     total cpu time spent up to now is      823.4 secs

     total energy              =   -5828.95442189 Ry
     estimated scf accuracy    <       0.03405402 Ry

     total magnetization       =     2.00 Bohr mag/cell
     absolute magnetization    =     2.26 Bohr mag/cell

     iteration # 44     ecut=    80.00 Ry     beta= 0.70
     Davidson diagonalization with overlap

---- Real-time Memory Report at c_bands before calling an iterative solver
           665 MiB given to the printing process from OS
             0 MiB allocation reported by mallinfo(arena+hblkhd)
        158875 MiB available memory on the node where the printing process lives
------------------
     ethr =  7.43E-07,  avg # of iterations =  1.5

     total cpu time spent up to now is      840.9 secs

     total energy              =   -5828.95445429 Ry
     estimated scf accuracy    <       0.01780512 Ry

     total magnetization       =     2.00 Bohr mag/cell
     absolute magnetization    =     2.26 Bohr mag/cell

     iteration # 45     ecut=    80.00 Ry     beta= 0.70
     Davidson diagonalization with overlap

---- Real-time Memory Report at c_bands before calling an iterative solver
           665 MiB given to the printing process from OS
             0 MiB allocation reported by mallinfo(arena+hblkhd)
        158875 MiB available memory on the node where the printing process lives
------------------
     ethr =  7.43E-07,  avg # of iterations =  1.0

     total cpu time spent up to now is      852.5 secs

     total energy              =   -5828.95445162 Ry
     estimated scf accuracy    <       0.02150580 Ry

     total magnetization       =     2.00 Bohr mag/cell
     absolute magnetization    =     2.26 Bohr mag/cell

     iteration # 46     ecut=    80.00 Ry     beta= 0.70
     Davidson diagonalization with overlap

---- Real-time Memory Report at c_bands before calling an iterative solver
           665 MiB given to the printing process from OS
             0 MiB allocation reported by mallinfo(arena+hblkhd)
        158875 MiB available memory on the node where the printing process lives
------------------
     ethr =  7.43E-07,  avg # of iterations =  1.0

     total cpu time spent up to now is      863.8 secs

     total energy              =   -5828.95448414 Ry
     estimated scf accuracy    <       0.02014899 Ry

     total magnetization       =     2.00 Bohr mag/cell
     absolute magnetization    =     2.26 Bohr mag/cell

     iteration # 47     ecut=    80.00 Ry     beta= 0.70
     Davidson diagonalization with overlap

---- Real-time Memory Report at c_bands before calling an iterative solver
           665 MiB given to the printing process from OS
             0 MiB allocation reported by mallinfo(arena+hblkhd)
        158876 MiB available memory on the node where the printing process lives
------------------
     ethr =  7.43E-07,  avg # of iterations =  1.0

     total cpu time spent up to now is      875.9 secs

     total energy              =   -5828.95449979 Ry
     estimated scf accuracy    <       0.02493794 Ry

     total magnetization       =     2.00 Bohr mag/cell
     absolute magnetization    =     2.26 Bohr mag/cell

     iteration # 48     ecut=    80.00 Ry     beta= 0.70
     Davidson diagonalization with overlap

---- Real-time Memory Report at c_bands before calling an iterative solver
           665 MiB given to the printing process from OS
             0 MiB allocation reported by mallinfo(arena+hblkhd)
        158876 MiB available memory on the node where the printing process lives
------------------
     ethr =  7.43E-07,  avg # of iterations =  1.5

     total cpu time spent up to now is      904.8 secs

     total energy              =   -5828.95451566 Ry
     estimated scf accuracy    <       0.02916559 Ry

     total magnetization       =     2.00 Bohr mag/cell
     absolute magnetization    =     2.26 Bohr mag/cell

     iteration # 49     ecut=    80.00 Ry     beta= 0.70
     Davidson diagonalization with overlap

---- Real-time Memory Report at c_bands before calling an iterative solver
           665 MiB given to the printing process from OS
             0 MiB allocation reported by mallinfo(arena+hblkhd)
        158875 MiB available memory on the node where the printing process lives
------------------
     ethr =  7.43E-07,  avg # of iterations =  2.5

     total cpu time spent up to now is      917.4 secs

     total energy              =   -5828.95450752 Ry
     estimated scf accuracy    <       0.02939687 Ry

     total magnetization       =     2.00 Bohr mag/cell
     absolute magnetization    =     2.26 Bohr mag/cell

     iteration # 50     ecut=    80.00 Ry     beta= 0.70
     Davidson diagonalization with overlap

---- Real-time Memory Report at c_bands before calling an iterative solver
           665 MiB given to the printing process from OS
             0 MiB allocation reported by mallinfo(arena+hblkhd)
        158875 MiB available memory on the node where the printing process lives
------------------
     ethr =  7.43E-07,  avg # of iterations =  1.0

     total cpu time spent up to now is      930.5 secs

     total energy              =   -5828.95393560 Ry
     estimated scf accuracy    <       0.02132630 Ry

     total magnetization       =     2.00 Bohr mag/cell
     absolute magnetization    =     2.26 Bohr mag/cell

     iteration # 51     ecut=    80.00 Ry     beta= 0.70
     Davidson diagonalization with overlap

---- Real-time Memory Report at c_bands before calling an iterative solver
           665 MiB given to the printing process from OS
             0 MiB allocation reported by mallinfo(arena+hblkhd)
        158875 MiB available memory on the node where the printing process lives
------------------
     ethr =  7.43E-07,  avg # of iterations =  4.5

     total cpu time spent up to now is      945.5 secs

     total energy              =   -5828.95444372 Ry
     estimated scf accuracy    <       0.05387127 Ry

     total magnetization       =     2.00 Bohr mag/cell
     absolute magnetization    =     2.27 Bohr mag/cell

     iteration # 52     ecut=    80.00 Ry     beta= 0.70
     Davidson diagonalization with overlap

---- Real-time Memory Report at c_bands before calling an iterative solver
           665 MiB given to the printing process from OS
             0 MiB allocation reported by mallinfo(arena+hblkhd)
        158876 MiB available memory on the node where the printing process lives
------------------
     ethr =  7.43E-07,  avg # of iterations =  2.5

     total cpu time spent up to now is      958.5 secs

     total energy              =   -5828.95435709 Ry
     estimated scf accuracy    <       0.04753277 Ry

     total magnetization       =     2.00 Bohr mag/cell
     absolute magnetization    =     2.27 Bohr mag/cell

     iteration # 53     ecut=    80.00 Ry     beta= 0.70
     Davidson diagonalization with overlap

---- Real-time Memory Report at c_bands before calling an iterative solver
           665 MiB given to the printing process from OS
             0 MiB allocation reported by mallinfo(arena+hblkhd)
        158875 MiB available memory on the node where the printing process lives
------------------
     ethr =  7.43E-07,  avg # of iterations =  2.5

     total cpu time spent up to now is      972.5 secs

     total energy              =   -5828.95443208 Ry
     estimated scf accuracy    <       0.02113740 Ry

     total magnetization       =     2.00 Bohr mag/cell
     absolute magnetization    =     2.25 Bohr mag/cell

     iteration # 54     ecut=    80.00 Ry     beta= 0.70
     Davidson diagonalization with overlap

---- Real-time Memory Report at c_bands before calling an iterative solver
           665 MiB given to the printing process from OS
             0 MiB allocation reported by mallinfo(arena+hblkhd)
        158873 MiB available memory on the node where the printing process lives
------------------
     ethr =  7.43E-07,  avg # of iterations =  1.5

     total cpu time spent up to now is      986.6 secs

     total energy              =   -5828.95443602 Ry
     estimated scf accuracy    <       0.03441481 Ry

     total magnetization       =     2.00 Bohr mag/cell
     absolute magnetization    =     2.26 Bohr mag/cell

     iteration # 55     ecut=    80.00 Ry     beta= 0.70
     Davidson diagonalization with overlap

---- Real-time Memory Report at c_bands before calling an iterative solver
           665 MiB given to the printing process from OS
             0 MiB allocation reported by mallinfo(arena+hblkhd)
        158875 MiB available memory on the node where the printing process lives
------------------
     ethr =  7.43E-07,  avg # of iterations =  1.0

     total cpu time spent up to now is     1000.9 secs

     total energy              =   -5828.95442287 Ry
     estimated scf accuracy    <       0.01895992 Ry

     total magnetization       =     2.00 Bohr mag/cell
     absolute magnetization    =     2.26 Bohr mag/cell

     iteration # 56     ecut=    80.00 Ry     beta= 0.70
     Davidson diagonalization with overlap

---- Real-time Memory Report at c_bands before calling an iterative solver
           665 MiB given to the printing process from OS
             0 MiB allocation reported by mallinfo(arena+hblkhd)
        158875 MiB available memory on the node where the printing process lives
------------------
     ethr =  7.43E-07,  avg # of iterations =  1.5

     total cpu time spent up to now is     1013.5 secs

     total energy              =   -5828.95444177 Ry
     estimated scf accuracy    <       0.06606071 Ry

     total magnetization       =     2.00 Bohr mag/cell
     absolute magnetization    =     2.27 Bohr mag/cell

     iteration # 57     ecut=    80.00 Ry     beta= 0.70
     Davidson diagonalization with overlap

---- Real-time Memory Report at c_bands before calling an iterative solver
           665 MiB given to the printing process from OS
             0 MiB allocation reported by mallinfo(arena+hblkhd)
        158875 MiB available memory on the node where the printing process lives
------------------
     ethr =  7.43E-07,  avg # of iterations =  1.0

     total cpu time spent up to now is     1024.9 secs

     total energy              =   -5828.95443777 Ry
     estimated scf accuracy    <       0.05920888 Ry

     total magnetization       =     2.00 Bohr mag/cell
     absolute magnetization    =     2.27 Bohr mag/cell

     iteration # 58     ecut=    80.00 Ry     beta= 0.70
     Davidson diagonalization with overlap

---- Real-time Memory Report at c_bands before calling an iterative solver
           665 MiB given to the printing process from OS
             0 MiB allocation reported by mallinfo(arena+hblkhd)
        158875 MiB available memory on the node where the printing process lives
------------------
     ethr =  7.43E-07,  avg # of iterations =  1.0

     total cpu time spent up to now is     1038.6 secs

     total energy              =   -5828.95444295 Ry
     estimated scf accuracy    <       0.03218657 Ry

     total magnetization       =     2.00 Bohr mag/cell
     absolute magnetization    =     2.26 Bohr mag/cell

     iteration # 59     ecut=    80.00 Ry     beta= 0.70
     Davidson diagonalization with overlap

---- Real-time Memory Report at c_bands before calling an iterative solver
           665 MiB given to the printing process from OS
             0 MiB allocation reported by mallinfo(arena+hblkhd)
        158876 MiB available memory on the node where the printing process lives
------------------
     ethr =  7.43E-07,  avg # of iterations =  1.0

     total cpu time spent up to now is     1053.7 secs

     total energy              =   -5828.95444396 Ry
     estimated scf accuracy    <       0.03494204 Ry

     total magnetization       =     2.00 Bohr mag/cell
     absolute magnetization    =     2.26 Bohr mag/cell

     iteration # 60     ecut=    80.00 Ry     beta= 0.70
     Davidson diagonalization with overlap

---- Real-time Memory Report at c_bands before calling an iterative solver
           665 MiB given to the printing process from OS
             0 MiB allocation reported by mallinfo(arena+hblkhd)
        158875 MiB available memory on the node where the printing process lives
------------------
     ethr =  7.43E-07,  avg # of iterations =  1.0

     total cpu time spent up to now is     1066.3 secs

     total energy              =   -5828.95444884 Ry
     estimated scf accuracy    <       0.03660874 Ry

     total magnetization       =     2.00 Bohr mag/cell
     absolute magnetization    =     2.26 Bohr mag/cell

     iteration # 61     ecut=    80.00 Ry     beta= 0.70
     Davidson diagonalization with overlap

---- Real-time Memory Report at c_bands before calling an iterative solver
           665 MiB given to the printing process from OS
             0 MiB allocation reported by mallinfo(arena+hblkhd)
        158876 MiB available memory on the node where the printing process lives
------------------
     ethr =  7.43E-07,  avg # of iterations =  1.0

     total cpu time spent up to now is     1077.9 secs

     total energy              =   -5828.95445293 Ry
     estimated scf accuracy    <       0.03592216 Ry

     total magnetization       =     2.00 Bohr mag/cell
     absolute magnetization    =     2.26 Bohr mag/cell

     iteration # 62     ecut=    80.00 Ry     beta= 0.70
     Davidson diagonalization with overlap

---- Real-time Memory Report at c_bands before calling an iterative solver
           665 MiB given to the printing process from OS
             0 MiB allocation reported by mallinfo(arena+hblkhd)
        158873 MiB available memory on the node where the printing process lives
------------------
     ethr =  7.43E-07,  avg # of iterations =  1.0

     total cpu time spent up to now is     1089.8 secs

     total energy              =   -5828.95445026 Ry
     estimated scf accuracy    <       0.03356447 Ry

     total magnetization       =     2.00 Bohr mag/cell
     absolute magnetization    =     2.26 Bohr mag/cell

     iteration # 63     ecut=    80.00 Ry     beta= 0.70
     Davidson diagonalization with overlap

---- Real-time Memory Report at c_bands before calling an iterative solver
           665 MiB given to the printing process from OS
             0 MiB allocation reported by mallinfo(arena+hblkhd)
        158875 MiB available memory on the node where the printing process lives
------------------
     ethr =  7.43E-07,  avg # of iterations =  1.0

     total cpu time spent up to now is     1101.5 secs

     total energy              =   -5828.95445469 Ry
     estimated scf accuracy    <       0.03230423 Ry

     total magnetization       =     2.00 Bohr mag/cell
     absolute magnetization    =     2.26 Bohr mag/cell

     iteration # 64     ecut=    80.00 Ry     beta= 0.70
     Davidson diagonalization with overlap

---- Real-time Memory Report at c_bands before calling an iterative solver
           665 MiB given to the printing process from OS
             0 MiB allocation reported by mallinfo(arena+hblkhd)
        158875 MiB available memory on the node where the printing process lives
------------------
     ethr =  7.43E-07,  avg # of iterations =  1.0

     total cpu time spent up to now is     1113.4 secs

     total energy              =   -5828.95444299 Ry
     estimated scf accuracy    <       0.02732429 Ry

     total magnetization       =     2.00 Bohr mag/cell
     absolute magnetization    =     2.26 Bohr mag/cell

     iteration # 65     ecut=    80.00 Ry     beta= 0.70
     Davidson diagonalization with overlap

---- Real-time Memory Report at c_bands before calling an iterative solver
           665 MiB given to the printing process from OS
             0 MiB allocation reported by mallinfo(arena+hblkhd)
        158875 MiB available memory on the node where the printing process lives
------------------
     ethr =  7.43E-07,  avg # of iterations =  1.0

     total cpu time spent up to now is     1131.8 secs

     total energy              =   -5828.95446366 Ry
     estimated scf accuracy    <       0.02069009 Ry

     total magnetization       =     2.00 Bohr mag/cell
     absolute magnetization    =     2.26 Bohr mag/cell

     iteration # 66     ecut=    80.00 Ry     beta= 0.70
     Davidson diagonalization with overlap

---- Real-time Memory Report at c_bands before calling an iterative solver
           665 MiB given to the printing process from OS
             0 MiB allocation reported by mallinfo(arena+hblkhd)
        158875 MiB available memory on the node where the printing process lives
------------------
     ethr =  7.43E-07,  avg # of iterations =  1.0

     total cpu time spent up to now is     1143.0 secs

     total energy              =   -5828.95440538 Ry
     estimated scf accuracy    <       0.02441137 Ry

     total magnetization       =     2.00 Bohr mag/cell
     absolute magnetization    =     2.26 Bohr mag/cell

     iteration # 67     ecut=    80.00 Ry     beta= 0.70
     Davidson diagonalization with overlap

---- Real-time Memory Report at c_bands before calling an iterative solver
           665 MiB given to the printing process from OS
             0 MiB allocation reported by mallinfo(arena+hblkhd)
        158874 MiB available memory on the node where the printing process lives
------------------
     ethr =  7.43E-07,  avg # of iterations =  1.0

     total cpu time spent up to now is     1154.5 secs

     total energy              =   -5828.95439858 Ry
     estimated scf accuracy    <       0.02000104 Ry

     total magnetization       =     2.00 Bohr mag/cell
     absolute magnetization    =     2.25 Bohr mag/cell

     iteration # 68     ecut=    80.00 Ry     beta= 0.70
     Davidson diagonalization with overlap

---- Real-time Memory Report at c_bands before calling an iterative solver
           665 MiB given to the printing process from OS
             0 MiB allocation reported by mallinfo(arena+hblkhd)
        158875 MiB available memory on the node where the printing process lives
------------------
     ethr =  7.43E-07,  avg # of iterations =  1.0

     total cpu time spent up to now is     1166.5 secs

     total energy              =   -5828.95443012 Ry
     estimated scf accuracy    <       0.03172238 Ry

     total magnetization       =     2.00 Bohr mag/cell
     absolute magnetization    =     2.26 Bohr mag/cell

     iteration # 69     ecut=    80.00 Ry     beta= 0.70
     Davidson diagonalization with overlap

---- Real-time Memory Report at c_bands before calling an iterative solver
           665 MiB given to the printing process from OS
             0 MiB allocation reported by mallinfo(arena+hblkhd)
        158874 MiB available memory on the node where the printing process lives
------------------
     ethr =  7.43E-07,  avg # of iterations =  1.0

     total cpu time spent up to now is     1178.0 secs

     total energy              =   -5828.95440770 Ry
     estimated scf accuracy    <       0.03403496 Ry

     total magnetization       =     2.00 Bohr mag/cell
     absolute magnetization    =     2.26 Bohr mag/cell

     iteration # 70     ecut=    80.00 Ry     beta= 0.70
     Davidson diagonalization with overlap

---- Real-time Memory Report at c_bands before calling an iterative solver
           665 MiB given to the printing process from OS
             0 MiB allocation reported by mallinfo(arena+hblkhd)
        158874 MiB available memory on the node where the printing process lives
------------------
     ethr =  7.43E-07,  avg # of iterations =  1.0

     total cpu time spent up to now is     1190.2 secs

     total energy              =   -5828.95440697 Ry
     estimated scf accuracy    <       0.04406093 Ry

     total magnetization       =     2.00 Bohr mag/cell
     absolute magnetization    =     2.27 Bohr mag/cell

     iteration # 71     ecut=    80.00 Ry     beta= 0.70
     Davidson diagonalization with overlap

---- Real-time Memory Report at c_bands before calling an iterative solver
           665 MiB given to the printing process from OS
             0 MiB allocation reported by mallinfo(arena+hblkhd)
        158872 MiB available memory on the node where the printing process lives
------------------
     ethr =  7.43E-07,  avg # of iterations =  1.0

     total cpu time spent up to now is     1205.6 secs

     total energy              =   -5828.95443685 Ry
     estimated scf accuracy    <       0.02808325 Ry

     total magnetization       =     2.00 Bohr mag/cell
     absolute magnetization    =     2.26 Bohr mag/cell

     iteration # 72     ecut=    80.00 Ry     beta= 0.70
     Davidson diagonalization with overlap

---- Real-time Memory Report at c_bands before calling an iterative solver
           665 MiB given to the printing process from OS
             0 MiB allocation reported by mallinfo(arena+hblkhd)
        158874 MiB available memory on the node where the printing process lives
------------------
     ethr =  7.43E-07,  avg # of iterations =  1.0

     total cpu time spent up to now is     1217.2 secs

     total energy              =   -5828.95443436 Ry
     estimated scf accuracy    <       0.02205935 Ry

     total magnetization       =     2.00 Bohr mag/cell
     absolute magnetization    =     2.26 Bohr mag/cell

     iteration # 73     ecut=    80.00 Ry     beta= 0.70
     Davidson diagonalization with overlap

---- Real-time Memory Report at c_bands before calling an iterative solver
           665 MiB given to the printing process from OS
             0 MiB allocation reported by mallinfo(arena+hblkhd)
        158874 MiB available memory on the node where the printing process lives
------------------
     ethr =  7.43E-07,  avg # of iterations =  1.0

     total cpu time spent up to now is     1228.7 secs

     total energy              =   -5828.95443663 Ry
     estimated scf accuracy    <       0.04518264 Ry

     total magnetization       =     2.00 Bohr mag/cell
     absolute magnetization    =     2.27 Bohr mag/cell

     iteration # 74     ecut=    80.00 Ry     beta= 0.70
     Davidson diagonalization with overlap

---- Real-time Memory Report at c_bands before calling an iterative solver
           665 MiB given to the printing process from OS
             0 MiB allocation reported by mallinfo(arena+hblkhd)
        158874 MiB available memory on the node where the printing process lives
------------------
     ethr =  7.43E-07,  avg # of iterations =  1.0

     total cpu time spent up to now is     1240.2 secs

     total energy              =   -5828.95443229 Ry
     estimated scf accuracy    <       0.04317034 Ry

     total magnetization       =     2.00 Bohr mag/cell
     absolute magnetization    =     2.27 Bohr mag/cell

     iteration # 75     ecut=    80.00 Ry     beta= 0.70
     Davidson diagonalization with overlap

---- Real-time Memory Report at c_bands before calling an iterative solver
           665 MiB given to the printing process from OS
             0 MiB allocation reported by mallinfo(arena+hblkhd)
        158874 MiB available memory on the node where the printing process lives
------------------
     ethr =  7.43E-07,  avg # of iterations =  1.0

     total cpu time spent up to now is     1253.8 secs

     total energy              =   -5828.95443633 Ry
     estimated scf accuracy    <       0.06660760 Ry

     total magnetization       =     2.00 Bohr mag/cell
     absolute magnetization    =     2.27 Bohr mag/cell

     iteration # 76     ecut=    80.00 Ry     beta= 0.70
     Davidson diagonalization with overlap

---- Real-time Memory Report at c_bands before calling an iterative solver
           665 MiB given to the printing process from OS
             0 MiB allocation reported by mallinfo(arena+hblkhd)
        158874 MiB available memory on the node where the printing process lives
------------------
     ethr =  7.43E-07,  avg # of iterations =  1.0

     total cpu time spent up to now is     1266.0 secs

     total energy              =   -5828.95443810 Ry
     estimated scf accuracy    <       0.05790656 Ry

     total magnetization       =     2.00 Bohr mag/cell
     absolute magnetization    =     2.27 Bohr mag/cell

     iteration # 77     ecut=    80.00 Ry     beta= 0.70
     Davidson diagonalization with overlap

---- Real-time Memory Report at c_bands before calling an iterative solver
           665 MiB given to the printing process from OS
             0 MiB allocation reported by mallinfo(arena+hblkhd)
        158873 MiB available memory on the node where the printing process lives
------------------
     ethr =  7.43E-07,  avg # of iterations =  1.0

     total cpu time spent up to now is     1277.7 secs

     total energy              =   -5828.95445170 Ry
     estimated scf accuracy    <       0.06652262 Ry

     total magnetization       =     2.00 Bohr mag/cell
     absolute magnetization    =     2.27 Bohr mag/cell

     iteration # 78     ecut=    80.00 Ry     beta= 0.70
     Davidson diagonalization with overlap

---- Real-time Memory Report at c_bands before calling an iterative solver
           665 MiB given to the printing process from OS
             0 MiB allocation reported by mallinfo(arena+hblkhd)
        158872 MiB available memory on the node where the printing process lives
------------------
     ethr =  7.43E-07,  avg # of iterations =  1.0

     total cpu time spent up to now is     1298.8 secs

     total energy              =   -5828.95445351 Ry
     estimated scf accuracy    <       0.06984244 Ry

     total magnetization       =     2.00 Bohr mag/cell
     absolute magnetization    =     2.27 Bohr mag/cell

     iteration # 79     ecut=    80.00 Ry     beta= 0.70
     Davidson diagonalization with overlap

---- Real-time Memory Report at c_bands before calling an iterative solver
           665 MiB given to the printing process from OS
             0 MiB allocation reported by mallinfo(arena+hblkhd)
        158873 MiB available memory on the node where the printing process lives
------------------
     ethr =  7.43E-07,  avg # of iterations =  1.0

     total cpu time spent up to now is     1312.6 secs

     total energy              =   -5828.95445964 Ry
     estimated scf accuracy    <       0.06847961 Ry

     total magnetization       =     2.00 Bohr mag/cell
     absolute magnetization    =     2.27 Bohr mag/cell

     iteration # 80     ecut=    80.00 Ry     beta= 0.70
     Davidson diagonalization with overlap

---- Real-time Memory Report at c_bands before calling an iterative solver
           665 MiB given to the printing process from OS
             0 MiB allocation reported by mallinfo(arena+hblkhd)
        158874 MiB available memory on the node where the printing process lives
------------------
     ethr =  7.43E-07,  avg # of iterations =  1.0

     total cpu time spent up to now is     1327.0 secs

     total energy              =   -5828.95446935 Ry
     estimated scf accuracy    <       0.06178186 Ry

     total magnetization       =     2.00 Bohr mag/cell
     absolute magnetization    =     2.27 Bohr mag/cell

     iteration # 81     ecut=    80.00 Ry     beta= 0.70
     Davidson diagonalization with overlap

---- Real-time Memory Report at c_bands before calling an iterative solver
           665 MiB given to the printing process from OS
             0 MiB allocation reported by mallinfo(arena+hblkhd)
        158873 MiB available memory on the node where the printing process lives
------------------
     ethr =  7.43E-07,  avg # of iterations =  1.0

     total cpu time spent up to now is     1340.3 secs

     total energy              =   -5828.95445843 Ry
     estimated scf accuracy    <       0.05128963 Ry

     total magnetization       =     2.00 Bohr mag/cell
     absolute magnetization    =     2.27 Bohr mag/cell

     iteration # 82     ecut=    80.00 Ry     beta= 0.70
     Davidson diagonalization with overlap

---- Real-time Memory Report at c_bands before calling an iterative solver
           665 MiB given to the printing process from OS
             0 MiB allocation reported by mallinfo(arena+hblkhd)
        158874 MiB available memory on the node where the printing process lives
------------------
     ethr =  7.43E-07,  avg # of iterations =  1.0

     total cpu time spent up to now is     1368.2 secs

     total energy              =   -5828.95445864 Ry
     estimated scf accuracy    <       0.04530285 Ry

     total magnetization       =     2.00 Bohr mag/cell
     absolute magnetization    =     2.27 Bohr mag/cell

     iteration # 83     ecut=    80.00 Ry     beta= 0.70
     Davidson diagonalization with overlap

---- Real-time Memory Report at c_bands before calling an iterative solver
           665 MiB given to the printing process from OS
             0 MiB allocation reported by mallinfo(arena+hblkhd)
        158873 MiB available memory on the node where the printing process lives
------------------
     ethr =  7.43E-07,  avg # of iterations =  1.0

     total cpu time spent up to now is     1380.9 secs

     total energy              =   -5828.95446518 Ry
     estimated scf accuracy    <       0.03810088 Ry

     total magnetization       =     2.00 Bohr mag/cell
     absolute magnetization    =     2.26 Bohr mag/cell

     iteration # 84     ecut=    80.00 Ry     beta= 0.70
     Davidson diagonalization with overlap

---- Real-time Memory Report at c_bands before calling an iterative solver
           665 MiB given to the printing process from OS
             0 MiB allocation reported by mallinfo(arena+hblkhd)
        158872 MiB available memory on the node where the printing process lives
------------------
     ethr =  7.43E-07,  avg # of iterations =  1.0

     total cpu time spent up to now is     1392.3 secs

     total energy              =   -5828.95446917 Ry
     estimated scf accuracy    <       0.03996146 Ry

     total magnetization       =     2.00 Bohr mag/cell
     absolute magnetization    =     2.26 Bohr mag/cell

     iteration # 85     ecut=    80.00 Ry     beta= 0.70
     Davidson diagonalization with overlap

---- Real-time Memory Report at c_bands before calling an iterative solver
           665 MiB given to the printing process from OS
             0 MiB allocation reported by mallinfo(arena+hblkhd)
        158873 MiB available memory on the node where the printing process lives
------------------
     ethr =  7.43E-07,  avg # of iterations =  1.0

     total cpu time spent up to now is     1405.9 secs

     total energy              =   -5828.95446963 Ry
     estimated scf accuracy    <       0.04410809 Ry

     total magnetization       =     2.00 Bohr mag/cell
     absolute magnetization    =     2.27 Bohr mag/cell

     iteration # 86     ecut=    80.00 Ry     beta= 0.70
     Davidson diagonalization with overlap

---- Real-time Memory Report at c_bands before calling an iterative solver
           665 MiB given to the printing process from OS
             0 MiB allocation reported by mallinfo(arena+hblkhd)
        158873 MiB available memory on the node where the printing process lives
------------------
     ethr =  7.43E-07,  avg # of iterations =  1.0

     total cpu time spent up to now is     1418.1 secs

     total energy              =   -5828.95440682 Ry
     estimated scf accuracy    <       0.05683125 Ry

     total magnetization       =     2.00 Bohr mag/cell
     absolute magnetization    =     2.27 Bohr mag/cell

     iteration # 87     ecut=    80.00 Ry     beta= 0.70
     Davidson diagonalization with overlap

---- Real-time Memory Report at c_bands before calling an iterative solver
           665 MiB given to the printing process from OS
             0 MiB allocation reported by mallinfo(arena+hblkhd)
        158873 MiB available memory on the node where the printing process lives
------------------
     ethr =  7.43E-07,  avg # of iterations =  1.0

     total cpu time spent up to now is     1429.6 secs

     total energy              =   -5828.95446270 Ry
     estimated scf accuracy    <       0.01578969 Ry

     total magnetization       =     2.00 Bohr mag/cell
     absolute magnetization    =     2.26 Bohr mag/cell

     iteration # 88     ecut=    80.00 Ry     beta= 0.70
     Davidson diagonalization with overlap

---- Real-time Memory Report at c_bands before calling an iterative solver
           665 MiB given to the printing process from OS
             0 MiB allocation reported by mallinfo(arena+hblkhd)
        158873 MiB available memory on the node where the printing process lives
------------------
     ethr =  7.43E-07,  avg # of iterations =  1.0

     total cpu time spent up to now is     1441.6 secs

     total energy              =   -5828.95447405 Ry
     estimated scf accuracy    <       0.01934529 Ry

     total magnetization       =     2.00 Bohr mag/cell
     absolute magnetization    =     2.26 Bohr mag/cell

     iteration # 89     ecut=    80.00 Ry     beta= 0.70
     Davidson diagonalization with overlap

---- Real-time Memory Report at c_bands before calling an iterative solver
           665 MiB given to the printing process from OS
             0 MiB allocation reported by mallinfo(arena+hblkhd)
        158872 MiB available memory on the node where the printing process lives
------------------
     ethr =  7.43E-07,  avg # of iterations =  1.0

     total cpu time spent up to now is     1453.9 secs

     total energy              =   -5828.95447985 Ry
     estimated scf accuracy    <       0.02080866 Ry

     total magnetization       =     2.00 Bohr mag/cell
     absolute magnetization    =     2.25 Bohr mag/cell

     iteration # 90     ecut=    80.00 Ry     beta= 0.70
     Davidson diagonalization with overlap

---- Real-time Memory Report at c_bands before calling an iterative solver
           665 MiB given to the printing process from OS
             0 MiB allocation reported by mallinfo(arena+hblkhd)
        158873 MiB available memory on the node where the printing process lives
------------------
     ethr =  7.43E-07,  avg # of iterations =  1.0

     total cpu time spent up to now is     1465.3 secs

     total energy              =   -5828.95448467 Ry
     estimated scf accuracy    <       0.02355183 Ry

     total magnetization       =     2.00 Bohr mag/cell
     absolute magnetization    =     2.26 Bohr mag/cell

     iteration # 91     ecut=    80.00 Ry     beta= 0.70
     Davidson diagonalization with overlap

---- Real-time Memory Report at c_bands before calling an iterative solver
           665 MiB given to the printing process from OS
             0 MiB allocation reported by mallinfo(arena+hblkhd)
        158872 MiB available memory on the node where the printing process lives
------------------
     ethr =  7.43E-07,  avg # of iterations =  1.0

     total cpu time spent up to now is     1477.5 secs

     total energy              =   -5828.95449272 Ry
     estimated scf accuracy    <       0.02992750 Ry

     total magnetization       =     2.00 Bohr mag/cell
     absolute magnetization    =     2.26 Bohr mag/cell

     iteration # 92     ecut=    80.00 Ry     beta= 0.70
     Davidson diagonalization with overlap

---- Real-time Memory Report at c_bands before calling an iterative solver
           665 MiB given to the printing process from OS
             0 MiB allocation reported by mallinfo(arena+hblkhd)
        158872 MiB available memory on the node where the printing process lives
------------------
     ethr =  7.43E-07,  avg # of iterations =  1.0

     total cpu time spent up to now is     1488.9 secs

     total energy              =   -5828.95448405 Ry
     estimated scf accuracy    <       0.03265905 Ry

     total magnetization       =     2.00 Bohr mag/cell
     absolute magnetization    =     2.26 Bohr mag/cell

     iteration # 93     ecut=    80.00 Ry     beta= 0.70
     Davidson diagonalization with overlap

---- Real-time Memory Report at c_bands before calling an iterative solver
           665 MiB given to the printing process from OS
             0 MiB allocation reported by mallinfo(arena+hblkhd)
        158873 MiB available memory on the node where the printing process lives
------------------
     ethr =  7.43E-07,  avg # of iterations =  1.0

     total cpu time spent up to now is     1501.4 secs

     total energy              =   -5828.95449275 Ry
     estimated scf accuracy    <       0.02968676 Ry

     total magnetization       =     2.00 Bohr mag/cell
     absolute magnetization    =     2.26 Bohr mag/cell

     iteration # 94     ecut=    80.00 Ry     beta= 0.70
     Davidson diagonalization with overlap

---- Real-time Memory Report at c_bands before calling an iterative solver
           665 MiB given to the printing process from OS
             0 MiB allocation reported by mallinfo(arena+hblkhd)
        158873 MiB available memory on the node where the printing process lives
------------------
     ethr =  7.43E-07,  avg # of iterations =  1.0

     total cpu time spent up to now is     1533.5 secs

     total energy              =   -5828.95444861 Ry
     estimated scf accuracy    <       0.03901476 Ry

     total magnetization       =     2.00 Bohr mag/cell
     absolute magnetization    =     2.26 Bohr mag/cell

     iteration # 95     ecut=    80.00 Ry     beta= 0.70
     Davidson diagonalization with overlap

---- Real-time Memory Report at c_bands before calling an iterative solver
           665 MiB given to the printing process from OS
             0 MiB allocation reported by mallinfo(arena+hblkhd)
        158874 MiB available memory on the node where the printing process lives
------------------
     ethr =  7.43E-07,  avg # of iterations =  1.0

     total cpu time spent up to now is     1551.9 secs

     total energy              =   -5828.95450701 Ry
     estimated scf accuracy    <       0.02054413 Ry

     total magnetization       =     2.00 Bohr mag/cell
     absolute magnetization    =     2.26 Bohr mag/cell

     iteration # 96     ecut=    80.00 Ry     beta= 0.70
     Davidson diagonalization with overlap

---- Real-time Memory Report at c_bands before calling an iterative solver
           665 MiB given to the printing process from OS
             0 MiB allocation reported by mallinfo(arena+hblkhd)
        158873 MiB available memory on the node where the printing process lives
------------------
     ethr =  7.43E-07,  avg # of iterations =  1.0

     total cpu time spent up to now is     1564.8 secs

     total energy              =   -5828.95451121 Ry
     estimated scf accuracy    <       0.02544436 Ry

     total magnetization       =     2.00 Bohr mag/cell
     absolute magnetization    =     2.26 Bohr mag/cell

     iteration # 97     ecut=    80.00 Ry     beta= 0.70
     Davidson diagonalization with overlap

---- Real-time Memory Report at c_bands before calling an iterative solver
           665 MiB given to the printing process from OS
             0 MiB allocation reported by mallinfo(arena+hblkhd)
        158873 MiB available memory on the node where the printing process lives
------------------
     ethr =  7.43E-07,  avg # of iterations =  1.0

     total cpu time spent up to now is     1576.2 secs

     total energy              =   -5828.95456222 Ry
     estimated scf accuracy    <       0.02100136 Ry

     total magnetization       =     2.00 Bohr mag/cell
     absolute magnetization    =     2.26 Bohr mag/cell

     iteration # 98     ecut=    80.00 Ry     beta= 0.70
     Davidson diagonalization with overlap

---- Real-time Memory Report at c_bands before calling an iterative solver
           665 MiB given to the printing process from OS
             0 MiB allocation reported by mallinfo(arena+hblkhd)
        158872 MiB available memory on the node where the printing process lives
------------------
     ethr =  7.43E-07,  avg # of iterations =  1.0

     total cpu time spent up to now is     1589.9 secs

     total energy              =   -5828.95463044 Ry
     estimated scf accuracy    <       0.02493465 Ry

     total magnetization       =     2.00 Bohr mag/cell
     absolute magnetization    =     2.26 Bohr mag/cell

     iteration # 99     ecut=    80.00 Ry     beta= 0.70
     Davidson diagonalization with overlap

---- Real-time Memory Report at c_bands before calling an iterative solver
           665 MiB given to the printing process from OS
             0 MiB allocation reported by mallinfo(arena+hblkhd)
        158874 MiB available memory on the node where the printing process lives
------------------
     ethr =  7.43E-07,  avg # of iterations =  1.0

     total cpu time spent up to now is     1602.7 secs

     total energy              =   -5828.95472013 Ry
     estimated scf accuracy    <       0.02910198 Ry

     total magnetization       =     2.00 Bohr mag/cell
     absolute magnetization    =     2.26 Bohr mag/cell

     iteration #100     ecut=    80.00 Ry     beta= 0.70
     Davidson diagonalization with overlap

---- Real-time Memory Report at c_bands before calling an iterative solver
           665 MiB given to the printing process from OS
             0 MiB allocation reported by mallinfo(arena+hblkhd)
        158874 MiB available memory on the node where the printing process lives
------------------
     ethr =  7.43E-07,  avg # of iterations =  1.5

     total cpu time spent up to now is     1620.5 secs

     total energy              =   -5828.95462871 Ry
     estimated scf accuracy    <       0.03179447 Ry

     total magnetization       =     2.00 Bohr mag/cell
     absolute magnetization    =     2.26 Bohr mag/cell

     End of self-consistent calculation

     convergence NOT achieved after 100 iterations: stopping

 %%%%%%%%%%%%%%%%%%%%%%%%%%%%%%%%%%%%%%%%%%%%%%%%%%%%%%%%%%%%%%%%%%%%%%%%%%%%%%
     Error in routine write_rhog (2):
     error writing file ./pwscf.save/charge-density
 %%%%%%%%%%%%%%%%%%%%%%%%%%%%%%%%%%%%%%%%%%%%%%%%%%%%%%%%%%%%%%%%%%%%%%%%%%%%%%

     stopping ...

 %%%%%%%%%%%%%%%%%%%%%%%%%%%%%%%%%%%%%%%%%%%%%%%%%%%%%%%%%%%%%%%%%%%%%%%%%%%%%%
     Error in routine write_rhog (2):
     error writing file ./pwscf.save/charge-density
 %%%%%%%%%%%%%%%%%%%%%%%%%%%%%%%%%%%%%%%%%%%%%%%%%%%%%%%%%%%%%%%%%%%%%%%%%%%%%%

     stopping ...

 %%%%%%%%%%%%%%%%%%%%%%%%%%%%%%%%%%%%%%%%%%%%%%%%%%%%%%%%%%%%%%%%%%%%%%%%%%%%%%
     Error in routine write_rhog (2):
     error writing file ./pwscf.save/charge-density
 %%%%%%%%%%%%%%%%%%%%%%%%%%%%%%%%%%%%%%%%%%%%%%%%%%%%%%%%%%%%%%%%%%%%%%%%%%%%%%

     stopping ...

 %%%%%%%%%%%%%%%%%%%%%%%%%%%%%%%%%%%%%%%%%%%%%%%%%%%%%%%%%%%%%%%%%%%%%%%%%%%%%%
     Error in routine write_rhog (2):
     error writing file ./pwscf.save/charge-density
 %%%%%%%%%%%%%%%%%%%%%%%%%%%%%%%%%%%%%%%%%%%%%%%%%%%%%%%%%%%%%%%%%%%%%%%%%%%%%%

     stopping ...

 %%%%%%%%%%%%%%%%%%%%%%%%%%%%%%%%%%%%%%%%%%%%%%%%%%%%%%%%%%%%%%%%%%%%%%%%%%%%%%
     Error in routine write_rhog (2):
     error writing file ./pwscf.save/charge-density
 %%%%%%%%%%%%%%%%%%%%%%%%%%%%%%%%%%%%%%%%%%%%%%%%%%%%%%%%%%%%%%%%%%%%%%%%%%%%%%

     stopping ...

 %%%%%%%%%%%%%%%%%%%%%%%%%%%%%%%%%%%%%%%%%%%%%%%%%%%%%%%%%%%%%%%%%%%%%%%%%%%%%%
     Error in routine write_rhog (2):
     error writing file ./pwscf.save/charge-density
 %%%%%%%%%%%%%%%%%%%%%%%%%%%%%%%%%%%%%%%%%%%%%%%%%%%%%%%%%%%%%%%%%%%%%%%%%%%%%%

     stopping ...

 %%%%%%%%%%%%%%%%%%%%%%%%%%%%%%%%%%%%%%%%%%%%%%%%%%%%%%%%%%%%%%%%%%%%%%%%%%%%%%
     Error in routine write_rhog (2):
     error writing file ./pwscf.save/charge-density
 %%%%%%%%%%%%%%%%%%%%%%%%%%%%%%%%%%%%%%%%%%%%%%%%%%%%%%%%%%%%%%%%%%%%%%%%%%%%%%

     stopping ...

 %%%%%%%%%%%%%%%%%%%%%%%%%%%%%%%%%%%%%%%%%%%%%%%%%%%%%%%%%%%%%%%%%%%%%%%%%%%%%%
     Error in routine write_rhog (2):
     error writing file ./pwscf.save/charge-density
 %%%%%%%%%%%%%%%%%%%%%%%%%%%%%%%%%%%%%%%%%%%%%%%%%%%%%%%%%%%%%%%%%%%%%%%%%%%%%%

     stopping ...

 %%%%%%%%%%%%%%%%%%%%%%%%%%%%%%%%%%%%%%%%%%%%%%%%%%%%%%%%%%%%%%%%%%%%%%%%%%%%%%
     Error in routine write_rhog (2):
     error writing file ./pwscf.save/charge-density
 %%%%%%%%%%%%%%%%%%%%%%%%%%%%%%%%%%%%%%%%%%%%%%%%%%%%%%%%%%%%%%%%%%%%%%%%%%%%%%

     stopping ...

 %%%%%%%%%%%%%%%%%%%%%%%%%%%%%%%%%%%%%%%%%%%%%%%%%%%%%%%%%%%%%%%%%%%%%%%%%%%%%%
     Error in routine write_rhog (2):
     error writing file ./pwscf.save/charge-density
 %%%%%%%%%%%%%%%%%%%%%%%%%%%%%%%%%%%%%%%%%%%%%%%%%%%%%%%%%%%%%%%%%%%%%%%%%%%%%%

     stopping ...

 %%%%%%%%%%%%%%%%%%%%%%%%%%%%%%%%%%%%%%%%%%%%%%%%%%%%%%%%%%%%%%%%%%%%%%%%%%%%%%
     Error in routine write_rhog (2):
     error writing file ./pwscf.save/charge-density
 %%%%%%%%%%%%%%%%%%%%%%%%%%%%%%%%%%%%%%%%%%%%%%%%%%%%%%%%%%%%%%%%%%%%%%%%%%%%%%

     stopping ...

 %%%%%%%%%%%%%%%%%%%%%%%%%%%%%%%%%%%%%%%%%%%%%%%%%%%%%%%%%%%%%%%%%%%%%%%%%%%%%%
     Error in routine write_rhog (2):
     error writing file ./pwscf.save/charge-density
 %%%%%%%%%%%%%%%%%%%%%%%%%%%%%%%%%%%%%%%%%%%%%%%%%%%%%%%%%%%%%%%%%%%%%%%%%%%%%%

     stopping ...

 %%%%%%%%%%%%%%%%%%%%%%%%%%%%%%%%%%%%%%%%%%%%%%%%%%%%%%%%%%%%%%%%%%%%%%%%%%%%%%
     Error in routine write_rhog (2):
     error writing file ./pwscf.save/charge-density
 %%%%%%%%%%%%%%%%%%%%%%%%%%%%%%%%%%%%%%%%%%%%%%%%%%%%%%%%%%%%%%%%%%%%%%%%%%%%%%

     stopping ...

 %%%%%%%%%%%%%%%%%%%%%%%%%%%%%%%%%%%%%%%%%%%%%%%%%%%%%%%%%%%%%%%%%%%%%%%%%%%%%%
     Error in routine write_rhog (2):
     error writing file ./pwscf.save/charge-density
 %%%%%%%%%%%%%%%%%%%%%%%%%%%%%%%%%%%%%%%%%%%%%%%%%%%%%%%%%%%%%%%%%%%%%%%%%%%%%%

     stopping ...

 %%%%%%%%%%%%%%%%%%%%%%%%%%%%%%%%%%%%%%%%%%%%%%%%%%%%%%%%%%%%%%%%%%%%%%%%%%%%%%
     Error in routine write_rhog (2):
     error writing file ./pwscf.save/charge-density
 %%%%%%%%%%%%%%%%%%%%%%%%%%%%%%%%%%%%%%%%%%%%%%%%%%%%%%%%%%%%%%%%%%%%%%%%%%%%%%

     stopping ...

 %%%%%%%%%%%%%%%%%%%%%%%%%%%%%%%%%%%%%%%%%%%%%%%%%%%%%%%%%%%%%%%%%%%%%%%%%%%%%%
     Error in routine write_rhog (2):
     error writing file ./pwscf.save/charge-density
 %%%%%%%%%%%%%%%%%%%%%%%%%%%%%%%%%%%%%%%%%%%%%%%%%%%%%%%%%%%%%%%%%%%%%%%%%%%%%%

     stopping ...

 %%%%%%%%%%%%%%%%%%%%%%%%%%%%%%%%%%%%%%%%%%%%%%%%%%%%%%%%%%%%%%%%%%%%%%%%%%%%%%
     Error in routine write_rhog (2):
     error writing file ./pwscf.save/charge-density
 %%%%%%%%%%%%%%%%%%%%%%%%%%%%%%%%%%%%%%%%%%%%%%%%%%%%%%%%%%%%%%%%%%%%%%%%%%%%%%

     stopping ...

 %%%%%%%%%%%%%%%%%%%%%%%%%%%%%%%%%%%%%%%%%%%%%%%%%%%%%%%%%%%%%%%%%%%%%%%%%%%%%%
     Error in routine write_rhog (2):
     error writing file ./pwscf.save/charge-density
 %%%%%%%%%%%%%%%%%%%%%%%%%%%%%%%%%%%%%%%%%%%%%%%%%%%%%%%%%%%%%%%%%%%%%%%%%%%%%%

     stopping ...

 %%%%%%%%%%%%%%%%%%%%%%%%%%%%%%%%%%%%%%%%%%%%%%%%%%%%%%%%%%%%%%%%%%%%%%%%%%%%%%
     Error in routine write_rhog (2):
     error writing file ./pwscf.save/charge-density
 %%%%%%%%%%%%%%%%%%%%%%%%%%%%%%%%%%%%%%%%%%%%%%%%%%%%%%%%%%%%%%%%%%%%%%%%%%%%%%

     stopping ...

 %%%%%%%%%%%%%%%%%%%%%%%%%%%%%%%%%%%%%%%%%%%%%%%%%%%%%%%%%%%%%%%%%%%%%%%%%%%%%%
     Error in routine write_rhog (2):
     error writing file ./pwscf.save/charge-density
 %%%%%%%%%%%%%%%%%%%%%%%%%%%%%%%%%%%%%%%%%%%%%%%%%%%%%%%%%%%%%%%%%%%%%%%%%%%%%%

     stopping ...

 %%%%%%%%%%%%%%%%%%%%%%%%%%%%%%%%%%%%%%%%%%%%%%%%%%%%%%%%%%%%%%%%%%%%%%%%%%%%%%
     Error in routine write_rhog (2):
     error writing file ./pwscf.save/charge-density
 %%%%%%%%%%%%%%%%%%%%%%%%%%%%%%%%%%%%%%%%%%%%%%%%%%%%%%%%%%%%%%%%%%%%%%%%%%%%%%

     stopping ...

 %%%%%%%%%%%%%%%%%%%%%%%%%%%%%%%%%%%%%%%%%%%%%%%%%%%%%%%%%%%%%%%%%%%%%%%%%%%%%%
     Error in routine write_rhog (2):
     error writing file ./pwscf.save/charge-density
 %%%%%%%%%%%%%%%%%%%%%%%%%%%%%%%%%%%%%%%%%%%%%%%%%%%%%%%%%%%%%%%%%%%%%%%%%%%%%%

     stopping ...

 %%%%%%%%%%%%%%%%%%%%%%%%%%%%%%%%%%%%%%%%%%%%%%%%%%%%%%%%%%%%%%%%%%%%%%%%%%%%%%
     Error in routine write_rhog (2):
     error writing file ./pwscf.save/charge-density
 %%%%%%%%%%%%%%%%%%%%%%%%%%%%%%%%%%%%%%%%%%%%%%%%%%%%%%%%%%%%%%%%%%%%%%%%%%%%%%

     stopping ...

 %%%%%%%%%%%%%%%%%%%%%%%%%%%%%%%%%%%%%%%%%%%%%%%%%%%%%%%%%%%%%%%%%%%%%%%%%%%%%%
     Error in routine write_rhog (2):
     error writing file ./pwscf.save/charge-density
 %%%%%%%%%%%%%%%%%%%%%%%%%%%%%%%%%%%%%%%%%%%%%%%%%%%%%%%%%%%%%%%%%%%%%%%%%%%%%%

     stopping ...

 %%%%%%%%%%%%%%%%%%%%%%%%%%%%%%%%%%%%%%%%%%%%%%%%%%%%%%%%%%%%%%%%%%%%%%%%%%%%%%
     Error in routine write_rhog (2):
     error writing file ./pwscf.save/charge-density
 %%%%%%%%%%%%%%%%%%%%%%%%%%%%%%%%%%%%%%%%%%%%%%%%%%%%%%%%%%%%%%%%%%%%%%%%%%%%%%

     stopping ...

 %%%%%%%%%%%%%%%%%%%%%%%%%%%%%%%%%%%%%%%%%%%%%%%%%%%%%%%%%%%%%%%%%%%%%%%%%%%%%%
     Error in routine write_rhog (2):
     error writing file ./pwscf.save/charge-density
 %%%%%%%%%%%%%%%%%%%%%%%%%%%%%%%%%%%%%%%%%%%%%%%%%%%%%%%%%%%%%%%%%%%%%%%%%%%%%%

     stopping ...

 %%%%%%%%%%%%%%%%%%%%%%%%%%%%%%%%%%%%%%%%%%%%%%%%%%%%%%%%%%%%%%%%%%%%%%%%%%%%%%
     Error in routine write_rhog (2):
     error writing file ./pwscf.save/charge-density
 %%%%%%%%%%%%%%%%%%%%%%%%%%%%%%%%%%%%%%%%%%%%%%%%%%%%%%%%%%%%%%%%%%%%%%%%%%%%%%

     stopping ...

 %%%%%%%%%%%%%%%%%%%%%%%%%%%%%%%%%%%%%%%%%%%%%%%%%%%%%%%%%%%%%%%%%%%%%%%%%%%%%%
     Error in routine write_rhog (2):
     error writing file ./pwscf.save/charge-density
 %%%%%%%%%%%%%%%%%%%%%%%%%%%%%%%%%%%%%%%%%%%%%%%%%%%%%%%%%%%%%%%%%%%%%%%%%%%%%%

     stopping ...

 %%%%%%%%%%%%%%%%%%%%%%%%%%%%%%%%%%%%%%%%%%%%%%%%%%%%%%%%%%%%%%%%%%%%%%%%%%%%%%
     Error in routine write_rhog (2):
     error writing file ./pwscf.save/charge-density
 %%%%%%%%%%%%%%%%%%%%%%%%%%%%%%%%%%%%%%%%%%%%%%%%%%%%%%%%%%%%%%%%%%%%%%%%%%%%%%

     stopping ...

 %%%%%%%%%%%%%%%%%%%%%%%%%%%%%%%%%%%%%%%%%%%%%%%%%%%%%%%%%%%%%%%%%%%%%%%%%%%%%%
     Error in routine write_rhog (2):
     error writing file ./pwscf.save/charge-density
 %%%%%%%%%%%%%%%%%%%%%%%%%%%%%%%%%%%%%%%%%%%%%%%%%%%%%%%%%%%%%%%%%%%%%%%%%%%%%%

     stopping ...

 %%%%%%%%%%%%%%%%%%%%%%%%%%%%%%%%%%%%%%%%%%%%%%%%%%%%%%%%%%%%%%%%%%%%%%%%%%%%%%
     Error in routine write_rhog (2):
     error writing file ./pwscf.save/charge-density
 %%%%%%%%%%%%%%%%%%%%%%%%%%%%%%%%%%%%%%%%%%%%%%%%%%%%%%%%%%%%%%%%%%%%%%%%%%%%%%

     stopping ...

 %%%%%%%%%%%%%%%%%%%%%%%%%%%%%%%%%%%%%%%%%%%%%%%%%%%%%%%%%%%%%%%%%%%%%%%%%%%%%%
     Error in routine write_rhog (2):
     error writing file ./pwscf.save/charge-density
 %%%%%%%%%%%%%%%%%%%%%%%%%%%%%%%%%%%%%%%%%%%%%%%%%%%%%%%%%%%%%%%%%%%%%%%%%%%%%%

     stopping ...

 %%%%%%%%%%%%%%%%%%%%%%%%%%%%%%%%%%%%%%%%%%%%%%%%%%%%%%%%%%%%%%%%%%%%%%%%%%%%%%
     Error in routine write_rhog (2):
     error writing file ./pwscf.save/charge-density
 %%%%%%%%%%%%%%%%%%%%%%%%%%%%%%%%%%%%%%%%%%%%%%%%%%%%%%%%%%%%%%%%%%%%%%%%%%%%%%

     stopping ...

 %%%%%%%%%%%%%%%%%%%%%%%%%%%%%%%%%%%%%%%%%%%%%%%%%%%%%%%%%%%%%%%%%%%%%%%%%%%%%%
     Error in routine write_rhog (2):
     error writing file ./pwscf.save/charge-density
 %%%%%%%%%%%%%%%%%%%%%%%%%%%%%%%%%%%%%%%%%%%%%%%%%%%%%%%%%%%%%%%%%%%%%%%%%%%%%%

     stopping ...

 %%%%%%%%%%%%%%%%%%%%%%%%%%%%%%%%%%%%%%%%%%%%%%%%%%%%%%%%%%%%%%%%%%%%%%%%%%%%%%
     Error in routine write_rhog (2):
     error writing file ./pwscf.save/charge-density
 %%%%%%%%%%%%%%%%%%%%%%%%%%%%%%%%%%%%%%%%%%%%%%%%%%%%%%%%%%%%%%%%%%%%%%%%%%%%%%

     stopping ...

 %%%%%%%%%%%%%%%%%%%%%%%%%%%%%%%%%%%%%%%%%%%%%%%%%%%%%%%%%%%%%%%%%%%%%%%%%%%%%%
     Error in routine write_rhog (2):
     error writing file ./pwscf.save/charge-density
 %%%%%%%%%%%%%%%%%%%%%%%%%%%%%%%%%%%%%%%%%%%%%%%%%%%%%%%%%%%%%%%%%%%%%%%%%%%%%%

     stopping ...

 %%%%%%%%%%%%%%%%%%%%%%%%%%%%%%%%%%%%%%%%%%%%%%%%%%%%%%%%%%%%%%%%%%%%%%%%%%%%%%
     Error in routine write_rhog (2):
     error writing file ./pwscf.save/charge-density
 %%%%%%%%%%%%%%%%%%%%%%%%%%%%%%%%%%%%%%%%%%%%%%%%%%%%%%%%%%%%%%%%%%%%%%%%%%%%%%

     stopping ...

 %%%%%%%%%%%%%%%%%%%%%%%%%%%%%%%%%%%%%%%%%%%%%%%%%%%%%%%%%%%%%%%%%%%%%%%%%%%%%%
     Error in routine write_rhog (2):
     error writing file ./pwscf.save/charge-density
 %%%%%%%%%%%%%%%%%%%%%%%%%%%%%%%%%%%%%%%%%%%%%%%%%%%%%%%%%%%%%%%%%%%%%%%%%%%%%%

     stopping ...

 %%%%%%%%%%%%%%%%%%%%%%%%%%%%%%%%%%%%%%%%%%%%%%%%%%%%%%%%%%%%%%%%%%%%%%%%%%%%%%
     Error in routine write_rhog (2):
     error writing file ./pwscf.save/charge-density
 %%%%%%%%%%%%%%%%%%%%%%%%%%%%%%%%%%%%%%%%%%%%%%%%%%%%%%%%%%%%%%%%%%%%%%%%%%%%%%

     stopping ...

 %%%%%%%%%%%%%%%%%%%%%%%%%%%%%%%%%%%%%%%%%%%%%%%%%%%%%%%%%%%%%%%%%%%%%%%%%%%%%%
     Error in routine write_rhog (2):
     error writing file ./pwscf.save/charge-density
 %%%%%%%%%%%%%%%%%%%%%%%%%%%%%%%%%%%%%%%%%%%%%%%%%%%%%%%%%%%%%%%%%%%%%%%%%%%%%%

     stopping ...

 %%%%%%%%%%%%%%%%%%%%%%%%%%%%%%%%%%%%%%%%%%%%%%%%%%%%%%%%%%%%%%%%%%%%%%%%%%%%%%
     Error in routine write_rhog (2):
     error writing file ./pwscf.save/charge-density
 %%%%%%%%%%%%%%%%%%%%%%%%%%%%%%%%%%%%%%%%%%%%%%%%%%%%%%%%%%%%%%%%%%%%%%%%%%%%%%

     stopping ...

 %%%%%%%%%%%%%%%%%%%%%%%%%%%%%%%%%%%%%%%%%%%%%%%%%%%%%%%%%%%%%%%%%%%%%%%%%%%%%%
     Error in routine write_rhog (2):
     error writing file ./pwscf.save/charge-density
 %%%%%%%%%%%%%%%%%%%%%%%%%%%%%%%%%%%%%%%%%%%%%%%%%%%%%%%%%%%%%%%%%%%%%%%%%%%%%%

     stopping ...

 %%%%%%%%%%%%%%%%%%%%%%%%%%%%%%%%%%%%%%%%%%%%%%%%%%%%%%%%%%%%%%%%%%%%%%%%%%%%%%
     Error in routine write_rhog (2):
     error writing file ./pwscf.save/charge-density
 %%%%%%%%%%%%%%%%%%%%%%%%%%%%%%%%%%%%%%%%%%%%%%%%%%%%%%%%%%%%%%%%%%%%%%%%%%%%%%

     stopping ...

 %%%%%%%%%%%%%%%%%%%%%%%%%%%%%%%%%%%%%%%%%%%%%%%%%%%%%%%%%%%%%%%%%%%%%%%%%%%%%%
     Error in routine write_rhog (2):
     error writing file ./pwscf.save/charge-density
 %%%%%%%%%%%%%%%%%%%%%%%%%%%%%%%%%%%%%%%%%%%%%%%%%%%%%%%%%%%%%%%%%%%%%%%%%%%%%%

     stopping ...

 %%%%%%%%%%%%%%%%%%%%%%%%%%%%%%%%%%%%%%%%%%%%%%%%%%%%%%%%%%%%%%%%%%%%%%%%%%%%%%
     Error in routine write_rhog (2):
     error writing file ./pwscf.save/charge-density
 %%%%%%%%%%%%%%%%%%%%%%%%%%%%%%%%%%%%%%%%%%%%%%%%%%%%%%%%%%%%%%%%%%%%%%%%%%%%%%

     stopping ...

 %%%%%%%%%%%%%%%%%%%%%%%%%%%%%%%%%%%%%%%%%%%%%%%%%%%%%%%%%%%%%%%%%%%%%%%%%%%%%%
     Error in routine write_rhog (2):
     error writing file ./pwscf.save/charge-density
 %%%%%%%%%%%%%%%%%%%%%%%%%%%%%%%%%%%%%%%%%%%%%%%%%%%%%%%%%%%%%%%%%%%%%%%%%%%%%%

     stopping ...

 %%%%%%%%%%%%%%%%%%%%%%%%%%%%%%%%%%%%%%%%%%%%%%%%%%%%%%%%%%%%%%%%%%%%%%%%%%%%%%
     Error in routine write_rhog (2):
     error writing file ./pwscf.save/charge-density
 %%%%%%%%%%%%%%%%%%%%%%%%%%%%%%%%%%%%%%%%%%%%%%%%%%%%%%%%%%%%%%%%%%%%%%%%%%%%%%

     stopping ...

 %%%%%%%%%%%%%%%%%%%%%%%%%%%%%%%%%%%%%%%%%%%%%%%%%%%%%%%%%%%%%%%%%%%%%%%%%%%%%%
     Error in routine write_rhog (2):
     error writing file ./pwscf.save/charge-density
 %%%%%%%%%%%%%%%%%%%%%%%%%%%%%%%%%%%%%%%%%%%%%%%%%%%%%%%%%%%%%%%%%%%%%%%%%%%%%%

     stopping ...
