
     Program PWSCF v.7.5 starts on 16Nov2025 at 17:17:31 

     This program is part of the open-source Quantum ESPRESSO suite
     for quantum simulation of materials; please cite
         "P. Giannozzi et al., J. Phys.:Condens. Matter 21 395502 (2009);
         "P. Giannozzi et al., J. Phys.:Condens. Matter 29 465901 (2017);
         "P. Giannozzi et al., J. Chem. Phys. 152 154105 (2020);
          URL http://www.quantum-espresso.org", 
     in publications or presentations arising from this work. More details at
     http://www.quantum-espresso.org/quote

     Parallel version (MPI), running on    96 processors

     MPI processes distributed on     2 nodes
     174135 MiB available memory on the printing compute node when the environment starts
 
     Reading input from supercell-361.in

     Current dimensions of program PWSCF are:
     Max number of different atomic species (ntypx) = 10
     Max number of k-points (npk) =  40000
     Max angular momentum in pseudopotentials (lmaxx) =  4

     gamma-point specific algorithms are used
 
     K-points division:     npool     =       2
     R & G space division:  proc/nbgrp/npool/nimage =      48
     Subspace diagonalization in iterative solution of the eigenvalue problem:
     one sub-group per band group will be used
     scalapack distributed-memory algorithm (size of sub-group:  2*  2 procs)

 
     Parallelization info
     --------------------
     sticks:   dense  smooth     PW     G-vecs:    dense   smooth      PW
     Min          59      59     14                 2432     2432     302
     Max          62      62     16                 2442     2442     316
     Sum        2885    2885    725               116921   116921   14771
 
     Using Slab Decomposition
 


     bravais-lattice index     =            0
     lattice parameter (alat)  =      13.4813  a.u.
     unit-cell volume          =    2450.1683 (a.u.)^3
     number of atoms/cell      =           63
     number of atomic types    =            2
     number of electrons       =       254.00 (up: 128.00, down: 126.00)
     number of Kohn-Sham states=          152
     kinetic-energy cutoff     =      50.0000  Ry
     charge density cutoff     =     200.0000  Ry
     scf convergence threshold =      1.0E-08
     mixing beta               =       0.7000
     number of iterations used =            8  plain     mixing
     Exchange-correlation= PBE
                           (   1   4   3   4   0   0   0)

     celldm(1)=  13.481306  celldm(2)=   0.000000  celldm(3)=   0.000000
     celldm(4)=   0.000000  celldm(5)=   0.000000  celldm(6)=   0.000000

     crystal axes: (cart. coord. in units of alat)
               a(1) = (   1.000000   0.000000   0.000000 )  
               a(2) = (   0.000000   1.000000   0.000000 )  
               a(3) = (   0.000000   0.000000   1.000000 )  

     reciprocal axes: (cart. coord. in units 2 pi/alat)
               b(1) = (  1.000000  0.000000  0.000000 )  
               b(2) = (  0.000000  1.000000  0.000000 )  
               b(3) = (  0.000000  0.000000  1.000000 )  


     PseudoPot. # 1 for N  read from file:
     ./N_ONCV_PBE-1.2.upf
     MD5 check sum: 5312fdf34e96954e02a33bdc911c617a
     Pseudo is Norm-conserving, Zval =  5.0
     Generated using ONCVPSP code by D. R. Hamann
     Using radial grid of  602 points,  4 beta functions with: 
                l(1) =   0
                l(2) =   0
                l(3) =   1
                l(4) =   1

     PseudoPot. # 2 for C  read from file:
     ./C_ONCV_PBE-1.2.upf
     MD5 check sum: d60b57d9bdca4133f5fde4b584ee909d
     Pseudo is Norm-conserving, Zval =  4.0
     Generated using ONCVPSP code by D. R. Hamann
     Using radial grid of  602 points,  4 beta functions with: 
                l(1) =   0
                l(2) =   0
                l(3) =   1
                l(4) =   1

     atomic species   valence    mass     pseudopotential
     N                 5.00    14.00670     N ( 1.00)
     C                 4.00    12.01070     C ( 1.00)

     Starting magnetic structure 
     atomic species   magnetization
     N               0.000
     C               0.000

     No symmetry found


                                    s                        frac. trans.

      isym =  1     identity                                     

 cryst.   s( 1) = (     1          0          0      )
                  (     0          1          0      )
                  (     0          0          1      )

 cart.    s( 1) = (  1.0000000  0.0000000  0.0000000 )
                  (  0.0000000  1.0000000  0.0000000 )
                  (  0.0000000  0.0000000  1.0000000 )


   Cartesian axes

     site n.     atom                  positions (alat units)
         1        N      tau(   1) = (   0.9893819   0.9897344   0.9891721  )
         2        C      tau(   2) = (   0.9870277   0.2601210   0.2640728  )
         3        C      tau(   3) = (   0.1231717   0.3731672   0.3742038  )
         4        C      tau(   4) = (   0.2603919   0.9894620   0.2619202  )
         5        C      tau(   5) = (   0.3737632   0.1246771   0.3741571  )
         6        C      tau(   6) = (   0.2640151   0.2616009   0.9853609  )
         7        C      tau(   7) = (   0.3737752   0.3731213   0.1223564  )
         8        C      tau(   8) = (   0.0000049   0.0005840   0.4991361  )
         9        C      tau(   9) = (   0.1251361   0.1251278   0.6250981  )
        10        C      tau(  10) = (   0.0020393   0.2482470   0.7515266  )
        11        C      tau(  11) = (   0.1292009   0.3733021   0.8763303  )
        12        C      tau(  12) = (   0.2487801   0.0017974   0.7514403  )
        13        C      tau(  13) = (   0.3754339   0.1292460   0.8748544  )
        14        C      tau(  14) = (   0.2491579   0.2495268   0.4995755  )
        15        C      tau(  15) = (   0.3750038   0.3749547   0.6244069  )
        16        C      tau(  16) = (   0.0016366   0.4979779   0.0013734  )
        17        C      tau(  17) = (   0.1250869   0.6243147   0.1250807  )
        18        C      tau(  18) = (   0.0014462   0.7520697   0.2483230  )
        19        C      tau(  19) = (   0.1266755   0.8769178   0.3741906  )
        20        C      tau(  20) = (   0.2488290   0.4983596   0.2486760  )
        21        C      tau(  21) = (   0.3741642   0.6242659   0.3742111  )
        22        C      tau(  22) = (   0.2480673   0.7520817   0.0015447  )
        23        C      tau(  23) = (   0.3729914   0.8777475   0.1265606  )
        24        C      tau(  24) = (   0.0000493   0.5010760   0.5011299  )
        25        C      tau(  25) = (   0.1252054   0.6262200   0.6252733  )
        26        C      tau(  26) = (   0.9993969   0.7487112   0.7492532  )
        27        C      tau(  27) = (   0.1217927   0.8768349   0.8763928  )
        28        C      tau(  28) = (   0.2492749   0.5017254   0.7482724  )
        29        C      tau(  29) = (   0.3741000   0.6263042   0.8750769  )
        30        C      tau(  30) = (   0.2487293   0.7486845   0.5007616  )
        31        C      tau(  31) = (   0.3739266   0.8750581   0.6258828  )
        32        C      tau(  32) = (   0.4987543   0.0011228   0.0002828  )
        33        C      tau(  33) = (   0.6248203   0.1251003   0.1251034  )
        34        C      tau(  34) = (   0.4991217   0.2493918   0.2488717  )
        35        C      tau(  35) = (   0.6243080   0.3746888   0.3747831  )
        36        C      tau(  36) = (   0.7516460   0.0016191   0.2487956  )
        37        C      tau(  37) = (   0.8750430   0.1283649   0.3757598  )
        38        C      tau(  38) = (   0.7517475   0.2480080   0.0019610  )
        39        C      tau(  39) = (   0.8773622   0.3724247   0.1282033  )
        40        C      tau(  40) = (   0.5008161   0.9999897   0.5008301  )
        41        C      tau(  41) = (   0.6256173   0.1249721   0.6252590  )
        42        C      tau(  42) = (   0.5022259   0.2488088   0.7478265  )
        43        C      tau(  43) = (   0.6264784   0.3739683   0.8752045  )
        44        C      tau(  44) = (   0.7487945   0.9989046   0.7489691  )
        45        C      tau(  45) = (   0.8764746   0.1216998   0.8763156  )
        46        C      tau(  46) = (   0.7479635   0.2486819   0.5018806  )
        47        C      tau(  47) = (   0.8751980   0.3739245   0.6263738  )
        48        C      tau(  48) = (   0.5012000   0.5011574   0.0001136  )
        49        C      tau(  49) = (   0.6256259   0.6262099   0.1252968  )
        50        C      tau(  50) = (   0.5005188   0.7489091   0.2490095  )
        51        C      tau(  51) = (   0.6258050   0.8750157   0.3740056  )
        52        C      tau(  52) = (   0.7486304   0.5011458   0.2494302  )
        53        C      tau(  53) = (   0.8750247   0.6261269   0.3741365  )
        54        C      tau(  54) = (   0.7492281   0.7488562   0.9996087  )
        55        C      tau(  55) = (   0.8766209   0.8769033   0.1218021  )
        56        C      tau(  56) = (   0.4990819   0.4992903   0.4990317  )
        57        C      tau(  57) = (   0.6247789   0.6244471   0.6249452  )
        58        C      tau(  58) = (   0.4991767   0.7499842   0.7500845  )
        59        C      tau(  59) = (   0.6239946   0.8751464   0.8754130  )
        60        C      tau(  60) = (   0.7505316   0.4989321   0.7505826  )
        61        C      tau(  61) = (   0.8773291   0.6234984   0.8759288  )
        62        C      tau(  62) = (   0.7498244   0.7497799   0.4993198  )
        63        C      tau(  63) = (   0.8750855   0.8749084   0.6242568  )

   Crystallographic axes

     site n.     atom                  positions (cryst. coord.)
         1        N      tau(   1) = (  0.9893819  0.9897344  0.9891721  )
         2        C      tau(   2) = (  0.9870277  0.2601210  0.2640728  )
         3        C      tau(   3) = (  0.1231717  0.3731672  0.3742038  )
         4        C      tau(   4) = (  0.2603919  0.9894620  0.2619202  )
         5        C      tau(   5) = (  0.3737632  0.1246771  0.3741571  )
         6        C      tau(   6) = (  0.2640151  0.2616009  0.9853609  )
         7        C      tau(   7) = (  0.3737752  0.3731213  0.1223564  )
         8        C      tau(   8) = (  0.0000049  0.0005840  0.4991361  )
         9        C      tau(   9) = (  0.1251361  0.1251278  0.6250981  )
        10        C      tau(  10) = (  0.0020393  0.2482470  0.7515266  )
        11        C      tau(  11) = (  0.1292009  0.3733021  0.8763303  )
        12        C      tau(  12) = (  0.2487801  0.0017974  0.7514403  )
        13        C      tau(  13) = (  0.3754339  0.1292460  0.8748544  )
        14        C      tau(  14) = (  0.2491579  0.2495268  0.4995755  )
        15        C      tau(  15) = (  0.3750038  0.3749547  0.6244069  )
        16        C      tau(  16) = (  0.0016366  0.4979779  0.0013734  )
        17        C      tau(  17) = (  0.1250869  0.6243147  0.1250807  )
        18        C      tau(  18) = (  0.0014462  0.7520697  0.2483230  )
        19        C      tau(  19) = (  0.1266755  0.8769178  0.3741906  )
        20        C      tau(  20) = (  0.2488290  0.4983596  0.2486760  )
        21        C      tau(  21) = (  0.3741642  0.6242659  0.3742111  )
        22        C      tau(  22) = (  0.2480673  0.7520817  0.0015447  )
        23        C      tau(  23) = (  0.3729914  0.8777475  0.1265606  )
        24        C      tau(  24) = (  0.0000493  0.5010760  0.5011299  )
        25        C      tau(  25) = (  0.1252054  0.6262200  0.6252733  )
        26        C      tau(  26) = (  0.9993969  0.7487112  0.7492532  )
        27        C      tau(  27) = (  0.1217927  0.8768349  0.8763928  )
        28        C      tau(  28) = (  0.2492749  0.5017254  0.7482724  )
        29        C      tau(  29) = (  0.3741000  0.6263042  0.8750769  )
        30        C      tau(  30) = (  0.2487293  0.7486845  0.5007616  )
        31        C      tau(  31) = (  0.3739266  0.8750581  0.6258828  )
        32        C      tau(  32) = (  0.4987543  0.0011228  0.0002828  )
        33        C      tau(  33) = (  0.6248203  0.1251003  0.1251034  )
        34        C      tau(  34) = (  0.4991217  0.2493918  0.2488717  )
        35        C      tau(  35) = (  0.6243080  0.3746888  0.3747831  )
        36        C      tau(  36) = (  0.7516460  0.0016191  0.2487956  )
        37        C      tau(  37) = (  0.8750430  0.1283649  0.3757598  )
        38        C      tau(  38) = (  0.7517475  0.2480080  0.0019610  )
        39        C      tau(  39) = (  0.8773622  0.3724247  0.1282033  )
        40        C      tau(  40) = (  0.5008161  0.9999897  0.5008301  )
        41        C      tau(  41) = (  0.6256173  0.1249721  0.6252590  )
        42        C      tau(  42) = (  0.5022259  0.2488088  0.7478265  )
        43        C      tau(  43) = (  0.6264784  0.3739683  0.8752045  )
        44        C      tau(  44) = (  0.7487945  0.9989046  0.7489691  )
        45        C      tau(  45) = (  0.8764746  0.1216998  0.8763156  )
        46        C      tau(  46) = (  0.7479635  0.2486819  0.5018806  )
        47        C      tau(  47) = (  0.8751980  0.3739245  0.6263738  )
        48        C      tau(  48) = (  0.5012000  0.5011574  0.0001136  )
        49        C      tau(  49) = (  0.6256259  0.6262099  0.1252968  )
        50        C      tau(  50) = (  0.5005188  0.7489091  0.2490095  )
        51        C      tau(  51) = (  0.6258050  0.8750157  0.3740056  )
        52        C      tau(  52) = (  0.7486304  0.5011458  0.2494302  )
        53        C      tau(  53) = (  0.8750247  0.6261269  0.3741365  )
        54        C      tau(  54) = (  0.7492281  0.7488562  0.9996087  )
        55        C      tau(  55) = (  0.8766209  0.8769033  0.1218021  )
        56        C      tau(  56) = (  0.4990819  0.4992903  0.4990317  )
        57        C      tau(  57) = (  0.6247789  0.6244471  0.6249452  )
        58        C      tau(  58) = (  0.4991767  0.7499842  0.7500845  )
        59        C      tau(  59) = (  0.6239946  0.8751464  0.8754130  )
        60        C      tau(  60) = (  0.7505316  0.4989321  0.7505826  )
        61        C      tau(  61) = (  0.8773291  0.6234984  0.8759288  )
        62        C      tau(  62) = (  0.7498244  0.7497799  0.4993198  )
        63        C      tau(  63) = (  0.8750855  0.8749084  0.6242568  )

     number of k points=     1
                       cart. coord. in units 2pi/alat
        k(    1) = (   0.0000000   0.0000000   0.0000000), wk =   1.0000000

                       cryst. coord.
        k(    1) = (   0.0000000   0.0000000   0.0000000), wk =   1.0000000

     Dense  grid:    58461 G-vectors     FFT dimensions: (  64,  64,  64)

     Dynamical RAM for                 wfc:       0.35 MB

     Dynamical RAM for     wfc (w. buffer):       0.35 MB

     Dynamical RAM for           str. fact:       0.04 MB

     Dynamical RAM for           local pot:       0.00 MB

     Dynamical RAM for          nlocal pot:       1.17 MB

     Dynamical RAM for                qrad:       0.65 MB

     Dynamical RAM for          rho,v,vnew:       0.49 MB

     Dynamical RAM for               rhoin:       0.16 MB

     Dynamical RAM for            rho*nmix:       0.60 MB

     Dynamical RAM for           G-vectors:       0.08 MB

     Dynamical RAM for          h,s,v(r/c):       0.53 MB

     Dynamical RAM for          <psi|beta>:       0.58 MB

     Dynamical RAM for                 psi:       0.71 MB

     Dynamical RAM for                hpsi:       0.71 MB

     Dynamical RAM for      wfcinit/wfcrot:       1.24 MB

     Estimated static dynamical RAM per process >       3.37 MB

     Estimated max dynamical RAM per process >       6.49 MB

     Estimated total dynamical RAM >     594.05 MB
     Generating pointlists ...
     new r_m :   0.0854 (alat units)  1.1518 (a.u.) for type    1
     new r_m :   0.0847 (alat units)  1.1416 (a.u.) for type    2

     Initial potential from superposition of free atoms

     starting charge     252.5655, renormalised to     254.0000
     Starting wfcs are random

     total cpu time spent up to now is        1.2 secs

     Self-consistent Calculation

     iteration #  1     ecut=    50.00 Ry     beta= 0.70
     Davidson diagonalization with overlap

---- Real-time Memory Report at c_bands before calling an iterative solver
           157 MiB given to the printing process from OS
             0 MiB allocation reported by mallinfo(arena+hblkhd)
        173167 MiB available memory on the node where the printing process lives
------------------
     ethr =  1.00E-02,  avg # of iterations = 12.0

     total cpu time spent up to now is        2.0 secs

     total energy              =    -723.26878004 Ry
     estimated scf accuracy    <       3.70792104 Ry

     total magnetization       =     2.00 Bohr mag/cell
     absolute magnetization    =     2.00 Bohr mag/cell

     iteration #  2     ecut=    50.00 Ry     beta= 0.70
     Davidson diagonalization with overlap

---- Real-time Memory Report at c_bands before calling an iterative solver
           163 MiB given to the printing process from OS
             0 MiB allocation reported by mallinfo(arena+hblkhd)
        173090 MiB available memory on the node where the printing process lives
------------------
     ethr =  1.46E-03,  avg # of iterations = 13.0

     total cpu time spent up to now is        3.0 secs

     total energy              =    -723.66081233 Ry
     estimated scf accuracy    <       0.45635860 Ry

     total magnetization       =     2.00 Bohr mag/cell
     absolute magnetization    =     2.07 Bohr mag/cell

     iteration #  3     ecut=    50.00 Ry     beta= 0.70
     Davidson diagonalization with overlap

---- Real-time Memory Report at c_bands before calling an iterative solver
           163 MiB given to the printing process from OS
             0 MiB allocation reported by mallinfo(arena+hblkhd)
        173099 MiB available memory on the node where the printing process lives
------------------
     c_bands:  1 eigenvalues not converged
     ethr =  1.80E-04,  avg # of iterations = 20.0

     total cpu time spent up to now is        4.2 secs

     total energy              =    -723.72642366 Ry
     estimated scf accuracy    <       0.86872464 Ry

     total magnetization       =     2.00 Bohr mag/cell
     absolute magnetization    =     2.12 Bohr mag/cell

     iteration #  4     ecut=    50.00 Ry     beta= 0.70
     Davidson diagonalization with overlap

---- Real-time Memory Report at c_bands before calling an iterative solver
           164 MiB given to the printing process from OS
             0 MiB allocation reported by mallinfo(arena+hblkhd)
        173094 MiB available memory on the node where the printing process lives
------------------
     ethr =  1.80E-04,  avg # of iterations = 20.0

     total cpu time spent up to now is        5.3 secs

     total energy              =    -723.90108298 Ry
     estimated scf accuracy    <       0.00960708 Ry

     total magnetization       =     2.00 Bohr mag/cell
     absolute magnetization    =     2.19 Bohr mag/cell

     iteration #  5     ecut=    50.00 Ry     beta= 0.70
     Davidson diagonalization with overlap

---- Real-time Memory Report at c_bands before calling an iterative solver
           164 MiB given to the printing process from OS
             0 MiB allocation reported by mallinfo(arena+hblkhd)
        173102 MiB available memory on the node where the printing process lives
------------------
     c_bands:  4 eigenvalues not converged
     ethr =  3.78E-06,  avg # of iterations = 20.0

     total cpu time spent up to now is        6.0 secs

     total energy              =    -723.90598897 Ry
     estimated scf accuracy    <       0.00410727 Ry

     total magnetization       =     2.00 Bohr mag/cell
     absolute magnetization    =     2.23 Bohr mag/cell

     iteration #  6     ecut=    50.00 Ry     beta= 0.70
     Davidson diagonalization with overlap

---- Real-time Memory Report at c_bands before calling an iterative solver
           164 MiB given to the printing process from OS
             0 MiB allocation reported by mallinfo(arena+hblkhd)
        173100 MiB available memory on the node where the printing process lives
------------------
     c_bands:  2 eigenvalues not converged
     ethr =  1.62E-06,  avg # of iterations = 20.0

     total cpu time spent up to now is        6.5 secs

     total energy              =    -723.90674329 Ry
     estimated scf accuracy    <       0.00086586 Ry

     total magnetization       =     2.00 Bohr mag/cell
     absolute magnetization    =     2.25 Bohr mag/cell

     iteration #  7     ecut=    50.00 Ry     beta= 0.70
     Davidson diagonalization with overlap

---- Real-time Memory Report at c_bands before calling an iterative solver
           165 MiB given to the printing process from OS
             0 MiB allocation reported by mallinfo(arena+hblkhd)
        173096 MiB available memory on the node where the printing process lives
------------------
     ethr =  3.41E-07,  avg # of iterations = 18.5

     total cpu time spent up to now is        6.9 secs

     total energy              =    -723.90696789 Ry
     estimated scf accuracy    <       0.00011866 Ry

     total magnetization       =     2.00 Bohr mag/cell
     absolute magnetization    =     2.27 Bohr mag/cell

     iteration #  8     ecut=    50.00 Ry     beta= 0.70
     Davidson diagonalization with overlap

---- Real-time Memory Report at c_bands before calling an iterative solver
           165 MiB given to the printing process from OS
             0 MiB allocation reported by mallinfo(arena+hblkhd)
        173089 MiB available memory on the node where the printing process lives
------------------
     c_bands:  1 eigenvalues not converged
     ethr =  4.67E-08,  avg # of iterations = 20.0

     total cpu time spent up to now is        8.2 secs

     total energy              =    -723.90700751 Ry
     estimated scf accuracy    <       0.00002878 Ry

     total magnetization       =     2.00 Bohr mag/cell
     absolute magnetization    =     2.28 Bohr mag/cell

     iteration #  9     ecut=    50.00 Ry     beta= 0.70
     Davidson diagonalization with overlap

---- Real-time Memory Report at c_bands before calling an iterative solver
           165 MiB given to the printing process from OS
             0 MiB allocation reported by mallinfo(arena+hblkhd)
        173090 MiB available memory on the node where the printing process lives
------------------
     c_bands:  3 eigenvalues not converged
     ethr =  1.13E-08,  avg # of iterations = 20.0

     total cpu time spent up to now is        8.7 secs

     total energy              =    -723.90701785 Ry
     estimated scf accuracy    <       0.00000783 Ry

     total magnetization       =     2.00 Bohr mag/cell
     absolute magnetization    =     2.29 Bohr mag/cell

     iteration # 10     ecut=    50.00 Ry     beta= 0.70
     Davidson diagonalization with overlap

---- Real-time Memory Report at c_bands before calling an iterative solver
           165 MiB given to the printing process from OS
             0 MiB allocation reported by mallinfo(arena+hblkhd)
        173088 MiB available memory on the node where the printing process lives
------------------
     c_bands:  2 eigenvalues not converged
     ethr =  3.08E-09,  avg # of iterations = 20.0

     total cpu time spent up to now is        9.3 secs

     total energy              =    -723.90702142 Ry
     estimated scf accuracy    <       0.00000084 Ry

     total magnetization       =     2.00 Bohr mag/cell
     absolute magnetization    =     2.29 Bohr mag/cell

     iteration # 11     ecut=    50.00 Ry     beta= 0.70
     Davidson diagonalization with overlap

---- Real-time Memory Report at c_bands before calling an iterative solver
           165 MiB given to the printing process from OS
             0 MiB allocation reported by mallinfo(arena+hblkhd)
        173095 MiB available memory on the node where the printing process lives
------------------
     c_bands:  1 eigenvalues not converged
     ethr =  3.31E-10,  avg # of iterations = 20.0

     total cpu time spent up to now is       11.0 secs

     total energy              =    -723.90702206 Ry
     estimated scf accuracy    <       0.00000024 Ry

     total magnetization       =     2.00 Bohr mag/cell
     absolute magnetization    =     2.30 Bohr mag/cell

     iteration # 12     ecut=    50.00 Ry     beta= 0.70
     Davidson diagonalization with overlap

---- Real-time Memory Report at c_bands before calling an iterative solver
           165 MiB given to the printing process from OS
             0 MiB allocation reported by mallinfo(arena+hblkhd)
        173091 MiB available memory on the node where the printing process lives
------------------
     ethr =  9.34E-11,  avg # of iterations = 19.0

     total cpu time spent up to now is       12.6 secs

     total energy              =    -723.90702218 Ry
     estimated scf accuracy    <       0.00000009 Ry

     total magnetization       =     2.00 Bohr mag/cell
     absolute magnetization    =     2.30 Bohr mag/cell

     iteration # 13     ecut=    50.00 Ry     beta= 0.70
     Davidson diagonalization with overlap

---- Real-time Memory Report at c_bands before calling an iterative solver
           165 MiB given to the printing process from OS
             0 MiB allocation reported by mallinfo(arena+hblkhd)
        173092 MiB available memory on the node where the printing process lives
------------------
     ethr =  3.74E-11,  avg # of iterations = 17.0

     total cpu time spent up to now is       13.3 secs

     total energy              =    -723.90702222 Ry
     estimated scf accuracy    <       0.00000003 Ry

     total magnetization       =     2.00 Bohr mag/cell
     absolute magnetization    =     2.30 Bohr mag/cell

     iteration # 14     ecut=    50.00 Ry     beta= 0.70
     Davidson diagonalization with overlap

---- Real-time Memory Report at c_bands before calling an iterative solver
           165 MiB given to the printing process from OS
             0 MiB allocation reported by mallinfo(arena+hblkhd)
        173095 MiB available memory on the node where the printing process lives
------------------
     c_bands:  1 eigenvalues not converged
     ethr =  1.08E-11,  avg # of iterations = 20.0
 
     Magnetic moment per site  (integrated on atomic sphere of radius R)
     atom   1 (R=0.085)  charge=  2.9143  magn=  0.0042
     atom   2 (R=0.085)  charge=  1.8170  magn=  0.2448
     atom   3 (R=0.085)  charge=  1.7930  magn= -0.0086
     atom   4 (R=0.085)  charge=  1.8051  magn=  0.2456
     atom   5 (R=0.085)  charge=  1.7932  magn= -0.0087
     atom   6 (R=0.085)  charge=  1.8232  magn=  0.2450
     atom   7 (R=0.085)  charge=  1.7934  magn= -0.0087
     atom   8 (R=0.085)  charge=  1.7860  magn=  0.0091
     atom   9 (R=0.085)  charge=  1.7963  magn= -0.0019
     atom  10 (R=0.085)  charge=  1.7834  magn=  0.0060
     atom  11 (R=0.085)  charge=  1.7970  magn= -0.0042
     atom  12 (R=0.085)  charge=  1.7823  magn=  0.0061
     atom  13 (R=0.085)  charge=  1.8040  magn= -0.0039
     atom  14 (R=0.085)  charge=  1.7892  magn=  0.0085
     atom  15 (R=0.085)  charge=  1.7873  magn= -0.0020
     atom  16 (R=0.085)  charge=  1.7839  magn=  0.0089
     atom  17 (R=0.085)  charge=  1.7957  magn= -0.0018
     atom  18 (R=0.085)  charge=  1.7822  magn=  0.0057
     atom  19 (R=0.085)  charge=  1.7953  magn= -0.0035
     atom  20 (R=0.085)  charge=  1.7834  magn=  0.0083
     atom  21 (R=0.085)  charge=  1.7847  magn= -0.0020
     atom  22 (R=0.085)  charge=  1.7829  magn=  0.0057
     atom  23 (R=0.085)  charge=  1.7905  magn= -0.0037
     atom  24 (R=0.085)  charge=  1.7825  magn=  0.0182
     atom  25 (R=0.085)  charge=  1.8069  magn=  0.0094
     atom  26 (R=0.085)  charge=  1.7954  magn=  0.0032
     atom  27 (R=0.085)  charge=  1.7590  magn=  0.0001
     atom  28 (R=0.085)  charge=  1.7896  magn=  0.0221
     atom  29 (R=0.085)  charge=  1.7824  magn= -0.0014
     atom  30 (R=0.085)  charge=  1.7901  magn=  0.0211
     atom  31 (R=0.085)  charge=  1.7823  magn= -0.0013
     atom  32 (R=0.085)  charge=  1.7844  magn=  0.0090
     atom  33 (R=0.085)  charge=  1.7960  magn= -0.0019
     atom  34 (R=0.085)  charge=  1.7868  magn=  0.0084
     atom  35 (R=0.085)  charge=  1.7865  magn= -0.0020
     atom  36 (R=0.085)  charge=  1.7819  magn=  0.0059
     atom  37 (R=0.085)  charge=  1.8033  magn= -0.0036
     atom  38 (R=0.085)  charge=  1.7836  magn=  0.0058
     atom  39 (R=0.085)  charge=  1.7913  magn= -0.0041
     atom  40 (R=0.085)  charge=  1.7835  magn=  0.0181
     atom  41 (R=0.085)  charge=  1.8109  magn=  0.0094
     atom  42 (R=0.085)  charge=  1.7948  magn=  0.0219
     atom  43 (R=0.085)  charge=  1.7818  magn= -0.0013
     atom  44 (R=0.085)  charge=  1.7936  magn=  0.0032
     atom  45 (R=0.085)  charge=  1.7589  magn= -0.0001
     atom  46 (R=0.085)  charge=  1.7948  magn=  0.0214
     atom  47 (R=0.085)  charge=  1.7820  magn= -0.0013
     atom  48 (R=0.085)  charge=  1.7819  magn=  0.0184
     atom  49 (R=0.085)  charge=  1.8042  magn=  0.0094
     atom  50 (R=0.085)  charge=  1.7873  magn=  0.0212
     atom  51 (R=0.085)  charge=  1.7825  magn= -0.0013
     atom  52 (R=0.085)  charge=  1.7869  magn=  0.0218
     atom  53 (R=0.085)  charge=  1.7826  magn= -0.0013
     atom  54 (R=0.085)  charge=  1.7916  magn=  0.0032
     atom  55 (R=0.085)  charge=  1.7588  magn=  0.0001
     atom  56 (R=0.085)  charge=  1.7914  magn=  0.0009
     atom  57 (R=0.085)  charge=  1.7831  magn=  0.0010
     atom  58 (R=0.085)  charge=  1.7913  magn=  0.0018
     atom  59 (R=0.085)  charge=  1.7878  magn= -0.0009
     atom  60 (R=0.085)  charge=  1.7892  magn=  0.0017
     atom  61 (R=0.085)  charge=  1.7848  magn= -0.0009
     atom  62 (R=0.085)  charge=  1.7913  magn=  0.0019
     atom  63 (R=0.085)  charge=  1.7890  magn= -0.0009

     total cpu time spent up to now is       14.3 secs

     End of self-consistent calculation

 ------ SPIN UP ------------


          k = 0.0000 0.0000 0.0000 (  7386 PWs)   bands (ev):

    -8.5507  -6.9229  -6.2879  -6.2698  -6.1938  -6.1585  -5.8768  -4.9125
    -4.1444  -4.1294  -4.1241  -4.0933  -4.0303  -4.0190  -4.0156  -3.9171
    -3.8721  -3.8616  -3.3584  -2.9332  -2.6756  -2.6732  -2.1611  -0.3626
    -0.3533  -0.3270  -0.2814  -0.0795   0.1706   0.1928   0.2818   0.2998
     0.3671   0.6193   0.8356   0.8443   0.9527   0.9707   0.9851   1.0540
     1.0627   1.0652   1.2672   1.2981   3.0727   3.9077   3.9257   4.0703
     4.1900   4.2070   4.2216   4.2731   4.2833   4.2868   4.4212   4.4247
     4.4957   4.4991   4.5672   4.6600   4.6830   4.6864   4.6920   4.7862
     4.8000   4.9225   4.9677   4.9721   5.0508   5.1985   5.2108   5.3002
     5.3571   5.3729   5.3960   5.4021   5.4080   6.0406   6.0457   6.1003
     6.6611   6.6671   6.7266   6.9910   7.0041   7.0408   7.5251   8.3337
     8.3379   8.4110   8.4665   8.4909   8.6876   8.7095   8.7887   8.8344
     8.8472   8.8538   8.8922   8.8980   8.9020   9.2868   9.2883   9.3218
     9.6762   9.7021   9.8995   9.9112   9.9427   9.9608   9.9630   9.9803
     9.9858  10.0302  10.0371  10.0570  10.1284  10.1421  10.2689  10.3242
    10.3345  11.0532  12.2890  12.4170  12.4295  13.9570  14.6908  14.7986
    17.3457  17.3777  17.4062  17.5235  17.5755  17.5808  17.8502  17.9224
    17.9370  18.0345  18.0677  18.3697  18.9935  19.0011  19.0240  20.6927
    20.7910  20.8235  20.8807  20.9387  20.9457  21.0275  21.0319  21.0489

     occupation numbers 
     1.0000   1.0000   1.0000   1.0000   1.0000   1.0000   1.0000   1.0000
     1.0000   1.0000   1.0000   1.0000   1.0000   1.0000   1.0000   1.0000
     1.0000   1.0000   1.0000   1.0000   1.0000   1.0000   1.0000   1.0000
     1.0000   1.0000   1.0000   1.0000   1.0000   1.0000   1.0000   1.0000
     1.0000   1.0000   1.0000   1.0000   1.0000   1.0000   1.0000   1.0000
     1.0000   1.0000   1.0000   1.0000   1.0000   1.0000   1.0000   1.0000
     1.0000   1.0000   1.0000   1.0000   1.0000   1.0000   1.0000   1.0000
     1.0000   1.0000   1.0000   1.0000   1.0000   1.0000   1.0000   1.0000
     1.0000   1.0000   1.0000   1.0000   1.0000   1.0000   1.0000   1.0000
     1.0000   1.0000   1.0000   1.0000   1.0000   1.0000   1.0000   1.0000
     1.0000   1.0000   1.0000   1.0000   1.0000   1.0000   1.0000   1.0000
     1.0000   1.0000   1.0000   1.0000   1.0000   1.0000   1.0000   1.0000
     1.0000   1.0000   1.0000   1.0000   1.0000   1.0000   1.0000   1.0000
     1.0000   1.0000   1.0000   1.0000   1.0000   1.0000   1.0000   1.0000
     1.0000   1.0000   1.0000   1.0000   1.0000   1.0000   1.0000   1.0000
     1.0000   1.0000   1.0000   1.0000   1.0000   1.0000   1.0000   1.0000
     0.0000   0.0000   0.0000   0.0000   0.0000   0.0000   0.0000   0.0000
     0.0000   0.0000   0.0000   0.0000   0.0000   0.0000   0.0000   0.0000
     0.0000   0.0000   0.0000   0.0000   0.0000   0.0000   0.0000   0.0000

 ------ SPIN DOWN ----------


          k = 0.0000 0.0000 0.0000 (  7386 PWs)   bands (ev):

    -8.5253  -6.9085  -6.2659  -6.2464  -6.1492  -6.1159  -5.8395  -4.8958
    -4.1238  -4.1062  -4.0846  -4.0624  -3.9957  -3.9806  -3.9668  -3.9048
    -3.8363  -3.8203  -3.3161  -2.9146  -2.6229  -2.6198  -2.0162  -0.3451
    -0.3352  -0.3055  -0.2642  -0.0140   0.1896   0.2099   0.3196   0.3329
     0.3923   0.6541   0.8478   0.8560   0.9863   1.0008   1.0114   1.0709
     1.0778   1.0818   1.4329   1.4677   3.1863   3.9309   3.9479   4.0966
     4.2246   4.2498   4.2634   4.2882   4.3006   4.3147   4.4690   4.4711
     4.5173   4.5210   4.5906   4.6837   4.6995   4.7058   4.7130   4.8204
     4.8366   4.9360   5.0001   5.0028   5.1321   5.2325   5.2456   5.3240
     5.3724   5.3840   5.4162   5.4530   5.4698   6.1020   6.1059   6.1382
     6.6876   6.6945   6.7609   7.0778   7.0882   7.0994   7.6957   8.3722
     8.3769   8.4477   8.5020   8.5258   8.7222   8.7406   8.8244   8.8771
     8.8831   8.8893   8.9236   8.9305   8.9339   9.3230   9.3254   9.3492
     9.7040   9.7296   9.9296   9.9400   9.9541   9.9746   9.9771   9.9991
    10.0061  10.0638  10.0720  10.0771  10.1556  10.1678  10.3267  10.3785
    10.3888  11.4329  12.5543  12.5702  12.6032  14.4387  16.0162  16.1390
    17.3711  17.3955  17.4232  17.5508  17.6303  17.6379  17.8729  17.9419
    17.9552  18.0747  18.1081  18.4891  19.0436  19.0775  19.1113  20.7430
    20.8052  20.8375  20.8956  20.9568  20.9627  21.0442  21.0560  21.0696

     occupation numbers 
     1.0000   1.0000   1.0000   1.0000   1.0000   1.0000   1.0000   1.0000
     1.0000   1.0000   1.0000   1.0000   1.0000   1.0000   1.0000   1.0000
     1.0000   1.0000   1.0000   1.0000   1.0000   1.0000   1.0000   1.0000
     1.0000   1.0000   1.0000   1.0000   1.0000   1.0000   1.0000   1.0000
     1.0000   1.0000   1.0000   1.0000   1.0000   1.0000   1.0000   1.0000
     1.0000   1.0000   1.0000   1.0000   1.0000   1.0000   1.0000   1.0000
     1.0000   1.0000   1.0000   1.0000   1.0000   1.0000   1.0000   1.0000
     1.0000   1.0000   1.0000   1.0000   1.0000   1.0000   1.0000   1.0000
     1.0000   1.0000   1.0000   1.0000   1.0000   1.0000   1.0000   1.0000
     1.0000   1.0000   1.0000   1.0000   1.0000   1.0000   1.0000   1.0000
     1.0000   1.0000   1.0000   1.0000   1.0000   1.0000   1.0000   1.0000
     1.0000   1.0000   1.0000   1.0000   1.0000   1.0000   1.0000   1.0000
     1.0000   1.0000   1.0000   1.0000   1.0000   1.0000   1.0000   1.0000
     1.0000   1.0000   1.0000   1.0000   1.0000   1.0000   1.0000   1.0000
     1.0000   1.0000   1.0000   1.0000   1.0000   1.0000   1.0000   1.0000
     1.0000   1.0000   1.0000   1.0000   1.0000   1.0000   0.0000   0.0000
     0.0000   0.0000   0.0000   0.0000   0.0000   0.0000   0.0000   0.0000
     0.0000   0.0000   0.0000   0.0000   0.0000   0.0000   0.0000   0.0000
     0.0000   0.0000   0.0000   0.0000   0.0000   0.0000   0.0000   0.0000

     highest occupied, lowest unoccupied level (ev):    14.7986   16.0162

!    total energy              =    -723.90702224 Ry
     estimated scf accuracy    <          5.7E-09 Ry

     The total energy is the sum of the following terms:
     one-electron contribution =     232.28730950 Ry
     hartree contribution      =      70.33461901 Ry
     xc contribution           =    -226.77188530 Ry
     ewald contribution        =    -799.75706544 Ry

     total magnetization       =     2.00 Bohr mag/cell
     absolute magnetization    =     2.30 Bohr mag/cell

     convergence has been achieved in  14 iterations

     Forces acting on atoms (cartesian axes, Ry/au):

     atom    1 type  1   force =    -0.00274888   -0.00401500   -0.00261374
     atom    2 type  2   force =     0.03530447    0.01595234   -0.01264978
     atom    3 type  2   force =    -0.00926636    0.00866757    0.00621305
     atom    4 type  2   force =     0.00878182    0.02479216   -0.00276820
     atom    5 type  2   force =     0.00233181   -0.02123870    0.00163696
     atom    6 type  2   force =    -0.00832748    0.00820131    0.04325439
     atom    7 type  2   force =     0.01020644    0.01202728   -0.00211105
     atom    8 type  2   force =     0.00316064    0.00419325    0.00664961
     atom    9 type  2   force =    -0.00208707   -0.00474105   -0.00294077
     atom   10 type  2   force =     0.00079041    0.00136197    0.00743765
     atom   11 type  2   force =    -0.02806675    0.00531212   -0.00844631
     atom   12 type  2   force =    -0.00000067    0.00394932    0.00346727
     atom   13 type  2   force =    -0.00278964   -0.03992782   -0.00183772
     atom   14 type  2   force =     0.00343620    0.00211114   -0.00440450
     atom   15 type  2   force =    -0.00283298   -0.00135902   -0.00568858
     atom   16 type  2   force =     0.00415265   -0.00183494   -0.00016341
     atom   17 type  2   force =    -0.00079081    0.00601872    0.00086680
     atom   18 type  2   force =     0.00280572   -0.00021316    0.00091317
     atom   19 type  2   force =    -0.00913765   -0.00318582   -0.00523630
     atom   20 type  2   force =     0.00304450   -0.00426868    0.00364692
     atom   21 type  2   force =    -0.00109580   -0.00409913   -0.00211669
     atom   22 type  2   force =     0.00143204    0.00204433    0.00122035
     atom   23 type  2   force =    -0.00063747   -0.00713179   -0.00164598
     atom   24 type  2   force =     0.00957971    0.00541455    0.00434263
     atom   25 type  2   force =    -0.01173857   -0.01349951   -0.00465739
     atom   26 type  2   force =     0.01888535    0.00702191    0.00072115
     atom   27 type  2   force =    -0.02512385   -0.00792756   -0.00675874
     atom   28 type  2   force =     0.01050380    0.00073816    0.00594377
     atom   29 type  2   force =    -0.00010748   -0.00166451   -0.00127698
     atom   30 type  2   force =     0.00775202    0.00641711    0.00406918
     atom   31 type  2   force =     0.00100613   -0.00162417   -0.00349760
     atom   32 type  2   force =     0.00325988    0.00379292    0.00151459
     atom   33 type  2   force =     0.00057690   -0.00442877   -0.00011941
     atom   34 type  2   force =    -0.00473565    0.00171874    0.00357852
     atom   35 type  2   force =    -0.00496295   -0.00092749   -0.00329351
     atom   36 type  2   force =     0.00076628    0.00442212   -0.00004578
     atom   37 type  2   force =     0.00053313   -0.03262174   -0.00718117
     atom   38 type  2   force =     0.00693118    0.00166927   -0.00031086
     atom   39 type  2   force =    -0.01067004    0.00640226   -0.01405577
     atom   40 type  2   force =     0.00537342    0.01260554    0.00500600
     atom   41 type  2   force =    -0.00737216   -0.01545116   -0.00369953
     atom   42 type  2   force =    -0.00003730    0.01748009    0.00595712
     atom   43 type  2   force =    -0.00031805    0.00138532   -0.00067833
     atom   44 type  2   force =     0.00453971    0.01714761    0.00302068
     atom   45 type  2   force =    -0.00738874   -0.02653513   -0.00664827
     atom   46 type  2   force =     0.00662043    0.01599633    0.00106619
     atom   47 type  2   force =    -0.00181554    0.00092274   -0.00219176
     atom   48 type  2   force =     0.00483944    0.00550495    0.00783880
     atom   49 type  2   force =    -0.00739394   -0.01445484   -0.01076677
     atom   50 type  2   force =     0.00430862    0.00673697    0.00338930
     atom   51 type  2   force =    -0.00392871   -0.00179340    0.00026958
     atom   52 type  2   force =     0.00639482    0.00211336    0.00499169
     atom   53 type  2   force =    -0.00162837   -0.00303062   -0.00038661
     atom   54 type  2   force =     0.00650311    0.00462365    0.01318268
     atom   55 type  2   force =    -0.00777042   -0.00821502   -0.02455082
     atom   56 type  2   force =     0.00483569    0.00451772    0.00479883
     atom   57 type  2   force =    -0.00116711   -0.00034575   -0.00163514
     atom   58 type  2   force =     0.00145378    0.00410150    0.00327193
     atom   59 type  2   force =    -0.00066839   -0.00330155   -0.00406321
     atom   60 type  2   force =     0.00657744    0.00281597    0.00319729
     atom   61 type  2   force =    -0.02188430   -0.00150920   -0.00408203
     atom   62 type  2   force =     0.00397168    0.00446881    0.00110924
     atom   63 type  2   force =    -0.00416611   -0.00330357   -0.00005265
     The non-local contrib.  to forces
     atom    1 type  1   force =    -0.76060169   -0.76433558   -0.75914321
     atom    2 type  2   force =    -0.16490433    0.22085061    0.17750019
     atom    3 type  2   force =     0.05672970    0.08108182    0.07249360
     atom    4 type  2   force =     0.21498101   -0.18834280    0.19773556
     atom    5 type  2   force =     0.07291976    0.04253531    0.07016209
     atom    6 type  2   force =     0.17959573    0.20398307   -0.14635415
     atom    7 type  2   force =     0.07717899    0.08306942    0.06430028
     atom    8 type  2   force =    -0.00460292   -0.00506029    0.05719614
     atom    9 type  2   force =    -0.00561358   -0.00783200    0.01311549
     atom   10 type  2   force =    -0.04425179   -0.01421722   -0.01146458
     atom   11 type  2   force =    -0.10326957    0.06712278   -0.08310948
     atom   12 type  2   force =    -0.01716757   -0.04075183   -0.01460026
     atom   13 type  2   force =     0.05241248   -0.11647214   -0.07335303
     atom   14 type  2   force =     0.00268765    0.00052360    0.04559503
     atom   15 type  2   force =     0.00994647    0.00905770   -0.00374045
     atom   16 type  2   force =    -0.00862134    0.04809529   -0.01249387
     atom   17 type  2   force =    -0.00393569    0.02728212   -0.00272834
     atom   18 type  2   force =    -0.04087834   -0.02223433   -0.01566147
     atom   19 type  2   force =    -0.08112956   -0.07893988    0.05526682
     atom   20 type  2   force =     0.00470089    0.04477836    0.00532831
     atom   21 type  2   force =     0.01108219   -0.00321295    0.01119850
     atom   22 type  2   force =    -0.01467727   -0.02028452   -0.04259769
     atom   23 type  2   force =     0.06330697   -0.08458456   -0.07275372
     atom   24 type  2   force =    -0.06453769    0.03335861    0.03403607
     atom   25 type  2   force =    -0.02375914    0.00029527    0.01339581
     atom   26 type  2   force =    -0.03814310   -0.01998548   -0.02433925
     atom   27 type  2   force =    -0.14649547    0.12571044    0.12346287
     atom   28 type  2   force =     0.07988987    0.02352572   -0.01259168
     atom   29 type  2   force =     0.00049126    0.01842255    0.00494671
     atom   30 type  2   force =     0.07676481   -0.01314552    0.02864048
     atom   31 type  2   force =     0.00315380    0.00327847    0.01659216
     atom   32 type  2   force =     0.05299244   -0.00687889   -0.00722951
     atom   33 type  2   force =     0.01812815   -0.00722421   -0.00382565
     atom   34 type  2   force =     0.04474337    0.00112175    0.00380442
     atom   35 type  2   force =    -0.00361190    0.00894217    0.01031864
     atom   36 type  2   force =    -0.01868627   -0.03981007   -0.01738598
     atom   37 type  2   force =    -0.07132817   -0.10860483    0.04779173
     atom   38 type  2   force =    -0.01351078   -0.01336659   -0.04506924
     atom   39 type  2   force =    -0.08637668    0.07242283   -0.08861358
     atom   40 type  2   force =     0.03501667   -0.05848972    0.03549935
     atom   41 type  2   force =     0.00890842   -0.02634211    0.01419633
     atom   42 type  2   force =     0.02108254    0.08909420   -0.00970414
     atom   43 type  2   force =     0.01781967    0.00074690    0.00391605
     atom   44 type  2   force =    -0.02250489   -0.03708305   -0.02362825
     atom   45 type  2   force =     0.12486707   -0.14765113    0.12423439
     atom   46 type  2   force =    -0.01019284    0.08661476    0.02269739
     atom   47 type  2   force =     0.00368348    0.00012713    0.01517170
     atom   48 type  2   force =     0.03335445    0.03301365   -0.06831233
     atom   49 type  2   force =     0.00907554   -0.00007933   -0.02341139
     atom   50 type  2   force =     0.02982262   -0.01460199    0.07115465
     atom   51 type  2   force =     0.01697723    0.00357283    0.00338569
     atom   52 type  2   force =    -0.01406140    0.02639319    0.07299893
     atom   53 type  2   force =     0.00474176    0.01791012    0.00162942
     atom   54 type  2   force =    -0.01890516   -0.02132864   -0.04457162
     atom   55 type  2   force =     0.12378893    0.12553828   -0.14555363
     atom   56 type  2   force =     0.02298143    0.02408178    0.02231338
     atom   57 type  2   force =     0.00584082    0.00499413    0.00587955
     atom   58 type  2   force =     0.01595482   -0.00638011   -0.01007050
     atom   59 type  2   force =     0.00853592   -0.01478469   -0.01548236
     atom   60 type  2   force =    -0.00675257    0.01899581   -0.01086524
     atom   61 type  2   force =    -0.03741582    0.00935589   -0.01583833
     atom   62 type  2   force =    -0.00821275   -0.00576351    0.01534758
     atom   63 type  2   force =    -0.01537575   -0.01614487    0.00952909
     The ionic contribution  to forces
     atom    1 type  1   force =     2.98024319    2.95735041    2.99889550
     atom    2 type  2   force =     2.41113128   -2.06013715   -2.21486428
     atom    3 type  2   force =     0.48084959   -0.73082609   -0.85245267
     atom    4 type  2   force =    -2.08894892    2.33391675   -2.15712258
     atom    5 type  2   force =    -0.77764240    0.40102250   -0.82620869
     atom    6 type  2   force =    -2.18413093   -2.09944427    2.46048133
     atom    7 type  2   force =    -0.82102230   -0.74907327    0.53709641
     atom    8 type  2   force =     0.25571871    0.21552033   -0.72756816
     atom    9 type  2   force =     0.06605353    0.02646842   -0.22490973
     atom   10 type  2   force =     0.17783064    0.06863485    0.56464323
     atom   11 type  2   force =    -0.52360473   -0.63535768    0.80325905
     atom   12 type  2   force =     0.03062247    0.16167766    0.55004301
     atom   13 type  2   force =    -0.66085597   -0.56635329    0.76122362
     atom   14 type  2   force =    -0.19317235   -0.18046154   -0.71522264
     atom   15 type  2   force =    -0.16583234   -0.13064716   -0.06821751
     atom   16 type  2   force =     0.20108798   -0.80028246    0.25074315
     atom   17 type  2   force =     0.07564300   -0.15606137    0.10211717
     atom   18 type  2   force =     0.22085498    0.47010220    0.00475251
     atom   19 type  2   force =    -0.36176172    0.74898263   -0.70677880
     atom   20 type  2   force =    -0.17871762   -0.73096667   -0.18915513
     atom   21 type  2   force =    -0.17224723   -0.05789172   -0.20024395
     atom   22 type  2   force =     0.03517687    0.48091673    0.23972953
     atom   23 type  2   force =    -0.68556536    0.77832319   -0.33157293
     atom   24 type  2   force =     0.10384652   -0.13748642   -0.17308878
     atom   25 type  2   force =    -0.02145593   -0.07924314   -0.07864351
     atom   26 type  2   force =     0.13043548   -0.06852630   -0.07469458
     atom   27 type  2   force =     1.14463836    0.25209749    0.25022753
     atom   28 type  2   force =    -0.07430858   -0.13835625    0.11032172
     atom   29 type  2   force =    -0.14554629    0.03123802    0.25695371
     atom   30 type  2   force =    -0.01764580    0.13870126   -0.23598758
     atom   31 type  2   force =    -0.15007031    0.17290979   -0.00830461
     atom   32 type  2   force =    -0.74138164    0.19409700    0.26169281
     atom   33 type  2   force =    -0.20195245    0.02972135    0.09068050
     atom   34 type  2   force =    -0.71664799   -0.17574399   -0.19971904
     atom   35 type  2   force =    -0.06336210   -0.13323339   -0.19796181
     atom   36 type  2   force =     0.51399990    0.17449840    0.00253943
     atom   37 type  2   force =     0.73523724   -0.50014155   -0.69218579
     atom   38 type  2   force =     0.53705873    0.07359706    0.20791294
     atom   39 type  2   force =     0.80290731   -0.63787267   -0.43114373
     atom   40 type  2   force =    -0.19562115    0.06188538   -0.20943716
     atom   41 type  2   force =    -0.07037669   -0.08775162   -0.06780706
     atom   42 type  2   force =    -0.12900088    0.02807494    0.08965944
     atom   43 type  2   force =     0.03724545   -0.10583943    0.25402302
     atom   44 type  2   force =    -0.07378113    0.12031293   -0.05331907
     atom   45 type  2   force =     0.24104817    1.15927924    0.24816063
     atom   46 type  2   force =     0.09883588    0.05112431   -0.16937330
     atom   47 type  2   force =     0.21808560   -0.11431619    0.01665046
     atom   48 type  2   force =    -0.12410774   -0.10840174    0.13524648
     atom   49 type  2   force =    -0.07041083   -0.08154490   -0.00094232
     atom   50 type  2   force =    -0.23439137    0.15245589   -0.08409710
     atom   51 type  2   force =    -0.00961910    0.17371666   -0.18039680
     atom   52 type  2   force =     0.13689148   -0.17608913   -0.12414931
     atom   53 type  2   force =     0.22522700    0.01350692   -0.18206223
     atom   54 type  2   force =    -0.06132781   -0.11635158    0.11362705
     atom   55 type  2   force =     0.23951672    0.24275055    1.13196906
     atom   56 type  2   force =    -0.08886710   -0.02959911   -0.12354865
     atom   57 type  2   force =    -0.01826156   -0.03457487   -0.01137341
     atom   58 type  2   force =    -0.06923222    0.04569060    0.04250365
     atom   59 type  2   force =    -0.28052879    0.06894457    0.15395835
     atom   60 type  2   force =     0.06151595   -0.01046958    0.08448748
     atom   61 type  2   force =     0.06344996   -0.30407045    0.15944728
     atom   62 type  2   force =     0.02809261    0.03594372   -0.09695247
     atom   63 type  2   force =     0.11815473    0.07365327   -0.27354068
     The local contribution  to forces
     atom    1 type  1   force =    -2.22245556   -2.19701918   -2.24242834
     atom    2 type  2   force =    -2.21099606    1.85523115    2.02465293
     atom    3 type  2   force =    -0.54694414    0.65836912    0.78609920
     atom    4 type  2   force =     1.88266135   -2.12078382    1.95656215
     atom    5 type  2   force =     0.70695264   -0.46479852    0.75763421
     atom    6 type  2   force =     1.99611636    1.90365716   -2.27093899
     atom    7 type  2   force =     0.75394301    0.67800780   -0.60358338
     atom    8 type  2   force =    -0.24801977   -0.20625266    0.67696326
     atom    9 type  2   force =    -0.06259496   -0.02337572    0.20879122
     atom   10 type  2   force =    -0.13284683   -0.05307299   -0.54579976
     atom   11 type  2   force =     0.59874378    0.57351825   -0.72864723
     atom   12 type  2   force =    -0.01353621   -0.11698176   -0.53203383
     atom   13 type  2   force =     0.60555484    0.64289471   -0.68977414
     atom   14 type  2   force =     0.19382130    0.18203434    0.66516831
     atom   15 type  2   force =     0.15294415    0.12019698    0.06622673
     atom   16 type  2   force =    -0.18837788    0.75030105   -0.23846250
     atom   17 type  2   force =    -0.07256807    0.13474022   -0.09858762
     atom   18 type  2   force =    -0.17723357   -0.44812101    0.01175229
     atom   19 type  2   force =     0.43368389   -0.67324201    0.64622099
     atom   20 type  2   force =     0.17696176    0.68187460    0.18740525
     atom   21 type  2   force =     0.15996169    0.05696949    0.18686607
     atom   22 type  2   force =    -0.01914472   -0.45862593   -0.19598253
     atom   23 type  2   force =     0.62153141   -0.70089652    0.40260353
     atom   24 type  2   force =    -0.02979111    0.10948339    0.14332383
     atom   25 type  2   force =     0.03341125    0.06540234    0.06053571
     atom   26 type  2   force =    -0.07347394    0.09550519    0.09970378
     atom   27 type  2   force =    -1.02333970   -0.38574789   -0.38050946
     atom   28 type  2   force =     0.00484349    0.11552522   -0.09183827
     atom   29 type  2   force =     0.14485320   -0.05136975   -0.26323421
     atom   30 type  2   force =    -0.05144525   -0.11917319    0.21136478
     atom   31 type  2   force =     0.14782572   -0.17782611   -0.01183707
     atom   32 type  2   force =     0.69154992   -0.18343765   -0.25302152
     atom   33 type  2   force =     0.18431155   -0.02692700   -0.08704001
     atom   34 type  2   force =     0.66707425    0.17632799    0.19942648
     atom   35 type  2   force =     0.06193082    0.12332407    0.18427936
     atom   36 type  2   force =    -0.49462734   -0.13025062    0.01472932
     atom   37 type  2   force =    -0.66343508    0.57615204    0.63713605
     atom   38 type  2   force =    -0.51669507   -0.05857619   -0.16320067
     atom   39 type  2   force =    -0.72725859    0.57180738    0.50566054
     atom   40 type  2   force =     0.16586920    0.00920427    0.17889730
     atom   41 type  2   force =     0.05399032    0.09863152    0.04985563
     atom   42 type  2   force =     0.10776483   -0.09970433   -0.07405228
     atom   43 type  2   force =    -0.05549502    0.10645445   -0.25866913
     atom   44 type  2   force =     0.10073323   -0.06609597    0.07991651
     atom   45 type  2   force =    -0.37337210   -1.03817525   -0.37909013
     atom   46 type  2   force =    -0.08209641   -0.12175732    0.14766551
     atom   47 type  2   force =    -0.22364803    0.11507697   -0.03408889
     atom   48 type  2   force =     0.09548407    0.08085856   -0.05916625
     atom   49 type  2   force =     0.05383669    0.06712503    0.01350595
     atom   50 type  2   force =     0.20876482   -0.13115144    0.01626050
     atom   51 type  2   force =    -0.01139831   -0.17909049    0.17722242
     atom   52 type  2   force =    -0.11650848    0.15174491    0.05607341
     atom   53 type  2   force =    -0.23165960   -0.03451439    0.17997997
     atom   54 type  2   force =     0.08663973    0.14227303   -0.05594832
     atom   55 type  2   force =    -0.37114885   -0.37650749   -1.01104520
     atom   56 type  2   force =     0.07061223    0.00999681    0.10598359
     atom   57 type  2   force =     0.01114769    0.02920001    0.00381856
     atom   58 type  2   force =     0.05462833   -0.03523942   -0.02920944
     atom   59 type  2   force =     0.27122234   -0.05748332   -0.14259815
     atom   60 type  2   force =    -0.04828051   -0.00573943   -0.07047495
     atom   61 type  2   force =    -0.04799732    0.29316972   -0.14774550
     atom   62 type  2   force =    -0.01600068   -0.02574271    0.08267235
     atom   63 type  2   force =    -0.10702102   -0.06082410    0.26391728
     The core correction contribution to forces
     atom    1 type  1   force =     0.00000000    0.00000000    0.00000000
     atom    2 type  2   force =     0.00000000    0.00000000    0.00000000
     atom    3 type  2   force =     0.00000000    0.00000000    0.00000000
     atom    4 type  2   force =     0.00000000    0.00000000    0.00000000
     atom    5 type  2   force =     0.00000000    0.00000000    0.00000000
     atom    6 type  2   force =     0.00000000    0.00000000    0.00000000
     atom    7 type  2   force =     0.00000000    0.00000000    0.00000000
     atom    8 type  2   force =     0.00000000    0.00000000    0.00000000
     atom    9 type  2   force =     0.00000000    0.00000000    0.00000000
     atom   10 type  2   force =     0.00000000    0.00000000    0.00000000
     atom   11 type  2   force =     0.00000000    0.00000000    0.00000000
     atom   12 type  2   force =     0.00000000    0.00000000    0.00000000
     atom   13 type  2   force =     0.00000000    0.00000000    0.00000000
     atom   14 type  2   force =     0.00000000    0.00000000    0.00000000
     atom   15 type  2   force =     0.00000000    0.00000000    0.00000000
     atom   16 type  2   force =     0.00000000    0.00000000    0.00000000
     atom   17 type  2   force =     0.00000000    0.00000000    0.00000000
     atom   18 type  2   force =     0.00000000    0.00000000    0.00000000
     atom   19 type  2   force =     0.00000000    0.00000000    0.00000000
     atom   20 type  2   force =     0.00000000    0.00000000    0.00000000
     atom   21 type  2   force =     0.00000000    0.00000000    0.00000000
     atom   22 type  2   force =     0.00000000    0.00000000    0.00000000
     atom   23 type  2   force =     0.00000000    0.00000000    0.00000000
     atom   24 type  2   force =     0.00000000    0.00000000    0.00000000
     atom   25 type  2   force =     0.00000000    0.00000000    0.00000000
     atom   26 type  2   force =     0.00000000    0.00000000    0.00000000
     atom   27 type  2   force =     0.00000000    0.00000000    0.00000000
     atom   28 type  2   force =     0.00000000    0.00000000    0.00000000
     atom   29 type  2   force =     0.00000000    0.00000000    0.00000000
     atom   30 type  2   force =     0.00000000    0.00000000    0.00000000
     atom   31 type  2   force =     0.00000000    0.00000000    0.00000000
     atom   32 type  2   force =     0.00000000    0.00000000    0.00000000
     atom   33 type  2   force =     0.00000000    0.00000000    0.00000000
     atom   34 type  2   force =     0.00000000    0.00000000    0.00000000
     atom   35 type  2   force =     0.00000000    0.00000000    0.00000000
     atom   36 type  2   force =     0.00000000    0.00000000    0.00000000
     atom   37 type  2   force =     0.00000000    0.00000000    0.00000000
     atom   38 type  2   force =     0.00000000    0.00000000    0.00000000
     atom   39 type  2   force =     0.00000000    0.00000000    0.00000000
     atom   40 type  2   force =     0.00000000    0.00000000    0.00000000
     atom   41 type  2   force =     0.00000000    0.00000000    0.00000000
     atom   42 type  2   force =     0.00000000    0.00000000    0.00000000
     atom   43 type  2   force =     0.00000000    0.00000000    0.00000000
     atom   44 type  2   force =     0.00000000    0.00000000    0.00000000
     atom   45 type  2   force =     0.00000000    0.00000000    0.00000000
     atom   46 type  2   force =     0.00000000    0.00000000    0.00000000
     atom   47 type  2   force =     0.00000000    0.00000000    0.00000000
     atom   48 type  2   force =     0.00000000    0.00000000    0.00000000
     atom   49 type  2   force =     0.00000000    0.00000000    0.00000000
     atom   50 type  2   force =     0.00000000    0.00000000    0.00000000
     atom   51 type  2   force =     0.00000000    0.00000000    0.00000000
     atom   52 type  2   force =     0.00000000    0.00000000    0.00000000
     atom   53 type  2   force =     0.00000000    0.00000000    0.00000000
     atom   54 type  2   force =     0.00000000    0.00000000    0.00000000
     atom   55 type  2   force =     0.00000000    0.00000000    0.00000000
     atom   56 type  2   force =     0.00000000    0.00000000    0.00000000
     atom   57 type  2   force =     0.00000000    0.00000000    0.00000000
     atom   58 type  2   force =     0.00000000    0.00000000    0.00000000
     atom   59 type  2   force =     0.00000000    0.00000000    0.00000000
     atom   60 type  2   force =     0.00000000    0.00000000    0.00000000
     atom   61 type  2   force =     0.00000000    0.00000000    0.00000000
     atom   62 type  2   force =     0.00000000    0.00000000    0.00000000
     atom   63 type  2   force =     0.00000000    0.00000000    0.00000000
     The Hubbard contrib.    to forces
     atom    1 type  1   force =     0.00000000    0.00000000    0.00000000
     atom    2 type  2   force =     0.00000000    0.00000000    0.00000000
     atom    3 type  2   force =     0.00000000    0.00000000    0.00000000
     atom    4 type  2   force =     0.00000000    0.00000000    0.00000000
     atom    5 type  2   force =     0.00000000    0.00000000    0.00000000
     atom    6 type  2   force =     0.00000000    0.00000000    0.00000000
     atom    7 type  2   force =     0.00000000    0.00000000    0.00000000
     atom    8 type  2   force =     0.00000000    0.00000000    0.00000000
     atom    9 type  2   force =     0.00000000    0.00000000    0.00000000
     atom   10 type  2   force =     0.00000000    0.00000000    0.00000000
     atom   11 type  2   force =     0.00000000    0.00000000    0.00000000
     atom   12 type  2   force =     0.00000000    0.00000000    0.00000000
     atom   13 type  2   force =     0.00000000    0.00000000    0.00000000
     atom   14 type  2   force =     0.00000000    0.00000000    0.00000000
     atom   15 type  2   force =     0.00000000    0.00000000    0.00000000
     atom   16 type  2   force =     0.00000000    0.00000000    0.00000000
     atom   17 type  2   force =     0.00000000    0.00000000    0.00000000
     atom   18 type  2   force =     0.00000000    0.00000000    0.00000000
     atom   19 type  2   force =     0.00000000    0.00000000    0.00000000
     atom   20 type  2   force =     0.00000000    0.00000000    0.00000000
     atom   21 type  2   force =     0.00000000    0.00000000    0.00000000
     atom   22 type  2   force =     0.00000000    0.00000000    0.00000000
     atom   23 type  2   force =     0.00000000    0.00000000    0.00000000
     atom   24 type  2   force =     0.00000000    0.00000000    0.00000000
     atom   25 type  2   force =     0.00000000    0.00000000    0.00000000
     atom   26 type  2   force =     0.00000000    0.00000000    0.00000000
     atom   27 type  2   force =     0.00000000    0.00000000    0.00000000
     atom   28 type  2   force =     0.00000000    0.00000000    0.00000000
     atom   29 type  2   force =     0.00000000    0.00000000    0.00000000
     atom   30 type  2   force =     0.00000000    0.00000000    0.00000000
     atom   31 type  2   force =     0.00000000    0.00000000    0.00000000
     atom   32 type  2   force =     0.00000000    0.00000000    0.00000000
     atom   33 type  2   force =     0.00000000    0.00000000    0.00000000
     atom   34 type  2   force =     0.00000000    0.00000000    0.00000000
     atom   35 type  2   force =     0.00000000    0.00000000    0.00000000
     atom   36 type  2   force =     0.00000000    0.00000000    0.00000000
     atom   37 type  2   force =     0.00000000    0.00000000    0.00000000
     atom   38 type  2   force =     0.00000000    0.00000000    0.00000000
     atom   39 type  2   force =     0.00000000    0.00000000    0.00000000
     atom   40 type  2   force =     0.00000000    0.00000000    0.00000000
     atom   41 type  2   force =     0.00000000    0.00000000    0.00000000
     atom   42 type  2   force =     0.00000000    0.00000000    0.00000000
     atom   43 type  2   force =     0.00000000    0.00000000    0.00000000
     atom   44 type  2   force =     0.00000000    0.00000000    0.00000000
     atom   45 type  2   force =     0.00000000    0.00000000    0.00000000
     atom   46 type  2   force =     0.00000000    0.00000000    0.00000000
     atom   47 type  2   force =     0.00000000    0.00000000    0.00000000
     atom   48 type  2   force =     0.00000000    0.00000000    0.00000000
     atom   49 type  2   force =     0.00000000    0.00000000    0.00000000
     atom   50 type  2   force =     0.00000000    0.00000000    0.00000000
     atom   51 type  2   force =     0.00000000    0.00000000    0.00000000
     atom   52 type  2   force =     0.00000000    0.00000000    0.00000000
     atom   53 type  2   force =     0.00000000    0.00000000    0.00000000
     atom   54 type  2   force =     0.00000000    0.00000000    0.00000000
     atom   55 type  2   force =     0.00000000    0.00000000    0.00000000
     atom   56 type  2   force =     0.00000000    0.00000000    0.00000000
     atom   57 type  2   force =     0.00000000    0.00000000    0.00000000
     atom   58 type  2   force =     0.00000000    0.00000000    0.00000000
     atom   59 type  2   force =     0.00000000    0.00000000    0.00000000
     atom   60 type  2   force =     0.00000000    0.00000000    0.00000000
     atom   61 type  2   force =     0.00000000    0.00000000    0.00000000
     atom   62 type  2   force =     0.00000000    0.00000000    0.00000000
     atom   63 type  2   force =     0.00000000    0.00000000    0.00000000
     The SCF correction term to forces
     atom    1 type  1   force =    -0.00002107   -0.00003357    0.00000213
     atom    2 type  2   force =    -0.00001267   -0.00001519    0.00000119
     atom    3 type  2   force =     0.00001223    0.00001980    0.00001275
     atom    4 type  2   force =     0.00000212   -0.00002090   -0.00000351
     atom    5 type  2   force =     0.00001554   -0.00002093   -0.00001082
     atom    6 type  2   force =     0.00000510   -0.00001758    0.00000601
     atom    7 type  2   force =     0.00002048    0.00000040    0.00001545
     atom    8 type  2   force =    -0.00002163   -0.00003705   -0.00000180
     atom    9 type  2   force =    -0.00001832   -0.00002469    0.00000207
     atom   10 type  2   force =    -0.00002788   -0.00000560   -0.00000142
     atom   11 type  2   force =    -0.00002249    0.00000584   -0.00000883
     atom   12 type  2   force =    -0.00000562   -0.00001767   -0.00000183
     atom   13 type  2   force =     0.00001275   -0.00002002    0.00000564
     atom   14 type  2   force =     0.00001335   -0.00000818   -0.00000538
     atom   15 type  2   force =     0.00002247    0.00001053   -0.00001754
     atom   16 type  2   force =    -0.00002236    0.00002825   -0.00001037
     atom   17 type  2   force =    -0.00001632    0.00003483    0.00000541
     atom   18 type  2   force =    -0.00002361    0.00001704    0.00000966
     atom   19 type  2   force =    -0.00001652   -0.00000948   -0.00000550
     atom   20 type  2   force =     0.00001321    0.00002210    0.00000831
     atom   21 type  2   force =     0.00002129    0.00001312    0.00000251
     atom   22 type  2   force =    -0.00000911    0.00001513    0.00001086
     atom   23 type  2   force =     0.00000325    0.00000317    0.00001696
     atom   24 type  2   force =    -0.00002427    0.00003604    0.00001133
     atom   25 type  2   force =    -0.00002101    0.00002310   -0.00000557
     atom   26 type  2   force =    -0.00001934    0.00000557   -0.00000898
     atom   27 type  2   force =    -0.00001331   -0.00001053    0.00000015
     atom   28 type  2   force =    -0.00000724    0.00002054   -0.00000818
     atom   29 type  2   force =     0.00000809    0.00002175   -0.00000337
     atom   30 type  2   force =    -0.00000800    0.00001163   -0.00000868
     atom   31 type  2   force =     0.00001067   -0.00000924   -0.00000826
     atom   32 type  2   force =     0.00001291   -0.00001046    0.00001263
     atom   33 type  2   force =     0.00000339   -0.00002184    0.00000558
     atom   34 type  2   force =     0.00000846   -0.00000994    0.00000648
     atom   35 type  2   force =    -0.00000603    0.00001673    0.00001011
     atom   36 type  2   force =    -0.00000627   -0.00003851    0.00001127
     atom   37 type  2   force =    -0.00002712   -0.00005032    0.00001666
     atom   38 type  2   force =    -0.00000796   -0.00000794   -0.00001407
     atom   39 type  2   force =    -0.00002834    0.00002179   -0.00001918
     atom   40 type  2   force =     0.00002245   -0.00001731   -0.00001367
     atom   41 type  2   force =     0.00001952   -0.00001187   -0.00000461
     atom   42 type  2   force =     0.00002994   -0.00000764   -0.00000607
     atom   43 type  2   force =     0.00002559    0.00000046   -0.00000844
     atom   44 type  2   force =     0.00000625   -0.00000923   -0.00000869
     atom   45 type  2   force =    -0.00001814   -0.00001091   -0.00001334
     atom   46 type  2   force =    -0.00001247   -0.00000835    0.00001641
     atom   47 type  2   force =    -0.00002285    0.00001191    0.00001480
     atom   48 type  2   force =     0.00002241    0.00001154    0.00001073
     atom   49 type  2   force =     0.00001841    0.00002143    0.00002080
     atom   50 type  2   force =     0.00002629    0.00001158    0.00001107
     atom   51 type  2   force =     0.00002521   -0.00001532   -0.00000190
     atom   52 type  2   force =    -0.00001303    0.00004146    0.00000849
     atom   53 type  2   force =    -0.00002379    0.00004380    0.00000606
     atom   54 type  2   force =     0.00001009    0.00000791    0.00001540
     atom   55 type  2   force =    -0.00001348   -0.00001929    0.00001877
     atom   56 type  2   force =     0.00002288    0.00001531   -0.00000967
     atom   57 type  2   force =     0.00001968    0.00001205   -0.00002001
     atom   58 type  2   force =     0.00001660    0.00000750   -0.00001195
     atom   59 type  2   force =     0.00001589   -0.00000104   -0.00000123
     atom   60 type  2   force =     0.00000832    0.00000624   -0.00001017
     atom   61 type  2   force =    -0.00000737    0.00001271   -0.00000567
     atom   62 type  2   force =     0.00000625    0.00000838   -0.00001840
     atom   63 type  2   force =    -0.00001034   -0.00001079   -0.00001852

     Total force =     0.129043     Total SCF correction =     0.000226

     Writing all to output data dir ./pwscf.save/ :
     XML data file, charge density, pseudopotentials, collected wavefunctions
 
     init_run     :      0.69s CPU      0.75s WALL (       1 calls)
     electrons    :     12.89s CPU     13.31s WALL (       1 calls)
     forces       :      0.04s CPU      0.04s WALL (       1 calls)

     Called by init_run:
     wfcinit      :      0.11s CPU      0.14s WALL (       1 calls)
     wfcinit:wfcr :      0.11s CPU      0.13s WALL (       1 calls)
     potinit      :      0.41s CPU      0.41s WALL (       1 calls)
     hinit0       :      0.02s CPU      0.05s WALL (       1 calls)

     Called by electrons:
     c_bands      :      8.05s CPU      8.42s WALL (      14 calls)
     sum_band     :      2.41s CPU      2.42s WALL (      14 calls)
     v_of_rho     :      0.69s CPU      0.70s WALL (      15 calls)
     v_h          :      0.01s CPU      0.01s WALL (      15 calls)
     v_xc         :      0.68s CPU      0.69s WALL (      15 calls)
     mix_rho      :      0.11s CPU      0.11s WALL (      14 calls)

     Called by c_bands:
     init_us_2    :      0.02s CPU      0.02s WALL (      30 calls)
     regterg      :      7.70s CPU      8.07s WALL (      14 calls)

     Called by sum_band:
     sum_band:wei :      0.05s CPU      0.05s WALL (      14 calls)
     sum_band:loo :      2.15s CPU      2.16s WALL (      14 calls)
     sum_band:buf :      0.00s CPU      0.00s WALL (      14 calls)
     sum_band:ini :      0.01s CPU      0.01s WALL (      14 calls)

     Called by *egterg:
     rdiaghg      :      4.19s CPU      4.38s WALL (     273 calls)
     regterg:over :      0.59s CPU      0.65s WALL (     259 calls)
     regterg:upda :      0.35s CPU      0.38s WALL (     259 calls)
     regterg:last :      0.23s CPU      0.23s WALL (      51 calls)
     rdiaghg:chol :      0.14s CPU      0.15s WALL (     273 calls)
     rdiaghg:inve :      0.03s CPU      0.03s WALL (     273 calls)
     rdiaghg:para :      0.38s CPU      0.41s WALL (     546 calls)
     h_psi        :      2.27s CPU      2.34s WALL (     274 calls)
     g_psi        :      0.00s CPU      0.00s WALL (     259 calls)

     Called by h_psi:
     h_psi:calbec :      0.31s CPU      0.35s WALL (     274 calls)
     vloc_psi     :      1.85s CPU      1.88s WALL (     274 calls)
                                        0.00s GPU  (     274 calls)
     add_vuspsi   :      0.10s CPU      0.11s WALL (     274 calls)

     General routines
     calbec       :      0.33s CPU      0.37s WALL (     278 calls)
     fft          :      0.47s CPU      0.50s WALL (     196 calls)
     ffts         :      0.01s CPU      0.02s WALL (      14 calls)
     fftw         :      3.89s CPU      3.93s WALL (   10082 calls)
 
     Parallel routines
 
     PWSCF        :     14.54s CPU     15.14s WALL

 
   This run was terminated on:  17:17:46  16Nov2025            

=------------------------------------------------------------------------------=
   JOB DONE.
=------------------------------------------------------------------------------=
