
     Program PWSCF v.7.5 starts on 16Nov2025 at 16: 6: 4 

     This program is part of the open-source Quantum ESPRESSO suite
     for quantum simulation of materials; please cite
         "P. Giannozzi et al., J. Phys.:Condens. Matter 21 395502 (2009);
         "P. Giannozzi et al., J. Phys.:Condens. Matter 29 465901 (2017);
         "P. Giannozzi et al., J. Chem. Phys. 152 154105 (2020);
          URL http://www.quantum-espresso.org", 
     in publications or presentations arising from this work. More details at
     http://www.quantum-espresso.org/quote

     Parallel version (MPI), running on    96 processors

     MPI processes distributed on     2 nodes
     174765 MiB available memory on the printing compute node when the environment starts
 
     Reading input from supercell-132.in

     Current dimensions of program PWSCF are:
     Max number of different atomic species (ntypx) = 10
     Max number of k-points (npk) =  40000
     Max angular momentum in pseudopotentials (lmaxx) =  4

     gamma-point specific algorithms are used
 
     K-points division:     npool     =       2
     R & G space division:  proc/nbgrp/npool/nimage =      48
     Subspace diagonalization in iterative solution of the eigenvalue problem:
     one sub-group per band group will be used
     scalapack distributed-memory algorithm (size of sub-group:  2*  2 procs)

 
     Parallelization info
     --------------------
     sticks:   dense  smooth     PW     G-vecs:    dense   smooth      PW
     Min          59      59     14                 2432     2432     302
     Max          62      62     16                 2442     2442     316
     Sum        2885    2885    725               116921   116921   14771
 
     Using Slab Decomposition
 


     bravais-lattice index     =            0
     lattice parameter (alat)  =      13.4813  a.u.
     unit-cell volume          =    2450.1683 (a.u.)^3
     number of atoms/cell      =           63
     number of atomic types    =            2
     number of electrons       =       254.00 (up: 128.00, down: 126.00)
     number of Kohn-Sham states=          152
     kinetic-energy cutoff     =      50.0000  Ry
     charge density cutoff     =     200.0000  Ry
     scf convergence threshold =      1.0E-08
     mixing beta               =       0.7000
     number of iterations used =            8  plain     mixing
     Exchange-correlation= PBE
                           (   1   4   3   4   0   0   0)

     celldm(1)=  13.481306  celldm(2)=   0.000000  celldm(3)=   0.000000
     celldm(4)=   0.000000  celldm(5)=   0.000000  celldm(6)=   0.000000

     crystal axes: (cart. coord. in units of alat)
               a(1) = (   1.000000   0.000000   0.000000 )  
               a(2) = (   0.000000   1.000000   0.000000 )  
               a(3) = (   0.000000   0.000000   1.000000 )  

     reciprocal axes: (cart. coord. in units 2 pi/alat)
               b(1) = (  1.000000  0.000000  0.000000 )  
               b(2) = (  0.000000  1.000000  0.000000 )  
               b(3) = (  0.000000  0.000000  1.000000 )  


     PseudoPot. # 1 for N  read from file:
     ./N_ONCV_PBE-1.2.upf
     MD5 check sum: 5312fdf34e96954e02a33bdc911c617a
     Pseudo is Norm-conserving, Zval =  5.0
     Generated using ONCVPSP code by D. R. Hamann
     Using radial grid of  602 points,  4 beta functions with: 
                l(1) =   0
                l(2) =   0
                l(3) =   1
                l(4) =   1

     PseudoPot. # 2 for C  read from file:
     ./C_ONCV_PBE-1.2.upf
     MD5 check sum: d60b57d9bdca4133f5fde4b584ee909d
     Pseudo is Norm-conserving, Zval =  4.0
     Generated using ONCVPSP code by D. R. Hamann
     Using radial grid of  602 points,  4 beta functions with: 
                l(1) =   0
                l(2) =   0
                l(3) =   1
                l(4) =   1

     atomic species   valence    mass     pseudopotential
     N                 5.00    14.00670     N ( 1.00)
     C                 4.00    12.01070     C ( 1.00)

     Starting magnetic structure 
     atomic species   magnetization
     N               0.000
     C               0.000

     No symmetry found


                                    s                        frac. trans.

      isym =  1     identity                                     

 cryst.   s( 1) = (     1          0          0      )
                  (     0          1          0      )
                  (     0          0          1      )

 cart.    s( 1) = (  1.0000000  0.0000000  0.0000000 )
                  (  0.0000000  1.0000000  0.0000000 )
                  (  0.0000000  0.0000000  1.0000000 )


   Cartesian axes

     site n.     atom                  positions (alat units)
         1        N      tau(   1) = (   0.9893819   0.9897344   0.9891721  )
         2        C      tau(   2) = (   0.9870277   0.2601210   0.2640728  )
         3        C      tau(   3) = (   0.1231717   0.3731672   0.3742038  )
         4        C      tau(   4) = (   0.2603919   0.9894620   0.2619202  )
         5        C      tau(   5) = (   0.3737632   0.1246771   0.3741571  )
         6        C      tau(   6) = (   0.2640151   0.2616009   0.9853609  )
         7        C      tau(   7) = (   0.3737752   0.3731213   0.1223564  )
         8        C      tau(   8) = (   0.0000049   0.0005840   0.4991361  )
         9        C      tau(   9) = (   0.1251361   0.1251278   0.6250981  )
        10        C      tau(  10) = (   0.0020393   0.2482470   0.7515266  )
        11        C      tau(  11) = (   0.1292009   0.3733021   0.8763303  )
        12        C      tau(  12) = (   0.2487801   0.0017974   0.7514403  )
        13        C      tau(  13) = (   0.3754339   0.1292460   0.8748544  )
        14        C      tau(  14) = (   0.2491579   0.2495268   0.4995755  )
        15        C      tau(  15) = (   0.3750038   0.3749547   0.6244069  )
        16        C      tau(  16) = (   0.0016366   0.4979779   0.0013734  )
        17        C      tau(  17) = (   0.1250869   0.6243147   0.1250807  )
        18        C      tau(  18) = (   0.0014462   0.7520697   0.2483230  )
        19        C      tau(  19) = (   0.1266755   0.8769178   0.3741906  )
        20        C      tau(  20) = (   0.2488290   0.4983596   0.2486760  )
        21        C      tau(  21) = (   0.3741642   0.6242659   0.3742111  )
        22        C      tau(  22) = (   0.2480673   0.7520817   0.0000612  )
        23        C      tau(  23) = (   0.3729914   0.8777475   0.1265606  )
        24        C      tau(  24) = (   0.0000493   0.5010760   0.5011299  )
        25        C      tau(  25) = (   0.1252054   0.6262200   0.6252733  )
        26        C      tau(  26) = (   0.9993969   0.7487112   0.7492532  )
        27        C      tau(  27) = (   0.1217927   0.8768349   0.8763928  )
        28        C      tau(  28) = (   0.2492749   0.5017254   0.7482724  )
        29        C      tau(  29) = (   0.3741000   0.6263042   0.8750769  )
        30        C      tau(  30) = (   0.2487293   0.7486845   0.5007616  )
        31        C      tau(  31) = (   0.3739266   0.8750581   0.6258828  )
        32        C      tau(  32) = (   0.4987543   0.0011228   0.0002828  )
        33        C      tau(  33) = (   0.6248203   0.1251003   0.1251034  )
        34        C      tau(  34) = (   0.4991217   0.2493918   0.2488717  )
        35        C      tau(  35) = (   0.6243080   0.3746888   0.3747831  )
        36        C      tau(  36) = (   0.7516460   0.0016191   0.2487956  )
        37        C      tau(  37) = (   0.8750430   0.1283649   0.3757598  )
        38        C      tau(  38) = (   0.7517475   0.2480080   0.0019610  )
        39        C      tau(  39) = (   0.8773622   0.3724247   0.1282033  )
        40        C      tau(  40) = (   0.5008161   0.9999897   0.5008301  )
        41        C      tau(  41) = (   0.6256173   0.1249721   0.6252590  )
        42        C      tau(  42) = (   0.5022259   0.2488088   0.7478265  )
        43        C      tau(  43) = (   0.6264784   0.3739683   0.8752045  )
        44        C      tau(  44) = (   0.7487945   0.9989046   0.7489691  )
        45        C      tau(  45) = (   0.8764746   0.1216998   0.8763156  )
        46        C      tau(  46) = (   0.7479635   0.2486819   0.5018806  )
        47        C      tau(  47) = (   0.8751980   0.3739245   0.6263738  )
        48        C      tau(  48) = (   0.5012000   0.5011574   0.0001136  )
        49        C      tau(  49) = (   0.6256259   0.6262099   0.1252968  )
        50        C      tau(  50) = (   0.5005188   0.7489091   0.2490095  )
        51        C      tau(  51) = (   0.6258050   0.8750157   0.3740056  )
        52        C      tau(  52) = (   0.7486304   0.5011458   0.2494302  )
        53        C      tau(  53) = (   0.8750247   0.6261269   0.3741365  )
        54        C      tau(  54) = (   0.7492281   0.7488562   0.9996087  )
        55        C      tau(  55) = (   0.8766209   0.8769033   0.1218021  )
        56        C      tau(  56) = (   0.4990819   0.4992903   0.4990317  )
        57        C      tau(  57) = (   0.6247789   0.6244471   0.6249452  )
        58        C      tau(  58) = (   0.4991767   0.7499842   0.7500845  )
        59        C      tau(  59) = (   0.6239946   0.8751464   0.8754130  )
        60        C      tau(  60) = (   0.7505316   0.4989321   0.7505826  )
        61        C      tau(  61) = (   0.8758455   0.6234984   0.8759288  )
        62        C      tau(  62) = (   0.7498244   0.7497799   0.4993198  )
        63        C      tau(  63) = (   0.8750855   0.8749084   0.6242568  )

   Crystallographic axes

     site n.     atom                  positions (cryst. coord.)
         1        N      tau(   1) = (  0.9893819  0.9897344  0.9891721  )
         2        C      tau(   2) = (  0.9870277  0.2601210  0.2640728  )
         3        C      tau(   3) = (  0.1231717  0.3731672  0.3742038  )
         4        C      tau(   4) = (  0.2603919  0.9894620  0.2619202  )
         5        C      tau(   5) = (  0.3737632  0.1246771  0.3741571  )
         6        C      tau(   6) = (  0.2640151  0.2616009  0.9853609  )
         7        C      tau(   7) = (  0.3737752  0.3731213  0.1223564  )
         8        C      tau(   8) = (  0.0000049  0.0005840  0.4991361  )
         9        C      tau(   9) = (  0.1251361  0.1251278  0.6250981  )
        10        C      tau(  10) = (  0.0020393  0.2482470  0.7515266  )
        11        C      tau(  11) = (  0.1292009  0.3733021  0.8763303  )
        12        C      tau(  12) = (  0.2487801  0.0017974  0.7514403  )
        13        C      tau(  13) = (  0.3754339  0.1292460  0.8748544  )
        14        C      tau(  14) = (  0.2491579  0.2495268  0.4995755  )
        15        C      tau(  15) = (  0.3750038  0.3749547  0.6244069  )
        16        C      tau(  16) = (  0.0016366  0.4979779  0.0013734  )
        17        C      tau(  17) = (  0.1250869  0.6243147  0.1250807  )
        18        C      tau(  18) = (  0.0014462  0.7520697  0.2483230  )
        19        C      tau(  19) = (  0.1266755  0.8769178  0.3741906  )
        20        C      tau(  20) = (  0.2488290  0.4983596  0.2486760  )
        21        C      tau(  21) = (  0.3741642  0.6242659  0.3742111  )
        22        C      tau(  22) = (  0.2480673  0.7520817  0.0000612  )
        23        C      tau(  23) = (  0.3729914  0.8777475  0.1265606  )
        24        C      tau(  24) = (  0.0000493  0.5010760  0.5011299  )
        25        C      tau(  25) = (  0.1252054  0.6262200  0.6252733  )
        26        C      tau(  26) = (  0.9993969  0.7487112  0.7492532  )
        27        C      tau(  27) = (  0.1217927  0.8768349  0.8763928  )
        28        C      tau(  28) = (  0.2492749  0.5017254  0.7482724  )
        29        C      tau(  29) = (  0.3741000  0.6263042  0.8750769  )
        30        C      tau(  30) = (  0.2487293  0.7486845  0.5007616  )
        31        C      tau(  31) = (  0.3739266  0.8750581  0.6258828  )
        32        C      tau(  32) = (  0.4987543  0.0011228  0.0002828  )
        33        C      tau(  33) = (  0.6248203  0.1251003  0.1251034  )
        34        C      tau(  34) = (  0.4991217  0.2493918  0.2488717  )
        35        C      tau(  35) = (  0.6243080  0.3746888  0.3747831  )
        36        C      tau(  36) = (  0.7516460  0.0016191  0.2487956  )
        37        C      tau(  37) = (  0.8750430  0.1283649  0.3757598  )
        38        C      tau(  38) = (  0.7517475  0.2480080  0.0019610  )
        39        C      tau(  39) = (  0.8773622  0.3724247  0.1282033  )
        40        C      tau(  40) = (  0.5008161  0.9999897  0.5008301  )
        41        C      tau(  41) = (  0.6256173  0.1249721  0.6252590  )
        42        C      tau(  42) = (  0.5022259  0.2488088  0.7478265  )
        43        C      tau(  43) = (  0.6264784  0.3739683  0.8752045  )
        44        C      tau(  44) = (  0.7487945  0.9989046  0.7489691  )
        45        C      tau(  45) = (  0.8764746  0.1216998  0.8763156  )
        46        C      tau(  46) = (  0.7479635  0.2486819  0.5018806  )
        47        C      tau(  47) = (  0.8751980  0.3739245  0.6263738  )
        48        C      tau(  48) = (  0.5012000  0.5011574  0.0001136  )
        49        C      tau(  49) = (  0.6256259  0.6262099  0.1252968  )
        50        C      tau(  50) = (  0.5005188  0.7489091  0.2490095  )
        51        C      tau(  51) = (  0.6258050  0.8750157  0.3740056  )
        52        C      tau(  52) = (  0.7486304  0.5011458  0.2494302  )
        53        C      tau(  53) = (  0.8750247  0.6261269  0.3741365  )
        54        C      tau(  54) = (  0.7492281  0.7488562  0.9996087  )
        55        C      tau(  55) = (  0.8766209  0.8769033  0.1218021  )
        56        C      tau(  56) = (  0.4990819  0.4992903  0.4990317  )
        57        C      tau(  57) = (  0.6247789  0.6244471  0.6249452  )
        58        C      tau(  58) = (  0.4991767  0.7499842  0.7500845  )
        59        C      tau(  59) = (  0.6239946  0.8751464  0.8754130  )
        60        C      tau(  60) = (  0.7505316  0.4989321  0.7505826  )
        61        C      tau(  61) = (  0.8758455  0.6234984  0.8759288  )
        62        C      tau(  62) = (  0.7498244  0.7497799  0.4993198  )
        63        C      tau(  63) = (  0.8750855  0.8749084  0.6242568  )

     number of k points=     1
                       cart. coord. in units 2pi/alat
        k(    1) = (   0.0000000   0.0000000   0.0000000), wk =   1.0000000

                       cryst. coord.
        k(    1) = (   0.0000000   0.0000000   0.0000000), wk =   1.0000000

     Dense  grid:    58461 G-vectors     FFT dimensions: (  64,  64,  64)

     Dynamical RAM for                 wfc:       0.35 MB

     Dynamical RAM for     wfc (w. buffer):       0.35 MB

     Dynamical RAM for           str. fact:       0.04 MB

     Dynamical RAM for           local pot:       0.00 MB

     Dynamical RAM for          nlocal pot:       1.17 MB

     Dynamical RAM for                qrad:       0.65 MB

     Dynamical RAM for          rho,v,vnew:       0.49 MB

     Dynamical RAM for               rhoin:       0.16 MB

     Dynamical RAM for            rho*nmix:       0.60 MB

     Dynamical RAM for           G-vectors:       0.08 MB

     Dynamical RAM for          h,s,v(r/c):       0.53 MB

     Dynamical RAM for          <psi|beta>:       0.58 MB

     Dynamical RAM for                 psi:       0.71 MB

     Dynamical RAM for                hpsi:       0.71 MB

     Dynamical RAM for      wfcinit/wfcrot:       1.24 MB

     Estimated static dynamical RAM per process >       3.37 MB

     Estimated max dynamical RAM per process >       6.49 MB

     Estimated total dynamical RAM >     594.05 MB
     Generating pointlists ...
     new r_m :   0.0854 (alat units)  1.1518 (a.u.) for type    1
     new r_m :   0.0847 (alat units)  1.1416 (a.u.) for type    2

     Initial potential from superposition of free atoms

     starting charge     252.5655, renormalised to     254.0000
     Starting wfcs are random

     total cpu time spent up to now is        2.1 secs

     Self-consistent Calculation

     iteration #  1     ecut=    50.00 Ry     beta= 0.70
     Davidson diagonalization with overlap

---- Real-time Memory Report at c_bands before calling an iterative solver
           158 MiB given to the printing process from OS
             0 MiB allocation reported by mallinfo(arena+hblkhd)
        173808 MiB available memory on the node where the printing process lives
------------------
     ethr =  1.00E-02,  avg # of iterations = 12.0

     total cpu time spent up to now is        2.9 secs

     total energy              =    -723.27211743 Ry
     estimated scf accuracy    <       3.70853542 Ry

     total magnetization       =     2.00 Bohr mag/cell
     absolute magnetization    =     2.00 Bohr mag/cell

     iteration #  2     ecut=    50.00 Ry     beta= 0.70
     Davidson diagonalization with overlap

---- Real-time Memory Report at c_bands before calling an iterative solver
           164 MiB given to the printing process from OS
             0 MiB allocation reported by mallinfo(arena+hblkhd)
        173751 MiB available memory on the node where the printing process lives
------------------
     ethr =  1.46E-03,  avg # of iterations = 12.0

     total cpu time spent up to now is        3.8 secs

     total energy              =    -723.66102676 Ry
     estimated scf accuracy    <       0.45679627 Ry

     total magnetization       =     2.00 Bohr mag/cell
     absolute magnetization    =     2.07 Bohr mag/cell

     iteration #  3     ecut=    50.00 Ry     beta= 0.70
     Davidson diagonalization with overlap

---- Real-time Memory Report at c_bands before calling an iterative solver
           164 MiB given to the printing process from OS
             0 MiB allocation reported by mallinfo(arena+hblkhd)
        173749 MiB available memory on the node where the printing process lives
------------------
     c_bands:  2 eigenvalues not converged
     ethr =  1.80E-04,  avg # of iterations = 20.0

     total cpu time spent up to now is        6.7 secs

     total energy              =    -723.72638750 Ry
     estimated scf accuracy    <       0.86825618 Ry

     total magnetization       =     2.00 Bohr mag/cell
     absolute magnetization    =     2.12 Bohr mag/cell

     iteration #  4     ecut=    50.00 Ry     beta= 0.70
     Davidson diagonalization with overlap

---- Real-time Memory Report at c_bands before calling an iterative solver
           164 MiB given to the printing process from OS
             0 MiB allocation reported by mallinfo(arena+hblkhd)
        173746 MiB available memory on the node where the printing process lives
------------------
     c_bands:  1 eigenvalues not converged
     ethr =  1.80E-04,  avg # of iterations = 20.0

     total cpu time spent up to now is        8.4 secs

     total energy              =    -723.90116286 Ry
     estimated scf accuracy    <       0.00951659 Ry

     total magnetization       =     2.00 Bohr mag/cell
     absolute magnetization    =     2.19 Bohr mag/cell

     iteration #  5     ecut=    50.00 Ry     beta= 0.70
     Davidson diagonalization with overlap

---- Real-time Memory Report at c_bands before calling an iterative solver
           165 MiB given to the printing process from OS
             0 MiB allocation reported by mallinfo(arena+hblkhd)
        173754 MiB available memory on the node where the printing process lives
------------------
     c_bands:  4 eigenvalues not converged
     ethr =  3.75E-06,  avg # of iterations = 20.0

     total cpu time spent up to now is        9.3 secs

     total energy              =    -723.90603540 Ry
     estimated scf accuracy    <       0.00410994 Ry

     total magnetization       =     2.00 Bohr mag/cell
     absolute magnetization    =     2.22 Bohr mag/cell

     iteration #  6     ecut=    50.00 Ry     beta= 0.70
     Davidson diagonalization with overlap

---- Real-time Memory Report at c_bands before calling an iterative solver
           165 MiB given to the printing process from OS
             0 MiB allocation reported by mallinfo(arena+hblkhd)
        173753 MiB available memory on the node where the printing process lives
------------------
     c_bands:  3 eigenvalues not converged
     ethr =  1.62E-06,  avg # of iterations = 20.0

     total cpu time spent up to now is       10.0 secs

     total energy              =    -723.90678787 Ry
     estimated scf accuracy    <       0.00086309 Ry

     total magnetization       =     2.00 Bohr mag/cell
     absolute magnetization    =     2.25 Bohr mag/cell

     iteration #  7     ecut=    50.00 Ry     beta= 0.70
     Davidson diagonalization with overlap

---- Real-time Memory Report at c_bands before calling an iterative solver
           165 MiB given to the printing process from OS
             0 MiB allocation reported by mallinfo(arena+hblkhd)
        173749 MiB available memory on the node where the printing process lives
------------------
     ethr =  3.40E-07,  avg # of iterations = 19.5

     total cpu time spent up to now is       10.4 secs

     total energy              =    -723.90701267 Ry
     estimated scf accuracy    <       0.00011781 Ry

     total magnetization       =     2.00 Bohr mag/cell
     absolute magnetization    =     2.27 Bohr mag/cell

     iteration #  8     ecut=    50.00 Ry     beta= 0.70
     Davidson diagonalization with overlap

---- Real-time Memory Report at c_bands before calling an iterative solver
           165 MiB given to the printing process from OS
             0 MiB allocation reported by mallinfo(arena+hblkhd)
        173738 MiB available memory on the node where the printing process lives
------------------
     c_bands:  1 eigenvalues not converged
     ethr =  4.64E-08,  avg # of iterations = 20.0

     total cpu time spent up to now is       11.4 secs

     total energy              =    -723.90705191 Ry
     estimated scf accuracy    <       0.00002883 Ry

     total magnetization       =     2.00 Bohr mag/cell
     absolute magnetization    =     2.28 Bohr mag/cell

     iteration #  9     ecut=    50.00 Ry     beta= 0.70
     Davidson diagonalization with overlap

---- Real-time Memory Report at c_bands before calling an iterative solver
           166 MiB given to the printing process from OS
             0 MiB allocation reported by mallinfo(arena+hblkhd)
        173746 MiB available memory on the node where the printing process lives
------------------
     c_bands:  3 eigenvalues not converged
     ethr =  1.13E-08,  avg # of iterations = 20.0

     total cpu time spent up to now is       12.1 secs

     total energy              =    -723.90706232 Ry
     estimated scf accuracy    <       0.00000791 Ry

     total magnetization       =     2.00 Bohr mag/cell
     absolute magnetization    =     2.29 Bohr mag/cell

     iteration # 10     ecut=    50.00 Ry     beta= 0.70
     Davidson diagonalization with overlap

---- Real-time Memory Report at c_bands before calling an iterative solver
           166 MiB given to the printing process from OS
             0 MiB allocation reported by mallinfo(arena+hblkhd)
        173741 MiB available memory on the node where the printing process lives
------------------
     c_bands:  2 eigenvalues not converged
     ethr =  3.12E-09,  avg # of iterations = 20.0

     total cpu time spent up to now is       13.5 secs

     total energy              =    -723.90706592 Ry
     estimated scf accuracy    <       0.00000087 Ry

     total magnetization       =     2.00 Bohr mag/cell
     absolute magnetization    =     2.29 Bohr mag/cell

     iteration # 11     ecut=    50.00 Ry     beta= 0.70
     Davidson diagonalization with overlap

---- Real-time Memory Report at c_bands before calling an iterative solver
           166 MiB given to the printing process from OS
             0 MiB allocation reported by mallinfo(arena+hblkhd)
        173748 MiB available memory on the node where the printing process lives
------------------
     c_bands:  1 eigenvalues not converged
     ethr =  3.43E-10,  avg # of iterations = 20.0

     total cpu time spent up to now is       14.2 secs

     total energy              =    -723.90706657 Ry
     estimated scf accuracy    <       0.00000025 Ry

     total magnetization       =     2.00 Bohr mag/cell
     absolute magnetization    =     2.30 Bohr mag/cell

     iteration # 12     ecut=    50.00 Ry     beta= 0.70
     Davidson diagonalization with overlap

---- Real-time Memory Report at c_bands before calling an iterative solver
           166 MiB given to the printing process from OS
             0 MiB allocation reported by mallinfo(arena+hblkhd)
        173749 MiB available memory on the node where the printing process lives
------------------
     c_bands:  1 eigenvalues not converged
     ethr =  9.92E-11,  avg # of iterations = 19.0

     total cpu time spent up to now is       14.8 secs

     total energy              =    -723.90706669 Ry
     estimated scf accuracy    <       0.00000011 Ry

     total magnetization       =     2.00 Bohr mag/cell
     absolute magnetization    =     2.30 Bohr mag/cell

     iteration # 13     ecut=    50.00 Ry     beta= 0.70
     Davidson diagonalization with overlap

---- Real-time Memory Report at c_bands before calling an iterative solver
           166 MiB given to the printing process from OS
             0 MiB allocation reported by mallinfo(arena+hblkhd)
        173750 MiB available memory on the node where the printing process lives
------------------
     ethr =  4.34E-11,  avg # of iterations = 17.0

     total cpu time spent up to now is       15.3 secs

     total energy              =    -723.90706674 Ry
     estimated scf accuracy    <       0.00000003 Ry

     total magnetization       =     2.00 Bohr mag/cell
     absolute magnetization    =     2.30 Bohr mag/cell

     iteration # 14     ecut=    50.00 Ry     beta= 0.70
     Davidson diagonalization with overlap

---- Real-time Memory Report at c_bands before calling an iterative solver
           166 MiB given to the printing process from OS
             0 MiB allocation reported by mallinfo(arena+hblkhd)
        173749 MiB available memory on the node where the printing process lives
------------------
     ethr =  1.01E-11,  avg # of iterations = 18.0
 
     Magnetic moment per site  (integrated on atomic sphere of radius R)
     atom   1 (R=0.085)  charge=  2.9142  magn=  0.0042
     atom   2 (R=0.085)  charge=  1.8170  magn=  0.2449
     atom   3 (R=0.085)  charge=  1.7930  magn= -0.0087
     atom   4 (R=0.085)  charge=  1.8050  magn=  0.2455
     atom   5 (R=0.085)  charge=  1.7932  magn= -0.0087
     atom   6 (R=0.085)  charge=  1.8232  magn=  0.2449
     atom   7 (R=0.085)  charge=  1.7933  magn= -0.0087
     atom   8 (R=0.085)  charge=  1.7860  magn=  0.0091
     atom   9 (R=0.085)  charge=  1.7963  magn= -0.0019
     atom  10 (R=0.085)  charge=  1.7834  magn=  0.0060
     atom  11 (R=0.085)  charge=  1.7969  magn= -0.0042
     atom  12 (R=0.085)  charge=  1.7824  magn=  0.0061
     atom  13 (R=0.085)  charge=  1.8040  magn= -0.0039
     atom  14 (R=0.085)  charge=  1.7893  magn=  0.0085
     atom  15 (R=0.085)  charge=  1.7873  magn= -0.0020
     atom  16 (R=0.085)  charge=  1.7821  magn=  0.0089
     atom  17 (R=0.085)  charge=  1.7937  magn= -0.0018
     atom  18 (R=0.085)  charge=  1.7821  magn=  0.0057
     atom  19 (R=0.085)  charge=  1.7952  magn= -0.0035
     atom  20 (R=0.085)  charge=  1.7833  magn=  0.0083
     atom  21 (R=0.085)  charge=  1.7846  magn= -0.0020
     atom  22 (R=0.085)  charge=  1.7835  magn=  0.0058
     atom  23 (R=0.085)  charge=  1.7886  magn= -0.0037
     atom  24 (R=0.085)  charge=  1.7825  magn=  0.0182
     atom  25 (R=0.085)  charge=  1.8068  magn=  0.0094
     atom  26 (R=0.085)  charge=  1.7936  magn=  0.0032
     atom  27 (R=0.085)  charge=  1.7607  magn=  0.0001
     atom  28 (R=0.085)  charge=  1.7897  magn=  0.0221
     atom  29 (R=0.085)  charge=  1.7842  magn= -0.0013
     atom  30 (R=0.085)  charge=  1.7901  magn=  0.0211
     atom  31 (R=0.085)  charge=  1.7823  magn= -0.0013
     atom  32 (R=0.085)  charge=  1.7845  magn=  0.0090
     atom  33 (R=0.085)  charge=  1.7960  magn= -0.0019
     atom  34 (R=0.085)  charge=  1.7868  magn=  0.0085
     atom  35 (R=0.085)  charge=  1.7865  magn= -0.0020
     atom  36 (R=0.085)  charge=  1.7818  magn=  0.0059
     atom  37 (R=0.085)  charge=  1.8033  magn= -0.0036
     atom  38 (R=0.085)  charge=  1.7836  magn=  0.0058
     atom  39 (R=0.085)  charge=  1.7914  magn= -0.0041
     atom  40 (R=0.085)  charge=  1.7835  magn=  0.0181
     atom  41 (R=0.085)  charge=  1.8109  magn=  0.0094
     atom  42 (R=0.085)  charge=  1.7948  magn=  0.0218
     atom  43 (R=0.085)  charge=  1.7819  magn= -0.0013
     atom  44 (R=0.085)  charge=  1.7936  magn=  0.0032
     atom  45 (R=0.085)  charge=  1.7589  magn= -0.0001
     atom  46 (R=0.085)  charge=  1.7948  magn=  0.0214
     atom  47 (R=0.085)  charge=  1.7819  magn= -0.0013
     atom  48 (R=0.085)  charge=  1.7819  magn=  0.0184
     atom  49 (R=0.085)  charge=  1.8043  magn=  0.0094
     atom  50 (R=0.085)  charge=  1.7872  magn=  0.0212
     atom  51 (R=0.085)  charge=  1.7825  magn= -0.0013
     atom  52 (R=0.085)  charge=  1.7869  magn=  0.0218
     atom  53 (R=0.085)  charge=  1.7826  magn= -0.0013
     atom  54 (R=0.085)  charge=  1.7935  magn=  0.0032
     atom  55 (R=0.085)  charge=  1.7588  magn=  0.0001
     atom  56 (R=0.085)  charge=  1.7914  magn=  0.0009
     atom  57 (R=0.085)  charge=  1.7832  magn=  0.0010
     atom  58 (R=0.085)  charge=  1.7915  magn=  0.0018
     atom  59 (R=0.085)  charge=  1.7879  magn= -0.0009
     atom  60 (R=0.085)  charge=  1.7911  magn=  0.0017
     atom  61 (R=0.085)  charge=  1.7855  magn= -0.0009
     atom  62 (R=0.085)  charge=  1.7913  magn=  0.0018
     atom  63 (R=0.085)  charge=  1.7891  magn= -0.0009

     total cpu time spent up to now is       16.0 secs

     End of self-consistent calculation

 ------ SPIN UP ------------


          k = 0.0000 0.0000 0.0000 (  7386 PWs)   bands (ev):

    -8.5513  -6.9243  -6.2852  -6.2707  -6.1957  -6.1571  -5.8800  -4.9113
    -4.1392  -4.1331  -4.1246  -4.0946  -4.0311  -4.0200  -4.0127  -3.9184
    -3.8736  -3.8581  -3.3599  -2.9314  -2.6759  -2.6753  -2.1605  -0.3624
    -0.3540  -0.3270  -0.2787  -0.0788   0.1699   0.1923   0.2824   0.2957
     0.3665   0.6179   0.8382   0.8426   0.9485   0.9725   0.9886   1.0573
     1.0622   1.0663   1.2672   1.2957   3.0723   3.9063   3.9257   4.0674
     4.1882   4.2063   4.2243   4.2746   4.2813   4.2853   4.4213   4.4256
     4.4933   4.4976   4.5681   4.6630   4.6846   4.6903   4.6911   4.7891
     4.7972   4.9219   4.9658   4.9690   5.0478   5.1971   5.2088   5.3006
     5.3597   5.3718   5.3998   5.4050   5.4090   6.0420   6.0477   6.1014
     6.6619   6.6657   6.7237   6.9920   7.0037   7.0398   7.5230   8.3312
     8.3364   8.4105   8.4716   8.4894   8.6845   8.7095   8.7903   8.8283
     8.8463   8.8537   8.8926   8.8989   8.9018   9.2898   9.2932   9.3276
     9.6799   9.7038   9.8976   9.9105   9.9466   9.9613   9.9631   9.9774
     9.9880  10.0256  10.0358  10.0564  10.1240  10.1411  10.2676  10.3268
    10.3340  11.0523  12.2909  12.4192  12.4287  13.9562  14.6910  14.7987
    17.3361  17.3762  17.4086  17.5250  17.5742  17.5832  17.8514  17.9238
    17.9403  18.0340  18.0658  18.3698  18.9928  19.0010  19.0279  20.6927
    20.7952  20.8220  20.8747  20.9456  20.9515  21.0263  21.0299  21.0454

     occupation numbers 
     1.0000   1.0000   1.0000   1.0000   1.0000   1.0000   1.0000   1.0000
     1.0000   1.0000   1.0000   1.0000   1.0000   1.0000   1.0000   1.0000
     1.0000   1.0000   1.0000   1.0000   1.0000   1.0000   1.0000   1.0000
     1.0000   1.0000   1.0000   1.0000   1.0000   1.0000   1.0000   1.0000
     1.0000   1.0000   1.0000   1.0000   1.0000   1.0000   1.0000   1.0000
     1.0000   1.0000   1.0000   1.0000   1.0000   1.0000   1.0000   1.0000
     1.0000   1.0000   1.0000   1.0000   1.0000   1.0000   1.0000   1.0000
     1.0000   1.0000   1.0000   1.0000   1.0000   1.0000   1.0000   1.0000
     1.0000   1.0000   1.0000   1.0000   1.0000   1.0000   1.0000   1.0000
     1.0000   1.0000   1.0000   1.0000   1.0000   1.0000   1.0000   1.0000
     1.0000   1.0000   1.0000   1.0000   1.0000   1.0000   1.0000   1.0000
     1.0000   1.0000   1.0000   1.0000   1.0000   1.0000   1.0000   1.0000
     1.0000   1.0000   1.0000   1.0000   1.0000   1.0000   1.0000   1.0000
     1.0000   1.0000   1.0000   1.0000   1.0000   1.0000   1.0000   1.0000
     1.0000   1.0000   1.0000   1.0000   1.0000   1.0000   1.0000   1.0000
     1.0000   1.0000   1.0000   1.0000   1.0000   1.0000   1.0000   1.0000
     0.0000   0.0000   0.0000   0.0000   0.0000   0.0000   0.0000   0.0000
     0.0000   0.0000   0.0000   0.0000   0.0000   0.0000   0.0000   0.0000
     0.0000   0.0000   0.0000   0.0000   0.0000   0.0000   0.0000   0.0000

 ------ SPIN DOWN ----------


          k = 0.0000 0.0000 0.0000 (  7386 PWs)   bands (ev):

    -8.5259  -6.9099  -6.2630  -6.2472  -6.1515  -6.1149  -5.8428  -4.8945
    -4.1178  -4.1069  -4.0890  -4.0621  -3.9958  -3.9819  -3.9647  -3.9062
    -3.8380  -3.8175  -3.3176  -2.9128  -2.6233  -2.6214  -2.0157  -0.3450
    -0.3358  -0.3056  -0.2614  -0.0134   0.1887   0.2101   0.3195   0.3288
     0.3916   0.6527   0.8502   0.8544   0.9828   1.0026   1.0136   1.0745
     1.0782   1.0824   1.4328   1.4657   3.1859   3.9295   3.9477   4.0937
     4.2225   4.2492   4.2674   4.2888   4.2985   4.3132   4.4669   4.4730
     4.5163   4.5190   4.5918   4.6871   4.7023   4.7078   4.7121   4.8236
     4.8340   4.9351   4.9986   4.9998   5.1290   5.2310   5.2441   5.3244
     5.3740   5.3827   5.4207   5.4575   5.4693   6.1035   6.1078   6.1394
     6.6884   6.6930   6.7580   7.0777   7.0884   7.0987   7.6928   8.3700
     8.3761   8.4477   8.5073   8.5236   8.7186   8.7410   8.8254   8.8745
     8.8821   8.8874   8.9237   8.9290   8.9350   9.3269   9.3303   9.3542
     9.7078   9.7310   9.9305   9.9352   9.9592   9.9751   9.9773   9.9966
    10.0084  10.0605  10.0688  10.0762  10.1516  10.1672  10.3253  10.3809
    10.3887  11.4321  12.5621  12.5651  12.6030  14.4384  16.0163  16.1391
    17.3604  17.3939  17.4252  17.5530  17.6306  17.6393  17.8740  17.9434
    17.9585  18.0741  18.1061  18.4899  19.0448  19.0752  19.1154  20.7431
    20.8096  20.8360  20.8895  20.9623  20.9693  21.0427  21.0561  21.0638

     occupation numbers 
     1.0000   1.0000   1.0000   1.0000   1.0000   1.0000   1.0000   1.0000
     1.0000   1.0000   1.0000   1.0000   1.0000   1.0000   1.0000   1.0000
     1.0000   1.0000   1.0000   1.0000   1.0000   1.0000   1.0000   1.0000
     1.0000   1.0000   1.0000   1.0000   1.0000   1.0000   1.0000   1.0000
     1.0000   1.0000   1.0000   1.0000   1.0000   1.0000   1.0000   1.0000
     1.0000   1.0000   1.0000   1.0000   1.0000   1.0000   1.0000   1.0000
     1.0000   1.0000   1.0000   1.0000   1.0000   1.0000   1.0000   1.0000
     1.0000   1.0000   1.0000   1.0000   1.0000   1.0000   1.0000   1.0000
     1.0000   1.0000   1.0000   1.0000   1.0000   1.0000   1.0000   1.0000
     1.0000   1.0000   1.0000   1.0000   1.0000   1.0000   1.0000   1.0000
     1.0000   1.0000   1.0000   1.0000   1.0000   1.0000   1.0000   1.0000
     1.0000   1.0000   1.0000   1.0000   1.0000   1.0000   1.0000   1.0000
     1.0000   1.0000   1.0000   1.0000   1.0000   1.0000   1.0000   1.0000
     1.0000   1.0000   1.0000   1.0000   1.0000   1.0000   1.0000   1.0000
     1.0000   1.0000   1.0000   1.0000   1.0000   1.0000   1.0000   1.0000
     1.0000   1.0000   1.0000   1.0000   1.0000   1.0000   0.0000   0.0000
     0.0000   0.0000   0.0000   0.0000   0.0000   0.0000   0.0000   0.0000
     0.0000   0.0000   0.0000   0.0000   0.0000   0.0000   0.0000   0.0000
     0.0000   0.0000   0.0000   0.0000   0.0000   0.0000   0.0000   0.0000

     highest occupied, lowest unoccupied level (ev):    14.7987   16.0163

!    total energy              =    -723.90706676 Ry
     estimated scf accuracy    <          5.5E-09 Ry

     The total energy is the sum of the following terms:
     one-electron contribution =     232.27327000 Ry
     hartree contribution      =      70.34125273 Ry
     xc contribution           =    -226.77191803 Ry
     ewald contribution        =    -799.74967146 Ry

     total magnetization       =     2.00 Bohr mag/cell
     absolute magnetization    =     2.30 Bohr mag/cell

     convergence has been achieved in  14 iterations

     Forces acting on atoms (cartesian axes, Ry/au):

     atom    1 type  1   force =    -0.00236919   -0.00439376   -0.00192070
     atom    2 type  2   force =     0.03517621    0.01587229   -0.01259394
     atom    3 type  2   force =    -0.00938336    0.00870281    0.00613933
     atom    4 type  2   force =     0.00848390    0.02415860   -0.00329058
     atom    5 type  2   force =     0.00237946   -0.02129472    0.00151538
     atom    6 type  2   force =    -0.00837373    0.00827092    0.04334949
     atom    7 type  2   force =     0.01025284    0.01198349   -0.00206000
     atom    8 type  2   force =     0.00304228    0.00427787    0.00660519
     atom    9 type  2   force =    -0.00202171   -0.00467059   -0.00304978
     atom   10 type  2   force =     0.00088898    0.00133615    0.00742312
     atom   11 type  2   force =    -0.02865953    0.00597725   -0.00873920
     atom   12 type  2   force =    -0.00036765    0.00446039    0.00285381
     atom   13 type  2   force =    -0.00281300   -0.03996874   -0.00176463
     atom   14 type  2   force =     0.00344800    0.00213746   -0.00440319
     atom   15 type  2   force =    -0.00287452   -0.00140810   -0.00573654
     atom   16 type  2   force =    -0.00017469   -0.00134797   -0.00037410
     atom   17 type  2   force =    -0.00056118    0.00730618   -0.00377317
     atom   18 type  2   force =     0.00354795    0.00009577    0.00035299
     atom   19 type  2   force =    -0.00919881   -0.00311339   -0.00517365
     atom   20 type  2   force =     0.00331639   -0.00370425    0.00296224
     atom   21 type  2   force =    -0.00107884   -0.00413536   -0.00209313
     atom   22 type  2   force =     0.00146125    0.00195261    0.01966766
     atom   23 type  2   force =    -0.00139746   -0.00791936   -0.00554024
     atom   24 type  2   force =     0.00963585    0.00541456    0.00434385
     atom   25 type  2   force =    -0.01228145   -0.01378938   -0.00399079
     atom   26 type  2   force =     0.01424954    0.00646919    0.00106981
     atom   27 type  2   force =    -0.02672852   -0.00755296   -0.01064643
     atom   28 type  2   force =     0.01084947    0.00006976    0.00534601
     atom   29 type  2   force =     0.00059618   -0.00237036   -0.00515524
     atom   30 type  2   force =     0.00769457    0.00652667    0.00404743
     atom   31 type  2   force =     0.00102297   -0.00164238   -0.00349547
     atom   32 type  2   force =     0.00353448    0.00417782    0.00200048
     atom   33 type  2   force =     0.00063751   -0.00432563   -0.00028797
     atom   34 type  2   force =    -0.00469681    0.00167343    0.00358394
     atom   35 type  2   force =    -0.00500733   -0.00087286   -0.00330146
     atom   36 type  2   force =     0.00060273    0.00435929   -0.00014488
     atom   37 type  2   force =     0.00071141   -0.03266740   -0.00712457
     atom   38 type  2   force =     0.00701150    0.00172163   -0.00013049
     atom   39 type  2   force =    -0.01015940    0.00601339   -0.01389116
     atom   40 type  2   force =     0.00541228    0.01263615    0.00503440
     atom   41 type  2   force =    -0.00735999   -0.01542303   -0.00365878
     atom   42 type  2   force =    -0.00012726    0.01738828    0.00601524
     atom   43 type  2   force =    -0.00099627    0.00084893   -0.00117409
     atom   44 type  2   force =     0.00461519    0.01707215    0.00299901
     atom   45 type  2   force =    -0.00732590   -0.02658167   -0.00678336
     atom   46 type  2   force =     0.00648612    0.01607859    0.00111376
     atom   47 type  2   force =    -0.00123648    0.00124854   -0.00184095
     atom   48 type  2   force =     0.00456345    0.00590184    0.00840856
     atom   49 type  2   force =    -0.00791599   -0.01411120   -0.01009518
     atom   50 type  2   force =     0.00353706    0.00634668    0.00287190
     atom   51 type  2   force =    -0.00402461   -0.00171431    0.00022432
     atom   52 type  2   force =     0.00647798    0.00207021    0.00493871
     atom   53 type  2   force =    -0.00157016   -0.00311154   -0.00045208
     atom   54 type  2   force =     0.00259666    0.00541906    0.01391894
     atom   55 type  2   force =    -0.00715968   -0.00850907   -0.02483339
     atom   56 type  2   force =     0.00476260    0.00462588    0.00477575
     atom   57 type  2   force =    -0.00165460   -0.00058835   -0.00231794
     atom   58 type  2   force =     0.00209716    0.00370935    0.00273662
     atom   59 type  2   force =    -0.00127686   -0.00267722   -0.00366100
     atom   60 type  2   force =     0.00264779    0.00198934    0.00231255
     atom   61 type  2   force =    -0.00333073   -0.00183867   -0.00373347
     atom   62 type  2   force =     0.00404274    0.00448655    0.00109706
     atom   63 type  2   force =    -0.00365677   -0.00304679   -0.00047604
     The non-local contrib.  to forces
     atom    1 type  1   force =    -0.75875551   -0.76541177   -0.75883631
     atom    2 type  2   force =    -0.16457973    0.22040245    0.17811690
     atom    3 type  2   force =     0.05678673    0.08136192    0.07229725
     atom    4 type  2   force =     0.21481598   -0.18868240    0.19692921
     atom    5 type  2   force =     0.07283920    0.04220240    0.06991596
     atom    6 type  2   force =     0.17951648    0.20437400   -0.14644905
     atom    7 type  2   force =     0.07751261    0.08327274    0.06417595
     atom    8 type  2   force =    -0.00442459   -0.00456598    0.05680810
     atom    9 type  2   force =    -0.00561947   -0.00747354    0.01297341
     atom   10 type  2   force =    -0.04449044   -0.01414467   -0.01159969
     atom   11 type  2   force =    -0.10378258    0.06754492   -0.08330674
     atom   12 type  2   force =    -0.01732938   -0.04061724   -0.01520016
     atom   13 type  2   force =     0.05195973   -0.11639189   -0.07352021
     atom   14 type  2   force =     0.00260082    0.00054037    0.04528882
     atom   15 type  2   force =     0.01012032    0.00877983   -0.00392456
     atom   16 type  2   force =    -0.01349741    0.04766133   -0.01351805
     atom   17 type  2   force =    -0.00375670    0.02809531   -0.00708062
     atom   18 type  2   force =    -0.04047261   -0.02212023   -0.01642107
     atom   19 type  2   force =    -0.08117131   -0.07901731    0.05541158
     atom   20 type  2   force =     0.00449226    0.04538908    0.00433055
     atom   21 type  2   force =     0.01080868   -0.00323472    0.01136434
     atom   22 type  2   force =    -0.01484822   -0.02025834   -0.02064482
     atom   23 type  2   force =     0.06266338   -0.08528548   -0.07636496
     atom   24 type  2   force =    -0.06465460    0.03326930    0.03431527
     atom   25 type  2   force =    -0.02438287    0.00025492    0.01404344
     atom   26 type  2   force =    -0.04246943   -0.02086202   -0.02437523
     atom   27 type  2   force =    -0.14773256    0.12567043    0.12062186
     atom   28 type  2   force =     0.08003770    0.02298625   -0.01329879
     atom   29 type  2   force =     0.00088840    0.01817002    0.00171441
     atom   30 type  2   force =     0.07664806   -0.01311263    0.02899913
     atom   31 type  2   force =     0.00324501    0.00319892    0.01677997
     atom   32 type  2   force =     0.05388137   -0.00562915   -0.00755180
     atom   33 type  2   force =     0.01863724   -0.00683484   -0.00351852
     atom   34 type  2   force =     0.04467915    0.00114940    0.00384956
     atom   35 type  2   force =    -0.00355018    0.00886725    0.01035603
     atom   36 type  2   force =    -0.01836358   -0.04038740   -0.01783804
     atom   37 type  2   force =    -0.07173613   -0.10860252    0.04776892
     atom   38 type  2   force =    -0.01365931   -0.01342321   -0.04560074
     atom   39 type  2   force =    -0.08724242    0.07090922   -0.08727709
     atom   40 type  2   force =     0.03507758   -0.05857708    0.03573365
     atom   41 type  2   force =     0.00895882   -0.02627594    0.01410376
     atom   42 type  2   force =     0.02106216    0.08890400   -0.00974102
     atom   43 type  2   force =     0.01668519    0.00072056    0.00413710
     atom   44 type  2   force =    -0.02257869   -0.03691107   -0.02341244
     atom   45 type  2   force =     0.12532952   -0.14812653    0.12448911
     atom   46 type  2   force =    -0.00986024    0.08708392    0.02316082
     atom   47 type  2   force =     0.00327210    0.00118042    0.01620009
     atom   48 type  2   force =     0.03254414    0.03415861   -0.06875290
     atom   49 type  2   force =     0.00843555   -0.00018923   -0.02301575
     atom   50 type  2   force =     0.02909061   -0.01447893    0.07064524
     atom   51 type  2   force =     0.01677558    0.00360570    0.00314958
     atom   52 type  2   force =    -0.01422506    0.02660693    0.07306278
     atom   53 type  2   force =     0.00502564    0.01792207    0.00146550
     atom   54 type  2   force =    -0.02265618   -0.02064140   -0.04388021
     atom   55 type  2   force =     0.12344412    0.12460961   -0.14660479
     atom   56 type  2   force =     0.02287139    0.02404319    0.02220875
     atom   57 type  2   force =     0.00544572    0.00493813    0.00521901
     atom   58 type  2   force =     0.01670287   -0.00641917   -0.01073902
     atom   59 type  2   force =     0.00798671   -0.01445059   -0.01561868
     atom   60 type  2   force =    -0.01037283    0.01819242   -0.01145818
     atom   61 type  2   force =    -0.01504262    0.00888590   -0.01555995
     atom   62 type  2   force =    -0.00836700   -0.00591548    0.01485975
     atom   63 type  2   force =    -0.01609096   -0.01503540    0.00827049
     The ionic contribution  to forces
     atom    1 type  1   force =     2.98298815    2.95448171    3.00448227
     atom    2 type  2   force =     2.41299685   -2.05957637   -2.21559773
     atom    3 type  2   force =     0.48126970   -0.72899154   -0.85460878
     atom    4 type  2   force =    -2.09051959    2.32533645   -2.16270278
     atom    5 type  2   force =    -0.77928023    0.39980807   -0.82840596
     atom    6 type  2   force =    -2.18659791   -2.09825456    2.46283139
     atom    7 type  2   force =    -0.82498525   -0.74675130    0.53927008
     atom    8 type  2   force =     0.25683165    0.21499548   -0.73010195
     atom    9 type  2   force =     0.06540789    0.02768034   -0.22645157
     atom   10 type  2   force =     0.17929989    0.07111711    0.56548055
     atom   11 type  2   force =    -0.52887387   -0.62966926    0.80540991
     atom   12 type  2   force =     0.02850924    0.16878997    0.54625274
     atom   13 type  2   force =    -0.66211844   -0.56398699    0.76333516
     atom   14 type  2   force =    -0.19425205   -0.18007381   -0.71706333
     atom   15 type  2   force =    -0.16831961   -0.13176679   -0.07037036
     atom   16 type  2   force =     0.20013171   -0.77489851    0.23072103
     atom   17 type  2   force =     0.09632585   -0.13010542    0.09296757
     atom   18 type  2   force =     0.23159739    0.46908905   -0.00217327
     atom   19 type  2   force =    -0.35944669    0.74578686   -0.71453919
     atom   20 type  2   force =    -0.18093251   -0.72227932   -0.19444434
     atom   21 type  2   force =    -0.17693840   -0.05539349   -0.20777257
     atom   22 type  2   force =     0.02974284    0.47474275    0.30730942
     atom   23 type  2   force =    -0.71379736    0.75286355   -0.33282825
     atom   24 type  2   force =     0.10605472   -0.13653105   -0.17364938
     atom   25 type  2   force =    -0.02809875   -0.08178901   -0.07800420
     atom   26 type  2   force =     0.12199095   -0.09392138   -0.05353932
     atom   27 type  2   force =     1.11503844    0.26906360    0.24942265
     atom   28 type  2   force =    -0.08193417   -0.14398471    0.10853459
     atom   29 type  2   force =    -0.12940725    0.00619615    0.25590872
     atom   30 type  2   force =    -0.01981052    0.13816255   -0.24373581
     atom   31 type  2   force =    -0.15059115    0.17529713   -0.01591916
     atom   32 type  2   force =    -0.74354898    0.19523949    0.26755347
     atom   33 type  2   force =    -0.20263387    0.02917794    0.09245863
     atom   34 type  2   force =    -0.71844372   -0.17615125   -0.19945364
     atom   35 type  2   force =    -0.06390144   -0.13353658   -0.19902878
     atom   36 type  2   force =     0.51512739    0.17433751    0.00294838
     atom   37 type  2   force =     0.73679153   -0.50052280   -0.69328162
     atom   38 type  2   force =     0.53921664    0.07118263    0.21005522
     atom   39 type  2   force =     0.80867884   -0.63732005   -0.43009695
     atom   40 type  2   force =    -0.19671489    0.06226012   -0.21281333
     atom   41 type  2   force =    -0.07014820   -0.08738584   -0.06958067
     atom   42 type  2   force =    -0.13050087    0.02693169    0.08895415
     atom   43 type  2   force =     0.03340629   -0.11459710    0.25506939
     atom   44 type  2   force =    -0.07170304    0.12342654   -0.05446743
     atom   45 type  2   force =     0.24332466    1.15983927    0.24928344
     atom   46 type  2   force =     0.09990142    0.05058386   -0.17100874
     atom   47 type  2   force =     0.22307894   -0.11474075    0.01551523
     atom   48 type  2   force =    -0.13178169   -0.11083575    0.14290680
     atom   49 type  2   force =    -0.07713738   -0.08050406    0.00941857
     atom   50 type  2   force =    -0.24479715    0.15309077   -0.08705213
     atom   51 type  2   force =    -0.01093739    0.17387435   -0.18253420
     atom   52 type  2   force =     0.13901302   -0.17639903   -0.12173589
     atom   53 type  2   force =     0.22927096    0.01405017   -0.18425306
     atom   54 type  2   force =    -0.06319857   -0.09069314    0.14177706
     atom   55 type  2   force =     0.24738747    0.24175718    1.13426176
     atom   56 type  2   force =    -0.09107495   -0.03008938   -0.12765333
     atom   57 type  2   force =    -0.02141865   -0.03506824   -0.02161896
     atom   58 type  2   force =    -0.06860108    0.04799997    0.03586810
     atom   59 type  2   force =    -0.28237224    0.07790350    0.15609422
     atom   60 type  2   force =     0.06009630   -0.03653450    0.05880247
     atom   61 type  2   force =     0.12893358   -0.30385024    0.16098923
     atom   62 type  2   force =     0.03019458    0.03691329   -0.10157729
     atom   63 type  2   force =     0.12221097    0.07422321   -0.27581821
     The local contribution  to forces
     atom    1 type  1   force =    -2.22666258   -2.19346915   -2.24762364
     atom    2 type  2   force =    -2.21331114    1.85503681    2.02482823
     atom    3 type  2   force =    -0.54753907    0.65629274    0.78838132
     atom    4 type  2   force =     1.88409542   -2.11251295    1.96242903
     atom    5 type  2   force =     0.70871246   -0.46331976    0.75995713
     atom    6 type  2   force =     1.99860953    1.90214255   -2.27309373
     atom    7 type  2   force =     0.75761232    0.67543987   -0.60557689
     atom    8 type  2   force =    -0.24942491   -0.20615098    0.67984465
     atom    9 type  2   force =    -0.06187971   -0.02488590    0.21036992
     atom   10 type  2   force =    -0.13397606   -0.05565831   -0.54651189
     atom   11 type  2   force =     0.60393157    0.56807451   -0.73088808
     atom   12 type  2   force =    -0.01163377   -0.12373213   -0.52825320
     atom   13 type  2   force =     0.60724086    0.64039657   -0.69163953
     atom   14 type  2   force =     0.19499450    0.18165256    0.66731985
     atom   15 type  2   force =     0.15521017    0.12154800    0.06851925
     atom   16 type  2   force =    -0.18686937    0.72584073   -0.21762084
     atom   17 type  2   force =    -0.09320147    0.10925726   -0.08972117
     atom   18 type  2   force =    -0.18763490   -0.44692119    0.01887968
     atom   19 type  2   force =     0.43135240   -0.66990890    0.65390157
     atom   20 type  2   force =     0.17965095    0.67314513    0.19301138
     atom   21 type  2   force =     0.16493657    0.05445764    0.19425599
     atom   22 type  2   force =    -0.01351564   -0.45257712   -0.26706204
     atom   23 type  2   force =     0.64964067   -0.67553472    0.40358298
     atom   24 type  2   force =    -0.03182298    0.10861878    0.14360872
     atom   25 type  2   force =     0.04013616    0.06769801    0.05991868
     atom   26 type  2   force =    -0.06533455    0.12121718    0.07893862
     atom   27 type  2   force =    -0.99410906   -0.40231136   -0.38074518
     atom   28 type  2   force =     0.01266274    0.12102819   -0.08993761
     atom   29 type  2   force =     0.12901337   -0.02678208   -0.26283123
     atom   30 type  2   force =    -0.04922483   -0.11856424    0.21873504
     atom   31 type  2   force =     0.14826484   -0.18016619   -0.00440626
     atom   32 type  2   force =     0.69309982   -0.18545931   -0.25806702
     atom   33 type  2   force =     0.18454424   -0.02668119   -0.08928898
     atom   34 type  2   force =     0.66897057    0.17665672    0.19912501
     atom   35 type  2   force =     0.06236486    0.12375834    0.18530404
     atom   36 type  2   force =    -0.49623992   -0.12958876    0.01467499
     atom   37 type  2   force =    -0.66440019    0.57647533    0.63831468
     atom   38 type  2   force =    -0.51862074   -0.05605789   -0.16462581
     atom   39 type  2   force =    -0.73164964    0.57238208    0.50344575
     atom   40 type  2   force =     0.16693547    0.00893259    0.18206892
     atom   41 type  2   force =     0.05372366    0.09821854    0.05176601
     atom   42 type  2   force =     0.10919195   -0.09846544   -0.07324788
     atom   43 type  2   force =    -0.05119947    0.11470244   -0.26042769
     atom   44 type  2   force =     0.09880782   -0.06947016    0.08083372
     atom   45 type  2   force =    -0.37604309   -1.03831720   -0.38059655
     atom   46 type  2   force =    -0.08362608   -0.12160586    0.14888788
     atom   47 type  2   force =    -0.22764657    0.11477454   -0.03362856
     atom   48 type  2   force =     0.10368853    0.08254763   -0.06581155
     atom   49 type  2   force =     0.06068104    0.06653725    0.00342678
     atom   50 type  2   force =     0.21912584   -0.13230503    0.01921114
     atom   51 type  2   force =    -0.00997638   -0.17921405    0.17955156
     atom   52 type  2   force =    -0.11837993    0.15179966    0.05354711
     atom   53 type  2   force =    -0.23592499   -0.03515365    0.18227101
     atom   54 type  2   force =     0.08835805    0.11671685   -0.08404778
     atom   55 type  2   force =    -0.37805955   -0.37489053   -1.01256635
     atom   56 type  2   force =     0.07285277    0.01063628    0.11017278
     atom   57 type  2   force =     0.01421048    0.02950468    0.01404459
     atom   58 type  2   force =     0.05388671   -0.03790896   -0.02243635
     atom   59 type  2   force =     0.27300598   -0.06616336   -0.14418910
     atom   60 type  2   force =    -0.04716724    0.02030333   -0.04507749
     atom   61 type  2   force =    -0.11729482    0.29308890   -0.14921114
     atom   62 type  2   force =    -0.01787524   -0.02655024    0.08777466
     atom   63 type  2   force =    -0.10984715   -0.06225827    0.26703427
     The core correction contribution to forces
     atom    1 type  1   force =     0.00000000    0.00000000    0.00000000
     atom    2 type  2   force =     0.00000000    0.00000000    0.00000000
     atom    3 type  2   force =     0.00000000    0.00000000    0.00000000
     atom    4 type  2   force =     0.00000000    0.00000000    0.00000000
     atom    5 type  2   force =     0.00000000    0.00000000    0.00000000
     atom    6 type  2   force =     0.00000000    0.00000000    0.00000000
     atom    7 type  2   force =     0.00000000    0.00000000    0.00000000
     atom    8 type  2   force =     0.00000000    0.00000000    0.00000000
     atom    9 type  2   force =     0.00000000    0.00000000    0.00000000
     atom   10 type  2   force =     0.00000000    0.00000000    0.00000000
     atom   11 type  2   force =     0.00000000    0.00000000    0.00000000
     atom   12 type  2   force =     0.00000000    0.00000000    0.00000000
     atom   13 type  2   force =     0.00000000    0.00000000    0.00000000
     atom   14 type  2   force =     0.00000000    0.00000000    0.00000000
     atom   15 type  2   force =     0.00000000    0.00000000    0.00000000
     atom   16 type  2   force =     0.00000000    0.00000000    0.00000000
     atom   17 type  2   force =     0.00000000    0.00000000    0.00000000
     atom   18 type  2   force =     0.00000000    0.00000000    0.00000000
     atom   19 type  2   force =     0.00000000    0.00000000    0.00000000
     atom   20 type  2   force =     0.00000000    0.00000000    0.00000000
     atom   21 type  2   force =     0.00000000    0.00000000    0.00000000
     atom   22 type  2   force =     0.00000000    0.00000000    0.00000000
     atom   23 type  2   force =     0.00000000    0.00000000    0.00000000
     atom   24 type  2   force =     0.00000000    0.00000000    0.00000000
     atom   25 type  2   force =     0.00000000    0.00000000    0.00000000
     atom   26 type  2   force =     0.00000000    0.00000000    0.00000000
     atom   27 type  2   force =     0.00000000    0.00000000    0.00000000
     atom   28 type  2   force =     0.00000000    0.00000000    0.00000000
     atom   29 type  2   force =     0.00000000    0.00000000    0.00000000
     atom   30 type  2   force =     0.00000000    0.00000000    0.00000000
     atom   31 type  2   force =     0.00000000    0.00000000    0.00000000
     atom   32 type  2   force =     0.00000000    0.00000000    0.00000000
     atom   33 type  2   force =     0.00000000    0.00000000    0.00000000
     atom   34 type  2   force =     0.00000000    0.00000000    0.00000000
     atom   35 type  2   force =     0.00000000    0.00000000    0.00000000
     atom   36 type  2   force =     0.00000000    0.00000000    0.00000000
     atom   37 type  2   force =     0.00000000    0.00000000    0.00000000
     atom   38 type  2   force =     0.00000000    0.00000000    0.00000000
     atom   39 type  2   force =     0.00000000    0.00000000    0.00000000
     atom   40 type  2   force =     0.00000000    0.00000000    0.00000000
     atom   41 type  2   force =     0.00000000    0.00000000    0.00000000
     atom   42 type  2   force =     0.00000000    0.00000000    0.00000000
     atom   43 type  2   force =     0.00000000    0.00000000    0.00000000
     atom   44 type  2   force =     0.00000000    0.00000000    0.00000000
     atom   45 type  2   force =     0.00000000    0.00000000    0.00000000
     atom   46 type  2   force =     0.00000000    0.00000000    0.00000000
     atom   47 type  2   force =     0.00000000    0.00000000    0.00000000
     atom   48 type  2   force =     0.00000000    0.00000000    0.00000000
     atom   49 type  2   force =     0.00000000    0.00000000    0.00000000
     atom   50 type  2   force =     0.00000000    0.00000000    0.00000000
     atom   51 type  2   force =     0.00000000    0.00000000    0.00000000
     atom   52 type  2   force =     0.00000000    0.00000000    0.00000000
     atom   53 type  2   force =     0.00000000    0.00000000    0.00000000
     atom   54 type  2   force =     0.00000000    0.00000000    0.00000000
     atom   55 type  2   force =     0.00000000    0.00000000    0.00000000
     atom   56 type  2   force =     0.00000000    0.00000000    0.00000000
     atom   57 type  2   force =     0.00000000    0.00000000    0.00000000
     atom   58 type  2   force =     0.00000000    0.00000000    0.00000000
     atom   59 type  2   force =     0.00000000    0.00000000    0.00000000
     atom   60 type  2   force =     0.00000000    0.00000000    0.00000000
     atom   61 type  2   force =     0.00000000    0.00000000    0.00000000
     atom   62 type  2   force =     0.00000000    0.00000000    0.00000000
     atom   63 type  2   force =     0.00000000    0.00000000    0.00000000
     The Hubbard contrib.    to forces
     atom    1 type  1   force =     0.00000000    0.00000000    0.00000000
     atom    2 type  2   force =     0.00000000    0.00000000    0.00000000
     atom    3 type  2   force =     0.00000000    0.00000000    0.00000000
     atom    4 type  2   force =     0.00000000    0.00000000    0.00000000
     atom    5 type  2   force =     0.00000000    0.00000000    0.00000000
     atom    6 type  2   force =     0.00000000    0.00000000    0.00000000
     atom    7 type  2   force =     0.00000000    0.00000000    0.00000000
     atom    8 type  2   force =     0.00000000    0.00000000    0.00000000
     atom    9 type  2   force =     0.00000000    0.00000000    0.00000000
     atom   10 type  2   force =     0.00000000    0.00000000    0.00000000
     atom   11 type  2   force =     0.00000000    0.00000000    0.00000000
     atom   12 type  2   force =     0.00000000    0.00000000    0.00000000
     atom   13 type  2   force =     0.00000000    0.00000000    0.00000000
     atom   14 type  2   force =     0.00000000    0.00000000    0.00000000
     atom   15 type  2   force =     0.00000000    0.00000000    0.00000000
     atom   16 type  2   force =     0.00000000    0.00000000    0.00000000
     atom   17 type  2   force =     0.00000000    0.00000000    0.00000000
     atom   18 type  2   force =     0.00000000    0.00000000    0.00000000
     atom   19 type  2   force =     0.00000000    0.00000000    0.00000000
     atom   20 type  2   force =     0.00000000    0.00000000    0.00000000
     atom   21 type  2   force =     0.00000000    0.00000000    0.00000000
     atom   22 type  2   force =     0.00000000    0.00000000    0.00000000
     atom   23 type  2   force =     0.00000000    0.00000000    0.00000000
     atom   24 type  2   force =     0.00000000    0.00000000    0.00000000
     atom   25 type  2   force =     0.00000000    0.00000000    0.00000000
     atom   26 type  2   force =     0.00000000    0.00000000    0.00000000
     atom   27 type  2   force =     0.00000000    0.00000000    0.00000000
     atom   28 type  2   force =     0.00000000    0.00000000    0.00000000
     atom   29 type  2   force =     0.00000000    0.00000000    0.00000000
     atom   30 type  2   force =     0.00000000    0.00000000    0.00000000
     atom   31 type  2   force =     0.00000000    0.00000000    0.00000000
     atom   32 type  2   force =     0.00000000    0.00000000    0.00000000
     atom   33 type  2   force =     0.00000000    0.00000000    0.00000000
     atom   34 type  2   force =     0.00000000    0.00000000    0.00000000
     atom   35 type  2   force =     0.00000000    0.00000000    0.00000000
     atom   36 type  2   force =     0.00000000    0.00000000    0.00000000
     atom   37 type  2   force =     0.00000000    0.00000000    0.00000000
     atom   38 type  2   force =     0.00000000    0.00000000    0.00000000
     atom   39 type  2   force =     0.00000000    0.00000000    0.00000000
     atom   40 type  2   force =     0.00000000    0.00000000    0.00000000
     atom   41 type  2   force =     0.00000000    0.00000000    0.00000000
     atom   42 type  2   force =     0.00000000    0.00000000    0.00000000
     atom   43 type  2   force =     0.00000000    0.00000000    0.00000000
     atom   44 type  2   force =     0.00000000    0.00000000    0.00000000
     atom   45 type  2   force =     0.00000000    0.00000000    0.00000000
     atom   46 type  2   force =     0.00000000    0.00000000    0.00000000
     atom   47 type  2   force =     0.00000000    0.00000000    0.00000000
     atom   48 type  2   force =     0.00000000    0.00000000    0.00000000
     atom   49 type  2   force =     0.00000000    0.00000000    0.00000000
     atom   50 type  2   force =     0.00000000    0.00000000    0.00000000
     atom   51 type  2   force =     0.00000000    0.00000000    0.00000000
     atom   52 type  2   force =     0.00000000    0.00000000    0.00000000
     atom   53 type  2   force =     0.00000000    0.00000000    0.00000000
     atom   54 type  2   force =     0.00000000    0.00000000    0.00000000
     atom   55 type  2   force =     0.00000000    0.00000000    0.00000000
     atom   56 type  2   force =     0.00000000    0.00000000    0.00000000
     atom   57 type  2   force =     0.00000000    0.00000000    0.00000000
     atom   58 type  2   force =     0.00000000    0.00000000    0.00000000
     atom   59 type  2   force =     0.00000000    0.00000000    0.00000000
     atom   60 type  2   force =     0.00000000    0.00000000    0.00000000
     atom   61 type  2   force =     0.00000000    0.00000000    0.00000000
     atom   62 type  2   force =     0.00000000    0.00000000    0.00000000
     atom   63 type  2   force =     0.00000000    0.00000000    0.00000000
     The SCF correction term to forces
     atom    1 type  1   force =    -0.00002620   -0.00002306    0.00000077
     atom    2 type  2   force =    -0.00001671   -0.00001910    0.00000245
     atom    3 type  2   force =     0.00001233    0.00001119    0.00001333
     atom    4 type  2   force =     0.00000513   -0.00001102   -0.00000226
     atom    5 type  2   force =     0.00002110   -0.00001393   -0.00000796
     atom    6 type  2   force =     0.00001122   -0.00001957    0.00000467
     atom    7 type  2   force =     0.00002621   -0.00000632    0.00001467
     atom    8 type  2   force =    -0.00002682   -0.00002915   -0.00000182
     atom    9 type  2   force =    -0.00001737   -0.00001998    0.00000225
     atom   10 type  2   force =    -0.00003136   -0.00000649   -0.00000206
     atom   11 type  2   force =    -0.00002159   -0.00000143   -0.00001050
     atom   12 type  2   force =    -0.00000068   -0.00000872   -0.00000177
     atom   13 type  2   force =     0.00001789   -0.00001493    0.00000374
     atom   14 type  2   force =     0.00001778   -0.00001015   -0.00000475
     atom   15 type  2   force =     0.00002764    0.00000235   -0.00001709
     atom   16 type  2   force =    -0.00002658    0.00001997   -0.00001245
     atom   17 type  2   force =    -0.00001581    0.00003053    0.00000484
     atom   18 type  2   force =    -0.00002888    0.00001962    0.00001145
     atom   19 type  2   force =    -0.00002016   -0.00000256   -0.00000383
     atom   20 type  2   force =     0.00001874    0.00001236    0.00000844
     atom   21 type  2   force =     0.00002736    0.00000671    0.00000291
     atom   22 type  2   force =    -0.00000467    0.00001681    0.00000889
     atom   23 type  2   force =     0.00000890    0.00000879    0.00001377
     atom   24 type  2   force =    -0.00002823    0.00002902    0.00001304
     atom   25 type  2   force =    -0.00002293    0.00001819   -0.00000492
     atom   26 type  2   force =    -0.00002439    0.00000691   -0.00001047
     atom   27 type  2   force =    -0.00001230   -0.00000413   -0.00000197
     atom   28 type  2   force =    -0.00000374    0.00001153   -0.00000838
     atom   29 type  2   force =     0.00001471    0.00001705   -0.00000335
     atom   30 type  2   force =    -0.00000509    0.00001248   -0.00000714
     atom   31 type  2   force =     0.00001732   -0.00000075   -0.00000622
     atom   32 type  2   force =     0.00001532   -0.00000171    0.00000963
     atom   33 type  2   force =     0.00000295   -0.00001605    0.00000468
     atom   34 type  2   force =     0.00001023   -0.00000994    0.00000680
     atom   35 type  2   force =    -0.00000751    0.00000963    0.00001105
     atom   36 type  2   force =    -0.00000811   -0.00003057    0.00001359
     atom   37 type  2   force =    -0.00003075   -0.00004591    0.00001724
     atom   38 type  2   force =    -0.00001202   -0.00000840   -0.00001537
     atom   39 type  2   force =    -0.00003312    0.00001365   -0.00001907
     atom   40 type  2   force =     0.00002717   -0.00000799   -0.00001105
     atom   41 type  2   force =     0.00001879   -0.00000830   -0.00000409
     atom   42 type  2   force =     0.00003255   -0.00001048   -0.00000621
     atom   43 type  2   force =     0.00002478   -0.00000546   -0.00000909
     atom   44 type  2   force =     0.00000214   -0.00000166   -0.00001106
     atom   45 type  2   force =    -0.00002394   -0.00000571   -0.00001557
     atom   46 type  2   force =    -0.00001593   -0.00001184    0.00001760
     atom   47 type  2   force =    -0.00002790    0.00000581    0.00001609
     atom   48 type  2   force =     0.00002553    0.00000284    0.00001001
     atom   49 type  2   force =     0.00001785    0.00001633    0.00001901
     atom   50 type  2   force =     0.00003081    0.00001137    0.00001145
     atom   51 type  2   force =     0.00002664   -0.00000881    0.00000117
     atom   52 type  2   force =    -0.00001699    0.00003415    0.00000850
     atom   53 type  2   force =    -0.00002871    0.00004136    0.00000826
     atom   54 type  2   force =     0.00000642    0.00000824    0.00001365
     atom   55 type  2   force =    -0.00001867   -0.00001383    0.00001979
     atom   56 type  2   force =     0.00002644    0.00000729   -0.00000866
     atom   57 type  2   force =     0.00002089    0.00000857   -0.00001879
     atom   58 type  2   force =     0.00002172    0.00000901   -0.00001232
     atom   59 type  2   force =     0.00001574    0.00000473   -0.00000365
     atom   60 type  2   force =     0.00000460   -0.00000042   -0.00001046
     atom   61 type  2   force =    -0.00001382    0.00000827   -0.00000783
     atom   62 type  2   force =     0.00000346    0.00001046   -0.00001628
     atom   63 type  2   force =    -0.00001659   -0.00000484   -0.00001879

     Total force =     0.128760     Total SCF correction =     0.000221

     Writing all to output data dir ./pwscf.save/ :
     XML data file, charge density, pseudopotentials, collected wavefunctions
 
     init_run     :      0.74s CPU      1.15s WALL (       1 calls)
     electrons    :     13.68s CPU     14.17s WALL (       1 calls)
     forces       :      2.02s CPU      2.03s WALL (       1 calls)

     Called by init_run:
     wfcinit      :      0.07s CPU      0.11s WALL (       1 calls)
     wfcinit:wfcr :      0.07s CPU      0.08s WALL (       1 calls)
     potinit      :      0.50s CPU      0.67s WALL (       1 calls)
     hinit0       :      0.03s CPU      0.24s WALL (       1 calls)

     Called by electrons:
     c_bands      :      8.98s CPU      9.42s WALL (      14 calls)
     sum_band     :      2.23s CPU      2.24s WALL (      14 calls)
     v_of_rho     :      1.43s CPU      1.45s WALL (      15 calls)
     v_h          :      0.11s CPU      0.11s WALL (      15 calls)
     v_xc         :      1.33s CPU      1.34s WALL (      15 calls)
     mix_rho      :      0.10s CPU      0.10s WALL (      14 calls)

     Called by c_bands:
     init_us_2    :      0.02s CPU      0.02s WALL (      30 calls)
     regterg      :      8.22s CPU      8.65s WALL (      14 calls)

     Called by sum_band:
     sum_band:wei :      0.03s CPU      0.03s WALL (      14 calls)
     sum_band:loo :      1.62s CPU      1.63s WALL (      14 calls)
     sum_band:buf :      0.00s CPU      0.00s WALL (      14 calls)
     sum_band:ini :      0.01s CPU      0.01s WALL (      14 calls)

     Called by *egterg:
     rdiaghg      :      4.20s CPU      4.31s WALL (     273 calls)
     regterg:over :      0.57s CPU      0.58s WALL (     259 calls)
     regterg:upda :      0.17s CPU      0.17s WALL (     259 calls)
     regterg:last :      0.21s CPU      0.21s WALL (      52 calls)
     rdiaghg:chol :      0.14s CPU      0.14s WALL (     273 calls)
     rdiaghg:inve :      0.03s CPU      0.03s WALL (     273 calls)
     rdiaghg:para :      0.44s CPU      0.46s WALL (     546 calls)
     h_psi        :      2.99s CPU      3.30s WALL (     274 calls)
     g_psi        :      0.00s CPU      0.00s WALL (     259 calls)

     Called by h_psi:
     h_psi:calbec :      0.35s CPU      0.35s WALL (     274 calls)
     vloc_psi     :      2.53s CPU      2.84s WALL (     274 calls)
                                        0.00s GPU  (     274 calls)
     add_vuspsi   :      0.10s CPU      0.11s WALL (     274 calls)

     General routines
     calbec       :      2.25s CPU      2.26s WALL (     278 calls)
     fft          :      0.85s CPU      0.90s WALL (     196 calls)
     ffts         :      0.05s CPU      0.05s WALL (      14 calls)
     fftw         :      4.04s CPU      4.35s WALL (   10120 calls)
 
     Parallel routines
 
     PWSCF        :     18.04s CPU     19.13s WALL

 
   This run was terminated on:  16: 6:23  16Nov2025            

=------------------------------------------------------------------------------=
   JOB DONE.
=------------------------------------------------------------------------------=
