
     Program PWSCF v.7.5 starts on 16Nov2025 at 16:37: 8 

     This program is part of the open-source Quantum ESPRESSO suite
     for quantum simulation of materials; please cite
         "P. Giannozzi et al., J. Phys.:Condens. Matter 21 395502 (2009);
         "P. Giannozzi et al., J. Phys.:Condens. Matter 29 465901 (2017);
         "P. Giannozzi et al., J. Chem. Phys. 152 154105 (2020);
          URL http://www.quantum-espresso.org", 
     in publications or presentations arising from this work. More details at
     http://www.quantum-espresso.org/quote

     Parallel version (MPI), running on    96 processors

     MPI processes distributed on     2 nodes
     174508 MiB available memory on the printing compute node when the environment starts
 
     Reading input from supercell-231.in

     Current dimensions of program PWSCF are:
     Max number of different atomic species (ntypx) = 10
     Max number of k-points (npk) =  40000
     Max angular momentum in pseudopotentials (lmaxx) =  4

     gamma-point specific algorithms are used
 
     K-points division:     npool     =       2
     R & G space division:  proc/nbgrp/npool/nimage =      48
     Subspace diagonalization in iterative solution of the eigenvalue problem:
     one sub-group per band group will be used
     scalapack distributed-memory algorithm (size of sub-group:  2*  2 procs)

 
     Parallelization info
     --------------------
     sticks:   dense  smooth     PW     G-vecs:    dense   smooth      PW
     Min          59      59     14                 2432     2432     302
     Max          62      62     16                 2442     2442     316
     Sum        2885    2885    725               116921   116921   14771
 
     Using Slab Decomposition
 


     bravais-lattice index     =            0
     lattice parameter (alat)  =      13.4813  a.u.
     unit-cell volume          =    2450.1683 (a.u.)^3
     number of atoms/cell      =           63
     number of atomic types    =            2
     number of electrons       =       254.00 (up: 128.00, down: 126.00)
     number of Kohn-Sham states=          152
     kinetic-energy cutoff     =      50.0000  Ry
     charge density cutoff     =     200.0000  Ry
     scf convergence threshold =      1.0E-08
     mixing beta               =       0.7000
     number of iterations used =            8  plain     mixing
     Exchange-correlation= PBE
                           (   1   4   3   4   0   0   0)

     celldm(1)=  13.481306  celldm(2)=   0.000000  celldm(3)=   0.000000
     celldm(4)=   0.000000  celldm(5)=   0.000000  celldm(6)=   0.000000

     crystal axes: (cart. coord. in units of alat)
               a(1) = (   1.000000   0.000000   0.000000 )  
               a(2) = (   0.000000   1.000000   0.000000 )  
               a(3) = (   0.000000   0.000000   1.000000 )  

     reciprocal axes: (cart. coord. in units 2 pi/alat)
               b(1) = (  1.000000  0.000000  0.000000 )  
               b(2) = (  0.000000  1.000000  0.000000 )  
               b(3) = (  0.000000  0.000000  1.000000 )  


     PseudoPot. # 1 for N  read from file:
     ./N_ONCV_PBE-1.2.upf
     MD5 check sum: 5312fdf34e96954e02a33bdc911c617a
     Pseudo is Norm-conserving, Zval =  5.0
     Generated using ONCVPSP code by D. R. Hamann
     Using radial grid of  602 points,  4 beta functions with: 
                l(1) =   0
                l(2) =   0
                l(3) =   1
                l(4) =   1

     PseudoPot. # 2 for C  read from file:
     ./C_ONCV_PBE-1.2.upf
     MD5 check sum: d60b57d9bdca4133f5fde4b584ee909d
     Pseudo is Norm-conserving, Zval =  4.0
     Generated using ONCVPSP code by D. R. Hamann
     Using radial grid of  602 points,  4 beta functions with: 
                l(1) =   0
                l(2) =   0
                l(3) =   1
                l(4) =   1

     atomic species   valence    mass     pseudopotential
     N                 5.00    14.00670     N ( 1.00)
     C                 4.00    12.01070     C ( 1.00)

     Starting magnetic structure 
     atomic species   magnetization
     N               0.000
     C               0.000

     No symmetry found


                                    s                        frac. trans.

      isym =  1     identity                                     

 cryst.   s( 1) = (     1          0          0      )
                  (     0          1          0      )
                  (     0          0          1      )

 cart.    s( 1) = (  1.0000000  0.0000000  0.0000000 )
                  (  0.0000000  1.0000000  0.0000000 )
                  (  0.0000000  0.0000000  1.0000000 )


   Cartesian axes

     site n.     atom                  positions (alat units)
         1        N      tau(   1) = (   0.9893819   0.9897344   0.9891721  )
         2        C      tau(   2) = (   0.9870277   0.2601210   0.2640728  )
         3        C      tau(   3) = (   0.1231717   0.3731672   0.3742038  )
         4        C      tau(   4) = (   0.2603919   0.9894620   0.2619202  )
         5        C      tau(   5) = (   0.3737632   0.1246771   0.3741571  )
         6        C      tau(   6) = (   0.2640151   0.2616009   0.9853609  )
         7        C      tau(   7) = (   0.3737752   0.3731213   0.1223564  )
         8        C      tau(   8) = (   0.0000049   0.0005840   0.4991361  )
         9        C      tau(   9) = (   0.1251361   0.1251278   0.6250981  )
        10        C      tau(  10) = (   0.0020393   0.2482470   0.7515266  )
        11        C      tau(  11) = (   0.1292009   0.3733021   0.8763303  )
        12        C      tau(  12) = (   0.2487801   0.0017974   0.7514403  )
        13        C      tau(  13) = (   0.3754339   0.1292460   0.8748544  )
        14        C      tau(  14) = (   0.2491579   0.2495268   0.4995755  )
        15        C      tau(  15) = (   0.3750038   0.3749547   0.6244069  )
        16        C      tau(  16) = (   0.0016366   0.4979779   0.0013734  )
        17        C      tau(  17) = (   0.1250869   0.6243147   0.1250807  )
        18        C      tau(  18) = (   0.0014462   0.7520697   0.2483230  )
        19        C      tau(  19) = (   0.1266755   0.8769178   0.3741906  )
        20        C      tau(  20) = (   0.2488290   0.4983596   0.2486760  )
        21        C      tau(  21) = (   0.3741642   0.6242659   0.3742111  )
        22        C      tau(  22) = (   0.2480673   0.7520817   0.0015447  )
        23        C      tau(  23) = (   0.3729914   0.8777475   0.1265606  )
        24        C      tau(  24) = (   0.0000493   0.5010760   0.5011299  )
        25        C      tau(  25) = (   0.1252054   0.6262200   0.6252733  )
        26        C      tau(  26) = (   0.9993969   0.7487112   0.7492532  )
        27        C      tau(  27) = (   0.1217927   0.8768349   0.8763928  )
        28        C      tau(  28) = (   0.2492749   0.5017254   0.7482724  )
        29        C      tau(  29) = (   0.3741000   0.6263042   0.8750769  )
        30        C      tau(  30) = (   0.2487293   0.7486845   0.5007616  )
        31        C      tau(  31) = (   0.3739266   0.8750581   0.6258828  )
        32        C      tau(  32) = (   0.4987543   0.0011228   0.0002828  )
        33        C      tau(  33) = (   0.6248203   0.1251003   0.1251034  )
        34        C      tau(  34) = (   0.4991217   0.2493918   0.2488717  )
        35        C      tau(  35) = (   0.6243080   0.3746888   0.3747831  )
        36        C      tau(  36) = (   0.7516460   0.0016191   0.2487956  )
        37        C      tau(  37) = (   0.8750430   0.1283649   0.3757598  )
        38        C      tau(  38) = (   0.7517475   0.2480080   0.0019610  )
        39        C      tau(  39) = (   0.8773622   0.3739082   0.1282033  )
        40        C      tau(  40) = (   0.5008161   0.9999897   0.5008301  )
        41        C      tau(  41) = (   0.6256173   0.1249721   0.6252590  )
        42        C      tau(  42) = (   0.5022259   0.2488088   0.7478265  )
        43        C      tau(  43) = (   0.6264784   0.3739683   0.8752045  )
        44        C      tau(  44) = (   0.7487945   0.9989046   0.7489691  )
        45        C      tau(  45) = (   0.8764746   0.1216998   0.8763156  )
        46        C      tau(  46) = (   0.7479635   0.2486819   0.5018806  )
        47        C      tau(  47) = (   0.8751980   0.3739245   0.6263738  )
        48        C      tau(  48) = (   0.5012000   0.5011574   0.0001136  )
        49        C      tau(  49) = (   0.6256259   0.6262099   0.1252968  )
        50        C      tau(  50) = (   0.5005188   0.7489091   0.2490095  )
        51        C      tau(  51) = (   0.6258050   0.8750157   0.3740056  )
        52        C      tau(  52) = (   0.7486304   0.5011458   0.2494302  )
        53        C      tau(  53) = (   0.8750247   0.6261269   0.3741365  )
        54        C      tau(  54) = (   0.7492281   0.7488562   0.9996087  )
        55        C      tau(  55) = (   0.8766209   0.8769033   0.1218021  )
        56        C      tau(  56) = (   0.4990819   0.4992903   0.4990317  )
        57        C      tau(  57) = (   0.6247789   0.6244471   0.6249452  )
        58        C      tau(  58) = (   0.4991767   0.7499842   0.7500845  )
        59        C      tau(  59) = (   0.6239946   0.8751464   0.8754130  )
        60        C      tau(  60) = (   0.7505316   0.4989321   0.7505826  )
        61        C      tau(  61) = (   0.8758455   0.6234984   0.8759288  )
        62        C      tau(  62) = (   0.7498244   0.7497799   0.4993198  )
        63        C      tau(  63) = (   0.8750855   0.8749084   0.6242568  )

   Crystallographic axes

     site n.     atom                  positions (cryst. coord.)
         1        N      tau(   1) = (  0.9893819  0.9897344  0.9891721  )
         2        C      tau(   2) = (  0.9870277  0.2601210  0.2640728  )
         3        C      tau(   3) = (  0.1231717  0.3731672  0.3742038  )
         4        C      tau(   4) = (  0.2603919  0.9894620  0.2619202  )
         5        C      tau(   5) = (  0.3737632  0.1246771  0.3741571  )
         6        C      tau(   6) = (  0.2640151  0.2616009  0.9853609  )
         7        C      tau(   7) = (  0.3737752  0.3731213  0.1223564  )
         8        C      tau(   8) = (  0.0000049  0.0005840  0.4991361  )
         9        C      tau(   9) = (  0.1251361  0.1251278  0.6250981  )
        10        C      tau(  10) = (  0.0020393  0.2482470  0.7515266  )
        11        C      tau(  11) = (  0.1292009  0.3733021  0.8763303  )
        12        C      tau(  12) = (  0.2487801  0.0017974  0.7514403  )
        13        C      tau(  13) = (  0.3754339  0.1292460  0.8748544  )
        14        C      tau(  14) = (  0.2491579  0.2495268  0.4995755  )
        15        C      tau(  15) = (  0.3750038  0.3749547  0.6244069  )
        16        C      tau(  16) = (  0.0016366  0.4979779  0.0013734  )
        17        C      tau(  17) = (  0.1250869  0.6243147  0.1250807  )
        18        C      tau(  18) = (  0.0014462  0.7520697  0.2483230  )
        19        C      tau(  19) = (  0.1266755  0.8769178  0.3741906  )
        20        C      tau(  20) = (  0.2488290  0.4983596  0.2486760  )
        21        C      tau(  21) = (  0.3741642  0.6242659  0.3742111  )
        22        C      tau(  22) = (  0.2480673  0.7520817  0.0015447  )
        23        C      tau(  23) = (  0.3729914  0.8777475  0.1265606  )
        24        C      tau(  24) = (  0.0000493  0.5010760  0.5011299  )
        25        C      tau(  25) = (  0.1252054  0.6262200  0.6252733  )
        26        C      tau(  26) = (  0.9993969  0.7487112  0.7492532  )
        27        C      tau(  27) = (  0.1217927  0.8768349  0.8763928  )
        28        C      tau(  28) = (  0.2492749  0.5017254  0.7482724  )
        29        C      tau(  29) = (  0.3741000  0.6263042  0.8750769  )
        30        C      tau(  30) = (  0.2487293  0.7486845  0.5007616  )
        31        C      tau(  31) = (  0.3739266  0.8750581  0.6258828  )
        32        C      tau(  32) = (  0.4987543  0.0011228  0.0002828  )
        33        C      tau(  33) = (  0.6248203  0.1251003  0.1251034  )
        34        C      tau(  34) = (  0.4991217  0.2493918  0.2488717  )
        35        C      tau(  35) = (  0.6243080  0.3746888  0.3747831  )
        36        C      tau(  36) = (  0.7516460  0.0016191  0.2487956  )
        37        C      tau(  37) = (  0.8750430  0.1283649  0.3757598  )
        38        C      tau(  38) = (  0.7517475  0.2480080  0.0019610  )
        39        C      tau(  39) = (  0.8773622  0.3739082  0.1282033  )
        40        C      tau(  40) = (  0.5008161  0.9999897  0.5008301  )
        41        C      tau(  41) = (  0.6256173  0.1249721  0.6252590  )
        42        C      tau(  42) = (  0.5022259  0.2488088  0.7478265  )
        43        C      tau(  43) = (  0.6264784  0.3739683  0.8752045  )
        44        C      tau(  44) = (  0.7487945  0.9989046  0.7489691  )
        45        C      tau(  45) = (  0.8764746  0.1216998  0.8763156  )
        46        C      tau(  46) = (  0.7479635  0.2486819  0.5018806  )
        47        C      tau(  47) = (  0.8751980  0.3739245  0.6263738  )
        48        C      tau(  48) = (  0.5012000  0.5011574  0.0001136  )
        49        C      tau(  49) = (  0.6256259  0.6262099  0.1252968  )
        50        C      tau(  50) = (  0.5005188  0.7489091  0.2490095  )
        51        C      tau(  51) = (  0.6258050  0.8750157  0.3740056  )
        52        C      tau(  52) = (  0.7486304  0.5011458  0.2494302  )
        53        C      tau(  53) = (  0.8750247  0.6261269  0.3741365  )
        54        C      tau(  54) = (  0.7492281  0.7488562  0.9996087  )
        55        C      tau(  55) = (  0.8766209  0.8769033  0.1218021  )
        56        C      tau(  56) = (  0.4990819  0.4992903  0.4990317  )
        57        C      tau(  57) = (  0.6247789  0.6244471  0.6249452  )
        58        C      tau(  58) = (  0.4991767  0.7499842  0.7500845  )
        59        C      tau(  59) = (  0.6239946  0.8751464  0.8754130  )
        60        C      tau(  60) = (  0.7505316  0.4989321  0.7505826  )
        61        C      tau(  61) = (  0.8758455  0.6234984  0.8759288  )
        62        C      tau(  62) = (  0.7498244  0.7497799  0.4993198  )
        63        C      tau(  63) = (  0.8750855  0.8749084  0.6242568  )

     number of k points=     1
                       cart. coord. in units 2pi/alat
        k(    1) = (   0.0000000   0.0000000   0.0000000), wk =   1.0000000

                       cryst. coord.
        k(    1) = (   0.0000000   0.0000000   0.0000000), wk =   1.0000000

     Dense  grid:    58461 G-vectors     FFT dimensions: (  64,  64,  64)

     Dynamical RAM for                 wfc:       0.35 MB

     Dynamical RAM for     wfc (w. buffer):       0.35 MB

     Dynamical RAM for           str. fact:       0.04 MB

     Dynamical RAM for           local pot:       0.00 MB

     Dynamical RAM for          nlocal pot:       1.17 MB

     Dynamical RAM for                qrad:       0.65 MB

     Dynamical RAM for          rho,v,vnew:       0.49 MB

     Dynamical RAM for               rhoin:       0.16 MB

     Dynamical RAM for            rho*nmix:       0.60 MB

     Dynamical RAM for           G-vectors:       0.08 MB

     Dynamical RAM for          h,s,v(r/c):       0.53 MB

     Dynamical RAM for          <psi|beta>:       0.58 MB

     Dynamical RAM for                 psi:       0.71 MB

     Dynamical RAM for                hpsi:       0.71 MB

     Dynamical RAM for      wfcinit/wfcrot:       1.24 MB

     Estimated static dynamical RAM per process >       3.37 MB

     Estimated max dynamical RAM per process >       6.49 MB

     Estimated total dynamical RAM >     594.05 MB
     Generating pointlists ...
     new r_m :   0.0854 (alat units)  1.1518 (a.u.) for type    1
     new r_m :   0.0847 (alat units)  1.1416 (a.u.) for type    2

     Initial potential from superposition of free atoms

     starting charge     252.5655, renormalised to     254.0000
     Starting wfcs are random

     total cpu time spent up to now is        2.4 secs

     Self-consistent Calculation

     iteration #  1     ecut=    50.00 Ry     beta= 0.70
     Davidson diagonalization with overlap

---- Real-time Memory Report at c_bands before calling an iterative solver
           158 MiB given to the printing process from OS
             0 MiB allocation reported by mallinfo(arena+hblkhd)
        173527 MiB available memory on the node where the printing process lives
------------------
     ethr =  1.00E-02,  avg # of iterations = 12.0

     total cpu time spent up to now is        3.2 secs

     total energy              =    -723.26476337 Ry
     estimated scf accuracy    <       3.70658353 Ry

     total magnetization       =     2.00 Bohr mag/cell
     absolute magnetization    =     2.00 Bohr mag/cell

     iteration #  2     ecut=    50.00 Ry     beta= 0.70
     Davidson diagonalization with overlap

---- Real-time Memory Report at c_bands before calling an iterative solver
           164 MiB given to the printing process from OS
             0 MiB allocation reported by mallinfo(arena+hblkhd)
        173478 MiB available memory on the node where the printing process lives
------------------
     ethr =  1.46E-03,  avg # of iterations = 12.5

     total cpu time spent up to now is        5.6 secs

     total energy              =    -723.66071011 Ry
     estimated scf accuracy    <       0.45649840 Ry

     total magnetization       =     2.00 Bohr mag/cell
     absolute magnetization    =     2.07 Bohr mag/cell

     iteration #  3     ecut=    50.00 Ry     beta= 0.70
     Davidson diagonalization with overlap

---- Real-time Memory Report at c_bands before calling an iterative solver
           164 MiB given to the printing process from OS
             0 MiB allocation reported by mallinfo(arena+hblkhd)
        173477 MiB available memory on the node where the printing process lives
------------------
     c_bands:  2 eigenvalues not converged
     ethr =  1.80E-04,  avg # of iterations = 20.0

     total cpu time spent up to now is        6.1 secs

     total energy              =    -723.72680494 Ry
     estimated scf accuracy    <       0.86631889 Ry

     total magnetization       =     2.00 Bohr mag/cell
     absolute magnetization    =     2.12 Bohr mag/cell

     iteration #  4     ecut=    50.00 Ry     beta= 0.70
     Davidson diagonalization with overlap

---- Real-time Memory Report at c_bands before calling an iterative solver
           164 MiB given to the printing process from OS
             0 MiB allocation reported by mallinfo(arena+hblkhd)
        173482 MiB available memory on the node where the printing process lives
------------------
     c_bands:  1 eigenvalues not converged
     ethr =  1.80E-04,  avg # of iterations = 20.0

     total cpu time spent up to now is        6.6 secs

     total energy              =    -723.90125923 Ry
     estimated scf accuracy    <       0.00984363 Ry

     total magnetization       =     2.00 Bohr mag/cell
     absolute magnetization    =     2.19 Bohr mag/cell

     iteration #  5     ecut=    50.00 Ry     beta= 0.70
     Davidson diagonalization with overlap

---- Real-time Memory Report at c_bands before calling an iterative solver
           165 MiB given to the printing process from OS
             0 MiB allocation reported by mallinfo(arena+hblkhd)
        173478 MiB available memory on the node where the printing process lives
------------------
     c_bands:  3 eigenvalues not converged
     ethr =  3.88E-06,  avg # of iterations = 20.0

     total cpu time spent up to now is        7.1 secs

     total energy              =    -723.90620741 Ry
     estimated scf accuracy    <       0.00397110 Ry

     total magnetization       =     2.00 Bohr mag/cell
     absolute magnetization    =     2.23 Bohr mag/cell

     iteration #  6     ecut=    50.00 Ry     beta= 0.70
     Davidson diagonalization with overlap

---- Real-time Memory Report at c_bands before calling an iterative solver
           165 MiB given to the printing process from OS
             0 MiB allocation reported by mallinfo(arena+hblkhd)
        173478 MiB available memory on the node where the printing process lives
------------------
     c_bands:  3 eigenvalues not converged
     ethr =  1.56E-06,  avg # of iterations = 20.0

     total cpu time spent up to now is        7.6 secs

     total energy              =    -723.90694846 Ry
     estimated scf accuracy    <       0.00082667 Ry

     total magnetization       =     2.00 Bohr mag/cell
     absolute magnetization    =     2.25 Bohr mag/cell

     iteration #  7     ecut=    50.00 Ry     beta= 0.70
     Davidson diagonalization with overlap

---- Real-time Memory Report at c_bands before calling an iterative solver
           165 MiB given to the printing process from OS
             0 MiB allocation reported by mallinfo(arena+hblkhd)
        173468 MiB available memory on the node where the printing process lives
------------------
     ethr =  3.25E-07,  avg # of iterations = 20.0

     total cpu time spent up to now is        8.2 secs

     total energy              =    -723.90716649 Ry
     estimated scf accuracy    <       0.00011476 Ry

     total magnetization       =     2.00 Bohr mag/cell
     absolute magnetization    =     2.27 Bohr mag/cell

     iteration #  8     ecut=    50.00 Ry     beta= 0.70
     Davidson diagonalization with overlap

---- Real-time Memory Report at c_bands before calling an iterative solver
           165 MiB given to the printing process from OS
             0 MiB allocation reported by mallinfo(arena+hblkhd)
        173469 MiB available memory on the node where the printing process lives
------------------
     c_bands:  1 eigenvalues not converged
     ethr =  4.52E-08,  avg # of iterations = 20.0

     total cpu time spent up to now is        8.8 secs

     total energy              =    -723.90720485 Ry
     estimated scf accuracy    <       0.00002795 Ry

     total magnetization       =     2.00 Bohr mag/cell
     absolute magnetization    =     2.28 Bohr mag/cell

     iteration #  9     ecut=    50.00 Ry     beta= 0.70
     Davidson diagonalization with overlap

---- Real-time Memory Report at c_bands before calling an iterative solver
           166 MiB given to the printing process from OS
             0 MiB allocation reported by mallinfo(arena+hblkhd)
        173461 MiB available memory on the node where the printing process lives
------------------
     c_bands:  3 eigenvalues not converged
     ethr =  1.10E-08,  avg # of iterations = 20.0

     total cpu time spent up to now is        9.4 secs

     total energy              =    -723.90721494 Ry
     estimated scf accuracy    <       0.00000789 Ry

     total magnetization       =     2.00 Bohr mag/cell
     absolute magnetization    =     2.29 Bohr mag/cell

     iteration # 10     ecut=    50.00 Ry     beta= 0.70
     Davidson diagonalization with overlap

---- Real-time Memory Report at c_bands before calling an iterative solver
           166 MiB given to the printing process from OS
             0 MiB allocation reported by mallinfo(arena+hblkhd)
        173463 MiB available memory on the node where the printing process lives
------------------
     c_bands:  2 eigenvalues not converged
     ethr =  3.11E-09,  avg # of iterations = 20.0

     total cpu time spent up to now is        9.9 secs

     total energy              =    -723.90721844 Ry
     estimated scf accuracy    <       0.00000085 Ry

     total magnetization       =     2.00 Bohr mag/cell
     absolute magnetization    =     2.29 Bohr mag/cell

     iteration # 11     ecut=    50.00 Ry     beta= 0.70
     Davidson diagonalization with overlap

---- Real-time Memory Report at c_bands before calling an iterative solver
           166 MiB given to the printing process from OS
             0 MiB allocation reported by mallinfo(arena+hblkhd)
        173474 MiB available memory on the node where the printing process lives
------------------
     c_bands:  1 eigenvalues not converged
     ethr =  3.33E-10,  avg # of iterations = 20.0

     total cpu time spent up to now is       10.5 secs

     total energy              =    -723.90721907 Ry
     estimated scf accuracy    <       0.00000025 Ry

     total magnetization       =     2.00 Bohr mag/cell
     absolute magnetization    =     2.30 Bohr mag/cell

     iteration # 12     ecut=    50.00 Ry     beta= 0.70
     Davidson diagonalization with overlap

---- Real-time Memory Report at c_bands before calling an iterative solver
           166 MiB given to the printing process from OS
             0 MiB allocation reported by mallinfo(arena+hblkhd)
        173465 MiB available memory on the node where the printing process lives
------------------
     ethr =  9.73E-11,  avg # of iterations = 16.0

     total cpu time spent up to now is       11.1 secs

     total energy              =    -723.90721919 Ry
     estimated scf accuracy    <       0.00000009 Ry

     total magnetization       =     2.00 Bohr mag/cell
     absolute magnetization    =     2.30 Bohr mag/cell

     iteration # 13     ecut=    50.00 Ry     beta= 0.70
     Davidson diagonalization with overlap

---- Real-time Memory Report at c_bands before calling an iterative solver
           166 MiB given to the printing process from OS
             0 MiB allocation reported by mallinfo(arena+hblkhd)
        173466 MiB available memory on the node where the printing process lives
------------------
     ethr =  3.71E-11,  avg # of iterations = 19.0

     total cpu time spent up to now is       11.6 secs

     total energy              =    -723.90721924 Ry
     estimated scf accuracy    <       0.00000003 Ry

     total magnetization       =     2.00 Bohr mag/cell
     absolute magnetization    =     2.30 Bohr mag/cell

     iteration # 14     ecut=    50.00 Ry     beta= 0.70
     Davidson diagonalization with overlap

---- Real-time Memory Report at c_bands before calling an iterative solver
           166 MiB given to the printing process from OS
             0 MiB allocation reported by mallinfo(arena+hblkhd)
        173468 MiB available memory on the node where the printing process lives
------------------
     c_bands:  1 eigenvalues not converged
     ethr =  1.07E-11,  avg # of iterations = 19.0
 
     Magnetic moment per site  (integrated on atomic sphere of radius R)
     atom   1 (R=0.085)  charge=  2.9142  magn=  0.0042
     atom   2 (R=0.085)  charge=  1.8147  magn=  0.2456
     atom   3 (R=0.085)  charge=  1.7931  magn= -0.0086
     atom   4 (R=0.085)  charge=  1.8051  magn=  0.2456
     atom   5 (R=0.085)  charge=  1.7932  magn= -0.0087
     atom   6 (R=0.085)  charge=  1.8232  magn=  0.2449
     atom   7 (R=0.085)  charge=  1.7933  magn= -0.0087
     atom   8 (R=0.085)  charge=  1.7860  magn=  0.0090
     atom   9 (R=0.085)  charge=  1.7963  magn= -0.0019
     atom  10 (R=0.085)  charge=  1.7834  magn=  0.0060
     atom  11 (R=0.085)  charge=  1.7969  magn= -0.0042
     atom  12 (R=0.085)  charge=  1.7823  magn=  0.0061
     atom  13 (R=0.085)  charge=  1.8039  magn= -0.0039
     atom  14 (R=0.085)  charge=  1.7893  magn=  0.0085
     atom  15 (R=0.085)  charge=  1.7873  magn= -0.0020
     atom  16 (R=0.085)  charge=  1.7838  magn=  0.0087
     atom  17 (R=0.085)  charge=  1.7957  magn= -0.0018
     atom  18 (R=0.085)  charge=  1.7822  magn=  0.0057
     atom  19 (R=0.085)  charge=  1.7952  magn= -0.0035
     atom  20 (R=0.085)  charge=  1.7834  magn=  0.0083
     atom  21 (R=0.085)  charge=  1.7847  magn= -0.0020
     atom  22 (R=0.085)  charge=  1.7829  magn=  0.0057
     atom  23 (R=0.085)  charge=  1.7905  magn= -0.0037
     atom  24 (R=0.085)  charge=  1.7825  magn=  0.0183
     atom  25 (R=0.085)  charge=  1.8068  magn=  0.0094
     atom  26 (R=0.085)  charge=  1.7935  magn=  0.0032
     atom  27 (R=0.085)  charge=  1.7589  magn=  0.0001
     atom  28 (R=0.085)  charge=  1.7896  magn=  0.0220
     atom  29 (R=0.085)  charge=  1.7824  magn= -0.0013
     atom  30 (R=0.085)  charge=  1.7901  magn=  0.0211
     atom  31 (R=0.085)  charge=  1.7823  magn= -0.0013
     atom  32 (R=0.085)  charge=  1.7844  magn=  0.0090
     atom  33 (R=0.085)  charge=  1.7959  magn= -0.0019
     atom  34 (R=0.085)  charge=  1.7868  magn=  0.0084
     atom  35 (R=0.085)  charge=  1.7864  magn= -0.0020
     atom  36 (R=0.085)  charge=  1.7818  magn=  0.0060
     atom  37 (R=0.085)  charge=  1.8032  magn= -0.0036
     atom  38 (R=0.085)  charge=  1.7817  magn=  0.0059
     atom  39 (R=0.085)  charge=  1.7912  magn= -0.0039
     atom  40 (R=0.085)  charge=  1.7835  magn=  0.0181
     atom  41 (R=0.085)  charge=  1.8109  magn=  0.0094
     atom  42 (R=0.085)  charge=  1.7948  magn=  0.0218
     atom  43 (R=0.085)  charge=  1.7820  magn= -0.0013
     atom  44 (R=0.085)  charge=  1.7936  magn=  0.0032
     atom  45 (R=0.085)  charge=  1.7588  magn= -0.0000
     atom  46 (R=0.085)  charge=  1.7948  magn=  0.0215
     atom  47 (R=0.085)  charge=  1.7819  magn= -0.0013
     atom  48 (R=0.085)  charge=  1.7819  magn=  0.0184
     atom  49 (R=0.085)  charge=  1.8044  magn=  0.0094
     atom  50 (R=0.085)  charge=  1.7873  magn=  0.0212
     atom  51 (R=0.085)  charge=  1.7825  magn= -0.0013
     atom  52 (R=0.085)  charge=  1.7886  magn=  0.0211
     atom  53 (R=0.085)  charge=  1.7827  magn= -0.0013
     atom  54 (R=0.085)  charge=  1.7935  magn=  0.0032
     atom  55 (R=0.085)  charge=  1.7588  magn=  0.0001
     atom  56 (R=0.085)  charge=  1.7914  magn=  0.0008
     atom  57 (R=0.085)  charge=  1.7832  magn=  0.0010
     atom  58 (R=0.085)  charge=  1.7914  magn=  0.0018
     atom  59 (R=0.085)  charge=  1.7879  magn= -0.0009
     atom  60 (R=0.085)  charge=  1.7911  magn=  0.0017
     atom  61 (R=0.085)  charge=  1.7855  magn= -0.0009
     atom  62 (R=0.085)  charge=  1.7913  magn=  0.0018
     atom  63 (R=0.085)  charge=  1.7891  magn= -0.0009

     total cpu time spent up to now is       12.3 secs

     End of self-consistent calculation

 ------ SPIN UP ------------


          k = 0.0000 0.0000 0.0000 (  7386 PWs)   bands (ev):

    -8.5510  -6.9222  -6.2859  -6.2712  -6.1941  -6.1598  -5.8802  -4.9127
    -4.1431  -4.1265  -4.1256  -4.0932  -4.0308  -4.0238  -4.0130  -3.9172
    -3.8733  -3.8614  -3.3601  -2.9325  -2.6755  -2.6726  -2.1591  -0.3616
    -0.3549  -0.3272  -0.2806  -0.0785   0.1720   0.1916   0.2824   0.2955
     0.3667   0.6183   0.8362   0.8438   0.9519   0.9701   0.9861   1.0546
     1.0600   1.0679   1.2698   1.2985   3.0722   3.9084   3.9247   4.0690
     4.1878   4.2075   4.2223   4.2745   4.2813   4.2869   4.4208   4.4243
     4.4947   4.4987   4.5661   4.6601   4.6855   4.6876   4.6912   4.7887
     4.7989   4.9202   4.9683   4.9712   5.0503   5.1973   5.2087   5.3020
     5.3571   5.3709   5.3952   5.4044   5.4092   6.0402   6.0479   6.1017
     6.6596   6.6657   6.7262   6.9918   7.0037   7.0426   7.5260   8.3336
     8.3366   8.4116   8.4647   8.4944   8.6868   8.7084   8.7876   8.8290
     8.8479   8.8590   8.8903   8.8990   8.9005   9.2873   9.2894   9.3243
     9.6859   9.7024   9.8989   9.9131   9.9459   9.9594   9.9621   9.9777
     9.9869  10.0264  10.0400  10.0556  10.1251  10.1382  10.2680  10.3243
    10.3322  11.0528  12.2898  12.4166  12.4336  13.9573  14.6905  14.7963
    17.3415  17.3769  17.4072  17.5244  17.5747  17.5822  17.8515  17.9260
    17.9369  18.0356  18.0607  18.3708  18.9929  19.0026  19.0240  20.6931
    20.7997  20.8239  20.8765  20.9454  20.9488  21.0292  21.0305  21.0439

     occupation numbers 
     1.0000   1.0000   1.0000   1.0000   1.0000   1.0000   1.0000   1.0000
     1.0000   1.0000   1.0000   1.0000   1.0000   1.0000   1.0000   1.0000
     1.0000   1.0000   1.0000   1.0000   1.0000   1.0000   1.0000   1.0000
     1.0000   1.0000   1.0000   1.0000   1.0000   1.0000   1.0000   1.0000
     1.0000   1.0000   1.0000   1.0000   1.0000   1.0000   1.0000   1.0000
     1.0000   1.0000   1.0000   1.0000   1.0000   1.0000   1.0000   1.0000
     1.0000   1.0000   1.0000   1.0000   1.0000   1.0000   1.0000   1.0000
     1.0000   1.0000   1.0000   1.0000   1.0000   1.0000   1.0000   1.0000
     1.0000   1.0000   1.0000   1.0000   1.0000   1.0000   1.0000   1.0000
     1.0000   1.0000   1.0000   1.0000   1.0000   1.0000   1.0000   1.0000
     1.0000   1.0000   1.0000   1.0000   1.0000   1.0000   1.0000   1.0000
     1.0000   1.0000   1.0000   1.0000   1.0000   1.0000   1.0000   1.0000
     1.0000   1.0000   1.0000   1.0000   1.0000   1.0000   1.0000   1.0000
     1.0000   1.0000   1.0000   1.0000   1.0000   1.0000   1.0000   1.0000
     1.0000   1.0000   1.0000   1.0000   1.0000   1.0000   1.0000   1.0000
     1.0000   1.0000   1.0000   1.0000   1.0000   1.0000   1.0000   1.0000
     0.0000   0.0000   0.0000   0.0000   0.0000   0.0000   0.0000   0.0000
     0.0000   0.0000   0.0000   0.0000   0.0000   0.0000   0.0000   0.0000
     0.0000   0.0000   0.0000   0.0000   0.0000   0.0000   0.0000   0.0000

 ------ SPIN DOWN ----------


          k = 0.0000 0.0000 0.0000 (  7386 PWs)   bands (ev):

    -8.5256  -6.9078  -6.2640  -6.2479  -6.1495  -6.1174  -5.8431  -4.8960
    -4.1224  -4.1061  -4.0843  -4.0611  -3.9980  -3.9830  -3.9654  -3.9049
    -3.8372  -3.8211  -3.3180  -2.9139  -2.6219  -2.6196  -2.0144  -0.3442
    -0.3367  -0.3057  -0.2635  -0.0130   0.1909   0.2090   0.3196   0.3286
     0.3917   0.6531   0.8483   0.8554   0.9868   0.9997   1.0107   1.0711
     1.0775   1.0826   1.4359   1.4688   3.1861   3.9315   3.9468   4.0950
     4.2225   4.2510   4.2632   4.2893   4.2983   4.3152   4.4670   4.4713
     4.5174   4.5202   4.5898   4.6843   4.7000   4.7080   4.7128   4.8226
     4.8354   4.9333   5.0008   5.0020   5.1313   5.2312   5.2439   5.3259
     5.3720   5.3815   5.4187   5.4523   5.4710   6.1022   6.1073   6.1396
     6.6862   6.6929   6.7605   7.0771   7.0868   7.1038   7.6955   8.3723
     8.3757   8.4489   8.5000   8.5290   8.7210   8.7398   8.8232   8.8747
     8.8828   8.8924   8.9205   8.9316   8.9333   9.3238   9.3261   9.3515
     9.7138   9.7299   9.9303   9.9386   9.9585   9.9735   9.9762   9.9969
    10.0071  10.0613  10.0693  10.0785  10.1527  10.1644  10.3257  10.3788
    10.3873  11.4340  12.5553  12.5692  12.6066  14.4401  16.0193  16.1390
    17.3662  17.3942  17.4240  17.5521  17.6299  17.6393  17.8742  17.9455
    17.9551  18.0757  18.1012  18.4903  19.0408  19.0814  19.1112  20.7436
    20.8140  20.8380  20.8912  20.9620  20.9661  21.0457  21.0573  21.0627

     occupation numbers 
     1.0000   1.0000   1.0000   1.0000   1.0000   1.0000   1.0000   1.0000
     1.0000   1.0000   1.0000   1.0000   1.0000   1.0000   1.0000   1.0000
     1.0000   1.0000   1.0000   1.0000   1.0000   1.0000   1.0000   1.0000
     1.0000   1.0000   1.0000   1.0000   1.0000   1.0000   1.0000   1.0000
     1.0000   1.0000   1.0000   1.0000   1.0000   1.0000   1.0000   1.0000
     1.0000   1.0000   1.0000   1.0000   1.0000   1.0000   1.0000   1.0000
     1.0000   1.0000   1.0000   1.0000   1.0000   1.0000   1.0000   1.0000
     1.0000   1.0000   1.0000   1.0000   1.0000   1.0000   1.0000   1.0000
     1.0000   1.0000   1.0000   1.0000   1.0000   1.0000   1.0000   1.0000
     1.0000   1.0000   1.0000   1.0000   1.0000   1.0000   1.0000   1.0000
     1.0000   1.0000   1.0000   1.0000   1.0000   1.0000   1.0000   1.0000
     1.0000   1.0000   1.0000   1.0000   1.0000   1.0000   1.0000   1.0000
     1.0000   1.0000   1.0000   1.0000   1.0000   1.0000   1.0000   1.0000
     1.0000   1.0000   1.0000   1.0000   1.0000   1.0000   1.0000   1.0000
     1.0000   1.0000   1.0000   1.0000   1.0000   1.0000   1.0000   1.0000
     1.0000   1.0000   1.0000   1.0000   1.0000   1.0000   0.0000   0.0000
     0.0000   0.0000   0.0000   0.0000   0.0000   0.0000   0.0000   0.0000
     0.0000   0.0000   0.0000   0.0000   0.0000   0.0000   0.0000   0.0000
     0.0000   0.0000   0.0000   0.0000   0.0000   0.0000   0.0000   0.0000

     highest occupied, lowest unoccupied level (ev):    14.7963   16.0193

!    total energy              =    -723.90721925 Ry
     estimated scf accuracy    <          5.5E-09 Ry

     The total energy is the sum of the following terms:
     one-electron contribution =     232.25754506 Ry
     hartree contribution      =      70.34897361 Ry
     xc contribution           =    -226.77201147 Ry
     ewald contribution        =    -799.74172645 Ry

     total magnetization       =     2.00 Bohr mag/cell
     absolute magnetization    =     2.30 Bohr mag/cell

     convergence has been achieved in  14 iterations

     Forces acting on atoms (cartesian axes, Ry/au):

     atom    1 type  1   force =    -0.00272064   -0.00397349   -0.00257158
     atom    2 type  2   force =     0.03424596    0.02031789   -0.01509982
     atom    3 type  2   force =    -0.00898812    0.00812067    0.00670035
     atom    4 type  2   force =     0.00875092    0.02481856   -0.00279713
     atom    5 type  2   force =     0.00229133   -0.02119948    0.00164971
     atom    6 type  2   force =    -0.00838525    0.00821081    0.04347391
     atom    7 type  2   force =     0.01023576    0.01205198   -0.00213185
     atom    8 type  2   force =     0.00312603    0.00442726    0.00640408
     atom    9 type  2   force =    -0.00207807   -0.00471897   -0.00297087
     atom   10 type  2   force =     0.00084168    0.00126564    0.00737470
     atom   11 type  2   force =    -0.02897460    0.00542874   -0.00851409
     atom   12 type  2   force =    -0.00008694    0.00386524    0.00339902
     atom   13 type  2   force =    -0.00283569   -0.03985804   -0.00186619
     atom   14 type  2   force =     0.00350638    0.00225702   -0.00434805
     atom   15 type  2   force =    -0.00279216   -0.00148017   -0.00567956
     atom   16 type  2   force =     0.00105558    0.00277406   -0.00185654
     atom   17 type  2   force =    -0.00072611    0.00699531   -0.00011294
     atom   18 type  2   force =     0.00283309   -0.00026356    0.00093986
     atom   19 type  2   force =    -0.00915581   -0.00316840   -0.00523105
     atom   20 type  2   force =     0.00294279   -0.00440525    0.00354022
     atom   21 type  2   force =    -0.00115553   -0.00404495   -0.00214522
     atom   22 type  2   force =     0.00151539    0.00216239    0.00133851
     atom   23 type  2   force =    -0.00055781   -0.00711485   -0.00162784
     atom   24 type  2   force =     0.00967196    0.00539636    0.00423592
     atom   25 type  2   force =    -0.01233706   -0.01378956   -0.00403163
     atom   26 type  2   force =     0.01480749    0.00616498    0.00162961
     atom   27 type  2   force =    -0.02571924   -0.00862665   -0.00642489
     atom   28 type  2   force =     0.01039666    0.00082465    0.00597726
     atom   29 type  2   force =    -0.00012887   -0.00162800   -0.00125782
     atom   30 type  2   force =     0.00772684    0.00651747    0.00414391
     atom   31 type  2   force =     0.00104466   -0.00157648   -0.00351119
     atom   32 type  2   force =     0.00327390    0.00392073    0.00133257
     atom   33 type  2   force =     0.00117315   -0.00383209    0.00018034
     atom   34 type  2   force =    -0.00476694    0.00164733    0.00361153
     atom   35 type  2   force =    -0.00477275   -0.00146086   -0.00357694
     atom   36 type  2   force =     0.00053868    0.00428381   -0.00010942
     atom   37 type  2   force =     0.00019921   -0.03202118   -0.00774329
     atom   38 type  2   force =     0.00793241    0.00559934    0.00044097
     atom   39 type  2   force =    -0.01087106   -0.01165328   -0.01208295
     atom   40 type  2   force =     0.00539980    0.01262642    0.00494923
     atom   41 type  2   force =    -0.00742303   -0.01541267   -0.00366216
     atom   42 type  2   force =    -0.00018131    0.01754176    0.00595416
     atom   43 type  2   force =    -0.00125934    0.00016035   -0.00138739
     atom   44 type  2   force =     0.00452812    0.01713341    0.00306510
     atom   45 type  2   force =    -0.00710460   -0.02590755   -0.00598170
     atom   46 type  2   force =     0.00646334    0.01598375    0.00115834
     atom   47 type  2   force =    -0.00120684    0.00131024   -0.00184929
     atom   48 type  2   force =     0.00490321    0.00550053    0.00777891
     atom   49 type  2   force =    -0.00861913   -0.01350126   -0.00986259
     atom   50 type  2   force =     0.00422199    0.00665959    0.00334770
     atom   51 type  2   force =    -0.00395437   -0.00184387    0.00026708
     atom   52 type  2   force =     0.00621616    0.00525972    0.00550887
     atom   53 type  2   force =    -0.00198321   -0.00235839    0.00029879
     atom   54 type  2   force =     0.00263537    0.00538319    0.01401566
     atom   55 type  2   force =    -0.00711314   -0.00842651   -0.02497015
     atom   56 type  2   force =     0.00485776    0.00473500    0.00462893
     atom   57 type  2   force =    -0.00171107   -0.00064669   -0.00223451
     atom   58 type  2   force =     0.00144930    0.00404413    0.00329361
     atom   59 type  2   force =    -0.00124921   -0.00272460   -0.00374946
     atom   60 type  2   force =     0.00262293    0.00188560    0.00237758
     atom   61 type  2   force =    -0.00306497   -0.00126565   -0.00442572
     atom   62 type  2   force =     0.00413920    0.00453414    0.00119792
     atom   63 type  2   force =    -0.00362418   -0.00290563   -0.00040052
     The non-local contrib.  to forces
     atom    1 type  1   force =    -0.76084717   -0.76469854   -0.75884778
     atom    2 type  2   force =    -0.16733561    0.22623099    0.17773473
     atom    3 type  2   force =     0.05801314    0.08179274    0.07370063
     atom    4 type  2   force =     0.21475139   -0.18825522    0.19763955
     atom    5 type  2   force =     0.07302414    0.04252211    0.07012282
     atom    6 type  2   force =     0.17942120    0.20450592   -0.14658577
     atom    7 type  2   force =     0.07739008    0.08315028    0.06434127
     atom    8 type  2   force =    -0.00467187   -0.00426968    0.05619907
     atom    9 type  2   force =    -0.00566802   -0.00784205    0.01318541
     atom   10 type  2   force =    -0.04426503   -0.01396852   -0.01160292
     atom   11 type  2   force =    -0.10498071    0.06810808   -0.08220965
     atom   12 type  2   force =    -0.01738950   -0.04101664   -0.01463765
     atom   13 type  2   force =     0.05207140   -0.11655820   -0.07329483
     atom   14 type  2   force =     0.00306868    0.00038694    0.04589732
     atom   15 type  2   force =     0.00999373    0.00941715   -0.00380792
     atom   16 type  2   force =    -0.01201255    0.05209365   -0.01353835
     atom   17 type  2   force =    -0.00411386    0.02796744   -0.00327762
     atom   18 type  2   force =    -0.04105813   -0.02231271   -0.01572085
     atom   19 type  2   force =    -0.08119239   -0.07911195    0.05517478
     atom   20 type  2   force =     0.00461174    0.04511937    0.00481411
     atom   21 type  2   force =     0.01083178   -0.00321962    0.01130742
     atom   22 type  2   force =    -0.01427444   -0.02011507   -0.04250319
     atom   23 type  2   force =     0.06353595   -0.08433807   -0.07271454
     atom   24 type  2   force =    -0.06485612    0.03340116    0.03432088
     atom   25 type  2   force =    -0.02438626    0.00031710    0.01389077
     atom   26 type  2   force =    -0.04190263   -0.02056894   -0.02378644
     atom   27 type  2   force =    -0.14706726    0.12500554    0.12336871
     atom   28 type  2   force =     0.07976210    0.02329616   -0.01233220
     atom   29 type  2   force =     0.00061493    0.01841019    0.00489933
     atom   30 type  2   force =     0.07665789   -0.01317968    0.02884435
     atom   31 type  2   force =     0.00327790    0.00321084    0.01661460
     atom   32 type  2   force =     0.05313573   -0.00649086   -0.00710449
     atom   33 type  2   force =     0.01871111   -0.00662816   -0.00370389
     atom   34 type  2   force =     0.04489138    0.00128232    0.00405279
     atom   35 type  2   force =    -0.00271312    0.00935720    0.00955807
     atom   36 type  2   force =    -0.01850635   -0.04056852   -0.01792934
     atom   37 type  2   force =    -0.07157592   -0.10784638    0.04701577
     atom   38 type  2   force =    -0.01285630   -0.01000392   -0.04465517
     atom   39 type  2   force =    -0.08683691    0.04912110   -0.08517678
     atom   40 type  2   force =     0.03500631   -0.05847954    0.03544122
     atom   41 type  2   force =     0.00906719   -0.02632403    0.01405485
     atom   42 type  2   force =     0.02056058    0.08865103   -0.01028523
     atom   43 type  2   force =     0.01610732    0.00069360    0.00282206
     atom   44 type  2   force =    -0.02267525   -0.03694005   -0.02328731
     atom   45 type  2   force =     0.12494159   -0.14701962    0.12478837
     atom   46 type  2   force =    -0.00993878    0.08717358    0.02298521
     atom   47 type  2   force =     0.00325800    0.00116394    0.01617423
     atom   48 type  2   force =     0.03355466    0.03330235   -0.06819489
     atom   49 type  2   force =     0.00804191    0.00056778   -0.02284788
     atom   50 type  2   force =     0.02947101   -0.01448886    0.07121552
     atom   51 type  2   force =     0.01699125    0.00351471    0.00337038
     atom   52 type  2   force =    -0.01356100    0.02848467    0.07222329
     atom   53 type  2   force =     0.00466638    0.01859970    0.00212956
     atom   54 type  2   force =    -0.02262733   -0.02083884   -0.04380339
     atom   55 type  2   force =     0.12335283    0.12429285   -0.14646662
     atom   56 type  2   force =     0.02338304    0.02373122    0.02146664
     atom   57 type  2   force =     0.00510517    0.00494640    0.00528981
     atom   58 type  2   force =     0.01617379   -0.00642331   -0.01004450
     atom   59 type  2   force =     0.00791754   -0.01442814   -0.01542352
     atom   60 type  2   force =    -0.01010800    0.01839374   -0.01157441
     atom   61 type  2   force =    -0.01487369    0.00936593   -0.01591645
     atom   62 type  2   force =    -0.00828465   -0.00583546    0.01536524
     atom   63 type  2   force =    -0.01571137   -0.01472390    0.00841365
     The ionic contribution  to forces
     atom    1 type  1   force =     2.98105013    2.96324154    3.00074235
     atom    2 type  2   force =     2.38750133   -2.06188661   -2.24609619
     atom    3 type  2   force =     0.48074946   -0.73577694   -0.85247010
     atom    4 type  2   force =    -2.09107770    2.33569232   -2.15795136
     atom    5 type  2   force =    -0.77877354    0.40114697   -0.82689227
     atom    6 type  2   force =    -2.18846547   -2.10048430    2.46087432
     atom    7 type  2   force =    -0.82406158   -0.75187967    0.53706797
     atom    8 type  2   force =     0.25627055    0.21723424   -0.72830993
     atom    9 type  2   force =     0.06524989    0.02660284   -0.22426204
     atom   10 type  2   force =     0.17902750    0.06892722    0.56800955
     atom   11 type  2   force =    -0.52796016   -0.63250387    0.80324139
     atom   12 type  2   force =     0.02808741    0.16158407    0.55096173
     atom   13 type  2   force =    -0.66310278   -0.56628370    0.76190419
     atom   14 type  2   force =    -0.19480091   -0.18119795   -0.71538618
     atom   15 type  2   force =    -0.16883861   -0.13180139   -0.06820131
     atom   16 type  2   force =     0.22520666   -0.77402885    0.19978473
     atom   17 type  2   force =     0.07960742   -0.15162295    0.09364553
     atom   18 type  2   force =     0.22540169    0.47678018    0.00457470
     atom   19 type  2   force =    -0.36193622    0.75136112   -0.70683420
     atom   20 type  2   force =    -0.17831964   -0.73262978   -0.18939013
     atom   21 type  2   force =    -0.17444054   -0.05773877   -0.19956303
     atom   22 type  2   force =     0.02879532    0.48060345    0.23669474
     atom   23 type  2   force =    -0.68852510    0.78051371   -0.33160814
     atom   24 type  2   force =     0.10705433   -0.13864861   -0.16808449
     atom   25 type  2   force =    -0.02502423   -0.07916213   -0.07034180
     atom   26 type  2   force =     0.13071260   -0.09164228   -0.05025954
     atom   27 type  2   force =     1.14058194    0.24683553    0.25024987
     atom   28 type  2   force =    -0.08144103   -0.13696937    0.11235859
     atom   29 type  2   force =    -0.15446633    0.03140564    0.25628017
     atom   30 type  2   force =    -0.01941646    0.13927672   -0.23439218
     atom   31 type  2   force =    -0.15306131    0.17397731   -0.00827811
     atom   32 type  2   force =    -0.74240722    0.19734114    0.26273255
     atom   33 type  2   force =    -0.19391454    0.03383537    0.09146146
     atom   34 type  2   force =    -0.71538298   -0.17830259   -0.20025709
     atom   35 type  2   force =    -0.06357743   -0.13926885   -0.19789955
     atom   36 type  2   force =     0.51768047    0.18279519    0.00057973
     atom   37 type  2   force =     0.73649018   -0.49580817   -0.70085491
     atom   38 type  2   force =     0.56428446    0.07206781    0.23407797
     atom   39 type  2   force =     0.79933884   -0.70121037   -0.42438457
     atom   40 type  2   force =    -0.19632919    0.06334612   -0.21020267
     atom   41 type  2   force =    -0.06984522   -0.08764966   -0.06851420
     atom   42 type  2   force =    -0.13066696    0.02581578    0.08962238
     atom   43 type  2   force =     0.03287626   -0.11931103    0.25397238
     atom   44 type  2   force =    -0.07117013    0.12487343   -0.05317721
     atom   45 type  2   force =     0.24391213    1.16352232    0.25620957
     atom   46 type  2   force =     0.10090321    0.04841459   -0.17234090
     atom   47 type  2   force =     0.22346147   -0.11719810    0.01660368
     atom   48 type  2   force =    -0.13420768   -0.11288347    0.13670849
     atom   49 type  2   force =    -0.08275141   -0.07716971    0.00717708
     atom   50 type  2   force =    -0.23776857    0.15517795   -0.08240793
     atom   51 type  2   force =    -0.00974505    0.17742734   -0.18039622
     atom   52 type  2   force =     0.11310641   -0.17519248   -0.09722125
     atom   53 type  2   force =     0.22798133    0.01811391   -0.17377370
     atom   54 type  2   force =    -0.06561082   -0.08328201    0.13652151
     atom   55 type  2   force =     0.24488680    0.25169985    1.13197268
     atom   56 type  2   force =    -0.09158697   -0.03119343   -0.12414802
     atom   57 type  2   force =    -0.02323713   -0.03439418   -0.01942052
     atom   58 type  2   force =    -0.07709440    0.04915629    0.03977503
     atom   59 type  2   force =    -0.28478945    0.07989131    0.15396109
     atom   60 type  2   force =     0.05916290   -0.03797202    0.05658295
     atom   61 type  2   force =     0.13136240   -0.29863772    0.15072327
     atom   62 type  2   force =     0.02965460    0.03914059   -0.09816141
     atom   63 type  2   force =     0.12339904    0.07592910   -0.27359047
     The local contribution  to forces
     atom    1 type  1   force =    -2.22298342   -2.20252092   -2.24452122
     atom    2 type  2   force =    -2.18598873    1.85595791    2.05320778
     atom    3 type  2   force =    -0.54784889    0.66205682    0.78540598
     atom    4 type  2   force =     1.88498882   -2.12263501    1.95746244
     atom    5 type  2   force =     0.70793779   -0.46488245    0.75837456
     atom    6 type  2   force =     2.00056760    1.90417569   -2.27087477
     atom    7 type  2   force =     0.75680109    0.68075135   -0.60361221
     atom    8 type  2   force =    -0.24853342   -0.20853701    0.67846296
     atom    9 type  2   force =    -0.06172686   -0.02348710    0.20805038
     atom   10 type  2   force =    -0.13397454   -0.05371679   -0.54908501
     atom   11 type  2   force =     0.60390419    0.56979046   -0.72959244
     atom   12 type  2   force =    -0.01086655   -0.11672018   -0.53297626
     atom   13 type  2   force =     0.60809678    0.64297095   -0.69053318
     atom   14 type  2   force =     0.19513767    0.18304672    0.66509465
     atom   15 type  2   force =     0.15594317    0.12086643    0.06629530
     atom   16 type  2   force =    -0.21220034    0.72465318   -0.18814833
     atom   17 type  2   force =    -0.07628896    0.13058528   -0.09054074
     atom   18 type  2   force =    -0.18157020   -0.45478292    0.01202326
     atom   19 type  2   force =     0.43390509   -0.67544518    0.64637926
     atom   20 type  2   force =     0.17655109    0.68305488    0.18805520
     atom   21 type  2   force =     0.16234596    0.05686919    0.18605500
     atom   22 type  2   force =    -0.01308185   -0.45837531   -0.19291719
     atom   23 type  2   force =     0.62434236   -0.70332963    0.40262467
     atom   24 type  2   force =    -0.03258423    0.11057902    0.13793611
     atom   25 type  2   force =     0.03700902    0.06499899    0.05237174
     atom   26 type  2   force =    -0.07406659    0.11833323    0.07563052
     atom   27 type  2   force =    -1.01930574   -0.38049464   -0.38009646
     atom   28 type  2   force =     0.01199650    0.11444759   -0.09409599
     atom   29 type  2   force =     0.15362885   -0.05149804   -0.26248849
     atom   30 type  2   force =    -0.04959407   -0.11962779    0.20964669
     atom   31 type  2   force =     0.15073052   -0.17879392   -0.01189261
     atom   32 type  2   force =     0.69244797   -0.18695712   -0.25436058
     atom   33 type  2   force =     0.17629041   -0.03105300   -0.08763768
     atom   34 type  2   force =     0.66563180    0.17864647    0.19975508
     atom   35 type  2   force =     0.06144262    0.12840729    0.18470105
     atom   36 type  2   force =    -0.49871025   -0.13794277    0.01717465
     atom   37 type  2   force =    -0.66476872    0.57164918    0.64602577
     atom   38 type  2   force =    -0.54356938   -0.05648648   -0.18902300
     atom   39 type  2   force =    -0.72342723    0.64038726    0.49744282
     atom   40 type  2   force =     0.16661588    0.00774063    0.17967010
     atom   41 type  2   force =     0.05325401    0.09854038    0.05074919
     atom   42 type  2   force =     0.10981054   -0.09694582   -0.07343012
     atom   43 type  2   force =    -0.05035044    0.11874958   -0.25822704
     atom   44 type  2   force =     0.09828620   -0.07082767    0.07948561
     atom   45 type  2   force =    -0.37602148   -1.04243258   -0.38701975
     atom   46 type  2   force =    -0.08456907   -0.11962548    0.15044474
     atom   47 type  2   force =    -0.22798340    0.11730510   -0.03469526
     atom   48 type  2   force =     0.10545123    0.08504187   -0.06080031
     atom   49 type  2   force =     0.06599123    0.06304803    0.00573338
     atom   50 type  2   force =     0.21240955   -0.13407547    0.01447343
     atom   51 type  2   force =    -0.01130658   -0.18280892    0.17723862
     atom   52 type  2   force =    -0.09339764    0.15189906    0.03044433
     atom   53 type  2   force =    -0.23468921   -0.03914775    0.17188360
     atom   54 type  2   force =     0.09078134    0.10945960   -0.07877132
     atom   55 type  2   force =    -0.37542153   -0.38443741   -1.01054825
     atom   56 type  2   force =     0.07295413    0.01215263    0.10726759
     atom   57 type  2   force =     0.01631971    0.02875625    0.01186329
     atom   58 type  2   force =     0.06226935   -0.03873281   -0.02647670
     atom   59 type  2   force =     0.27552427   -0.06822467   -0.14233750
     atom   60 type  2   force =    -0.04652034    0.02142927   -0.04267319
     atom   61 type  2   force =    -0.11962785    0.28796107   -0.13928100
     atom   62 type  2   force =    -0.01731628   -0.02881562    0.08395839
     atom   63 type  2   force =    -0.11138200   -0.06413915    0.26474103
     The core correction contribution to forces
     atom    1 type  1   force =     0.00000000    0.00000000    0.00000000
     atom    2 type  2   force =     0.00000000    0.00000000    0.00000000
     atom    3 type  2   force =     0.00000000    0.00000000    0.00000000
     atom    4 type  2   force =     0.00000000    0.00000000    0.00000000
     atom    5 type  2   force =     0.00000000    0.00000000    0.00000000
     atom    6 type  2   force =     0.00000000    0.00000000    0.00000000
     atom    7 type  2   force =     0.00000000    0.00000000    0.00000000
     atom    8 type  2   force =     0.00000000    0.00000000    0.00000000
     atom    9 type  2   force =     0.00000000    0.00000000    0.00000000
     atom   10 type  2   force =     0.00000000    0.00000000    0.00000000
     atom   11 type  2   force =     0.00000000    0.00000000    0.00000000
     atom   12 type  2   force =     0.00000000    0.00000000    0.00000000
     atom   13 type  2   force =     0.00000000    0.00000000    0.00000000
     atom   14 type  2   force =     0.00000000    0.00000000    0.00000000
     atom   15 type  2   force =     0.00000000    0.00000000    0.00000000
     atom   16 type  2   force =     0.00000000    0.00000000    0.00000000
     atom   17 type  2   force =     0.00000000    0.00000000    0.00000000
     atom   18 type  2   force =     0.00000000    0.00000000    0.00000000
     atom   19 type  2   force =     0.00000000    0.00000000    0.00000000
     atom   20 type  2   force =     0.00000000    0.00000000    0.00000000
     atom   21 type  2   force =     0.00000000    0.00000000    0.00000000
     atom   22 type  2   force =     0.00000000    0.00000000    0.00000000
     atom   23 type  2   force =     0.00000000    0.00000000    0.00000000
     atom   24 type  2   force =     0.00000000    0.00000000    0.00000000
     atom   25 type  2   force =     0.00000000    0.00000000    0.00000000
     atom   26 type  2   force =     0.00000000    0.00000000    0.00000000
     atom   27 type  2   force =     0.00000000    0.00000000    0.00000000
     atom   28 type  2   force =     0.00000000    0.00000000    0.00000000
     atom   29 type  2   force =     0.00000000    0.00000000    0.00000000
     atom   30 type  2   force =     0.00000000    0.00000000    0.00000000
     atom   31 type  2   force =     0.00000000    0.00000000    0.00000000
     atom   32 type  2   force =     0.00000000    0.00000000    0.00000000
     atom   33 type  2   force =     0.00000000    0.00000000    0.00000000
     atom   34 type  2   force =     0.00000000    0.00000000    0.00000000
     atom   35 type  2   force =     0.00000000    0.00000000    0.00000000
     atom   36 type  2   force =     0.00000000    0.00000000    0.00000000
     atom   37 type  2   force =     0.00000000    0.00000000    0.00000000
     atom   38 type  2   force =     0.00000000    0.00000000    0.00000000
     atom   39 type  2   force =     0.00000000    0.00000000    0.00000000
     atom   40 type  2   force =     0.00000000    0.00000000    0.00000000
     atom   41 type  2   force =     0.00000000    0.00000000    0.00000000
     atom   42 type  2   force =     0.00000000    0.00000000    0.00000000
     atom   43 type  2   force =     0.00000000    0.00000000    0.00000000
     atom   44 type  2   force =     0.00000000    0.00000000    0.00000000
     atom   45 type  2   force =     0.00000000    0.00000000    0.00000000
     atom   46 type  2   force =     0.00000000    0.00000000    0.00000000
     atom   47 type  2   force =     0.00000000    0.00000000    0.00000000
     atom   48 type  2   force =     0.00000000    0.00000000    0.00000000
     atom   49 type  2   force =     0.00000000    0.00000000    0.00000000
     atom   50 type  2   force =     0.00000000    0.00000000    0.00000000
     atom   51 type  2   force =     0.00000000    0.00000000    0.00000000
     atom   52 type  2   force =     0.00000000    0.00000000    0.00000000
     atom   53 type  2   force =     0.00000000    0.00000000    0.00000000
     atom   54 type  2   force =     0.00000000    0.00000000    0.00000000
     atom   55 type  2   force =     0.00000000    0.00000000    0.00000000
     atom   56 type  2   force =     0.00000000    0.00000000    0.00000000
     atom   57 type  2   force =     0.00000000    0.00000000    0.00000000
     atom   58 type  2   force =     0.00000000    0.00000000    0.00000000
     atom   59 type  2   force =     0.00000000    0.00000000    0.00000000
     atom   60 type  2   force =     0.00000000    0.00000000    0.00000000
     atom   61 type  2   force =     0.00000000    0.00000000    0.00000000
     atom   62 type  2   force =     0.00000000    0.00000000    0.00000000
     atom   63 type  2   force =     0.00000000    0.00000000    0.00000000
     The Hubbard contrib.    to forces
     atom    1 type  1   force =     0.00000000    0.00000000    0.00000000
     atom    2 type  2   force =     0.00000000    0.00000000    0.00000000
     atom    3 type  2   force =     0.00000000    0.00000000    0.00000000
     atom    4 type  2   force =     0.00000000    0.00000000    0.00000000
     atom    5 type  2   force =     0.00000000    0.00000000    0.00000000
     atom    6 type  2   force =     0.00000000    0.00000000    0.00000000
     atom    7 type  2   force =     0.00000000    0.00000000    0.00000000
     atom    8 type  2   force =     0.00000000    0.00000000    0.00000000
     atom    9 type  2   force =     0.00000000    0.00000000    0.00000000
     atom   10 type  2   force =     0.00000000    0.00000000    0.00000000
     atom   11 type  2   force =     0.00000000    0.00000000    0.00000000
     atom   12 type  2   force =     0.00000000    0.00000000    0.00000000
     atom   13 type  2   force =     0.00000000    0.00000000    0.00000000
     atom   14 type  2   force =     0.00000000    0.00000000    0.00000000
     atom   15 type  2   force =     0.00000000    0.00000000    0.00000000
     atom   16 type  2   force =     0.00000000    0.00000000    0.00000000
     atom   17 type  2   force =     0.00000000    0.00000000    0.00000000
     atom   18 type  2   force =     0.00000000    0.00000000    0.00000000
     atom   19 type  2   force =     0.00000000    0.00000000    0.00000000
     atom   20 type  2   force =     0.00000000    0.00000000    0.00000000
     atom   21 type  2   force =     0.00000000    0.00000000    0.00000000
     atom   22 type  2   force =     0.00000000    0.00000000    0.00000000
     atom   23 type  2   force =     0.00000000    0.00000000    0.00000000
     atom   24 type  2   force =     0.00000000    0.00000000    0.00000000
     atom   25 type  2   force =     0.00000000    0.00000000    0.00000000
     atom   26 type  2   force =     0.00000000    0.00000000    0.00000000
     atom   27 type  2   force =     0.00000000    0.00000000    0.00000000
     atom   28 type  2   force =     0.00000000    0.00000000    0.00000000
     atom   29 type  2   force =     0.00000000    0.00000000    0.00000000
     atom   30 type  2   force =     0.00000000    0.00000000    0.00000000
     atom   31 type  2   force =     0.00000000    0.00000000    0.00000000
     atom   32 type  2   force =     0.00000000    0.00000000    0.00000000
     atom   33 type  2   force =     0.00000000    0.00000000    0.00000000
     atom   34 type  2   force =     0.00000000    0.00000000    0.00000000
     atom   35 type  2   force =     0.00000000    0.00000000    0.00000000
     atom   36 type  2   force =     0.00000000    0.00000000    0.00000000
     atom   37 type  2   force =     0.00000000    0.00000000    0.00000000
     atom   38 type  2   force =     0.00000000    0.00000000    0.00000000
     atom   39 type  2   force =     0.00000000    0.00000000    0.00000000
     atom   40 type  2   force =     0.00000000    0.00000000    0.00000000
     atom   41 type  2   force =     0.00000000    0.00000000    0.00000000
     atom   42 type  2   force =     0.00000000    0.00000000    0.00000000
     atom   43 type  2   force =     0.00000000    0.00000000    0.00000000
     atom   44 type  2   force =     0.00000000    0.00000000    0.00000000
     atom   45 type  2   force =     0.00000000    0.00000000    0.00000000
     atom   46 type  2   force =     0.00000000    0.00000000    0.00000000
     atom   47 type  2   force =     0.00000000    0.00000000    0.00000000
     atom   48 type  2   force =     0.00000000    0.00000000    0.00000000
     atom   49 type  2   force =     0.00000000    0.00000000    0.00000000
     atom   50 type  2   force =     0.00000000    0.00000000    0.00000000
     atom   51 type  2   force =     0.00000000    0.00000000    0.00000000
     atom   52 type  2   force =     0.00000000    0.00000000    0.00000000
     atom   53 type  2   force =     0.00000000    0.00000000    0.00000000
     atom   54 type  2   force =     0.00000000    0.00000000    0.00000000
     atom   55 type  2   force =     0.00000000    0.00000000    0.00000000
     atom   56 type  2   force =     0.00000000    0.00000000    0.00000000
     atom   57 type  2   force =     0.00000000    0.00000000    0.00000000
     atom   58 type  2   force =     0.00000000    0.00000000    0.00000000
     atom   59 type  2   force =     0.00000000    0.00000000    0.00000000
     atom   60 type  2   force =     0.00000000    0.00000000    0.00000000
     atom   61 type  2   force =     0.00000000    0.00000000    0.00000000
     atom   62 type  2   force =     0.00000000    0.00000000    0.00000000
     atom   63 type  2   force =     0.00000000    0.00000000    0.00000000
     The SCF correction term to forces
     atom    1 type  1   force =    -0.00002373   -0.00002841    0.00000142
     atom    2 type  2   force =    -0.00001457   -0.00001725    0.00000020
     atom    3 type  2   force =     0.00001463    0.00001521    0.00001019
     atom    4 type  2   force =     0.00000487   -0.00001637   -0.00000140
     atom    5 type  2   force =     0.00001940   -0.00001895   -0.00000905
     atom    6 type  2   force =     0.00000788   -0.00001934    0.00000649
     atom    7 type  2   force =     0.00002264   -0.00000283    0.00001748
     atom    8 type  2   force =    -0.00002276   -0.00003313   -0.00000168
     atom    9 type  2   force =    -0.00001663   -0.00002550    0.00000173
     atom   10 type  2   force =    -0.00002979   -0.00000910   -0.00000057
     atom   11 type  2   force =    -0.00002146    0.00000122   -0.00000704
     atom   12 type  2   force =    -0.00000184   -0.00001485   -0.00000244
     atom   13 type  2   force =     0.00001536   -0.00001993    0.00000398
     atom   14 type  2   force =     0.00001740   -0.00001153   -0.00000750
     atom   15 type  2   force =     0.00002601    0.00000480   -0.00001927
     atom   16 type  2   force =    -0.00002173    0.00002325   -0.00000824
     atom   17 type  2   force =    -0.00001425    0.00003270    0.00000624
     atom   18 type  2   force =    -0.00002380    0.00001905    0.00000911
     atom   19 type  2   force =    -0.00001583   -0.00000523   -0.00000453
     atom   20 type  2   force =     0.00001606    0.00001744    0.00000740
     atom   21 type  2   force =     0.00002373    0.00001140    0.00000174
     atom   22 type  2   force =    -0.00000718    0.00001647    0.00001050
     atom   23 type  2   force =     0.00000544    0.00000630    0.00001652
     atom   24 type  2   force =    -0.00002555    0.00003195    0.00000977
     atom   25 type  2   force =    -0.00001913    0.00002365   -0.00000599
     atom   26 type  2   force =    -0.00001943    0.00001013   -0.00000857
     atom   27 type  2   force =    -0.00001172   -0.00000592   -0.00000065
     atom   28 type  2   force =    -0.00000445    0.00001743   -0.00000679
     atom   29 type  2   force =     0.00001013    0.00002137   -0.00000248
     atom   30 type  2   force =    -0.00000406    0.00001538   -0.00000861
     atom   31 type  2   force =     0.00001401   -0.00000354   -0.00000872
     atom   32 type  2   force =     0.00001387   -0.00000527    0.00001144
     atom   33 type  2   force =     0.00000263   -0.00001914    0.00000680
     atom   34 type  2   force =     0.00000932   -0.00001172    0.00000711
     atom   35 type  2   force =    -0.00000837    0.00001066    0.00000984
     atom   36 type  2   force =    -0.00000872   -0.00003293    0.00001189
     atom   37 type  2   force =    -0.00002988   -0.00004864    0.00001644
     atom   38 type  2   force =    -0.00000991   -0.00001092   -0.00001247
     atom   39 type  2   force =    -0.00002930    0.00001589   -0.00001807
     atom   40 type  2   force =     0.00002326   -0.00001364   -0.00001308
     atom   41 type  2   force =     0.00001744   -0.00001220   -0.00000565
     atom   42 type  2   force =     0.00003100   -0.00001208   -0.00000651
     atom   43 type  2   force =     0.00002399   -0.00000464   -0.00000843
     atom   44 type  2   force =     0.00000377   -0.00000513   -0.00000963
     atom   45 type  2   force =    -0.00002037   -0.00001051   -0.00001353
     atom   46 type  2   force =    -0.00001557   -0.00001178    0.00001563
     atom   47 type  2   force =    -0.00002645    0.00000645    0.00001440
     atom   48 type  2   force =     0.00002145    0.00000694    0.00001196
     atom   49 type  2   force =     0.00001560    0.00001978    0.00002118
     atom   50 type  2   force =     0.00002646    0.00001313    0.00001303
     atom   51 type  2   force =     0.00002247   -0.00000985    0.00000066
     atom   52 type  2   force =    -0.00001516    0.00003563    0.00000885
     atom   53 type  2   force =    -0.00002525    0.00004292    0.00000568
     atom   54 type  2   force =     0.00000864    0.00001161    0.00001521
     atom   55 type  2   force =    -0.00001479   -0.00001464    0.00001839
     atom   56 type  2   force =     0.00002402    0.00001174   -0.00001092
     atom   57 type  2   force =     0.00001764    0.00001200   -0.00002074
     atom   58 type  2   force =     0.00001703    0.00001112   -0.00001387
     atom   59 type  2   force =     0.00001488    0.00000407   -0.00000317
     atom   60 type  2   force =     0.00000483    0.00000177   -0.00001141
     atom   61 type  2   force =    -0.00000937    0.00001223   -0.00000520
     atom   62 type  2   force =     0.00000200    0.00001179   -0.00001794
     atom   63 type  2   force =    -0.00001338   -0.00000453   -0.00001839

     Total force =     0.127565     Total SCF correction =     0.000220

     Writing all to output data dir ./pwscf.save/ :
     XML data file, charge density, pseudopotentials, collected wavefunctions
 
     init_run     :      0.65s CPU      0.73s WALL (       1 calls)
     electrons    :      9.68s CPU      9.95s WALL (       1 calls)
     forces       :      1.57s CPU      1.58s WALL (       1 calls)

     Called by init_run:
     wfcinit      :      0.05s CPU      0.09s WALL (       1 calls)
     wfcinit:wfcr :      0.05s CPU      0.06s WALL (       1 calls)
     potinit      :      0.51s CPU      0.51s WALL (       1 calls)
     hinit0       :      0.03s CPU      0.06s WALL (       1 calls)

     Called by electrons:
     c_bands      :      7.42s CPU      7.61s WALL (      14 calls)
     sum_band     :      1.73s CPU      1.74s WALL (      14 calls)
     v_of_rho     :      0.28s CPU      0.29s WALL (      15 calls)
     v_h          :      0.00s CPU      0.00s WALL (      15 calls)
     v_xc         :      0.27s CPU      0.28s WALL (      15 calls)
     mix_rho      :      0.11s CPU      0.12s WALL (      14 calls)

     Called by c_bands:
     init_us_2    :      0.02s CPU      0.03s WALL (      30 calls)
     regterg      :      6.92s CPU      7.09s WALL (      14 calls)

     Called by sum_band:
     sum_band:wei :      0.01s CPU      0.01s WALL (      14 calls)
     sum_band:loo :      1.67s CPU      1.68s WALL (      14 calls)
     sum_band:buf :      0.00s CPU      0.00s WALL (      14 calls)
     sum_band:ini :      0.01s CPU      0.01s WALL (      14 calls)

     Called by *egterg:
     rdiaghg      :      4.29s CPU      4.41s WALL (     270 calls)
     regterg:over :      0.34s CPU      0.34s WALL (     256 calls)
     regterg:upda :      0.18s CPU      0.18s WALL (     256 calls)
     regterg:last :      0.28s CPU      0.28s WALL (      52 calls)
     rdiaghg:chol :      0.15s CPU      0.15s WALL (     270 calls)
     rdiaghg:inve :      0.03s CPU      0.03s WALL (     270 calls)
     rdiaghg:para :      0.42s CPU      0.43s WALL (     540 calls)
     h_psi        :      1.80s CPU      1.84s WALL (     271 calls)
     g_psi        :      0.00s CPU      0.00s WALL (     256 calls)

     Called by h_psi:
     h_psi:calbec :      0.37s CPU      0.38s WALL (     271 calls)
     vloc_psi     :      1.32s CPU      1.34s WALL (     271 calls)
                                        0.00s GPU  (     271 calls)
     add_vuspsi   :      0.11s CPU      0.11s WALL (     271 calls)

     General routines
     calbec       :      0.39s CPU      0.40s WALL (     275 calls)
     fft          :      0.18s CPU      0.21s WALL (     196 calls)
     ffts         :      0.03s CPU      0.03s WALL (      14 calls)
     fftw         :      2.88s CPU      2.91s WALL (   10130 calls)
 
     Parallel routines
 
     PWSCF        :     21.65s CPU     22.24s WALL

 
   This run was terminated on:  16:37:30  16Nov2025            

=------------------------------------------------------------------------------=
   JOB DONE.
=------------------------------------------------------------------------------=
