
     Program PWSCF v.7.5 starts on 16Nov2025 at 16:38:18 

     This program is part of the open-source Quantum ESPRESSO suite
     for quantum simulation of materials; please cite
         "P. Giannozzi et al., J. Phys.:Condens. Matter 21 395502 (2009);
         "P. Giannozzi et al., J. Phys.:Condens. Matter 29 465901 (2017);
         "P. Giannozzi et al., J. Chem. Phys. 152 154105 (2020);
          URL http://www.quantum-espresso.org", 
     in publications or presentations arising from this work. More details at
     http://www.quantum-espresso.org/quote

     Parallel version (MPI), running on    96 processors

     MPI processes distributed on     2 nodes
     174492 MiB available memory on the printing compute node when the environment starts
 
     Reading input from supercell-235.in

     Current dimensions of program PWSCF are:
     Max number of different atomic species (ntypx) = 10
     Max number of k-points (npk) =  40000
     Max angular momentum in pseudopotentials (lmaxx) =  4

     gamma-point specific algorithms are used
 
     K-points division:     npool     =       2
     R & G space division:  proc/nbgrp/npool/nimage =      48
     Subspace diagonalization in iterative solution of the eigenvalue problem:
     one sub-group per band group will be used
     scalapack distributed-memory algorithm (size of sub-group:  2*  2 procs)

 
     Parallelization info
     --------------------
     sticks:   dense  smooth     PW     G-vecs:    dense   smooth      PW
     Min          59      59     14                 2432     2432     302
     Max          62      62     16                 2442     2442     316
     Sum        2885    2885    725               116921   116921   14771
 
     Using Slab Decomposition
 


     bravais-lattice index     =            0
     lattice parameter (alat)  =      13.4813  a.u.
     unit-cell volume          =    2450.1683 (a.u.)^3
     number of atoms/cell      =           63
     number of atomic types    =            2
     number of electrons       =       254.00 (up: 128.00, down: 126.00)
     number of Kohn-Sham states=          152
     kinetic-energy cutoff     =      50.0000  Ry
     charge density cutoff     =     200.0000  Ry
     scf convergence threshold =      1.0E-08
     mixing beta               =       0.7000
     number of iterations used =            8  plain     mixing
     Exchange-correlation= PBE
                           (   1   4   3   4   0   0   0)

     celldm(1)=  13.481306  celldm(2)=   0.000000  celldm(3)=   0.000000
     celldm(4)=   0.000000  celldm(5)=   0.000000  celldm(6)=   0.000000

     crystal axes: (cart. coord. in units of alat)
               a(1) = (   1.000000   0.000000   0.000000 )  
               a(2) = (   0.000000   1.000000   0.000000 )  
               a(3) = (   0.000000   0.000000   1.000000 )  

     reciprocal axes: (cart. coord. in units 2 pi/alat)
               b(1) = (  1.000000  0.000000  0.000000 )  
               b(2) = (  0.000000  1.000000  0.000000 )  
               b(3) = (  0.000000  0.000000  1.000000 )  


     PseudoPot. # 1 for N  read from file:
     ./N_ONCV_PBE-1.2.upf
     MD5 check sum: 5312fdf34e96954e02a33bdc911c617a
     Pseudo is Norm-conserving, Zval =  5.0
     Generated using ONCVPSP code by D. R. Hamann
     Using radial grid of  602 points,  4 beta functions with: 
                l(1) =   0
                l(2) =   0
                l(3) =   1
                l(4) =   1

     PseudoPot. # 2 for C  read from file:
     ./C_ONCV_PBE-1.2.upf
     MD5 check sum: d60b57d9bdca4133f5fde4b584ee909d
     Pseudo is Norm-conserving, Zval =  4.0
     Generated using ONCVPSP code by D. R. Hamann
     Using radial grid of  602 points,  4 beta functions with: 
                l(1) =   0
                l(2) =   0
                l(3) =   1
                l(4) =   1

     atomic species   valence    mass     pseudopotential
     N                 5.00    14.00670     N ( 1.00)
     C                 4.00    12.01070     C ( 1.00)

     Starting magnetic structure 
     atomic species   magnetization
     N               0.000
     C               0.000

     No symmetry found


                                    s                        frac. trans.

      isym =  1     identity                                     

 cryst.   s( 1) = (     1          0          0      )
                  (     0          1          0      )
                  (     0          0          1      )

 cart.    s( 1) = (  1.0000000  0.0000000  0.0000000 )
                  (  0.0000000  1.0000000  0.0000000 )
                  (  0.0000000  0.0000000  1.0000000 )


   Cartesian axes

     site n.     atom                  positions (alat units)
         1        N      tau(   1) = (   0.9893819   0.9897344   0.9891721  )
         2        C      tau(   2) = (   0.9870277   0.2601210   0.2640728  )
         3        C      tau(   3) = (   0.1231717   0.3731672   0.3742038  )
         4        C      tau(   4) = (   0.2603919   0.9894620   0.2619202  )
         5        C      tau(   5) = (   0.3737632   0.1246771   0.3741571  )
         6        C      tau(   6) = (   0.2640151   0.2616009   0.9853609  )
         7        C      tau(   7) = (   0.3737752   0.3731213   0.1223564  )
         8        C      tau(   8) = (   0.0000049   0.0005840   0.4991361  )
         9        C      tau(   9) = (   0.1251361   0.1251278   0.6250981  )
        10        C      tau(  10) = (   0.0020393   0.2482470   0.7515266  )
        11        C      tau(  11) = (   0.1292009   0.3733021   0.8763303  )
        12        C      tau(  12) = (   0.2487801   0.0017974   0.7514403  )
        13        C      tau(  13) = (   0.3754339   0.1292460   0.8748544  )
        14        C      tau(  14) = (   0.2491579   0.2495268   0.4995755  )
        15        C      tau(  15) = (   0.3750038   0.3749547   0.6244069  )
        16        C      tau(  16) = (   0.0016366   0.4979779   0.0013734  )
        17        C      tau(  17) = (   0.1250869   0.6243147   0.1250807  )
        18        C      tau(  18) = (   0.0014462   0.7520697   0.2483230  )
        19        C      tau(  19) = (   0.1266755   0.8769178   0.3741906  )
        20        C      tau(  20) = (   0.2488290   0.4983596   0.2486760  )
        21        C      tau(  21) = (   0.3741642   0.6242659   0.3742111  )
        22        C      tau(  22) = (   0.2480673   0.7520817   0.0015447  )
        23        C      tau(  23) = (   0.3729914   0.8777475   0.1265606  )
        24        C      tau(  24) = (   0.0000493   0.5010760   0.5011299  )
        25        C      tau(  25) = (   0.1252054   0.6262200   0.6252733  )
        26        C      tau(  26) = (   0.9993969   0.7487112   0.7492532  )
        27        C      tau(  27) = (   0.1217927   0.8768349   0.8763928  )
        28        C      tau(  28) = (   0.2492749   0.5017254   0.7482724  )
        29        C      tau(  29) = (   0.3741000   0.6263042   0.8750769  )
        30        C      tau(  30) = (   0.2487293   0.7486845   0.5007616  )
        31        C      tau(  31) = (   0.3739266   0.8750581   0.6258828  )
        32        C      tau(  32) = (   0.4987543   0.0011228   0.0002828  )
        33        C      tau(  33) = (   0.6248203   0.1251003   0.1251034  )
        34        C      tau(  34) = (   0.4991217   0.2493918   0.2488717  )
        35        C      tau(  35) = (   0.6243080   0.3746888   0.3747831  )
        36        C      tau(  36) = (   0.7516460   0.0016191   0.2487956  )
        37        C      tau(  37) = (   0.8750430   0.1283649   0.3757598  )
        38        C      tau(  38) = (   0.7517475   0.2480080   0.0019610  )
        39        C      tau(  39) = (   0.8773622   0.3724247   0.1282033  )
        40        C      tau(  40) = (   0.5022996   0.9999897   0.5008301  )
        41        C      tau(  41) = (   0.6256173   0.1249721   0.6252590  )
        42        C      tau(  42) = (   0.5022259   0.2488088   0.7478265  )
        43        C      tau(  43) = (   0.6264784   0.3739683   0.8752045  )
        44        C      tau(  44) = (   0.7487945   0.9989046   0.7489691  )
        45        C      tau(  45) = (   0.8764746   0.1216998   0.8763156  )
        46        C      tau(  46) = (   0.7479635   0.2486819   0.5018806  )
        47        C      tau(  47) = (   0.8751980   0.3739245   0.6263738  )
        48        C      tau(  48) = (   0.5012000   0.5011574   0.0001136  )
        49        C      tau(  49) = (   0.6256259   0.6262099   0.1252968  )
        50        C      tau(  50) = (   0.5005188   0.7489091   0.2490095  )
        51        C      tau(  51) = (   0.6258050   0.8750157   0.3740056  )
        52        C      tau(  52) = (   0.7486304   0.5011458   0.2494302  )
        53        C      tau(  53) = (   0.8750247   0.6261269   0.3741365  )
        54        C      tau(  54) = (   0.7492281   0.7488562   0.9996087  )
        55        C      tau(  55) = (   0.8766209   0.8769033   0.1218021  )
        56        C      tau(  56) = (   0.4990819   0.4992903   0.4990317  )
        57        C      tau(  57) = (   0.6247789   0.6244471   0.6249452  )
        58        C      tau(  58) = (   0.4991767   0.7499842   0.7500845  )
        59        C      tau(  59) = (   0.6239946   0.8751464   0.8754130  )
        60        C      tau(  60) = (   0.7505316   0.4989321   0.7505826  )
        61        C      tau(  61) = (   0.8758455   0.6234984   0.8759288  )
        62        C      tau(  62) = (   0.7498244   0.7497799   0.4993198  )
        63        C      tau(  63) = (   0.8750855   0.8749084   0.6242568  )

   Crystallographic axes

     site n.     atom                  positions (cryst. coord.)
         1        N      tau(   1) = (  0.9893819  0.9897344  0.9891721  )
         2        C      tau(   2) = (  0.9870277  0.2601210  0.2640728  )
         3        C      tau(   3) = (  0.1231717  0.3731672  0.3742038  )
         4        C      tau(   4) = (  0.2603919  0.9894620  0.2619202  )
         5        C      tau(   5) = (  0.3737632  0.1246771  0.3741571  )
         6        C      tau(   6) = (  0.2640151  0.2616009  0.9853609  )
         7        C      tau(   7) = (  0.3737752  0.3731213  0.1223564  )
         8        C      tau(   8) = (  0.0000049  0.0005840  0.4991361  )
         9        C      tau(   9) = (  0.1251361  0.1251278  0.6250981  )
        10        C      tau(  10) = (  0.0020393  0.2482470  0.7515266  )
        11        C      tau(  11) = (  0.1292009  0.3733021  0.8763303  )
        12        C      tau(  12) = (  0.2487801  0.0017974  0.7514403  )
        13        C      tau(  13) = (  0.3754339  0.1292460  0.8748544  )
        14        C      tau(  14) = (  0.2491579  0.2495268  0.4995755  )
        15        C      tau(  15) = (  0.3750038  0.3749547  0.6244069  )
        16        C      tau(  16) = (  0.0016366  0.4979779  0.0013734  )
        17        C      tau(  17) = (  0.1250869  0.6243147  0.1250807  )
        18        C      tau(  18) = (  0.0014462  0.7520697  0.2483230  )
        19        C      tau(  19) = (  0.1266755  0.8769178  0.3741906  )
        20        C      tau(  20) = (  0.2488290  0.4983596  0.2486760  )
        21        C      tau(  21) = (  0.3741642  0.6242659  0.3742111  )
        22        C      tau(  22) = (  0.2480673  0.7520817  0.0015447  )
        23        C      tau(  23) = (  0.3729914  0.8777475  0.1265606  )
        24        C      tau(  24) = (  0.0000493  0.5010760  0.5011299  )
        25        C      tau(  25) = (  0.1252054  0.6262200  0.6252733  )
        26        C      tau(  26) = (  0.9993969  0.7487112  0.7492532  )
        27        C      tau(  27) = (  0.1217927  0.8768349  0.8763928  )
        28        C      tau(  28) = (  0.2492749  0.5017254  0.7482724  )
        29        C      tau(  29) = (  0.3741000  0.6263042  0.8750769  )
        30        C      tau(  30) = (  0.2487293  0.7486845  0.5007616  )
        31        C      tau(  31) = (  0.3739266  0.8750581  0.6258828  )
        32        C      tau(  32) = (  0.4987543  0.0011228  0.0002828  )
        33        C      tau(  33) = (  0.6248203  0.1251003  0.1251034  )
        34        C      tau(  34) = (  0.4991217  0.2493918  0.2488717  )
        35        C      tau(  35) = (  0.6243080  0.3746888  0.3747831  )
        36        C      tau(  36) = (  0.7516460  0.0016191  0.2487956  )
        37        C      tau(  37) = (  0.8750430  0.1283649  0.3757598  )
        38        C      tau(  38) = (  0.7517475  0.2480080  0.0019610  )
        39        C      tau(  39) = (  0.8773622  0.3724247  0.1282033  )
        40        C      tau(  40) = (  0.5022996  0.9999897  0.5008301  )
        41        C      tau(  41) = (  0.6256173  0.1249721  0.6252590  )
        42        C      tau(  42) = (  0.5022259  0.2488088  0.7478265  )
        43        C      tau(  43) = (  0.6264784  0.3739683  0.8752045  )
        44        C      tau(  44) = (  0.7487945  0.9989046  0.7489691  )
        45        C      tau(  45) = (  0.8764746  0.1216998  0.8763156  )
        46        C      tau(  46) = (  0.7479635  0.2486819  0.5018806  )
        47        C      tau(  47) = (  0.8751980  0.3739245  0.6263738  )
        48        C      tau(  48) = (  0.5012000  0.5011574  0.0001136  )
        49        C      tau(  49) = (  0.6256259  0.6262099  0.1252968  )
        50        C      tau(  50) = (  0.5005188  0.7489091  0.2490095  )
        51        C      tau(  51) = (  0.6258050  0.8750157  0.3740056  )
        52        C      tau(  52) = (  0.7486304  0.5011458  0.2494302  )
        53        C      tau(  53) = (  0.8750247  0.6261269  0.3741365  )
        54        C      tau(  54) = (  0.7492281  0.7488562  0.9996087  )
        55        C      tau(  55) = (  0.8766209  0.8769033  0.1218021  )
        56        C      tau(  56) = (  0.4990819  0.4992903  0.4990317  )
        57        C      tau(  57) = (  0.6247789  0.6244471  0.6249452  )
        58        C      tau(  58) = (  0.4991767  0.7499842  0.7500845  )
        59        C      tau(  59) = (  0.6239946  0.8751464  0.8754130  )
        60        C      tau(  60) = (  0.7505316  0.4989321  0.7505826  )
        61        C      tau(  61) = (  0.8758455  0.6234984  0.8759288  )
        62        C      tau(  62) = (  0.7498244  0.7497799  0.4993198  )
        63        C      tau(  63) = (  0.8750855  0.8749084  0.6242568  )

     number of k points=     1
                       cart. coord. in units 2pi/alat
        k(    1) = (   0.0000000   0.0000000   0.0000000), wk =   1.0000000

                       cryst. coord.
        k(    1) = (   0.0000000   0.0000000   0.0000000), wk =   1.0000000

     Dense  grid:    58461 G-vectors     FFT dimensions: (  64,  64,  64)

     Dynamical RAM for                 wfc:       0.35 MB

     Dynamical RAM for     wfc (w. buffer):       0.35 MB

     Dynamical RAM for           str. fact:       0.04 MB

     Dynamical RAM for           local pot:       0.00 MB

     Dynamical RAM for          nlocal pot:       1.17 MB

     Dynamical RAM for                qrad:       0.65 MB

     Dynamical RAM for          rho,v,vnew:       0.49 MB

     Dynamical RAM for               rhoin:       0.16 MB

     Dynamical RAM for            rho*nmix:       0.60 MB

     Dynamical RAM for           G-vectors:       0.08 MB

     Dynamical RAM for          h,s,v(r/c):       0.53 MB

     Dynamical RAM for          <psi|beta>:       0.58 MB

     Dynamical RAM for                 psi:       0.71 MB

     Dynamical RAM for                hpsi:       0.71 MB

     Dynamical RAM for      wfcinit/wfcrot:       1.24 MB

     Estimated static dynamical RAM per process >       3.37 MB

     Estimated max dynamical RAM per process >       6.49 MB

     Estimated total dynamical RAM >     594.05 MB
     Generating pointlists ...
     new r_m :   0.0854 (alat units)  1.1518 (a.u.) for type    1
     new r_m :   0.0847 (alat units)  1.1416 (a.u.) for type    2

     Initial potential from superposition of free atoms

     starting charge     252.5655, renormalised to     254.0000
     Starting wfcs are random

     total cpu time spent up to now is        1.1 secs

     Self-consistent Calculation

     iteration #  1     ecut=    50.00 Ry     beta= 0.70
     Davidson diagonalization with overlap

---- Real-time Memory Report at c_bands before calling an iterative solver
           158 MiB given to the printing process from OS
             0 MiB allocation reported by mallinfo(arena+hblkhd)
        173497 MiB available memory on the node where the printing process lives
------------------
     ethr =  1.00E-02,  avg # of iterations = 12.0

     total cpu time spent up to now is        2.1 secs

     total energy              =    -723.26757334 Ry
     estimated scf accuracy    <       3.70844365 Ry

     total magnetization       =     2.00 Bohr mag/cell
     absolute magnetization    =     2.00 Bohr mag/cell

     iteration #  2     ecut=    50.00 Ry     beta= 0.70
     Davidson diagonalization with overlap

---- Real-time Memory Report at c_bands before calling an iterative solver
           164 MiB given to the printing process from OS
             0 MiB allocation reported by mallinfo(arena+hblkhd)
        173435 MiB available memory on the node where the printing process lives
------------------
     ethr =  1.46E-03,  avg # of iterations = 12.0

     total cpu time spent up to now is        3.0 secs

     total energy              =    -723.66065772 Ry
     estimated scf accuracy    <       0.45770505 Ry

     total magnetization       =     2.00 Bohr mag/cell
     absolute magnetization    =     2.08 Bohr mag/cell

     iteration #  3     ecut=    50.00 Ry     beta= 0.70
     Davidson diagonalization with overlap

---- Real-time Memory Report at c_bands before calling an iterative solver
           164 MiB given to the printing process from OS
             0 MiB allocation reported by mallinfo(arena+hblkhd)
        173442 MiB available memory on the node where the printing process lives
------------------
     c_bands:  2 eigenvalues not converged
     ethr =  1.80E-04,  avg # of iterations = 20.0

     total cpu time spent up to now is        3.6 secs

     total energy              =    -723.72658431 Ry
     estimated scf accuracy    <       0.86678390 Ry

     total magnetization       =     2.00 Bohr mag/cell
     absolute magnetization    =     2.12 Bohr mag/cell

     iteration #  4     ecut=    50.00 Ry     beta= 0.70
     Davidson diagonalization with overlap

---- Real-time Memory Report at c_bands before calling an iterative solver
           166 MiB given to the printing process from OS
             0 MiB allocation reported by mallinfo(arena+hblkhd)
        173440 MiB available memory on the node where the printing process lives
------------------
     ethr =  1.80E-04,  avg # of iterations = 17.0

     total cpu time spent up to now is        5.0 secs

     total energy              =    -723.90123130 Ry
     estimated scf accuracy    <       0.00973805 Ry

     total magnetization       =     2.00 Bohr mag/cell
     absolute magnetization    =     2.19 Bohr mag/cell

     iteration #  5     ecut=    50.00 Ry     beta= 0.70
     Davidson diagonalization with overlap

---- Real-time Memory Report at c_bands before calling an iterative solver
           166 MiB given to the printing process from OS
             0 MiB allocation reported by mallinfo(arena+hblkhd)
        173433 MiB available memory on the node where the printing process lives
------------------
     c_bands:  5 eigenvalues not converged
     ethr =  3.83E-06,  avg # of iterations = 20.0

     total cpu time spent up to now is        5.6 secs

     total energy              =    -723.90618424 Ry
     estimated scf accuracy    <       0.00406897 Ry

     total magnetization       =     2.00 Bohr mag/cell
     absolute magnetization    =     2.23 Bohr mag/cell

     iteration #  6     ecut=    50.00 Ry     beta= 0.70
     Davidson diagonalization with overlap

---- Real-time Memory Report at c_bands before calling an iterative solver
           166 MiB given to the printing process from OS
             0 MiB allocation reported by mallinfo(arena+hblkhd)
        173445 MiB available memory on the node where the printing process lives
------------------
     c_bands:  3 eigenvalues not converged
     ethr =  1.60E-06,  avg # of iterations = 20.0

     total cpu time spent up to now is        6.0 secs

     total energy              =    -723.90692733 Ry
     estimated scf accuracy    <       0.00084524 Ry

     total magnetization       =     2.00 Bohr mag/cell
     absolute magnetization    =     2.25 Bohr mag/cell

     iteration #  7     ecut=    50.00 Ry     beta= 0.70
     Davidson diagonalization with overlap

---- Real-time Memory Report at c_bands before calling an iterative solver
           166 MiB given to the printing process from OS
             0 MiB allocation reported by mallinfo(arena+hblkhd)
        173436 MiB available memory on the node where the printing process lives
------------------
     c_bands:  1 eigenvalues not converged
     ethr =  3.33E-07,  avg # of iterations = 20.0

     total cpu time spent up to now is        6.4 secs

     total energy              =    -723.90715010 Ry
     estimated scf accuracy    <       0.00011854 Ry

     total magnetization       =     2.00 Bohr mag/cell
     absolute magnetization    =     2.27 Bohr mag/cell

     iteration #  8     ecut=    50.00 Ry     beta= 0.70
     Davidson diagonalization with overlap

---- Real-time Memory Report at c_bands before calling an iterative solver
           166 MiB given to the printing process from OS
             0 MiB allocation reported by mallinfo(arena+hblkhd)
        173439 MiB available memory on the node where the printing process lives
------------------
     c_bands:  1 eigenvalues not converged
     ethr =  4.67E-08,  avg # of iterations = 20.0

     total cpu time spent up to now is        7.0 secs

     total energy              =    -723.90718926 Ry
     estimated scf accuracy    <       0.00002792 Ry

     total magnetization       =     2.00 Bohr mag/cell
     absolute magnetization    =     2.28 Bohr mag/cell

     iteration #  9     ecut=    50.00 Ry     beta= 0.70
     Davidson diagonalization with overlap

---- Real-time Memory Report at c_bands before calling an iterative solver
           166 MiB given to the printing process from OS
             0 MiB allocation reported by mallinfo(arena+hblkhd)
        173432 MiB available memory on the node where the printing process lives
------------------
     c_bands:  3 eigenvalues not converged
     ethr =  1.10E-08,  avg # of iterations = 20.0

     total cpu time spent up to now is        7.7 secs

     total energy              =    -723.90719943 Ry
     estimated scf accuracy    <       0.00000790 Ry

     total magnetization       =     2.00 Bohr mag/cell
     absolute magnetization    =     2.29 Bohr mag/cell

     iteration # 10     ecut=    50.00 Ry     beta= 0.70
     Davidson diagonalization with overlap

---- Real-time Memory Report at c_bands before calling an iterative solver
           166 MiB given to the printing process from OS
             0 MiB allocation reported by mallinfo(arena+hblkhd)
        173433 MiB available memory on the node where the printing process lives
------------------
     c_bands:  2 eigenvalues not converged
     ethr =  3.11E-09,  avg # of iterations = 20.0

     total cpu time spent up to now is        8.3 secs

     total energy              =    -723.90720300 Ry
     estimated scf accuracy    <       0.00000085 Ry

     total magnetization       =     2.00 Bohr mag/cell
     absolute magnetization    =     2.30 Bohr mag/cell

     iteration # 11     ecut=    50.00 Ry     beta= 0.70
     Davidson diagonalization with overlap

---- Real-time Memory Report at c_bands before calling an iterative solver
           166 MiB given to the printing process from OS
             0 MiB allocation reported by mallinfo(arena+hblkhd)
        173440 MiB available memory on the node where the printing process lives
------------------
     c_bands:  2 eigenvalues not converged
     ethr =  3.35E-10,  avg # of iterations = 20.0

     total cpu time spent up to now is        8.9 secs

     total energy              =    -723.90720366 Ry
     estimated scf accuracy    <       0.00000023 Ry

     total magnetization       =     2.00 Bohr mag/cell
     absolute magnetization    =     2.30 Bohr mag/cell

     iteration # 12     ecut=    50.00 Ry     beta= 0.70
     Davidson diagonalization with overlap

---- Real-time Memory Report at c_bands before calling an iterative solver
           166 MiB given to the printing process from OS
             0 MiB allocation reported by mallinfo(arena+hblkhd)
        173437 MiB available memory on the node where the printing process lives
------------------
     c_bands:  1 eigenvalues not converged
     ethr =  9.06E-11,  avg # of iterations = 19.0

     total cpu time spent up to now is        9.4 secs

     total energy              =    -723.90720378 Ry
     estimated scf accuracy    <       0.00000009 Ry

     total magnetization       =     2.00 Bohr mag/cell
     absolute magnetization    =     2.30 Bohr mag/cell

     iteration # 13     ecut=    50.00 Ry     beta= 0.70
     Davidson diagonalization with overlap

---- Real-time Memory Report at c_bands before calling an iterative solver
           166 MiB given to the printing process from OS
             0 MiB allocation reported by mallinfo(arena+hblkhd)
        173438 MiB available memory on the node where the printing process lives
------------------
     ethr =  3.44E-11,  avg # of iterations = 18.5

     total cpu time spent up to now is       10.0 secs

     total energy              =    -723.90720382 Ry
     estimated scf accuracy    <       0.00000003 Ry

     total magnetization       =     2.00 Bohr mag/cell
     absolute magnetization    =     2.30 Bohr mag/cell

     iteration # 14     ecut=    50.00 Ry     beta= 0.70
     Davidson diagonalization with overlap

---- Real-time Memory Report at c_bands before calling an iterative solver
           166 MiB given to the printing process from OS
             0 MiB allocation reported by mallinfo(arena+hblkhd)
        173437 MiB available memory on the node where the printing process lives
------------------
     c_bands:  1 eigenvalues not converged
     ethr =  1.08E-11,  avg # of iterations = 20.0
 
     Magnetic moment per site  (integrated on atomic sphere of radius R)
     atom   1 (R=0.085)  charge=  2.9143  magn=  0.0042
     atom   2 (R=0.085)  charge=  1.8170  magn=  0.2449
     atom   3 (R=0.085)  charge=  1.7930  magn= -0.0086
     atom   4 (R=0.085)  charge=  1.8050  magn=  0.2452
     atom   5 (R=0.085)  charge=  1.7913  magn= -0.0088
     atom   6 (R=0.085)  charge=  1.8232  magn=  0.2450
     atom   7 (R=0.085)  charge=  1.7934  magn= -0.0087
     atom   8 (R=0.085)  charge=  1.7860  magn=  0.0091
     atom   9 (R=0.085)  charge=  1.7963  magn= -0.0019
     atom  10 (R=0.085)  charge=  1.7834  magn=  0.0060
     atom  11 (R=0.085)  charge=  1.7969  magn= -0.0042
     atom  12 (R=0.085)  charge=  1.7822  magn=  0.0061
     atom  13 (R=0.085)  charge=  1.8039  magn= -0.0039
     atom  14 (R=0.085)  charge=  1.7891  magn=  0.0085
     atom  15 (R=0.085)  charge=  1.7873  magn= -0.0020
     atom  16 (R=0.085)  charge=  1.7820  magn=  0.0089
     atom  17 (R=0.085)  charge=  1.7956  magn= -0.0018
     atom  18 (R=0.085)  charge=  1.7822  magn=  0.0057
     atom  19 (R=0.085)  charge=  1.7952  magn= -0.0035
     atom  20 (R=0.085)  charge=  1.7834  magn=  0.0083
     atom  21 (R=0.085)  charge=  1.7846  magn= -0.0020
     atom  22 (R=0.085)  charge=  1.7829  magn=  0.0057
     atom  23 (R=0.085)  charge=  1.7905  magn= -0.0037
     atom  24 (R=0.085)  charge=  1.7825  magn=  0.0182
     atom  25 (R=0.085)  charge=  1.8067  magn=  0.0094
     atom  26 (R=0.085)  charge=  1.7935  magn=  0.0032
     atom  27 (R=0.085)  charge=  1.7589  magn=  0.0001
     atom  28 (R=0.085)  charge=  1.7896  magn=  0.0221
     atom  29 (R=0.085)  charge=  1.7825  magn= -0.0013
     atom  30 (R=0.085)  charge=  1.7900  magn=  0.0211
     atom  31 (R=0.085)  charge=  1.7804  magn= -0.0013
     atom  32 (R=0.085)  charge=  1.7844  magn=  0.0090
     atom  33 (R=0.085)  charge=  1.7960  magn= -0.0019
     atom  34 (R=0.085)  charge=  1.7869  magn=  0.0085
     atom  35 (R=0.085)  charge=  1.7865  magn= -0.0020
     atom  36 (R=0.085)  charge=  1.7819  magn=  0.0060
     atom  37 (R=0.085)  charge=  1.8033  magn= -0.0036
     atom  38 (R=0.085)  charge=  1.7836  magn=  0.0059
     atom  39 (R=0.085)  charge=  1.7914  magn= -0.0041
     atom  40 (R=0.085)  charge=  1.7828  magn=  0.0184
     atom  41 (R=0.085)  charge=  1.8128  magn=  0.0093
     atom  42 (R=0.085)  charge=  1.7947  magn=  0.0219
     atom  43 (R=0.085)  charge=  1.7819  magn= -0.0013
     atom  44 (R=0.085)  charge=  1.7937  magn=  0.0032
     atom  45 (R=0.085)  charge=  1.7590  magn= -0.0000
     atom  46 (R=0.085)  charge=  1.7949  magn=  0.0215
     atom  47 (R=0.085)  charge=  1.7819  magn= -0.0013
     atom  48 (R=0.085)  charge=  1.7819  magn=  0.0184
     atom  49 (R=0.085)  charge=  1.8042  magn=  0.0094
     atom  50 (R=0.085)  charge=  1.7872  magn=  0.0212
     atom  51 (R=0.085)  charge=  1.7844  magn= -0.0013
     atom  52 (R=0.085)  charge=  1.7869  magn=  0.0218
     atom  53 (R=0.085)  charge=  1.7826  magn= -0.0013
     atom  54 (R=0.085)  charge=  1.7935  magn=  0.0032
     atom  55 (R=0.085)  charge=  1.7588  magn=  0.0001
     atom  56 (R=0.085)  charge=  1.7914  magn=  0.0009
     atom  57 (R=0.085)  charge=  1.7832  magn=  0.0010
     atom  58 (R=0.085)  charge=  1.7914  magn=  0.0018
     atom  59 (R=0.085)  charge=  1.7879  magn= -0.0009
     atom  60 (R=0.085)  charge=  1.7911  magn=  0.0017
     atom  61 (R=0.085)  charge=  1.7854  magn= -0.0009
     atom  62 (R=0.085)  charge=  1.7914  magn=  0.0019
     atom  63 (R=0.085)  charge=  1.7891  magn= -0.0009

     total cpu time spent up to now is       10.7 secs

     End of self-consistent calculation

 ------ SPIN UP ------------


          k = 0.0000 0.0000 0.0000 (  7386 PWs)   bands (ev):

    -8.5511  -6.9222  -6.2887  -6.2701  -6.1950  -6.1557  -5.8808  -4.9115
    -4.1485  -4.1294  -4.1249  -4.0932  -4.0306  -4.0194  -4.0075  -3.9175
    -3.8738  -3.8612  -3.3617  -2.9310  -2.6757  -2.6729  -2.1604  -0.3621
    -0.3531  -0.3264  -0.2830  -0.0786   0.1722   0.1929   0.2808   0.2957
     0.3656   0.6179   0.8321   0.8444   0.9526   0.9732   0.9934   1.0529
     1.0593   1.0677   1.2668   1.2963   3.0727   3.9076   3.9258   4.0700
     4.1896   4.2067   4.2188   4.2723   4.2825   4.2858   4.4234   4.4248
     4.4935   4.4989   4.5665   4.6606   4.6844   4.6886   4.6919   4.7862
     4.7971   4.9217   4.9709   4.9723   5.0511   5.1989   5.2079   5.2999
     5.3586   5.3697   5.3955   5.4042   5.4079   6.0401   6.0469   6.1028
     6.6621   6.6676   6.7265   6.9911   7.0040   7.0397   7.5273   8.3322
     8.3366   8.4149   8.4665   8.4908   8.6813   8.7088   8.7882   8.8305
     8.8466   8.8527   8.8920   8.8999   8.9032   9.2878   9.2902   9.3229
     9.6849   9.7037   9.9020   9.9107   9.9435   9.9615   9.9622   9.9787
     9.9809  10.0235  10.0371  10.0523  10.1285  10.1403  10.2685  10.3300
    10.3361  11.0532  12.2865  12.4183  12.4326  13.9540  14.6909  14.7999
    17.3397  17.3792  17.4091  17.5234  17.5734  17.5813  17.8486  17.9213
    17.9363  18.0362  18.0683  18.3711  18.9942  19.0028  19.0234  20.6928
    20.8005  20.8245  20.8780  20.9418  20.9455  21.0276  21.0298  21.0421

     occupation numbers 
     1.0000   1.0000   1.0000   1.0000   1.0000   1.0000   1.0000   1.0000
     1.0000   1.0000   1.0000   1.0000   1.0000   1.0000   1.0000   1.0000
     1.0000   1.0000   1.0000   1.0000   1.0000   1.0000   1.0000   1.0000
     1.0000   1.0000   1.0000   1.0000   1.0000   1.0000   1.0000   1.0000
     1.0000   1.0000   1.0000   1.0000   1.0000   1.0000   1.0000   1.0000
     1.0000   1.0000   1.0000   1.0000   1.0000   1.0000   1.0000   1.0000
     1.0000   1.0000   1.0000   1.0000   1.0000   1.0000   1.0000   1.0000
     1.0000   1.0000   1.0000   1.0000   1.0000   1.0000   1.0000   1.0000
     1.0000   1.0000   1.0000   1.0000   1.0000   1.0000   1.0000   1.0000
     1.0000   1.0000   1.0000   1.0000   1.0000   1.0000   1.0000   1.0000
     1.0000   1.0000   1.0000   1.0000   1.0000   1.0000   1.0000   1.0000
     1.0000   1.0000   1.0000   1.0000   1.0000   1.0000   1.0000   1.0000
     1.0000   1.0000   1.0000   1.0000   1.0000   1.0000   1.0000   1.0000
     1.0000   1.0000   1.0000   1.0000   1.0000   1.0000   1.0000   1.0000
     1.0000   1.0000   1.0000   1.0000   1.0000   1.0000   1.0000   1.0000
     1.0000   1.0000   1.0000   1.0000   1.0000   1.0000   1.0000   1.0000
     0.0000   0.0000   0.0000   0.0000   0.0000   0.0000   0.0000   0.0000
     0.0000   0.0000   0.0000   0.0000   0.0000   0.0000   0.0000   0.0000
     0.0000   0.0000   0.0000   0.0000   0.0000   0.0000   0.0000   0.0000

 ------ SPIN DOWN ----------


          k = 0.0000 0.0000 0.0000 (  7386 PWs)   bands (ev):

    -8.5257  -6.9077  -6.2666  -6.2467  -6.1505  -6.1134  -5.8436  -4.8947
    -4.1280  -4.1066  -4.0849  -4.0614  -3.9960  -3.9808  -3.9582  -3.9053
    -3.8383  -3.8212  -3.3194  -2.9124  -2.6229  -2.6191  -2.0154  -0.3446
    -0.3349  -0.3048  -0.2659  -0.0135   0.1910   0.2105   0.3183   0.3288
     0.3908   0.6528   0.8444   0.8561   0.9865   1.0041   1.0175   1.0694
     1.0768   1.0832   1.4325   1.4664   3.1864   3.9309   3.9479   4.0960
     4.2240   4.2495   4.2615   4.2868   4.2988   4.3143   4.4699   4.4709
     4.5157   4.5212   4.5904   4.6850   4.7017   4.7069   4.7126   4.8203
     4.8339   4.9351   5.0024   5.0043   5.1321   5.2330   5.2432   5.3238
     5.3725   5.3805   5.4186   5.4540   5.4692   6.1023   6.1062   6.1407
     6.6887   6.6948   6.7608   7.0765   7.0874   7.1006   7.6974   8.3708
     8.3758   8.4524   8.5018   8.5253   8.7147   8.7401   8.8242   8.8763
     8.8833   8.8870   8.9238   8.9317   8.9338   9.3241   9.3271   9.3504
     9.7125   9.7311   9.9295   9.9410   9.9555   9.9752   9.9761   9.9986
     9.9999  10.0572  10.0693  10.0753  10.1564  10.1664  10.3262  10.3851
    10.3901  11.4327  12.5619  12.5652  12.6020  14.4367  16.0163  16.1387
    17.3645  17.3970  17.4259  17.5509  17.6289  17.6378  17.8714  17.9408
    17.9546  18.0762  18.1086  18.4906  19.0465  19.0773  19.1109  20.7431
    20.8148  20.8385  20.8928  20.9583  20.9634  21.0456  21.0558  21.0601

     occupation numbers 
     1.0000   1.0000   1.0000   1.0000   1.0000   1.0000   1.0000   1.0000
     1.0000   1.0000   1.0000   1.0000   1.0000   1.0000   1.0000   1.0000
     1.0000   1.0000   1.0000   1.0000   1.0000   1.0000   1.0000   1.0000
     1.0000   1.0000   1.0000   1.0000   1.0000   1.0000   1.0000   1.0000
     1.0000   1.0000   1.0000   1.0000   1.0000   1.0000   1.0000   1.0000
     1.0000   1.0000   1.0000   1.0000   1.0000   1.0000   1.0000   1.0000
     1.0000   1.0000   1.0000   1.0000   1.0000   1.0000   1.0000   1.0000
     1.0000   1.0000   1.0000   1.0000   1.0000   1.0000   1.0000   1.0000
     1.0000   1.0000   1.0000   1.0000   1.0000   1.0000   1.0000   1.0000
     1.0000   1.0000   1.0000   1.0000   1.0000   1.0000   1.0000   1.0000
     1.0000   1.0000   1.0000   1.0000   1.0000   1.0000   1.0000   1.0000
     1.0000   1.0000   1.0000   1.0000   1.0000   1.0000   1.0000   1.0000
     1.0000   1.0000   1.0000   1.0000   1.0000   1.0000   1.0000   1.0000
     1.0000   1.0000   1.0000   1.0000   1.0000   1.0000   1.0000   1.0000
     1.0000   1.0000   1.0000   1.0000   1.0000   1.0000   1.0000   1.0000
     1.0000   1.0000   1.0000   1.0000   1.0000   1.0000   0.0000   0.0000
     0.0000   0.0000   0.0000   0.0000   0.0000   0.0000   0.0000   0.0000
     0.0000   0.0000   0.0000   0.0000   0.0000   0.0000   0.0000   0.0000
     0.0000   0.0000   0.0000   0.0000   0.0000   0.0000   0.0000   0.0000

     highest occupied, lowest unoccupied level (ev):    14.7999   16.0163

!    total energy              =    -723.90720383 Ry
     estimated scf accuracy    <          6.0E-09 Ry

     The total energy is the sum of the following terms:
     one-electron contribution =     232.27521599 Ry
     hartree contribution      =      70.34004428 Ry
     xc contribution           =    -226.77196539 Ry
     ewald contribution        =    -799.75049871 Ry

     total magnetization       =     2.00 Bohr mag/cell
     absolute magnetization    =     2.30 Bohr mag/cell

     convergence has been achieved in  14 iterations

     Forces acting on atoms (cartesian axes, Ry/au):

     atom    1 type  1   force =    -0.00263488   -0.00390441   -0.00252198
     atom    2 type  2   force =     0.03511070    0.01588910   -0.01258057
     atom    3 type  2   force =    -0.00922199    0.00856822    0.00610847
     atom    4 type  2   force =     0.00955713    0.02500227   -0.00182160
     atom    5 type  2   force =     0.00553463   -0.02217332    0.00189024
     atom    6 type  2   force =    -0.00832679    0.00833228    0.04334419
     atom    7 type  2   force =     0.01035623    0.01207470   -0.00216476
     atom    8 type  2   force =     0.00309391    0.00428331    0.00656394
     atom    9 type  2   force =    -0.00212281   -0.00470726   -0.00291039
     atom   10 type  2   force =     0.00081176    0.00131485    0.00743275
     atom   11 type  2   force =    -0.02867818    0.00589044   -0.00880417
     atom   12 type  2   force =     0.00048705    0.00418272    0.00276882
     atom   13 type  2   force =    -0.00291361   -0.03991619   -0.00177112
     atom   14 type  2   force =     0.00406651    0.00146191   -0.00403506
     atom   15 type  2   force =    -0.00284894   -0.00128107   -0.00566969
     atom   16 type  2   force =     0.00019234   -0.00101733   -0.00099228
     atom   17 type  2   force =    -0.00140392    0.00640945    0.00024812
     atom   18 type  2   force =     0.00284118   -0.00020483    0.00099360
     atom   19 type  2   force =    -0.00919814   -0.00317604   -0.00527114
     atom   20 type  2   force =     0.00299165   -0.00436903    0.00353031
     atom   21 type  2   force =    -0.00120821   -0.00413299   -0.00208640
     atom   22 type  2   force =     0.00147202    0.00208598    0.00124661
     atom   23 type  2   force =    -0.00063056   -0.00714731   -0.00172162
     atom   24 type  2   force =     0.00967605    0.00544088    0.00426303
     atom   25 type  2   force =    -0.01225048   -0.01375743   -0.00390345
     atom   26 type  2   force =     0.01483714    0.00609597    0.00170503
     atom   27 type  2   force =    -0.02566542   -0.00868696   -0.00647799
     atom   28 type  2   force =     0.01054762    0.00072357    0.00592931
     atom   29 type  2   force =    -0.00000414   -0.00175114   -0.00118055
     atom   30 type  2   force =     0.00831591    0.00713034    0.00378306
     atom   31 type  2   force =     0.00490061   -0.00079812   -0.00430203
     atom   32 type  2   force =     0.00323832    0.00385961    0.00143081
     atom   33 type  2   force =     0.00047214   -0.00439209   -0.00008872
     atom   34 type  2   force =    -0.00525287    0.00201563    0.00326363
     atom   35 type  2   force =    -0.00506460   -0.00094246   -0.00331925
     atom   36 type  2   force =     0.00119072    0.00401020   -0.00074527
     atom   37 type  2   force =     0.00066703   -0.03266135   -0.00709264
     atom   38 type  2   force =     0.00704216    0.00170908   -0.00028572
     atom   39 type  2   force =    -0.01007480    0.00610730   -0.01375332
     atom   40 type  2   force =    -0.01260181    0.01230447    0.00467777
     atom   41 type  2   force =    -0.00341340   -0.01448239   -0.00283736
     atom   42 type  2   force =    -0.00069373    0.01705033    0.00565673
     atom   43 type  2   force =    -0.00075905    0.00064811   -0.00110865
     atom   44 type  2   force =     0.00525912    0.01742153    0.00373988
     atom   45 type  2   force =    -0.00741385   -0.02662076   -0.00660966
     atom   46 type  2   force =     0.00712680    0.01675259    0.00148460
     atom   47 type  2   force =    -0.00115140    0.00134004   -0.00192227
     atom   48 type  2   force =     0.00468057    0.00554249    0.00776310
     atom   49 type  2   force =    -0.00783122   -0.01401326   -0.01002788
     atom   50 type  2   force =     0.00363133    0.00698899    0.00379457
     atom   51 type  2   force =    -0.00006527   -0.00260708   -0.00052814
     atom   52 type  2   force =     0.00648389    0.00208778    0.00499998
     atom   53 type  2   force =    -0.00158583   -0.00310845   -0.00030460
     atom   54 type  2   force =     0.00261098    0.00545097    0.01395756
     atom   55 type  2   force =    -0.00706704   -0.00841082   -0.02497896
     atom   56 type  2   force =     0.00482098    0.00461385    0.00473073
     atom   57 type  2   force =    -0.00181114   -0.00062005   -0.00223524
     atom   58 type  2   force =     0.00087812    0.00373123    0.00365553
     atom   59 type  2   force =    -0.00130558   -0.00269289   -0.00379226
     atom   60 type  2   force =     0.00265137    0.00198086    0.00230838
     atom   61 type  2   force =    -0.00339283   -0.00185446   -0.00379221
     atom   62 type  2   force =     0.00465421    0.00383383    0.00081444
     atom   63 type  2   force =    -0.00360768   -0.00290542   -0.00044824
     The non-local contrib.  to forces
     atom    1 type  1   force =    -0.76041064   -0.76425057   -0.75891242
     atom    2 type  2   force =    -0.16482464    0.22041792    0.17808752
     atom    3 type  2   force =     0.05689328    0.08090262    0.07255811
     atom    4 type  2   force =     0.21563582   -0.18833130    0.19827666
     atom    5 type  2   force =     0.07646258    0.04283858    0.07079649
     atom    6 type  2   force =     0.17945126    0.20422482   -0.14653386
     atom    7 type  2   force =     0.07706577    0.08361440    0.06383615
     atom    8 type  2   force =    -0.00457127   -0.00458027    0.05670685
     atom    9 type  2   force =    -0.00573799   -0.00774687    0.01323610
     atom   10 type  2   force =    -0.04455347   -0.01406619   -0.01157963
     atom   11 type  2   force =    -0.10393653    0.06761275   -0.08316084
     atom   12 type  2   force =    -0.01672053   -0.04100628   -0.01507837
     atom   13 type  2   force =     0.05227479   -0.11629847   -0.07349453
     atom   14 type  2   force =     0.00345369   -0.00002010    0.04551809
     atom   15 type  2   force =     0.01023197    0.00893027   -0.00357893
     atom   16 type  2   force =    -0.01247475    0.04874603   -0.01321210
     atom   17 type  2   force =    -0.00460632    0.02726534   -0.00325418
     atom   18 type  2   force =    -0.04117084   -0.02217005   -0.01583571
     atom   19 type  2   force =    -0.08138248   -0.07914171    0.05525989
     atom   20 type  2   force =     0.00445597    0.04484448    0.00511876
     atom   21 type  2   force =     0.01090656   -0.00313135    0.01106725
     atom   22 type  2   force =    -0.01454841   -0.02022359   -0.04249331
     atom   23 type  2   force =     0.06369029   -0.08480095   -0.07274240
     atom   24 type  2   force =    -0.06432152    0.03326751    0.03420331
     atom   25 type  2   force =    -0.02428605    0.00057040    0.01381408
     atom   26 type  2   force =    -0.04202657   -0.02074738   -0.02365121
     atom   27 type  2   force =    -0.14696946    0.12524011    0.12316529
     atom   28 type  2   force =     0.07999031    0.02339609   -0.01269680
     atom   29 type  2   force =     0.00039313    0.01790584    0.00544803
     atom   30 type  2   force =     0.07731468   -0.01269160    0.02887937
     atom   31 type  2   force =     0.00677845    0.00398376    0.01604036
     atom   32 type  2   force =     0.05284075   -0.00657649   -0.00721704
     atom   33 type  2   force =     0.01830999   -0.00746290   -0.00384820
     atom   34 type  2   force =     0.04528146    0.00212769    0.00264363
     atom   35 type  2   force =    -0.00337284    0.00896777    0.01055724
     atom   36 type  2   force =    -0.01774506   -0.04027085   -0.01838787
     atom   37 type  2   force =    -0.07192015   -0.10866135    0.04785407
     atom   38 type  2   force =    -0.01366497   -0.01333359   -0.04531425
     atom   39 type  2   force =    -0.08679868    0.07136031   -0.08755455
     atom   40 type  2   force =     0.01382624   -0.05854862    0.03561990
     atom   41 type  2   force =     0.01236851   -0.02594160    0.01456378
     atom   42 type  2   force =     0.02138770    0.08761616   -0.01078699
     atom   43 type  2   force =     0.01686118   -0.00026793    0.00338288
     atom   44 type  2   force =    -0.02199882   -0.03701226   -0.02296474
     atom   45 type  2   force =     0.12497514   -0.14757896    0.12446051
     atom   46 type  2   force =    -0.00921860    0.08760638    0.02321670
     atom   47 type  2   force =     0.00344203    0.00145260    0.01623915
     atom   48 type  2   force =     0.03392082    0.03295959   -0.06836860
     atom   49 type  2   force =     0.00825557    0.00036549   -0.02250481
     atom   50 type  2   force =     0.03007268   -0.01345245    0.07234485
     atom   51 type  2   force =     0.02052774    0.00303648    0.00274493
     atom   52 type  2   force =    -0.01421018    0.02658999    0.07300317
     atom   53 type  2   force =     0.00492643    0.01762905    0.00159583
     atom   54 type  2   force =    -0.02267463   -0.02068888   -0.04383855
     atom   55 type  2   force =     0.12346460    0.12433379   -0.14672347
     atom   56 type  2   force =     0.02282482    0.02406988    0.02210476
     atom   57 type  2   force =     0.00531241    0.00486775    0.00518170
     atom   58 type  2   force =     0.01655798   -0.00747485   -0.00898626
     atom   59 type  2   force =     0.00806578   -0.01409403   -0.01538846
     atom   60 type  2   force =    -0.01035618    0.01818139   -0.01139215
     atom   61 type  2   force =    -0.01491897    0.00871215   -0.01542140
     atom   62 type  2   force =    -0.00760174   -0.00650937    0.01533473
     atom   63 type  2   force =    -0.01596602   -0.01502293    0.00845961
     The ionic contribution  to forces
     atom    1 type  1   force =     2.98629106    2.95399711    2.99771394
     atom    2 type  2   force =     2.41536935   -2.05949762   -2.21547140
     atom    3 type  2   force =     0.48297233   -0.73129980   -0.85194746
     atom    4 type  2   force =    -2.08531922    2.33397758   -2.14805724
     atom    5 type  2   force =    -0.77708189    0.37633403   -0.80112756
     atom    6 type  2   force =    -2.18661139   -2.09890721    2.45986196
     atom    7 type  2   force =    -0.82512706   -0.74957506    0.53759346
     atom    8 type  2   force =     0.26576663    0.21501266   -0.72706056
     atom    9 type  2   force =     0.07353016    0.02407580   -0.22662273
     atom   10 type  2   force =     0.18300041    0.07107279    0.56560868
     atom   11 type  2   force =    -0.52688196   -0.62767176    0.80285587
     atom   12 type  2   force =     0.03282533    0.16044599    0.54252296
     atom   13 type  2   force =    -0.66521148   -0.56735716    0.75879019
     atom   14 type  2   force =    -0.18986034   -0.18819865   -0.71479524
     atom   15 type  2   force =    -0.17097052   -0.13310035   -0.06917561
     atom   16 type  2   force =     0.20120709   -0.77491786    0.22539389
     atom   17 type  2   force =     0.07241259   -0.15571570    0.09412573
     atom   18 type  2   force =     0.22603350    0.46908751    0.00227766
     atom   19 type  2   force =    -0.35428024    0.75071480   -0.70431876
     atom   20 type  2   force =    -0.18074215   -0.73043632   -0.18970636
     atom   21 type  2   force =    -0.17656679   -0.05546675   -0.19926225
     atom   22 type  2   force =     0.02779946    0.47902965    0.23723061
     atom   23 type  2   force =    -0.69061820    0.77927052   -0.32908835
     atom   24 type  2   force =     0.10828416   -0.13652787   -0.17063244
     atom   25 type  2   force =    -0.02349032   -0.07815800   -0.07089498
     atom   26 type  2   force =     0.13321906   -0.09382960   -0.04909647
     atom   27 type  2   force =     1.14284231    0.24429083    0.24908234
     atom   28 type  2   force =    -0.08180932   -0.13589342    0.11220471
     atom   29 type  2   force =    -0.15557657    0.03177821    0.25641305
     atom   30 type  2   force =    -0.01550675    0.14616918   -0.23478297
     atom   31 type  2   force =    -0.15125435    0.19809905   -0.03351839
     atom   32 type  2   force =    -0.74640061    0.19522188    0.26219718
     atom   33 type  2   force =    -0.20430624    0.03066481    0.08895653
     atom   34 type  2   force =    -0.72306396   -0.17620477   -0.19925645
     atom   35 type  2   force =    -0.06573975   -0.13149538   -0.19892162
     atom   36 type  2   force =     0.51929567    0.17507229   -0.00505068
     atom   37 type  2   force =     0.74394686   -0.49763011   -0.69463348
     atom   38 type  2   force =     0.53935783    0.07186309    0.20887345
     atom   39 type  2   force =     0.80925564   -0.63745726   -0.43155909
     atom   40 type  2   force =    -0.26507402    0.05977615   -0.21066557
     atom   41 type  2   force =    -0.06961241   -0.06184119   -0.04267419
     atom   42 type  2   force =    -0.13666403    0.02692295    0.08914372
     atom   43 type  2   force =     0.03180360   -0.11355984    0.25453112
     atom   44 type  2   force =    -0.06733803    0.12270884   -0.04581231
     atom   45 type  2   force =     0.24607938    1.15979552    0.24934377
     atom   46 type  2   force =     0.10420805    0.05909413   -0.16987786
     atom   47 type  2   force =     0.22564795   -0.11316455    0.01714098
     atom   48 type  2   force =    -0.13297412   -0.11081344    0.13769415
     atom   49 type  2   force =    -0.07588399   -0.08198123    0.00674521
     atom   50 type  2   force =    -0.24185467    0.15301961   -0.08287972
     atom   51 type  2   force =    -0.00912261    0.14931635   -0.20582592
     atom   52 type  2   force =     0.13911207   -0.17708990   -0.12229395
     atom   53 type  2   force =     0.23024260    0.01230987   -0.18260342
     atom   54 type  2   force =    -0.06308688   -0.09137280    0.13895489
     atom   55 type  2   force =     0.24704323    0.24224124    1.13082599
     atom   56 type  2   force =    -0.09389156   -0.03010737   -0.12468415
     atom   57 type  2   force =    -0.02476421   -0.03696030   -0.01849555
     atom   58 type  2   force =    -0.08210331    0.04815001    0.04005639
     atom   59 type  2   force =    -0.28703681    0.07597912    0.15636978
     atom   60 type  2   force =     0.06024738   -0.03584756    0.05961998
     atom   61 type  2   force =     0.13249790   -0.30321329    0.15919208
     atom   62 type  2   force =     0.03445822    0.02859549   -0.09940237
     atom   63 type  2   force =     0.13107594    0.07120505   -0.27112519
     The local contribution  to forces
     atom    1 type  1   force =    -2.22858246   -2.19365003   -2.24138797
     atom    2 type  2   force =    -2.21550957    1.85496166    2.02473365
     atom    3 type  2   force =    -0.54919099    0.65892307    0.78542122
     atom    4 type  2   force =     1.87914698   -2.12065605    1.94789233
     atom    5 type  2   force =     0.70604902   -0.44135106    0.73216423
     atom    6 type  2   force =     1.99873567    1.90300919   -2.27005379
     atom    7 type  2   force =     0.75830779    0.67801010   -0.60367799
     atom    8 type  2   force =    -0.25816833   -0.20614276    0.67685703
     atom    9 type  2   force =    -0.06998923   -0.02103561    0.21041632
     atom   10 type  2   force =    -0.13769692   -0.05570740   -0.54665272
     atom   11 type  2   force =     0.60207095    0.56591942   -0.72855144
     atom   12 type  2   force =    -0.01570507   -0.11526872   -0.52473137
     atom   13 type  2   force =     0.60992072    0.64373611   -0.68713169
     atom   14 type  2   force =     0.19036897    0.18966793    0.66518671
     atom   15 type  2   force =     0.15777928    0.12285605    0.06704370
     atom   16 type  2   force =    -0.18860752    0.72509772   -0.21322906
     atom   17 type  2   force =    -0.06928635    0.13479218   -0.09069662
     atom   18 type  2   force =    -0.18208613   -0.44717606    0.01447196
     atom   19 type  2   force =     0.42639113   -0.67477569    0.64372500
     atom   20 type  2   force =     0.17917365    0.68117321    0.18804216
     atom   21 type  2   force =     0.16434283    0.05441788    0.18604125
     atom   22 type  2   force =    -0.01186346   -0.45677181   -0.19356314
     atom   23 type  2   force =     0.62620338   -0.70165494    0.40002760
     atom   24 type  2   force =    -0.03435240    0.10863540    0.14062023
     atom   25 type  2   force =     0.03545558    0.06377062    0.05312441
     atom   26 type  2   force =    -0.07642548    0.12062827    0.07440475
     atom   27 type  2   force =    -1.02161849   -0.37824267   -0.37878353
     atom   28 type  2   force =     0.01228246    0.11316973   -0.09362965
     atom   29 type  2   force =     0.15508122   -0.05149329   -0.26310018
     atom   30 type  2   force =    -0.05357467   -0.12639756    0.20963159
     atom   31 type  2   force =     0.14927660   -0.20290948    0.01312403
     atom   32 type  2   force =     0.69669937   -0.18480553   -0.25362410
     atom   33 type  2   force =     0.18638145   -0.02759841   -0.08527036
     atom   34 type  2   force =     0.67243550    0.17608008    0.19980251
     atom   35 type  2   force =     0.06397130    0.12154683    0.18497136
     atom   36 type  2   force =    -0.50043728   -0.13078522    0.02261295
     atom   37 type  2   force =    -0.67141911    0.57365409    0.63960535
     atom   38 type  2   force =    -0.51872569   -0.05683448   -0.16389713
     atom   39 type  2   force =    -0.73259047    0.57216086    0.50531018
     atom   40 type  2   force =     0.23853808    0.01106311    0.17967349
     atom   41 type  2   force =     0.05372858    0.07329010    0.02521931
     atom   42 type  2   force =     0.11446790   -0.09750125   -0.07275300
     atom   43 type  2   force =    -0.04953144    0.11445074   -0.25907619
     atom   44 type  2   force =     0.09450684   -0.06829536    0.07246840
     atom   45 type  2   force =    -0.37853530   -1.03885097   -0.38046037
     atom   46 type  2   force =    -0.08793438   -0.12995898    0.14806923
     atom   47 type  2   force =    -0.23030536    0.11301667   -0.03537557
     atom   48 type  2   force =     0.10362693    0.08335468   -0.06163715
     atom   49 type  2   force =     0.05969692    0.06754604    0.00564585
     atom   50 type  2   force =     0.21530121   -0.13262689    0.01425125
     atom   51 type  2   force =    -0.01157914   -0.15498227    0.20248694
     atom   52 type  2   force =    -0.11848933    0.15251826    0.05421535
     atom   53 type  2   force =    -0.23681890   -0.03312713    0.18063098
     atom   54 type  2   force =     0.08828071    0.11746674   -0.08123707
     atom   55 type  2   force =    -0.37764559   -0.37500217   -1.00916821
     atom   56 type  2   force =     0.07577976    0.01060617    0.10725787
     atom   57 type  2   force =     0.01753761    0.03142333    0.01103790
     atom   58 type  2   force =     0.06632134   -0.03699051   -0.02746213
     atom   59 type  2   force =     0.27756728   -0.06461242   -0.14483202
     atom   60 type  2   force =    -0.04733049    0.01960967   -0.04596832
     atom   61 type  2   force =    -0.12104929    0.29259834   -0.14761751
     atom   62 type  2   force =    -0.02229262   -0.01830026    0.08483699
     atom   63 type  2   force =    -0.11879261   -0.05911337    0.26217704
     The core correction contribution to forces
     atom    1 type  1   force =     0.00000000    0.00000000    0.00000000
     atom    2 type  2   force =     0.00000000    0.00000000    0.00000000
     atom    3 type  2   force =     0.00000000    0.00000000    0.00000000
     atom    4 type  2   force =     0.00000000    0.00000000    0.00000000
     atom    5 type  2   force =     0.00000000    0.00000000    0.00000000
     atom    6 type  2   force =     0.00000000    0.00000000    0.00000000
     atom    7 type  2   force =     0.00000000    0.00000000    0.00000000
     atom    8 type  2   force =     0.00000000    0.00000000    0.00000000
     atom    9 type  2   force =     0.00000000    0.00000000    0.00000000
     atom   10 type  2   force =     0.00000000    0.00000000    0.00000000
     atom   11 type  2   force =     0.00000000    0.00000000    0.00000000
     atom   12 type  2   force =     0.00000000    0.00000000    0.00000000
     atom   13 type  2   force =     0.00000000    0.00000000    0.00000000
     atom   14 type  2   force =     0.00000000    0.00000000    0.00000000
     atom   15 type  2   force =     0.00000000    0.00000000    0.00000000
     atom   16 type  2   force =     0.00000000    0.00000000    0.00000000
     atom   17 type  2   force =     0.00000000    0.00000000    0.00000000
     atom   18 type  2   force =     0.00000000    0.00000000    0.00000000
     atom   19 type  2   force =     0.00000000    0.00000000    0.00000000
     atom   20 type  2   force =     0.00000000    0.00000000    0.00000000
     atom   21 type  2   force =     0.00000000    0.00000000    0.00000000
     atom   22 type  2   force =     0.00000000    0.00000000    0.00000000
     atom   23 type  2   force =     0.00000000    0.00000000    0.00000000
     atom   24 type  2   force =     0.00000000    0.00000000    0.00000000
     atom   25 type  2   force =     0.00000000    0.00000000    0.00000000
     atom   26 type  2   force =     0.00000000    0.00000000    0.00000000
     atom   27 type  2   force =     0.00000000    0.00000000    0.00000000
     atom   28 type  2   force =     0.00000000    0.00000000    0.00000000
     atom   29 type  2   force =     0.00000000    0.00000000    0.00000000
     atom   30 type  2   force =     0.00000000    0.00000000    0.00000000
     atom   31 type  2   force =     0.00000000    0.00000000    0.00000000
     atom   32 type  2   force =     0.00000000    0.00000000    0.00000000
     atom   33 type  2   force =     0.00000000    0.00000000    0.00000000
     atom   34 type  2   force =     0.00000000    0.00000000    0.00000000
     atom   35 type  2   force =     0.00000000    0.00000000    0.00000000
     atom   36 type  2   force =     0.00000000    0.00000000    0.00000000
     atom   37 type  2   force =     0.00000000    0.00000000    0.00000000
     atom   38 type  2   force =     0.00000000    0.00000000    0.00000000
     atom   39 type  2   force =     0.00000000    0.00000000    0.00000000
     atom   40 type  2   force =     0.00000000    0.00000000    0.00000000
     atom   41 type  2   force =     0.00000000    0.00000000    0.00000000
     atom   42 type  2   force =     0.00000000    0.00000000    0.00000000
     atom   43 type  2   force =     0.00000000    0.00000000    0.00000000
     atom   44 type  2   force =     0.00000000    0.00000000    0.00000000
     atom   45 type  2   force =     0.00000000    0.00000000    0.00000000
     atom   46 type  2   force =     0.00000000    0.00000000    0.00000000
     atom   47 type  2   force =     0.00000000    0.00000000    0.00000000
     atom   48 type  2   force =     0.00000000    0.00000000    0.00000000
     atom   49 type  2   force =     0.00000000    0.00000000    0.00000000
     atom   50 type  2   force =     0.00000000    0.00000000    0.00000000
     atom   51 type  2   force =     0.00000000    0.00000000    0.00000000
     atom   52 type  2   force =     0.00000000    0.00000000    0.00000000
     atom   53 type  2   force =     0.00000000    0.00000000    0.00000000
     atom   54 type  2   force =     0.00000000    0.00000000    0.00000000
     atom   55 type  2   force =     0.00000000    0.00000000    0.00000000
     atom   56 type  2   force =     0.00000000    0.00000000    0.00000000
     atom   57 type  2   force =     0.00000000    0.00000000    0.00000000
     atom   58 type  2   force =     0.00000000    0.00000000    0.00000000
     atom   59 type  2   force =     0.00000000    0.00000000    0.00000000
     atom   60 type  2   force =     0.00000000    0.00000000    0.00000000
     atom   61 type  2   force =     0.00000000    0.00000000    0.00000000
     atom   62 type  2   force =     0.00000000    0.00000000    0.00000000
     atom   63 type  2   force =     0.00000000    0.00000000    0.00000000
     The Hubbard contrib.    to forces
     atom    1 type  1   force =     0.00000000    0.00000000    0.00000000
     atom    2 type  2   force =     0.00000000    0.00000000    0.00000000
     atom    3 type  2   force =     0.00000000    0.00000000    0.00000000
     atom    4 type  2   force =     0.00000000    0.00000000    0.00000000
     atom    5 type  2   force =     0.00000000    0.00000000    0.00000000
     atom    6 type  2   force =     0.00000000    0.00000000    0.00000000
     atom    7 type  2   force =     0.00000000    0.00000000    0.00000000
     atom    8 type  2   force =     0.00000000    0.00000000    0.00000000
     atom    9 type  2   force =     0.00000000    0.00000000    0.00000000
     atom   10 type  2   force =     0.00000000    0.00000000    0.00000000
     atom   11 type  2   force =     0.00000000    0.00000000    0.00000000
     atom   12 type  2   force =     0.00000000    0.00000000    0.00000000
     atom   13 type  2   force =     0.00000000    0.00000000    0.00000000
     atom   14 type  2   force =     0.00000000    0.00000000    0.00000000
     atom   15 type  2   force =     0.00000000    0.00000000    0.00000000
     atom   16 type  2   force =     0.00000000    0.00000000    0.00000000
     atom   17 type  2   force =     0.00000000    0.00000000    0.00000000
     atom   18 type  2   force =     0.00000000    0.00000000    0.00000000
     atom   19 type  2   force =     0.00000000    0.00000000    0.00000000
     atom   20 type  2   force =     0.00000000    0.00000000    0.00000000
     atom   21 type  2   force =     0.00000000    0.00000000    0.00000000
     atom   22 type  2   force =     0.00000000    0.00000000    0.00000000
     atom   23 type  2   force =     0.00000000    0.00000000    0.00000000
     atom   24 type  2   force =     0.00000000    0.00000000    0.00000000
     atom   25 type  2   force =     0.00000000    0.00000000    0.00000000
     atom   26 type  2   force =     0.00000000    0.00000000    0.00000000
     atom   27 type  2   force =     0.00000000    0.00000000    0.00000000
     atom   28 type  2   force =     0.00000000    0.00000000    0.00000000
     atom   29 type  2   force =     0.00000000    0.00000000    0.00000000
     atom   30 type  2   force =     0.00000000    0.00000000    0.00000000
     atom   31 type  2   force =     0.00000000    0.00000000    0.00000000
     atom   32 type  2   force =     0.00000000    0.00000000    0.00000000
     atom   33 type  2   force =     0.00000000    0.00000000    0.00000000
     atom   34 type  2   force =     0.00000000    0.00000000    0.00000000
     atom   35 type  2   force =     0.00000000    0.00000000    0.00000000
     atom   36 type  2   force =     0.00000000    0.00000000    0.00000000
     atom   37 type  2   force =     0.00000000    0.00000000    0.00000000
     atom   38 type  2   force =     0.00000000    0.00000000    0.00000000
     atom   39 type  2   force =     0.00000000    0.00000000    0.00000000
     atom   40 type  2   force =     0.00000000    0.00000000    0.00000000
     atom   41 type  2   force =     0.00000000    0.00000000    0.00000000
     atom   42 type  2   force =     0.00000000    0.00000000    0.00000000
     atom   43 type  2   force =     0.00000000    0.00000000    0.00000000
     atom   44 type  2   force =     0.00000000    0.00000000    0.00000000
     atom   45 type  2   force =     0.00000000    0.00000000    0.00000000
     atom   46 type  2   force =     0.00000000    0.00000000    0.00000000
     atom   47 type  2   force =     0.00000000    0.00000000    0.00000000
     atom   48 type  2   force =     0.00000000    0.00000000    0.00000000
     atom   49 type  2   force =     0.00000000    0.00000000    0.00000000
     atom   50 type  2   force =     0.00000000    0.00000000    0.00000000
     atom   51 type  2   force =     0.00000000    0.00000000    0.00000000
     atom   52 type  2   force =     0.00000000    0.00000000    0.00000000
     atom   53 type  2   force =     0.00000000    0.00000000    0.00000000
     atom   54 type  2   force =     0.00000000    0.00000000    0.00000000
     atom   55 type  2   force =     0.00000000    0.00000000    0.00000000
     atom   56 type  2   force =     0.00000000    0.00000000    0.00000000
     atom   57 type  2   force =     0.00000000    0.00000000    0.00000000
     atom   58 type  2   force =     0.00000000    0.00000000    0.00000000
     atom   59 type  2   force =     0.00000000    0.00000000    0.00000000
     atom   60 type  2   force =     0.00000000    0.00000000    0.00000000
     atom   61 type  2   force =     0.00000000    0.00000000    0.00000000
     atom   62 type  2   force =     0.00000000    0.00000000    0.00000000
     atom   63 type  2   force =     0.00000000    0.00000000    0.00000000
     The SCF correction term to forces
     atom    1 type  1   force =    -0.00002020   -0.00003093    0.00000133
     atom    2 type  2   force =    -0.00001180   -0.00002287    0.00000652
     atom    3 type  2   force =     0.00001602    0.00001233    0.00001345
     atom    4 type  2   force =     0.00000620   -0.00001797    0.00000351
     atom    5 type  2   force =     0.00001757   -0.00002488   -0.00000606
     atom    6 type  2   force =     0.00001031   -0.00002453    0.00000673
     atom    7 type  2   force =     0.00002237   -0.00000475    0.00002049
     atom    8 type  2   force =    -0.00002047   -0.00003633   -0.00000253
     atom    9 type  2   force =    -0.00001311   -0.00003059   -0.00000322
     atom   10 type  2   force =    -0.00002562   -0.00001436   -0.00000672
     atom   11 type  2   force =    -0.00001801    0.00000002   -0.00001090
     atom   12 type  2   force =    -0.00000004   -0.00001828   -0.00000754
     atom   13 type  2   force =     0.00001499   -0.00002667    0.00000176
     atom   14 type  2   force =     0.00001684   -0.00001727   -0.00000775
     atom   15 type  2   force =     0.00002297    0.00000295   -0.00002199
     atom   16 type  2   force =    -0.00001984    0.00002677   -0.00000815
     atom   17 type  2   force =    -0.00001120    0.00003762    0.00001006
     atom   18 type  2   force =    -0.00002270    0.00002375    0.00001654
     atom   19 type  2   force =    -0.00001391   -0.00000345   -0.00000042
     atom   20 type  2   force =     0.00001682    0.00001958    0.00001260
     atom   21 type  2   force =     0.00002183    0.00001722    0.00000421
     atom   22 type  2   force =    -0.00000293    0.00002171    0.00000930
     atom   23 type  2   force =     0.00000660    0.00000804    0.00001838
     atom   24 type  2   force =    -0.00002155    0.00003583    0.00000879
     atom   25 type  2   force =    -0.00001704    0.00002954   -0.00001010
     atom   26 type  2   force =    -0.00001724    0.00001468   -0.00001518
     atom   27 type  2   force =    -0.00000713   -0.00000523   -0.00000522
     atom   28 type  2   force =    -0.00000319    0.00002116   -0.00001210
     atom   29 type  2   force =     0.00001072    0.00002809   -0.00000459
     atom   30 type  2   force =    -0.00000470    0.00002032   -0.00000807
     atom   31 type  2   force =     0.00001256   -0.00000147   -0.00001117
     atom   32 type  2   force =     0.00001144   -0.00001026    0.00001162
     atom   33 type  2   force =    -0.00000041   -0.00002559    0.00001017
     atom   34 type  2   force =     0.00000677   -0.00001738    0.00001080
     atom   35 type  2   force =    -0.00001066    0.00000831    0.00001062
     atom   36 type  2   force =    -0.00000997   -0.00003602    0.00001719
     atom   37 type  2   force =    -0.00002794   -0.00005399    0.00001828
     atom   38 type  2   force =    -0.00001237   -0.00001595   -0.00001093
     atom   39 type  2   force =    -0.00002864    0.00001337   -0.00001300
     atom   40 type  2   force =     0.00002053   -0.00001618   -0.00001319
     atom   41 type  2   force =     0.00001456   -0.00001971   -0.00000940
     atom   42 type  2   force =     0.00002735   -0.00001754   -0.00001015
     atom   43 type  2   force =     0.00002026   -0.00000486   -0.00000960
     atom   44 type  2   force =     0.00000177   -0.00000970   -0.00001461
     atom   45 type  2   force =    -0.00002043   -0.00001636   -0.00001672
     atom   46 type  2   force =    -0.00001563   -0.00001894    0.00001338
     atom   47 type  2   force =    -0.00002338    0.00000532    0.00001003
     atom   48 type  2   force =     0.00001958    0.00001165    0.00001156
     atom   49 type  2   force =     0.00001293    0.00002642    0.00002272
     atom   50 type  2   force =     0.00002476    0.00001870    0.00001504
     atom   51 type  2   force =     0.00002139   -0.00000766    0.00000277
     atom   52 type  2   force =    -0.00001604    0.00003942    0.00001228
     atom   53 type  2   force =    -0.00002331    0.00004975    0.00000887
     atom   54 type  2   force =     0.00000441    0.00001591    0.00001515
     atom   55 type  2   force =    -0.00001663   -0.00001369    0.00002360
     atom   56 type  2   force =     0.00002060    0.00001516   -0.00001089
     atom   57 type  2   force =     0.00001570    0.00001916   -0.00002243
     atom   58 type  2   force =     0.00001476    0.00001656   -0.00001561
     atom   59 type  2   force =     0.00001081    0.00000443   -0.00000470
     atom   60 type  2   force =     0.00000331    0.00000735   -0.00001426
     atom   61 type  2   force =    -0.00000982    0.00001833   -0.00000853
     atom   62 type  2   force =     0.00000299    0.00001795   -0.00001806
     atom   63 type  2   force =    -0.00001234   -0.00000417   -0.00002285

     Total force =     0.127383     Total SCF correction =     0.000238

     Writing all to output data dir ./pwscf.save/ :
     XML data file, charge density, pseudopotentials, collected wavefunctions
 
     init_run     :      0.47s CPU      0.50s WALL (       1 calls)
     electrons    :      9.57s CPU      9.74s WALL (       1 calls)
     forces       :      4.82s CPU      4.84s WALL (       1 calls)

     Called by init_run:
     wfcinit      :      0.07s CPU      0.08s WALL (       1 calls)
     wfcinit:wfcr :      0.07s CPU      0.08s WALL (       1 calls)
     potinit      :      0.30s CPU      0.31s WALL (       1 calls)
     hinit0       :      0.03s CPU      0.03s WALL (       1 calls)

     Called by electrons:
     c_bands      :      7.52s CPU      7.67s WALL (      14 calls)
     sum_band     :      0.94s CPU      0.95s WALL (      14 calls)
     v_of_rho     :      0.19s CPU      0.19s WALL (      15 calls)
     v_h          :      0.01s CPU      0.01s WALL (      15 calls)
     v_xc         :      0.18s CPU      0.19s WALL (      15 calls)
     mix_rho      :      0.14s CPU      0.14s WALL (      14 calls)

     Called by c_bands:
     init_us_2    :      0.02s CPU      0.02s WALL (      30 calls)
     regterg      :      5.96s CPU      6.09s WALL (      14 calls)

     Called by sum_band:
     sum_band:wei :      0.02s CPU      0.02s WALL (      14 calls)
     sum_band:loo :      0.76s CPU      0.77s WALL (      14 calls)
     sum_band:buf :      0.00s CPU      0.00s WALL (      14 calls)
     sum_band:ini :      0.01s CPU      0.01s WALL (      14 calls)

     Called by *egterg:
     rdiaghg      :      3.69s CPU      3.78s WALL (     268 calls)
     regterg:over :      0.19s CPU      0.20s WALL (     254 calls)
     regterg:upda :      0.11s CPU      0.11s WALL (     254 calls)
     regterg:last :      0.18s CPU      0.18s WALL (      52 calls)
     rdiaghg:chol :      0.14s CPU      0.14s WALL (     268 calls)
     rdiaghg:inve :      0.03s CPU      0.03s WALL (     268 calls)
     rdiaghg:para :      0.36s CPU      0.39s WALL (     536 calls)
     h_psi        :      1.81s CPU      1.84s WALL (     269 calls)
     g_psi        :      0.00s CPU      0.00s WALL (     254 calls)

     Called by h_psi:
     h_psi:calbec :      0.26s CPU      0.26s WALL (     269 calls)
     vloc_psi     :      1.44s CPU      1.47s WALL (     269 calls)
                                        0.00s GPU  (     269 calls)
     add_vuspsi   :      0.10s CPU      0.11s WALL (     269 calls)

     General routines
     calbec       :      0.27s CPU      0.28s WALL (     273 calls)
     fft          :      0.12s CPU      0.13s WALL (     196 calls)
     ffts         :      0.01s CPU      0.01s WALL (      14 calls)
     fftw         :      2.09s CPU      2.12s WALL (   10072 calls)
 
     Parallel routines
 
     PWSCF        :     16.97s CPU     17.29s WALL

 
   This run was terminated on:  16:38:36  16Nov2025            

=------------------------------------------------------------------------------=
   JOB DONE.
=------------------------------------------------------------------------------=
