
     Program PWSCF v.7.5 starts on 16Nov2025 at 16:59:43 

     This program is part of the open-source Quantum ESPRESSO suite
     for quantum simulation of materials; please cite
         "P. Giannozzi et al., J. Phys.:Condens. Matter 21 395502 (2009);
         "P. Giannozzi et al., J. Phys.:Condens. Matter 29 465901 (2017);
         "P. Giannozzi et al., J. Chem. Phys. 152 154105 (2020);
          URL http://www.quantum-espresso.org", 
     in publications or presentations arising from this work. More details at
     http://www.quantum-espresso.org/quote

     Parallel version (MPI), running on    96 processors

     MPI processes distributed on     2 nodes
     174289 MiB available memory on the printing compute node when the environment starts
 
     Reading input from supercell-304.in

     Current dimensions of program PWSCF are:
     Max number of different atomic species (ntypx) = 10
     Max number of k-points (npk) =  40000
     Max angular momentum in pseudopotentials (lmaxx) =  4

     gamma-point specific algorithms are used
 
     K-points division:     npool     =       2
     R & G space division:  proc/nbgrp/npool/nimage =      48
     Subspace diagonalization in iterative solution of the eigenvalue problem:
     one sub-group per band group will be used
     scalapack distributed-memory algorithm (size of sub-group:  2*  2 procs)

 
     Parallelization info
     --------------------
     sticks:   dense  smooth     PW     G-vecs:    dense   smooth      PW
     Min          59      59     14                 2432     2432     302
     Max          62      62     16                 2442     2442     316
     Sum        2885    2885    725               116921   116921   14771
 
     Using Slab Decomposition
 


     bravais-lattice index     =            0
     lattice parameter (alat)  =      13.4813  a.u.
     unit-cell volume          =    2450.1683 (a.u.)^3
     number of atoms/cell      =           63
     number of atomic types    =            2
     number of electrons       =       254.00 (up: 128.00, down: 126.00)
     number of Kohn-Sham states=          152
     kinetic-energy cutoff     =      50.0000  Ry
     charge density cutoff     =     200.0000  Ry
     scf convergence threshold =      1.0E-08
     mixing beta               =       0.7000
     number of iterations used =            8  plain     mixing
     Exchange-correlation= PBE
                           (   1   4   3   4   0   0   0)

     celldm(1)=  13.481306  celldm(2)=   0.000000  celldm(3)=   0.000000
     celldm(4)=   0.000000  celldm(5)=   0.000000  celldm(6)=   0.000000

     crystal axes: (cart. coord. in units of alat)
               a(1) = (   1.000000   0.000000   0.000000 )  
               a(2) = (   0.000000   1.000000   0.000000 )  
               a(3) = (   0.000000   0.000000   1.000000 )  

     reciprocal axes: (cart. coord. in units 2 pi/alat)
               b(1) = (  1.000000  0.000000  0.000000 )  
               b(2) = (  0.000000  1.000000  0.000000 )  
               b(3) = (  0.000000  0.000000  1.000000 )  


     PseudoPot. # 1 for N  read from file:
     ./N_ONCV_PBE-1.2.upf
     MD5 check sum: 5312fdf34e96954e02a33bdc911c617a
     Pseudo is Norm-conserving, Zval =  5.0
     Generated using ONCVPSP code by D. R. Hamann
     Using radial grid of  602 points,  4 beta functions with: 
                l(1) =   0
                l(2) =   0
                l(3) =   1
                l(4) =   1

     PseudoPot. # 2 for C  read from file:
     ./C_ONCV_PBE-1.2.upf
     MD5 check sum: d60b57d9bdca4133f5fde4b584ee909d
     Pseudo is Norm-conserving, Zval =  4.0
     Generated using ONCVPSP code by D. R. Hamann
     Using radial grid of  602 points,  4 beta functions with: 
                l(1) =   0
                l(2) =   0
                l(3) =   1
                l(4) =   1

     atomic species   valence    mass     pseudopotential
     N                 5.00    14.00670     N ( 1.00)
     C                 4.00    12.01070     C ( 1.00)

     Starting magnetic structure 
     atomic species   magnetization
     N               0.000
     C               0.000

     No symmetry found


                                    s                        frac. trans.

      isym =  1     identity                                     

 cryst.   s( 1) = (     1          0          0      )
                  (     0          1          0      )
                  (     0          0          1      )

 cart.    s( 1) = (  1.0000000  0.0000000  0.0000000 )
                  (  0.0000000  1.0000000  0.0000000 )
                  (  0.0000000  0.0000000  1.0000000 )


   Cartesian axes

     site n.     atom                  positions (alat units)
         1        N      tau(   1) = (   0.9893819   0.9897344   0.9891721  )
         2        C      tau(   2) = (   0.9870277   0.2601210   0.2640728  )
         3        C      tau(   3) = (   0.1231717   0.3731672   0.3742038  )
         4        C      tau(   4) = (   0.2603919   0.9894620   0.2619202  )
         5        C      tau(   5) = (   0.3737632   0.1246771   0.3741571  )
         6        C      tau(   6) = (   0.2640151   0.2616009   0.9853609  )
         7        C      tau(   7) = (   0.3737752   0.3731213   0.1223564  )
         8        C      tau(   8) = (   0.0000049   0.0005840   0.4991361  )
         9        C      tau(   9) = (   0.1251361   0.1251278   0.6250981  )
        10        C      tau(  10) = (   0.0020393   0.2482470   0.7515266  )
        11        C      tau(  11) = (   0.1292009   0.3733021   0.8763303  )
        12        C      tau(  12) = (   0.2487801   0.0017974   0.7514403  )
        13        C      tau(  13) = (   0.3754339   0.1292460   0.8748544  )
        14        C      tau(  14) = (   0.2491579   0.2495268   0.4995755  )
        15        C      tau(  15) = (   0.3750038   0.3749547   0.6244069  )
        16        C      tau(  16) = (   0.0016366   0.4979779   0.0013734  )
        17        C      tau(  17) = (   0.1250869   0.6243147   0.1250807  )
        18        C      tau(  18) = (   0.0014462   0.7520697   0.2483230  )
        19        C      tau(  19) = (   0.1266755   0.8769178   0.3741906  )
        20        C      tau(  20) = (   0.2488290   0.4983596   0.2486760  )
        21        C      tau(  21) = (   0.3741642   0.6242659   0.3742111  )
        22        C      tau(  22) = (   0.2480673   0.7520817   0.0015447  )
        23        C      tau(  23) = (   0.3729914   0.8777475   0.1265606  )
        24        C      tau(  24) = (   0.0000493   0.5010760   0.5011299  )
        25        C      tau(  25) = (   0.1252054   0.6262200   0.6252733  )
        26        C      tau(  26) = (   0.9993969   0.7487112   0.7492532  )
        27        C      tau(  27) = (   0.1217927   0.8768349   0.8763928  )
        28        C      tau(  28) = (   0.2492749   0.5017254   0.7482724  )
        29        C      tau(  29) = (   0.3741000   0.6263042   0.8750769  )
        30        C      tau(  30) = (   0.2487293   0.7486845   0.5007616  )
        31        C      tau(  31) = (   0.3739266   0.8750581   0.6258828  )
        32        C      tau(  32) = (   0.4987543   0.0011228   0.0002828  )
        33        C      tau(  33) = (   0.6248203   0.1251003   0.1251034  )
        34        C      tau(  34) = (   0.4991217   0.2493918   0.2488717  )
        35        C      tau(  35) = (   0.6243080   0.3746888   0.3747831  )
        36        C      tau(  36) = (   0.7516460   0.0016191   0.2487956  )
        37        C      tau(  37) = (   0.8750430   0.1283649   0.3757598  )
        38        C      tau(  38) = (   0.7517475   0.2480080   0.0019610  )
        39        C      tau(  39) = (   0.8773622   0.3724247   0.1282033  )
        40        C      tau(  40) = (   0.5008161   0.9999897   0.5008301  )
        41        C      tau(  41) = (   0.6256173   0.1249721   0.6252590  )
        42        C      tau(  42) = (   0.5022259   0.2488088   0.7478265  )
        43        C      tau(  43) = (   0.6264784   0.3739683   0.8752045  )
        44        C      tau(  44) = (   0.7487945   0.9989046   0.7489691  )
        45        C      tau(  45) = (   0.8764746   0.1216998   0.8763156  )
        46        C      tau(  46) = (   0.7479635   0.2486819   0.5018806  )
        47        C      tau(  47) = (   0.8751980   0.3739245   0.6263738  )
        48        C      tau(  48) = (   0.5012000   0.5011574   0.0001136  )
        49        C      tau(  49) = (   0.6256259   0.6262099   0.1252968  )
        50        C      tau(  50) = (   0.5005188   0.7489091   0.2490095  )
        51        C      tau(  51) = (   0.6258050   0.8735322   0.3740056  )
        52        C      tau(  52) = (   0.7486304   0.5011458   0.2494302  )
        53        C      tau(  53) = (   0.8750247   0.6261269   0.3741365  )
        54        C      tau(  54) = (   0.7492281   0.7488562   0.9996087  )
        55        C      tau(  55) = (   0.8766209   0.8769033   0.1218021  )
        56        C      tau(  56) = (   0.4990819   0.4992903   0.4990317  )
        57        C      tau(  57) = (   0.6247789   0.6244471   0.6249452  )
        58        C      tau(  58) = (   0.4991767   0.7499842   0.7500845  )
        59        C      tau(  59) = (   0.6239946   0.8751464   0.8754130  )
        60        C      tau(  60) = (   0.7505316   0.4989321   0.7505826  )
        61        C      tau(  61) = (   0.8758455   0.6234984   0.8759288  )
        62        C      tau(  62) = (   0.7498244   0.7497799   0.4993198  )
        63        C      tau(  63) = (   0.8750855   0.8749084   0.6242568  )

   Crystallographic axes

     site n.     atom                  positions (cryst. coord.)
         1        N      tau(   1) = (  0.9893819  0.9897344  0.9891721  )
         2        C      tau(   2) = (  0.9870277  0.2601210  0.2640728  )
         3        C      tau(   3) = (  0.1231717  0.3731672  0.3742038  )
         4        C      tau(   4) = (  0.2603919  0.9894620  0.2619202  )
         5        C      tau(   5) = (  0.3737632  0.1246771  0.3741571  )
         6        C      tau(   6) = (  0.2640151  0.2616009  0.9853609  )
         7        C      tau(   7) = (  0.3737752  0.3731213  0.1223564  )
         8        C      tau(   8) = (  0.0000049  0.0005840  0.4991361  )
         9        C      tau(   9) = (  0.1251361  0.1251278  0.6250981  )
        10        C      tau(  10) = (  0.0020393  0.2482470  0.7515266  )
        11        C      tau(  11) = (  0.1292009  0.3733021  0.8763303  )
        12        C      tau(  12) = (  0.2487801  0.0017974  0.7514403  )
        13        C      tau(  13) = (  0.3754339  0.1292460  0.8748544  )
        14        C      tau(  14) = (  0.2491579  0.2495268  0.4995755  )
        15        C      tau(  15) = (  0.3750038  0.3749547  0.6244069  )
        16        C      tau(  16) = (  0.0016366  0.4979779  0.0013734  )
        17        C      tau(  17) = (  0.1250869  0.6243147  0.1250807  )
        18        C      tau(  18) = (  0.0014462  0.7520697  0.2483230  )
        19        C      tau(  19) = (  0.1266755  0.8769178  0.3741906  )
        20        C      tau(  20) = (  0.2488290  0.4983596  0.2486760  )
        21        C      tau(  21) = (  0.3741642  0.6242659  0.3742111  )
        22        C      tau(  22) = (  0.2480673  0.7520817  0.0015447  )
        23        C      tau(  23) = (  0.3729914  0.8777475  0.1265606  )
        24        C      tau(  24) = (  0.0000493  0.5010760  0.5011299  )
        25        C      tau(  25) = (  0.1252054  0.6262200  0.6252733  )
        26        C      tau(  26) = (  0.9993969  0.7487112  0.7492532  )
        27        C      tau(  27) = (  0.1217927  0.8768349  0.8763928  )
        28        C      tau(  28) = (  0.2492749  0.5017254  0.7482724  )
        29        C      tau(  29) = (  0.3741000  0.6263042  0.8750769  )
        30        C      tau(  30) = (  0.2487293  0.7486845  0.5007616  )
        31        C      tau(  31) = (  0.3739266  0.8750581  0.6258828  )
        32        C      tau(  32) = (  0.4987543  0.0011228  0.0002828  )
        33        C      tau(  33) = (  0.6248203  0.1251003  0.1251034  )
        34        C      tau(  34) = (  0.4991217  0.2493918  0.2488717  )
        35        C      tau(  35) = (  0.6243080  0.3746888  0.3747831  )
        36        C      tau(  36) = (  0.7516460  0.0016191  0.2487956  )
        37        C      tau(  37) = (  0.8750430  0.1283649  0.3757598  )
        38        C      tau(  38) = (  0.7517475  0.2480080  0.0019610  )
        39        C      tau(  39) = (  0.8773622  0.3724247  0.1282033  )
        40        C      tau(  40) = (  0.5008161  0.9999897  0.5008301  )
        41        C      tau(  41) = (  0.6256173  0.1249721  0.6252590  )
        42        C      tau(  42) = (  0.5022259  0.2488088  0.7478265  )
        43        C      tau(  43) = (  0.6264784  0.3739683  0.8752045  )
        44        C      tau(  44) = (  0.7487945  0.9989046  0.7489691  )
        45        C      tau(  45) = (  0.8764746  0.1216998  0.8763156  )
        46        C      tau(  46) = (  0.7479635  0.2486819  0.5018806  )
        47        C      tau(  47) = (  0.8751980  0.3739245  0.6263738  )
        48        C      tau(  48) = (  0.5012000  0.5011574  0.0001136  )
        49        C      tau(  49) = (  0.6256259  0.6262099  0.1252968  )
        50        C      tau(  50) = (  0.5005188  0.7489091  0.2490095  )
        51        C      tau(  51) = (  0.6258050  0.8735322  0.3740056  )
        52        C      tau(  52) = (  0.7486304  0.5011458  0.2494302  )
        53        C      tau(  53) = (  0.8750247  0.6261269  0.3741365  )
        54        C      tau(  54) = (  0.7492281  0.7488562  0.9996087  )
        55        C      tau(  55) = (  0.8766209  0.8769033  0.1218021  )
        56        C      tau(  56) = (  0.4990819  0.4992903  0.4990317  )
        57        C      tau(  57) = (  0.6247789  0.6244471  0.6249452  )
        58        C      tau(  58) = (  0.4991767  0.7499842  0.7500845  )
        59        C      tau(  59) = (  0.6239946  0.8751464  0.8754130  )
        60        C      tau(  60) = (  0.7505316  0.4989321  0.7505826  )
        61        C      tau(  61) = (  0.8758455  0.6234984  0.8759288  )
        62        C      tau(  62) = (  0.7498244  0.7497799  0.4993198  )
        63        C      tau(  63) = (  0.8750855  0.8749084  0.6242568  )

     number of k points=     1
                       cart. coord. in units 2pi/alat
        k(    1) = (   0.0000000   0.0000000   0.0000000), wk =   1.0000000

                       cryst. coord.
        k(    1) = (   0.0000000   0.0000000   0.0000000), wk =   1.0000000

     Dense  grid:    58461 G-vectors     FFT dimensions: (  64,  64,  64)

     Dynamical RAM for                 wfc:       0.35 MB

     Dynamical RAM for     wfc (w. buffer):       0.35 MB

     Dynamical RAM for           str. fact:       0.04 MB

     Dynamical RAM for           local pot:       0.00 MB

     Dynamical RAM for          nlocal pot:       1.17 MB

     Dynamical RAM for                qrad:       0.65 MB

     Dynamical RAM for          rho,v,vnew:       0.49 MB

     Dynamical RAM for               rhoin:       0.16 MB

     Dynamical RAM for            rho*nmix:       0.60 MB

     Dynamical RAM for           G-vectors:       0.08 MB

     Dynamical RAM for          h,s,v(r/c):       0.53 MB

     Dynamical RAM for          <psi|beta>:       0.58 MB

     Dynamical RAM for                 psi:       0.71 MB

     Dynamical RAM for                hpsi:       0.71 MB

     Dynamical RAM for      wfcinit/wfcrot:       1.24 MB

     Estimated static dynamical RAM per process >       3.37 MB

     Estimated max dynamical RAM per process >       6.49 MB

     Estimated total dynamical RAM >     594.05 MB
     Generating pointlists ...
     new r_m :   0.0854 (alat units)  1.1518 (a.u.) for type    1
     new r_m :   0.0847 (alat units)  1.1416 (a.u.) for type    2

     Initial potential from superposition of free atoms

     starting charge     252.5655, renormalised to     254.0000
     Starting wfcs are random

     total cpu time spent up to now is        1.1 secs

     Self-consistent Calculation

     iteration #  1     ecut=    50.00 Ry     beta= 0.70
     Davidson diagonalization with overlap

---- Real-time Memory Report at c_bands before calling an iterative solver
           158 MiB given to the printing process from OS
             0 MiB allocation reported by mallinfo(arena+hblkhd)
        173320 MiB available memory on the node where the printing process lives
------------------
     ethr =  1.00E-02,  avg # of iterations = 12.0

     total cpu time spent up to now is        1.8 secs

     total energy              =    -723.26969483 Ry
     estimated scf accuracy    <       3.70872112 Ry

     total magnetization       =     2.00 Bohr mag/cell
     absolute magnetization    =     2.00 Bohr mag/cell

     iteration #  2     ecut=    50.00 Ry     beta= 0.70
     Davidson diagonalization with overlap

---- Real-time Memory Report at c_bands before calling an iterative solver
           164 MiB given to the printing process from OS
             0 MiB allocation reported by mallinfo(arena+hblkhd)
        173248 MiB available memory on the node where the printing process lives
------------------
     ethr =  1.46E-03,  avg # of iterations = 12.5

     total cpu time spent up to now is        2.3 secs

     total energy              =    -723.66153914 Ry
     estimated scf accuracy    <       0.45556844 Ry

     total magnetization       =     2.00 Bohr mag/cell
     absolute magnetization    =     2.07 Bohr mag/cell

     iteration #  3     ecut=    50.00 Ry     beta= 0.70
     Davidson diagonalization with overlap

---- Real-time Memory Report at c_bands before calling an iterative solver
           164 MiB given to the printing process from OS
             0 MiB allocation reported by mallinfo(arena+hblkhd)
        173255 MiB available memory on the node where the printing process lives
------------------
     c_bands:  3 eigenvalues not converged
     ethr =  1.79E-04,  avg # of iterations = 20.0

     total cpu time spent up to now is        2.7 secs

     total energy              =    -723.72716243 Ry
     estimated scf accuracy    <       0.86400158 Ry

     total magnetization       =     2.00 Bohr mag/cell
     absolute magnetization    =     2.12 Bohr mag/cell

     iteration #  4     ecut=    50.00 Ry     beta= 0.70
     Davidson diagonalization with overlap

---- Real-time Memory Report at c_bands before calling an iterative solver
           165 MiB given to the printing process from OS
             0 MiB allocation reported by mallinfo(arena+hblkhd)
        173251 MiB available memory on the node where the printing process lives
------------------
     c_bands:  1 eigenvalues not converged
     ethr =  1.79E-04,  avg # of iterations = 20.0

     total cpu time spent up to now is        3.0 secs

     total energy              =    -723.90118966 Ry
     estimated scf accuracy    <       0.00978897 Ry

     total magnetization       =     2.00 Bohr mag/cell
     absolute magnetization    =     2.19 Bohr mag/cell

     iteration #  5     ecut=    50.00 Ry     beta= 0.70
     Davidson diagonalization with overlap

---- Real-time Memory Report at c_bands before calling an iterative solver
           165 MiB given to the printing process from OS
             0 MiB allocation reported by mallinfo(arena+hblkhd)
        173246 MiB available memory on the node where the printing process lives
------------------
     c_bands:  3 eigenvalues not converged
     ethr =  3.85E-06,  avg # of iterations = 20.0

     total cpu time spent up to now is        3.4 secs

     total energy              =    -723.90610946 Ry
     estimated scf accuracy    <       0.00405035 Ry

     total magnetization       =     2.00 Bohr mag/cell
     absolute magnetization    =     2.23 Bohr mag/cell

     iteration #  6     ecut=    50.00 Ry     beta= 0.70
     Davidson diagonalization with overlap

---- Real-time Memory Report at c_bands before calling an iterative solver
           165 MiB given to the printing process from OS
             0 MiB allocation reported by mallinfo(arena+hblkhd)
        173239 MiB available memory on the node where the printing process lives
------------------
     c_bands:  3 eigenvalues not converged
     ethr =  1.59E-06,  avg # of iterations = 20.0

     total cpu time spent up to now is        4.2 secs

     total energy              =    -723.90686082 Ry
     estimated scf accuracy    <       0.00085720 Ry

     total magnetization       =     2.00 Bohr mag/cell
     absolute magnetization    =     2.25 Bohr mag/cell

     iteration #  7     ecut=    50.00 Ry     beta= 0.70
     Davidson diagonalization with overlap

---- Real-time Memory Report at c_bands before calling an iterative solver
           165 MiB given to the printing process from OS
             0 MiB allocation reported by mallinfo(arena+hblkhd)
        173237 MiB available memory on the node where the printing process lives
------------------
     c_bands:  3 eigenvalues not converged
     ethr =  3.37E-07,  avg # of iterations = 20.0

     total cpu time spent up to now is        4.6 secs

     total energy              =    -723.90708401 Ry
     estimated scf accuracy    <       0.00011656 Ry

     total magnetization       =     2.00 Bohr mag/cell
     absolute magnetization    =     2.27 Bohr mag/cell

     iteration #  8     ecut=    50.00 Ry     beta= 0.70
     Davidson diagonalization with overlap

---- Real-time Memory Report at c_bands before calling an iterative solver
           166 MiB given to the printing process from OS
             0 MiB allocation reported by mallinfo(arena+hblkhd)
        173229 MiB available memory on the node where the printing process lives
------------------
     c_bands:  3 eigenvalues not converged
     ethr =  4.59E-08,  avg # of iterations = 20.0

     total cpu time spent up to now is        5.4 secs

     total energy              =    -723.90712308 Ry
     estimated scf accuracy    <       0.00002781 Ry

     total magnetization       =     2.00 Bohr mag/cell
     absolute magnetization    =     2.28 Bohr mag/cell

     iteration #  9     ecut=    50.00 Ry     beta= 0.70
     Davidson diagonalization with overlap

---- Real-time Memory Report at c_bands before calling an iterative solver
           166 MiB given to the printing process from OS
             0 MiB allocation reported by mallinfo(arena+hblkhd)
        173249 MiB available memory on the node where the printing process lives
------------------
     c_bands:  3 eigenvalues not converged
     ethr =  1.09E-08,  avg # of iterations = 20.0

     total cpu time spent up to now is        5.9 secs

     total energy              =    -723.90713331 Ry
     estimated scf accuracy    <       0.00000782 Ry

     total magnetization       =     2.00 Bohr mag/cell
     absolute magnetization    =     2.29 Bohr mag/cell

     iteration # 10     ecut=    50.00 Ry     beta= 0.70
     Davidson diagonalization with overlap

---- Real-time Memory Report at c_bands before calling an iterative solver
           166 MiB given to the printing process from OS
             0 MiB allocation reported by mallinfo(arena+hblkhd)
        173244 MiB available memory on the node where the printing process lives
------------------
     c_bands:  2 eigenvalues not converged
     ethr =  3.08E-09,  avg # of iterations = 20.0

     total cpu time spent up to now is        6.5 secs

     total energy              =    -723.90713681 Ry
     estimated scf accuracy    <       0.00000083 Ry

     total magnetization       =     2.00 Bohr mag/cell
     absolute magnetization    =     2.29 Bohr mag/cell

     iteration # 11     ecut=    50.00 Ry     beta= 0.70
     Davidson diagonalization with overlap

---- Real-time Memory Report at c_bands before calling an iterative solver
           166 MiB given to the printing process from OS
             0 MiB allocation reported by mallinfo(arena+hblkhd)
        173252 MiB available memory on the node where the printing process lives
------------------
     c_bands:  2 eigenvalues not converged
     ethr =  3.27E-10,  avg # of iterations = 20.0

     total cpu time spent up to now is        7.1 secs

     total energy              =    -723.90713744 Ry
     estimated scf accuracy    <       0.00000024 Ry

     total magnetization       =     2.00 Bohr mag/cell
     absolute magnetization    =     2.30 Bohr mag/cell

     iteration # 12     ecut=    50.00 Ry     beta= 0.70
     Davidson diagonalization with overlap

---- Real-time Memory Report at c_bands before calling an iterative solver
           166 MiB given to the printing process from OS
             0 MiB allocation reported by mallinfo(arena+hblkhd)
        173248 MiB available memory on the node where the printing process lives
------------------
     ethr =  9.37E-11,  avg # of iterations = 18.5

     total cpu time spent up to now is        7.7 secs

     total energy              =    -723.90713756 Ry
     estimated scf accuracy    <       0.00000009 Ry

     total magnetization       =     2.00 Bohr mag/cell
     absolute magnetization    =     2.30 Bohr mag/cell

     iteration # 13     ecut=    50.00 Ry     beta= 0.70
     Davidson diagonalization with overlap

---- Real-time Memory Report at c_bands before calling an iterative solver
           166 MiB given to the printing process from OS
             0 MiB allocation reported by mallinfo(arena+hblkhd)
        173248 MiB available memory on the node where the printing process lives
------------------
     ethr =  3.74E-11,  avg # of iterations = 17.0

     total cpu time spent up to now is        9.4 secs

     total energy              =    -723.90713761 Ry
     estimated scf accuracy    <       0.00000003 Ry

     total magnetization       =     2.00 Bohr mag/cell
     absolute magnetization    =     2.30 Bohr mag/cell

     iteration # 14     ecut=    50.00 Ry     beta= 0.70
     Davidson diagonalization with overlap

---- Real-time Memory Report at c_bands before calling an iterative solver
           166 MiB given to the printing process from OS
             0 MiB allocation reported by mallinfo(arena+hblkhd)
        173249 MiB available memory on the node where the printing process lives
------------------
     ethr =  1.05E-11,  avg # of iterations = 18.0
 
     Magnetic moment per site  (integrated on atomic sphere of radius R)
     atom   1 (R=0.085)  charge=  2.9143  magn=  0.0042
     atom   2 (R=0.085)  charge=  1.8170  magn=  0.2449
     atom   3 (R=0.085)  charge=  1.7930  magn= -0.0087
     atom   4 (R=0.085)  charge=  1.8051  magn=  0.2456
     atom   5 (R=0.085)  charge=  1.7931  magn= -0.0087
     atom   6 (R=0.085)  charge=  1.8232  magn=  0.2450
     atom   7 (R=0.085)  charge=  1.7933  magn= -0.0087
     atom   8 (R=0.085)  charge=  1.7860  magn=  0.0091
     atom   9 (R=0.085)  charge=  1.7963  magn= -0.0019
     atom  10 (R=0.085)  charge=  1.7834  magn=  0.0060
     atom  11 (R=0.085)  charge=  1.7969  magn= -0.0042
     atom  12 (R=0.085)  charge=  1.7823  magn=  0.0061
     atom  13 (R=0.085)  charge=  1.8040  magn= -0.0039
     atom  14 (R=0.085)  charge=  1.7892  magn=  0.0085
     atom  15 (R=0.085)  charge=  1.7873  magn= -0.0020
     atom  16 (R=0.085)  charge=  1.7820  magn=  0.0089
     atom  17 (R=0.085)  charge=  1.7956  magn= -0.0018
     atom  18 (R=0.085)  charge=  1.7822  magn=  0.0057
     atom  19 (R=0.085)  charge=  1.7953  magn= -0.0035
     atom  20 (R=0.085)  charge=  1.7834  magn=  0.0083
     atom  21 (R=0.085)  charge=  1.7848  magn= -0.0020
     atom  22 (R=0.085)  charge=  1.7829  magn=  0.0057
     atom  23 (R=0.085)  charge=  1.7904  magn= -0.0037
     atom  24 (R=0.085)  charge=  1.7825  magn=  0.0182
     atom  25 (R=0.085)  charge=  1.8068  magn=  0.0094
     atom  26 (R=0.085)  charge=  1.7935  magn=  0.0032
     atom  27 (R=0.085)  charge=  1.7589  magn=  0.0001
     atom  28 (R=0.085)  charge=  1.7896  magn=  0.0221
     atom  29 (R=0.085)  charge=  1.7824  magn= -0.0014
     atom  30 (R=0.085)  charge=  1.7901  magn=  0.0211
     atom  31 (R=0.085)  charge=  1.7824  magn= -0.0013
     atom  32 (R=0.085)  charge=  1.7844  magn=  0.0090
     atom  33 (R=0.085)  charge=  1.7959  magn= -0.0018
     atom  34 (R=0.085)  charge=  1.7868  magn=  0.0085
     atom  35 (R=0.085)  charge=  1.7865  magn= -0.0020
     atom  36 (R=0.085)  charge=  1.7800  magn=  0.0059
     atom  37 (R=0.085)  charge=  1.8032  magn= -0.0036
     atom  38 (R=0.085)  charge=  1.7836  magn=  0.0058
     atom  39 (R=0.085)  charge=  1.7914  magn= -0.0041
     atom  40 (R=0.085)  charge=  1.7817  magn=  0.0181
     atom  41 (R=0.085)  charge=  1.8108  magn=  0.0094
     atom  42 (R=0.085)  charge=  1.7948  magn=  0.0218
     atom  43 (R=0.085)  charge=  1.7819  magn= -0.0013
     atom  44 (R=0.085)  charge=  1.7936  magn=  0.0032
     atom  45 (R=0.085)  charge=  1.7589  magn= -0.0000
     atom  46 (R=0.085)  charge=  1.7948  magn=  0.0215
     atom  47 (R=0.085)  charge=  1.7819  magn= -0.0013
     atom  48 (R=0.085)  charge=  1.7819  magn=  0.0184
     atom  49 (R=0.085)  charge=  1.8044  magn=  0.0093
     atom  50 (R=0.085)  charge=  1.7892  magn=  0.0212
     atom  51 (R=0.085)  charge=  1.7820  magn= -0.0013
     atom  52 (R=0.085)  charge=  1.7869  magn=  0.0218
     atom  53 (R=0.085)  charge=  1.7827  magn= -0.0013
     atom  54 (R=0.085)  charge=  1.7935  magn=  0.0032
     atom  55 (R=0.085)  charge=  1.7588  magn=  0.0001
     atom  56 (R=0.085)  charge=  1.7914  magn=  0.0009
     atom  57 (R=0.085)  charge=  1.7833  magn=  0.0010
     atom  58 (R=0.085)  charge=  1.7914  magn=  0.0018
     atom  59 (R=0.085)  charge=  1.7879  magn= -0.0009
     atom  60 (R=0.085)  charge=  1.7911  magn=  0.0017
     atom  61 (R=0.085)  charge=  1.7854  magn= -0.0009
     atom  62 (R=0.085)  charge=  1.7932  magn=  0.0018
     atom  63 (R=0.085)  charge=  1.7890  magn= -0.0009

     total cpu time spent up to now is       10.2 secs

     End of self-consistent calculation

 ------ SPIN UP ------------


          k = 0.0000 0.0000 0.0000 (  7386 PWs)   bands (ev):

    -8.5508  -6.9223  -6.2859  -6.2707  -6.1944  -6.1560  -5.8828  -4.9113
    -4.1431  -4.1327  -4.1237  -4.0936  -4.0319  -4.0191  -4.0078  -3.9194
    -3.8756  -3.8599  -3.3618  -2.9289  -2.6777  -2.6739  -2.1601  -0.3623
    -0.3501  -0.3275  -0.2836  -0.0762   0.1729   0.1913   0.2782   0.2958
     0.3673   0.6180   0.8359   0.8443   0.9535   0.9745   0.9869   1.0539
     1.0609   1.0663   1.2648   1.2971   3.0708   3.9088   3.9251   4.0707
     4.1903   4.2051   4.2237   4.2767   4.2809   4.2861   4.4207   4.4244
     4.4957   4.4979   4.5676   4.6605   4.6850   4.6908   4.6930   4.7868
     4.7948   4.9198   4.9671   4.9722   5.0463   5.1989   5.2086   5.2987
     5.3591   5.3728   5.3963   5.4037   5.4080   6.0428   6.0475   6.1020
     6.6618   6.6665   6.7264   6.9906   7.0020   7.0400   7.5287   8.3310
     8.3376   8.4095   8.4666   8.4902   8.6857   8.7121   8.7886   8.8297
     8.8394   8.8523   8.8942   8.9010   8.9022   9.2901   9.2910   9.3236
     9.6841   9.7051   9.8997   9.9109   9.9434   9.9623   9.9638   9.9779
     9.9881  10.0282  10.0389  10.0555  10.1219  10.1360  10.2711  10.3229
    10.3329  11.0534  12.2857  12.4226  12.4299  13.9552  14.6915  14.7987
    17.3396  17.3744  17.4118  17.5172  17.5750  17.5853  17.8541  17.9258
    17.9376  18.0340  18.0651  18.3696  18.9922  19.0036  19.0248  20.6962
    20.7927  20.8270  20.8789  20.9403  20.9444  21.0261  21.0320  21.0450

     occupation numbers 
     1.0000   1.0000   1.0000   1.0000   1.0000   1.0000   1.0000   1.0000
     1.0000   1.0000   1.0000   1.0000   1.0000   1.0000   1.0000   1.0000
     1.0000   1.0000   1.0000   1.0000   1.0000   1.0000   1.0000   1.0000
     1.0000   1.0000   1.0000   1.0000   1.0000   1.0000   1.0000   1.0000
     1.0000   1.0000   1.0000   1.0000   1.0000   1.0000   1.0000   1.0000
     1.0000   1.0000   1.0000   1.0000   1.0000   1.0000   1.0000   1.0000
     1.0000   1.0000   1.0000   1.0000   1.0000   1.0000   1.0000   1.0000
     1.0000   1.0000   1.0000   1.0000   1.0000   1.0000   1.0000   1.0000
     1.0000   1.0000   1.0000   1.0000   1.0000   1.0000   1.0000   1.0000
     1.0000   1.0000   1.0000   1.0000   1.0000   1.0000   1.0000   1.0000
     1.0000   1.0000   1.0000   1.0000   1.0000   1.0000   1.0000   1.0000
     1.0000   1.0000   1.0000   1.0000   1.0000   1.0000   1.0000   1.0000
     1.0000   1.0000   1.0000   1.0000   1.0000   1.0000   1.0000   1.0000
     1.0000   1.0000   1.0000   1.0000   1.0000   1.0000   1.0000   1.0000
     1.0000   1.0000   1.0000   1.0000   1.0000   1.0000   1.0000   1.0000
     1.0000   1.0000   1.0000   1.0000   1.0000   1.0000   1.0000   1.0000
     0.0000   0.0000   0.0000   0.0000   0.0000   0.0000   0.0000   0.0000
     0.0000   0.0000   0.0000   0.0000   0.0000   0.0000   0.0000   0.0000
     0.0000   0.0000   0.0000   0.0000   0.0000   0.0000   0.0000   0.0000

 ------ SPIN DOWN ----------


          k = 0.0000 0.0000 0.0000 (  7386 PWs)   bands (ev):

    -8.5254  -6.9079  -6.2634  -6.2475  -6.1498  -6.1140  -5.8456  -4.8945
    -4.1224  -4.1079  -4.0848  -4.0611  -3.9944  -3.9822  -3.9606  -3.9073
    -3.8410  -3.8202  -3.3195  -2.9104  -2.6247  -2.6200  -2.0152  -0.3448
    -0.3319  -0.3059  -0.2666  -0.0109   0.1916   0.2088   0.3153   0.3290
     0.3924   0.6526   0.8480   0.8560   0.9864   1.0049   1.0125   1.0689
     1.0772   1.0847   1.4308   1.4670   3.1846   3.9320   3.9473   4.0967
     4.2248   4.2484   4.2661   4.2909   4.2976   4.3145   4.4686   4.4704
     4.5175   4.5194   4.5913   4.6847   4.7041   4.7077   4.7136   4.8212
     4.8312   4.9327   4.9988   5.0041   5.1279   5.2329   5.2437   5.3225
     5.3734   5.3843   5.4179   5.4543   5.4690   6.1047   6.1071   6.1399
     6.6884   6.6937   6.7607   7.0763   7.0880   7.0984   7.6990   8.3696
     8.3767   8.4465   8.5022   8.5249   8.7194   8.7431   8.8248   8.8751
     8.8806   8.8846   8.9249   8.9286   8.9353   9.3261   9.3279   9.3510
     9.7119   9.7322   9.9287   9.9408   9.9540   9.9763   9.9774   9.9976
    10.0092  10.0625  10.0692  10.0777  10.1499  10.1623  10.3287  10.3773
    10.3877  11.4334  12.5594  12.5710  12.5987  14.4382  16.0169  16.1396
    17.3648  17.3921  17.4286  17.5450  17.6297  17.6421  17.8769  17.9454
    17.9558  18.0741  18.1052  18.4889  19.0467  19.0759  19.1121  20.7466
    20.8070  20.8411  20.8937  20.9580  20.9634  21.0426  21.0579  21.0627

     occupation numbers 
     1.0000   1.0000   1.0000   1.0000   1.0000   1.0000   1.0000   1.0000
     1.0000   1.0000   1.0000   1.0000   1.0000   1.0000   1.0000   1.0000
     1.0000   1.0000   1.0000   1.0000   1.0000   1.0000   1.0000   1.0000
     1.0000   1.0000   1.0000   1.0000   1.0000   1.0000   1.0000   1.0000
     1.0000   1.0000   1.0000   1.0000   1.0000   1.0000   1.0000   1.0000
     1.0000   1.0000   1.0000   1.0000   1.0000   1.0000   1.0000   1.0000
     1.0000   1.0000   1.0000   1.0000   1.0000   1.0000   1.0000   1.0000
     1.0000   1.0000   1.0000   1.0000   1.0000   1.0000   1.0000   1.0000
     1.0000   1.0000   1.0000   1.0000   1.0000   1.0000   1.0000   1.0000
     1.0000   1.0000   1.0000   1.0000   1.0000   1.0000   1.0000   1.0000
     1.0000   1.0000   1.0000   1.0000   1.0000   1.0000   1.0000   1.0000
     1.0000   1.0000   1.0000   1.0000   1.0000   1.0000   1.0000   1.0000
     1.0000   1.0000   1.0000   1.0000   1.0000   1.0000   1.0000   1.0000
     1.0000   1.0000   1.0000   1.0000   1.0000   1.0000   1.0000   1.0000
     1.0000   1.0000   1.0000   1.0000   1.0000   1.0000   1.0000   1.0000
     1.0000   1.0000   1.0000   1.0000   1.0000   1.0000   0.0000   0.0000
     0.0000   0.0000   0.0000   0.0000   0.0000   0.0000   0.0000   0.0000
     0.0000   0.0000   0.0000   0.0000   0.0000   0.0000   0.0000   0.0000
     0.0000   0.0000   0.0000   0.0000   0.0000   0.0000   0.0000   0.0000

     highest occupied, lowest unoccupied level (ev):    14.7987   16.0169

!    total energy              =    -723.90713762 Ry
     estimated scf accuracy    <          5.2E-09 Ry

     The total energy is the sum of the following terms:
     one-electron contribution =     232.27620172 Ry
     hartree contribution      =      70.33974326 Ry
     xc contribution           =    -226.77214297 Ry
     ewald contribution        =    -799.75093964 Ry

     total magnetization       =     2.00 Bohr mag/cell
     absolute magnetization    =     2.30 Bohr mag/cell

     convergence has been achieved in  14 iterations

     Forces acting on atoms (cartesian axes, Ry/au):

     atom    1 type  1   force =    -0.00257692   -0.00400631   -0.00270535
     atom    2 type  2   force =     0.03507663    0.01581913   -0.01271269
     atom    3 type  2   force =    -0.00925869    0.00859807    0.00618981
     atom    4 type  2   force =     0.00871252    0.02481652   -0.00284957
     atom    5 type  2   force =     0.00297531   -0.02176686    0.00134966
     atom    6 type  2   force =    -0.00835406    0.00829906    0.04336883
     atom    7 type  2   force =     0.01025735    0.01206569   -0.00208370
     atom    8 type  2   force =     0.00306437    0.00437997    0.00653994
     atom    9 type  2   force =    -0.00209450   -0.00475987   -0.00294783
     atom   10 type  2   force =     0.00084152    0.00135057    0.00741031
     atom   11 type  2   force =    -0.02864590    0.00590912   -0.00879510
     atom   12 type  2   force =    -0.00014534    0.00374167    0.00345448
     atom   13 type  2   force =    -0.00285234   -0.03992772   -0.00184933
     atom   14 type  2   force =     0.00353230    0.00209355   -0.00430136
     atom   15 type  2   force =    -0.00279773   -0.00127831   -0.00567093
     atom   16 type  2   force =     0.00019650   -0.00099811   -0.00102627
     atom   17 type  2   force =    -0.00140313    0.00637311    0.00024193
     atom   18 type  2   force =     0.00285682   -0.00013063    0.00095380
     atom   19 type  2   force =    -0.00915839   -0.00317271   -0.00524159
     atom   20 type  2   force =     0.00290982   -0.00440046    0.00363169
     atom   21 type  2   force =    -0.00176145   -0.00464971   -0.00245015
     atom   22 type  2   force =     0.00155496    0.00198269    0.00135754
     atom   23 type  2   force =    -0.00027811   -0.00653288   -0.00130422
     atom   24 type  2   force =     0.00972228    0.00536295    0.00419447
     atom   25 type  2   force =    -0.01230260   -0.01385519   -0.00406275
     atom   26 type  2   force =     0.01480804    0.00597081    0.00159199
     atom   27 type  2   force =    -0.02569824   -0.00840197   -0.00647617
     atom   28 type  2   force =     0.01049919    0.00072628    0.00590037
     atom   29 type  2   force =    -0.00011051   -0.00167392   -0.00129968
     atom   30 type  2   force =     0.00774758    0.00661491    0.00414088
     atom   31 type  2   force =     0.00072524   -0.00101957   -0.00318091
     atom   32 type  2   force =     0.00322213    0.00395860    0.00135625
     atom   33 type  2   force =     0.00020921   -0.00498922    0.00047585
     atom   34 type  2   force =    -0.00478078    0.00173002    0.00354193
     atom   35 type  2   force =    -0.00497976   -0.00091291   -0.00331981
     atom   36 type  2   force =    -0.00003754    0.00052772    0.00052056
     atom   37 type  2   force =     0.00007784   -0.03320863   -0.00679036
     atom   38 type  2   force =     0.00710361    0.00167573   -0.00021802
     atom   39 type  2   force =    -0.01004751    0.00613664   -0.01375208
     atom   40 type  2   force =     0.00609391    0.00884803    0.00416891
     atom   41 type  2   force =    -0.00705081   -0.01601365   -0.00430360
     atom   42 type  2   force =    -0.00020411    0.01736278    0.00596860
     atom   43 type  2   force =    -0.00090391    0.00072826   -0.00104138
     atom   44 type  2   force =     0.00460018    0.01718876    0.00303983
     atom   45 type  2   force =    -0.00737695   -0.02654967   -0.00662616
     atom   46 type  2   force =     0.00653470    0.01610653    0.00118366
     atom   47 type  2   force =    -0.00122416    0.00133327   -0.00187048
     atom   48 type  2   force =     0.00495908    0.00552827    0.00769455
     atom   49 type  2   force =    -0.00831169   -0.01470357   -0.01077966
     atom   50 type  2   force =     0.00346182    0.00268649    0.00257632
     atom   51 type  2   force =    -0.00443379    0.01588458    0.00048300
     atom   52 type  2   force =     0.00639026    0.00215217    0.00498280
     atom   53 type  2   force =    -0.00100946   -0.00361294   -0.00004001
     atom   54 type  2   force =     0.00261380    0.00550378    0.01401047
     atom   55 type  2   force =    -0.00690056   -0.00788829   -0.02516691
     atom   56 type  2   force =     0.00482599    0.00465230    0.00466441
     atom   57 type  2   force =    -0.00139575   -0.00123656   -0.00163486
     atom   58 type  2   force =     0.00146849    0.00414619    0.00326786
     atom   59 type  2   force =    -0.00122504   -0.00271036   -0.00373724
     atom   60 type  2   force =     0.00254000    0.00191796    0.00239160
     atom   61 type  2   force =    -0.00340283   -0.00183611   -0.00381068
     atom   62 type  2   force =     0.00506226    0.00039956    0.00215472
     atom   63 type  2   force =    -0.00392114   -0.00233564   -0.00075816
     The non-local contrib.  to forces
     atom    1 type  1   force =    -0.76031861   -0.76422014   -0.75985745
     atom    2 type  2   force =    -0.16497547    0.22025348    0.17810340
     atom    3 type  2   force =     0.05673852    0.08079306    0.07250607
     atom    4 type  2   force =     0.21508037   -0.18848762    0.19756126
     atom    5 type  2   force =     0.07345012    0.04186611    0.07016662
     atom    6 type  2   force =     0.17948188    0.20432643   -0.14645301
     atom    7 type  2   force =     0.07730046    0.08327705    0.06427986
     atom    8 type  2   force =    -0.00454516   -0.00473057    0.05690012
     atom    9 type  2   force =    -0.00564234   -0.00773147    0.01311415
     atom   10 type  2   force =    -0.04439067   -0.01411470   -0.01164794
     atom   11 type  2   force =    -0.10394175    0.06767711   -0.08316899
     atom   12 type  2   force =    -0.01775822   -0.04079757   -0.01416327
     atom   13 type  2   force =     0.05219145   -0.11643934   -0.07331216
     atom   14 type  2   force =     0.00291900    0.00037544    0.04558567
     atom   15 type  2   force =     0.01012253    0.00918077   -0.00380060
     atom   16 type  2   force =    -0.01243203    0.04874606   -0.01320021
     atom   17 type  2   force =    -0.00454096    0.02732869   -0.00330666
     atom   18 type  2   force =    -0.04088591   -0.02222829   -0.01556077
     atom   19 type  2   force =    -0.08110079   -0.07900950    0.05521999
     atom   20 type  2   force =     0.00425490    0.04467339    0.00505674
     atom   21 type  2   force =     0.01024935   -0.00385388    0.01116476
     atom   22 type  2   force =    -0.01400655   -0.02000050   -0.04203619
     atom   23 type  2   force =     0.06449202   -0.08497000   -0.07170688
     atom   24 type  2   force =    -0.06439277    0.03304318    0.03417185
     atom   25 type  2   force =    -0.02449853    0.00028118    0.01392781
     atom   26 type  2   force =    -0.04233673   -0.02046689   -0.02405523
     atom   27 type  2   force =    -0.14705884    0.12469590    0.12336851
     atom   28 type  2   force =     0.08004785    0.02348082   -0.01263925
     atom   29 type  2   force =     0.00058441    0.01844815    0.00500401
     atom   30 type  2   force =     0.07656813   -0.01334231    0.02874251
     atom   31 type  2   force =     0.00225242    0.00281101    0.01764024
     atom   32 type  2   force =     0.05271647   -0.00673335   -0.00711408
     atom   33 type  2   force =     0.01811995   -0.00792309   -0.00326331
     atom   34 type  2   force =     0.04469560    0.00129932    0.00377366
     atom   35 type  2   force =    -0.00355954    0.00903353    0.01037588
     atom   36 type  2   force =    -0.01895063   -0.04386039   -0.01738556
     atom   37 type  2   force =    -0.07222897   -0.10924229    0.04788407
     atom   38 type  2   force =    -0.01369616   -0.01362301   -0.04498771
     atom   39 type  2   force =    -0.08683939    0.07151495   -0.08750938
     atom   40 type  2   force =     0.03561755   -0.06204924    0.03495154
     atom   41 type  2   force =     0.00897705   -0.02690738    0.01362458
     atom   42 type  2   force =     0.02098200    0.08870645   -0.01002802
     atom   43 type  2   force =     0.01715373   -0.00009018    0.00385552
     atom   44 type  2   force =    -0.02251512   -0.03714098   -0.02361805
     atom   45 type  2   force =     0.12481860   -0.14758517    0.12418232
     atom   46 type  2   force =    -0.00984531    0.08725724    0.02319597
     atom   47 type  2   force =     0.00330413    0.00132041    0.01623047
     atom   48 type  2   force =     0.03350399    0.03292471   -0.06861827
     atom   49 type  2   force =     0.00842259   -0.00070359   -0.02340151
     atom   50 type  2   force =     0.02902021   -0.01839415    0.07078243
     atom   51 type  2   force =     0.01637005    0.02476725    0.00370874
     atom   52 type  2   force =    -0.01422615    0.02671417    0.07311184
     atom   53 type  2   force =     0.00527691    0.01715583    0.00164554
     atom   54 type  2   force =    -0.02278172   -0.02073350   -0.04400667
     atom   55 type  2   force =     0.12426204    0.12360080   -0.14740126
     atom   56 type  2   force =     0.02287741    0.02425589    0.02201246
     atom   57 type  2   force =     0.00519305    0.00431604    0.00585671
     atom   58 type  2   force =     0.01630284   -0.00656367   -0.00991154
     atom   59 type  2   force =     0.00788622   -0.01427164   -0.01547899
     atom   60 type  2   force =    -0.01030500    0.01812397   -0.01124657
     atom   61 type  2   force =    -0.01484567    0.00876401   -0.01548496
     atom   62 type  2   force =    -0.00752316   -0.00961838    0.01597328
     atom   63 type  2   force =    -0.01684450   -0.01550210    0.00739674
     The ionic contribution  to forces
     atom    1 type  1   force =     2.98286851    2.95547306    2.99831658
     atom    2 type  2   force =     2.41109744   -2.06212396   -2.21484944
     atom    3 type  2   force =     0.48074919   -0.73237120   -0.85247014
     atom    4 type  2   force =    -2.08733757    2.33612318   -2.15649265
     atom    5 type  2   force =    -0.77063818    0.39681112   -0.82621376
     atom    6 type  2   force =    -2.18625291   -2.09938475    2.46034337
     atom    7 type  2   force =    -0.82405008   -0.75201476    0.53707941
     atom    8 type  2   force =     0.25434215    0.21715095   -0.72804731
     atom    9 type  2   force =     0.06592563    0.02633880   -0.22490764
     atom   10 type  2   force =     0.17960700    0.06999947    0.56523909
     atom   11 type  2   force =    -0.52796452   -0.62837402    0.80324586
     atom   12 type  2   force =     0.02900212    0.16156544    0.55005250
     atom   13 type  2   force =    -0.66240913   -0.56654381    0.76123211
     atom   14 type  2   force =    -0.19309630   -0.18224468   -0.71535875
     atom   15 type  2   force =    -0.16884555   -0.13362635   -0.06819466
     atom   16 type  2   force =     0.20049222   -0.77602345    0.22501162
     atom   17 type  2   force =     0.07132156   -0.15622739    0.09307235
     atom   18 type  2   force =     0.22541943    0.47130802    0.00132051
     atom   19 type  2   force =    -0.36189715    0.75114078   -0.70679602
     atom   20 type  2   force =    -0.18205435   -0.73259381   -0.19089862
     atom   21 type  2   force =    -0.18261519   -0.06211624   -0.20023751
     atom   22 type  2   force =     0.02710652    0.47946849    0.23670302
     atom   23 type  2   force =    -0.68840579    0.78362210   -0.33149303
     atom   24 type  2   force =     0.10725262   -0.13870109   -0.17008968
     atom   25 type  2   force =    -0.02569644   -0.07945032   -0.06969206
     atom   26 type  2   force =     0.13074245   -0.09271587   -0.04858625
     atom   27 type  2   force =     1.14061866    0.24496100    0.25021214
     atom   28 type  2   force =    -0.08235865   -0.13698929    0.11327067
     atom   29 type  2   force =    -0.15517758    0.03112238    0.25694339
     atom   30 type  2   force =    -0.02218143    0.14028553   -0.23382304
     atom   31 type  2   force =    -0.15303565    0.17810564   -0.00830356
     atom   32 type  2   force =    -0.74256461    0.19734437    0.26466849
     atom   33 type  2   force =    -0.20207668    0.02531128    0.09960651
     atom   34 type  2   force =    -0.71531360   -0.18367967   -0.19691704
     atom   35 type  2   force =    -0.06352562   -0.14286294   -0.19795018
     atom   36 type  2   force =     0.49000737    0.17343784    0.02802272
     atom   37 type  2   force =     0.72836030   -0.50458446   -0.69224362
     atom   38 type  2   force =     0.53867176    0.06897831    0.21010027
     atom   39 type  2   force =     0.80812416   -0.64088094   -0.43115049
     atom   40 type  2   force =    -0.17183335    0.06121851   -0.23505976
     atom   41 type  2   force =    -0.07051812   -0.09202727   -0.07661024
     atom   42 type  2   force =    -0.13064541    0.02469724    0.08792305
     atom   43 type  2   force =     0.03290223   -0.11631896    0.25399859
     atom   44 type  2   force =    -0.07265975    0.12492659   -0.05676443
     atom   45 type  2   force =     0.24320266    1.15917015    0.24818394
     atom   46 type  2   force =     0.09750161    0.04296761   -0.17242538
     atom   47 type  2   force =     0.22345806   -0.11735264    0.01659989
     atom   48 type  2   force =    -0.13234149   -0.11300049    0.13648659
     atom   49 type  2   force =    -0.07478700   -0.08579779   -0.00114392
     atom   50 type  2   force =    -0.26211042    0.15183038   -0.10836101
     atom   51 type  2   force =    -0.01026100    0.24332375   -0.17972256
     atom   52 type  2   force =     0.14148248   -0.18479404   -0.12412393
     atom   53 type  2   force =     0.23644281    0.00919012   -0.18205719
     atom   54 type  2   force =    -0.06222355   -0.08852828    0.13646650
     atom   55 type  2   force =     0.24480032    0.24799460    1.13205431
     atom   56 type  2   force =    -0.09351293   -0.03766678   -0.12226132
     atom   57 type  2   force =    -0.02259532   -0.03880241   -0.01126233
     atom   58 type  2   force =    -0.07769892    0.05023212    0.04252408
     atom   59 type  2   force =    -0.28480891    0.07978032    0.15394183
     atom   60 type  2   force =     0.06064008   -0.03803421    0.06009830
     atom   61 type  2   force =     0.13209045   -0.30298081    0.15879285
     atom   62 type  2   force =     0.05588584    0.03586845   -0.07339172
     atom   63 type  2   force =     0.12337756    0.07906506   -0.27361134
     The local contribution  to forces
     atom    1 type  1   force =    -2.22519452   -2.19527137   -2.24121442
     atom    2 type  2   force =    -2.21112023    1.85766454    2.02398321
     atom    3 type  2   force =    -0.54684809    0.66011954    0.78609190
     atom    4 type  2   force =     1.88087738   -2.12284329    1.95603524
     atom    5 type  2   force =     0.70005767   -0.46046675    0.75735651
     atom    6 type  2   force =     1.99832225    1.90333525   -2.27057648
     atom    7 type  2   force =     0.75689649    0.68076459   -0.60350790
     atom    8 type  2   force =    -0.24680002   -0.20804883    0.67763758
     atom    9 type  2   force =    -0.06244967   -0.02338565    0.20879131
     atom   10 type  2   force =    -0.13443644   -0.05456855   -0.54623124
     atom   11 type  2   force =     0.60319387    0.56656348   -0.72891369
     atom   12 type  2   force =    -0.01147283   -0.11705389   -0.53248412
     atom   13 type  2   force =     0.60726451    0.64303215   -0.68982494
     atom   14 type  2   force =     0.19360597    0.18393138    0.66542606
     atom   15 type  2   force =     0.15581297    0.12311958    0.06629114
     atom   16 type  2   force =    -0.18792966    0.72621390   -0.21287758
     atom   17 type  2   force =    -0.06825698    0.13519831   -0.08957835
     atom   18 type  2   force =    -0.18174224   -0.44926804    0.01513572
     atom   19 type  2   force =     0.43376650   -0.67533853    0.64628947
     atom   20 type  2   force =     0.18060594    0.68346009    0.18941659
     atom   21 type  2   force =     0.17049289    0.06126831    0.18657057
     atom   22 type  2   force =    -0.01162513   -0.45754178   -0.19337017
     atom   23 type  2   force =     0.62354266   -0.70523150    0.40182971
     atom   24 type  2   force =    -0.03320141    0.11094764    0.14005006
     atom   25 type  2   force =     0.03782406    0.06525149    0.05165525
     atom   26 type  2   force =    -0.07366658    0.11910569    0.07419028
     atom   27 type  2   force =    -1.01933359   -0.37809313   -0.38010716
     atom   28 type  2   force =     0.01272768    0.11417740   -0.09477420
     atom   29 type  2   force =     0.15438423   -0.05130520   -0.26329492
     atom   30 type  2   force =    -0.04672181   -0.12038204    0.20917913
     atom   31 type  2   force =     0.15140774   -0.18197184   -0.01256014
     atom   32 type  2   force =     0.69296858   -0.18668700   -0.25626066
     atom   33 type  2   force =     0.18407425   -0.02239969   -0.09592292
     atom   34 type  2   force =     0.66573934    0.18407973    0.19662912
     atom   35 type  2   force =     0.06202323    0.13286217    0.18419484
     atom   36 type  2   force =    -0.47117543   -0.12905677   -0.01017767
     atom   37 type  2   force =    -0.65611531    0.58062381    0.63750303
     atom   38 type  2   force =    -0.51795267   -0.05371308   -0.16536735
     atom   39 type  2   force =    -0.73139247    0.57544333    0.50487698
     atom   40 type  2   force =     0.14219838    0.00965195    0.20424021
     atom   41 type  2   force =     0.05438293    0.10289011    0.05863575
     atom   42 type  2   force =     0.10934072   -0.09607356   -0.07197115
     atom   43 type  2   force =    -0.05107418    0.11709778   -0.25893769
     atom   44 type  2   force =     0.09967984   -0.07063171    0.08338002
     atom   45 type  2   force =    -0.37546964   -1.03816638   -0.37902920
     atom   46 type  2   force =    -0.08119716   -0.11415038    0.15034649
     atom   47 type  2   force =    -0.22805140    0.11731548   -0.03476790
     atom   48 type  2   force =     0.10368473    0.08555514   -0.06023477
     atom   49 type  2   force =     0.05794630    0.07173829    0.01369604
     atom   50 type  2   force =     0.23643655   -0.13080254    0.04009342
     atom   51 type  2   force =    -0.01065518   -0.25223515    0.17644752
     atom   52 type  2   force =    -0.12094142    0.16015424    0.05593761
     atom   53 type  2   force =    -0.24279326   -0.03004129    0.18031601
     atom   54 type  2   force =     0.08752024    0.11471658   -0.07851359
     atom   55 type  2   force =    -0.37603814   -0.37950796   -1.00988648
     atom   56 type  2   force =     0.07534908    0.01801030    0.10487203
     atom   57 type  2   force =     0.01589806    0.03319885    0.00373891
     atom   58 type  2   force =     0.06275804   -0.03957099   -0.02938302
     atom   59 type  2   force =     0.27559252   -0.06826123   -0.14224883
     atom   60 type  2   force =    -0.04789118    0.02178371   -0.04650118
     atom   61 type  2   force =    -0.12072795    0.29232904   -0.14716330
     atom   62 type  2   force =    -0.04339334   -0.02590047    0.05954019
     atom   63 type  2   force =    -0.11053166   -0.06593202    0.26542241
     The core correction contribution to forces
     atom    1 type  1   force =     0.00000000    0.00000000    0.00000000
     atom    2 type  2   force =     0.00000000    0.00000000    0.00000000
     atom    3 type  2   force =     0.00000000    0.00000000    0.00000000
     atom    4 type  2   force =     0.00000000    0.00000000    0.00000000
     atom    5 type  2   force =     0.00000000    0.00000000    0.00000000
     atom    6 type  2   force =     0.00000000    0.00000000    0.00000000
     atom    7 type  2   force =     0.00000000    0.00000000    0.00000000
     atom    8 type  2   force =     0.00000000    0.00000000    0.00000000
     atom    9 type  2   force =     0.00000000    0.00000000    0.00000000
     atom   10 type  2   force =     0.00000000    0.00000000    0.00000000
     atom   11 type  2   force =     0.00000000    0.00000000    0.00000000
     atom   12 type  2   force =     0.00000000    0.00000000    0.00000000
     atom   13 type  2   force =     0.00000000    0.00000000    0.00000000
     atom   14 type  2   force =     0.00000000    0.00000000    0.00000000
     atom   15 type  2   force =     0.00000000    0.00000000    0.00000000
     atom   16 type  2   force =     0.00000000    0.00000000    0.00000000
     atom   17 type  2   force =     0.00000000    0.00000000    0.00000000
     atom   18 type  2   force =     0.00000000    0.00000000    0.00000000
     atom   19 type  2   force =     0.00000000    0.00000000    0.00000000
     atom   20 type  2   force =     0.00000000    0.00000000    0.00000000
     atom   21 type  2   force =     0.00000000    0.00000000    0.00000000
     atom   22 type  2   force =     0.00000000    0.00000000    0.00000000
     atom   23 type  2   force =     0.00000000    0.00000000    0.00000000
     atom   24 type  2   force =     0.00000000    0.00000000    0.00000000
     atom   25 type  2   force =     0.00000000    0.00000000    0.00000000
     atom   26 type  2   force =     0.00000000    0.00000000    0.00000000
     atom   27 type  2   force =     0.00000000    0.00000000    0.00000000
     atom   28 type  2   force =     0.00000000    0.00000000    0.00000000
     atom   29 type  2   force =     0.00000000    0.00000000    0.00000000
     atom   30 type  2   force =     0.00000000    0.00000000    0.00000000
     atom   31 type  2   force =     0.00000000    0.00000000    0.00000000
     atom   32 type  2   force =     0.00000000    0.00000000    0.00000000
     atom   33 type  2   force =     0.00000000    0.00000000    0.00000000
     atom   34 type  2   force =     0.00000000    0.00000000    0.00000000
     atom   35 type  2   force =     0.00000000    0.00000000    0.00000000
     atom   36 type  2   force =     0.00000000    0.00000000    0.00000000
     atom   37 type  2   force =     0.00000000    0.00000000    0.00000000
     atom   38 type  2   force =     0.00000000    0.00000000    0.00000000
     atom   39 type  2   force =     0.00000000    0.00000000    0.00000000
     atom   40 type  2   force =     0.00000000    0.00000000    0.00000000
     atom   41 type  2   force =     0.00000000    0.00000000    0.00000000
     atom   42 type  2   force =     0.00000000    0.00000000    0.00000000
     atom   43 type  2   force =     0.00000000    0.00000000    0.00000000
     atom   44 type  2   force =     0.00000000    0.00000000    0.00000000
     atom   45 type  2   force =     0.00000000    0.00000000    0.00000000
     atom   46 type  2   force =     0.00000000    0.00000000    0.00000000
     atom   47 type  2   force =     0.00000000    0.00000000    0.00000000
     atom   48 type  2   force =     0.00000000    0.00000000    0.00000000
     atom   49 type  2   force =     0.00000000    0.00000000    0.00000000
     atom   50 type  2   force =     0.00000000    0.00000000    0.00000000
     atom   51 type  2   force =     0.00000000    0.00000000    0.00000000
     atom   52 type  2   force =     0.00000000    0.00000000    0.00000000
     atom   53 type  2   force =     0.00000000    0.00000000    0.00000000
     atom   54 type  2   force =     0.00000000    0.00000000    0.00000000
     atom   55 type  2   force =     0.00000000    0.00000000    0.00000000
     atom   56 type  2   force =     0.00000000    0.00000000    0.00000000
     atom   57 type  2   force =     0.00000000    0.00000000    0.00000000
     atom   58 type  2   force =     0.00000000    0.00000000    0.00000000
     atom   59 type  2   force =     0.00000000    0.00000000    0.00000000
     atom   60 type  2   force =     0.00000000    0.00000000    0.00000000
     atom   61 type  2   force =     0.00000000    0.00000000    0.00000000
     atom   62 type  2   force =     0.00000000    0.00000000    0.00000000
     atom   63 type  2   force =     0.00000000    0.00000000    0.00000000
     The Hubbard contrib.    to forces
     atom    1 type  1   force =     0.00000000    0.00000000    0.00000000
     atom    2 type  2   force =     0.00000000    0.00000000    0.00000000
     atom    3 type  2   force =     0.00000000    0.00000000    0.00000000
     atom    4 type  2   force =     0.00000000    0.00000000    0.00000000
     atom    5 type  2   force =     0.00000000    0.00000000    0.00000000
     atom    6 type  2   force =     0.00000000    0.00000000    0.00000000
     atom    7 type  2   force =     0.00000000    0.00000000    0.00000000
     atom    8 type  2   force =     0.00000000    0.00000000    0.00000000
     atom    9 type  2   force =     0.00000000    0.00000000    0.00000000
     atom   10 type  2   force =     0.00000000    0.00000000    0.00000000
     atom   11 type  2   force =     0.00000000    0.00000000    0.00000000
     atom   12 type  2   force =     0.00000000    0.00000000    0.00000000
     atom   13 type  2   force =     0.00000000    0.00000000    0.00000000
     atom   14 type  2   force =     0.00000000    0.00000000    0.00000000
     atom   15 type  2   force =     0.00000000    0.00000000    0.00000000
     atom   16 type  2   force =     0.00000000    0.00000000    0.00000000
     atom   17 type  2   force =     0.00000000    0.00000000    0.00000000
     atom   18 type  2   force =     0.00000000    0.00000000    0.00000000
     atom   19 type  2   force =     0.00000000    0.00000000    0.00000000
     atom   20 type  2   force =     0.00000000    0.00000000    0.00000000
     atom   21 type  2   force =     0.00000000    0.00000000    0.00000000
     atom   22 type  2   force =     0.00000000    0.00000000    0.00000000
     atom   23 type  2   force =     0.00000000    0.00000000    0.00000000
     atom   24 type  2   force =     0.00000000    0.00000000    0.00000000
     atom   25 type  2   force =     0.00000000    0.00000000    0.00000000
     atom   26 type  2   force =     0.00000000    0.00000000    0.00000000
     atom   27 type  2   force =     0.00000000    0.00000000    0.00000000
     atom   28 type  2   force =     0.00000000    0.00000000    0.00000000
     atom   29 type  2   force =     0.00000000    0.00000000    0.00000000
     atom   30 type  2   force =     0.00000000    0.00000000    0.00000000
     atom   31 type  2   force =     0.00000000    0.00000000    0.00000000
     atom   32 type  2   force =     0.00000000    0.00000000    0.00000000
     atom   33 type  2   force =     0.00000000    0.00000000    0.00000000
     atom   34 type  2   force =     0.00000000    0.00000000    0.00000000
     atom   35 type  2   force =     0.00000000    0.00000000    0.00000000
     atom   36 type  2   force =     0.00000000    0.00000000    0.00000000
     atom   37 type  2   force =     0.00000000    0.00000000    0.00000000
     atom   38 type  2   force =     0.00000000    0.00000000    0.00000000
     atom   39 type  2   force =     0.00000000    0.00000000    0.00000000
     atom   40 type  2   force =     0.00000000    0.00000000    0.00000000
     atom   41 type  2   force =     0.00000000    0.00000000    0.00000000
     atom   42 type  2   force =     0.00000000    0.00000000    0.00000000
     atom   43 type  2   force =     0.00000000    0.00000000    0.00000000
     atom   44 type  2   force =     0.00000000    0.00000000    0.00000000
     atom   45 type  2   force =     0.00000000    0.00000000    0.00000000
     atom   46 type  2   force =     0.00000000    0.00000000    0.00000000
     atom   47 type  2   force =     0.00000000    0.00000000    0.00000000
     atom   48 type  2   force =     0.00000000    0.00000000    0.00000000
     atom   49 type  2   force =     0.00000000    0.00000000    0.00000000
     atom   50 type  2   force =     0.00000000    0.00000000    0.00000000
     atom   51 type  2   force =     0.00000000    0.00000000    0.00000000
     atom   52 type  2   force =     0.00000000    0.00000000    0.00000000
     atom   53 type  2   force =     0.00000000    0.00000000    0.00000000
     atom   54 type  2   force =     0.00000000    0.00000000    0.00000000
     atom   55 type  2   force =     0.00000000    0.00000000    0.00000000
     atom   56 type  2   force =     0.00000000    0.00000000    0.00000000
     atom   57 type  2   force =     0.00000000    0.00000000    0.00000000
     atom   58 type  2   force =     0.00000000    0.00000000    0.00000000
     atom   59 type  2   force =     0.00000000    0.00000000    0.00000000
     atom   60 type  2   force =     0.00000000    0.00000000    0.00000000
     atom   61 type  2   force =     0.00000000    0.00000000    0.00000000
     atom   62 type  2   force =     0.00000000    0.00000000    0.00000000
     atom   63 type  2   force =     0.00000000    0.00000000    0.00000000
     The SCF correction term to forces
     atom    1 type  1   force =    -0.00002124   -0.00002888   -0.00000038
     atom    2 type  2   force =    -0.00001406   -0.00001594   -0.00000017
     atom    3 type  2   force =     0.00001276    0.00001567    0.00001167
     atom    4 type  2   force =     0.00000342   -0.00001675   -0.00000373
     atom    5 type  2   force =     0.00001677   -0.00001836   -0.00001002
     atom    6 type  2   force =     0.00000580   -0.00001888    0.00000463
     atom    7 type  2   force =     0.00002155   -0.00000220    0.00001461
     atom    8 type  2   force =    -0.00002154   -0.00003260   -0.00000077
     atom    9 type  2   force =    -0.00001705   -0.00002256    0.00000403
     atom   10 type  2   force =    -0.00002729   -0.00000666    0.00000009
     atom   11 type  2   force =    -0.00002244    0.00000153   -0.00000860
     atom   12 type  2   force =    -0.00000534   -0.00001332   -0.00000095
     atom   13 type  2   force =     0.00001189   -0.00001772    0.00000535
     atom   14 type  2   force =     0.00001470   -0.00000960   -0.00000466
     atom   15 type  2   force =     0.00002338    0.00000667   -0.00001713
     atom   16 type  2   force =    -0.00002296    0.00002437   -0.00001042
     atom   17 type  2   force =    -0.00001568    0.00003249    0.00000428
     atom   18 type  2   force =    -0.00002339    0.00001667    0.00000802
     atom   19 type  2   force =    -0.00001589   -0.00000648   -0.00000533
     atom   20 type  2   force =     0.00001440    0.00001886    0.00000667
     atom   21 type  2   force =     0.00002257    0.00001108    0.00000172
     atom   22 type  2   force =    -0.00000882    0.00001546    0.00001057
     atom   23 type  2   force =     0.00000407    0.00000551    0.00001567
     atom   24 type  2   force =    -0.00002508    0.00003220    0.00001194
     atom   25 type  2   force =    -0.00002063    0.00002145   -0.00000406
     atom   26 type  2   force =    -0.00002003    0.00000688   -0.00000713
     atom   27 type  2   force =    -0.00001340   -0.00000675    0.00000002
     atom   28 type  2   force =    -0.00000663    0.00001634   -0.00000715
     atom   29 type  2   force =     0.00000950    0.00001973   -0.00000247
     atom   30 type  2   force =    -0.00000624    0.00001272   -0.00000803
     atom   31 type  2   force =     0.00001180   -0.00000540   -0.00000776
     atom   32 type  2   force =     0.00001276   -0.00000644    0.00001218
     atom   33 type  2   force =     0.00000275   -0.00001874    0.00000524
     atom   34 type  2   force =     0.00000895   -0.00001037    0.00000587
     atom   35 type  2   force =    -0.00000677    0.00001332    0.00000934
     atom   36 type  2   force =    -0.00000778   -0.00003398    0.00001076
     atom   37 type  2   force =    -0.00002712   -0.00004670    0.00001584
     atom   38 type  2   force =    -0.00000827   -0.00000751   -0.00001354
     atom   39 type  2   force =    -0.00002873    0.00001829   -0.00001951
     atom   40 type  2   force =     0.00002239   -0.00001420   -0.00001340
     atom   41 type  2   force =     0.00001840   -0.00001013   -0.00000400
     atom   42 type  2   force =     0.00002965   -0.00000837   -0.00000559
     atom   43 type  2   force =     0.00002538   -0.00000140   -0.00000812
     atom   44 type  2   force =     0.00000627   -0.00000616   -0.00000803
     atom   45 type  2   force =    -0.00001750   -0.00000929   -0.00001353
     atom   46 type  2   force =    -0.00001338   -0.00000895    0.00001626
     atom   47 type  2   force =    -0.00002388    0.00000901    0.00001673
     atom   48 type  2   force =     0.00002292    0.00000789    0.00001068
     atom   49 type  2   force =     0.00001748    0.00001851    0.00001941
     atom   50 type  2   force =     0.00002655    0.00001178    0.00001116
     atom   51 type  2   force =     0.00002340   -0.00001228   -0.00000101
     atom   52 type  2   force =    -0.00001358    0.00003678    0.00000697
     atom   53 type  2   force =    -0.00002484    0.00004139    0.00000532
     atom   54 type  2   force =     0.00000989    0.00000796    0.00001393
     atom   55 type  2   force =    -0.00001372   -0.00001674    0.00001620
     atom   56 type  2   force =     0.00002351    0.00001189   -0.00000907
     atom   57 type  2   force =     0.00001952    0.00000995   -0.00001846
     atom   58 type  2   force =     0.00001760    0.00000771   -0.00001197
     atom   59 type  2   force =     0.00001620    0.00000118   -0.00000157
     atom   60 type  2   force =     0.00000716    0.00000348   -0.00000927
     atom   61 type  2   force =    -0.00000859    0.00001063   -0.00000559
     atom   62 type  2   force =     0.00000399    0.00000894   -0.00001734
     atom   63 type  2   force =    -0.00001147   -0.00000760   -0.00001628

     Total force =     0.127442     Total SCF correction =     0.000213

     Writing all to output data dir ./pwscf.save/ :
     XML data file, charge density, pseudopotentials, collected wavefunctions
 
     init_run     :      0.53s CPU      0.59s WALL (       1 calls)
     electrons    :     11.09s CPU     11.29s WALL (       1 calls)
     forces       :      0.21s CPU      0.21s WALL (       1 calls)

     Called by init_run:
     wfcinit      :      0.10s CPU      0.11s WALL (       1 calls)
     wfcinit:wfcr :      0.10s CPU      0.10s WALL (       1 calls)
     potinit      :      0.27s CPU      0.28s WALL (       1 calls)
     hinit0       :      0.04s CPU      0.08s WALL (       1 calls)

     Called by electrons:
     c_bands      :      7.39s CPU      7.56s WALL (      14 calls)
     sum_band     :      0.87s CPU      0.88s WALL (      14 calls)
     v_of_rho     :      0.16s CPU      0.17s WALL (      15 calls)
     v_h          :      0.00s CPU      0.00s WALL (      15 calls)
     v_xc         :      0.15s CPU      0.16s WALL (      15 calls)
     mix_rho      :      0.04s CPU      0.04s WALL (      14 calls)

     Called by c_bands:
     init_us_2    :      0.02s CPU      0.02s WALL (      30 calls)
     regterg      :      6.76s CPU      6.92s WALL (      14 calls)

     Called by sum_band:
     sum_band:wei :      0.03s CPU      0.03s WALL (      14 calls)
     sum_band:loo :      0.18s CPU      0.18s WALL (      14 calls)
     sum_band:buf :      0.00s CPU      0.00s WALL (      14 calls)
     sum_band:ini :      0.01s CPU      0.01s WALL (      14 calls)

     Called by *egterg:
     rdiaghg      :      4.12s CPU      4.23s WALL (     273 calls)
     regterg:over :      0.21s CPU      0.22s WALL (     259 calls)
     regterg:upda :      0.16s CPU      0.16s WALL (     259 calls)
     regterg:last :      0.13s CPU      0.13s WALL (      51 calls)
     rdiaghg:chol :      0.13s CPU      0.14s WALL (     273 calls)
     rdiaghg:inve :      0.03s CPU      0.03s WALL (     273 calls)
     rdiaghg:para :      0.40s CPU      0.43s WALL (     546 calls)
     h_psi        :      2.11s CPU      2.15s WALL (     274 calls)
     g_psi        :      0.00s CPU      0.00s WALL (     259 calls)

     Called by h_psi:
     h_psi:calbec :      0.40s CPU      0.41s WALL (     274 calls)
     vloc_psi     :      1.60s CPU      1.63s WALL (     274 calls)
                                        0.00s GPU  (     274 calls)
     add_vuspsi   :      0.11s CPU      0.11s WALL (     274 calls)

     General routines
     calbec       :      0.50s CPU      0.50s WALL (     278 calls)
     fft          :      0.08s CPU      0.12s WALL (     196 calls)
     ffts         :      0.01s CPU      0.01s WALL (      14 calls)
     fftw         :      1.67s CPU      1.70s WALL (   10104 calls)
 
     Parallel routines
 
     PWSCF        :     15.45s CPU     15.90s WALL

 
   This run was terminated on:  16:59:59  16Nov2025            

=------------------------------------------------------------------------------=
   JOB DONE.
=------------------------------------------------------------------------------=
