
     Program PWSCF v.7.5 starts on 16Nov2025 at 16:57:12 

     This program is part of the open-source Quantum ESPRESSO suite
     for quantum simulation of materials; please cite
         "P. Giannozzi et al., J. Phys.:Condens. Matter 21 395502 (2009);
         "P. Giannozzi et al., J. Phys.:Condens. Matter 29 465901 (2017);
         "P. Giannozzi et al., J. Chem. Phys. 152 154105 (2020);
          URL http://www.quantum-espresso.org", 
     in publications or presentations arising from this work. More details at
     http://www.quantum-espresso.org/quote

     Parallel version (MPI), running on    96 processors

     MPI processes distributed on     2 nodes
     174336 MiB available memory on the printing compute node when the environment starts
 
     Reading input from supercell-295.in

     Current dimensions of program PWSCF are:
     Max number of different atomic species (ntypx) = 10
     Max number of k-points (npk) =  40000
     Max angular momentum in pseudopotentials (lmaxx) =  4

     gamma-point specific algorithms are used
 
     K-points division:     npool     =       2
     R & G space division:  proc/nbgrp/npool/nimage =      48
     Subspace diagonalization in iterative solution of the eigenvalue problem:
     one sub-group per band group will be used
     scalapack distributed-memory algorithm (size of sub-group:  2*  2 procs)

 
     Parallelization info
     --------------------
     sticks:   dense  smooth     PW     G-vecs:    dense   smooth      PW
     Min          59      59     14                 2432     2432     302
     Max          62      62     16                 2442     2442     316
     Sum        2885    2885    725               116921   116921   14771
 
     Using Slab Decomposition
 


     bravais-lattice index     =            0
     lattice parameter (alat)  =      13.4813  a.u.
     unit-cell volume          =    2450.1683 (a.u.)^3
     number of atoms/cell      =           63
     number of atomic types    =            2
     number of electrons       =       254.00 (up: 128.00, down: 126.00)
     number of Kohn-Sham states=          152
     kinetic-energy cutoff     =      50.0000  Ry
     charge density cutoff     =     200.0000  Ry
     scf convergence threshold =      1.0E-08
     mixing beta               =       0.7000
     number of iterations used =            8  plain     mixing
     Exchange-correlation= PBE
                           (   1   4   3   4   0   0   0)

     celldm(1)=  13.481306  celldm(2)=   0.000000  celldm(3)=   0.000000
     celldm(4)=   0.000000  celldm(5)=   0.000000  celldm(6)=   0.000000

     crystal axes: (cart. coord. in units of alat)
               a(1) = (   1.000000   0.000000   0.000000 )  
               a(2) = (   0.000000   1.000000   0.000000 )  
               a(3) = (   0.000000   0.000000   1.000000 )  

     reciprocal axes: (cart. coord. in units 2 pi/alat)
               b(1) = (  1.000000  0.000000  0.000000 )  
               b(2) = (  0.000000  1.000000  0.000000 )  
               b(3) = (  0.000000  0.000000  1.000000 )  


     PseudoPot. # 1 for N  read from file:
     ./N_ONCV_PBE-1.2.upf
     MD5 check sum: 5312fdf34e96954e02a33bdc911c617a
     Pseudo is Norm-conserving, Zval =  5.0
     Generated using ONCVPSP code by D. R. Hamann
     Using radial grid of  602 points,  4 beta functions with: 
                l(1) =   0
                l(2) =   0
                l(3) =   1
                l(4) =   1

     PseudoPot. # 2 for C  read from file:
     ./C_ONCV_PBE-1.2.upf
     MD5 check sum: d60b57d9bdca4133f5fde4b584ee909d
     Pseudo is Norm-conserving, Zval =  4.0
     Generated using ONCVPSP code by D. R. Hamann
     Using radial grid of  602 points,  4 beta functions with: 
                l(1) =   0
                l(2) =   0
                l(3) =   1
                l(4) =   1

     atomic species   valence    mass     pseudopotential
     N                 5.00    14.00670     N ( 1.00)
     C                 4.00    12.01070     C ( 1.00)

     Starting magnetic structure 
     atomic species   magnetization
     N               0.000
     C               0.000

     No symmetry found


                                    s                        frac. trans.

      isym =  1     identity                                     

 cryst.   s( 1) = (     1          0          0      )
                  (     0          1          0      )
                  (     0          0          1      )

 cart.    s( 1) = (  1.0000000  0.0000000  0.0000000 )
                  (  0.0000000  1.0000000  0.0000000 )
                  (  0.0000000  0.0000000  1.0000000 )


   Cartesian axes

     site n.     atom                  positions (alat units)
         1        N      tau(   1) = (   0.9893819   0.9897344   0.9891721  )
         2        C      tau(   2) = (   0.9870277   0.2601210   0.2640728  )
         3        C      tau(   3) = (   0.1231717   0.3731672   0.3742038  )
         4        C      tau(   4) = (   0.2603919   0.9894620   0.2619202  )
         5        C      tau(   5) = (   0.3737632   0.1246771   0.3741571  )
         6        C      tau(   6) = (   0.2640151   0.2616009   0.9853609  )
         7        C      tau(   7) = (   0.3737752   0.3731213   0.1223564  )
         8        C      tau(   8) = (   0.0000049   0.0005840   0.4991361  )
         9        C      tau(   9) = (   0.1251361   0.1251278   0.6250981  )
        10        C      tau(  10) = (   0.0020393   0.2482470   0.7515266  )
        11        C      tau(  11) = (   0.1292009   0.3733021   0.8763303  )
        12        C      tau(  12) = (   0.2487801   0.0017974   0.7514403  )
        13        C      tau(  13) = (   0.3754339   0.1292460   0.8748544  )
        14        C      tau(  14) = (   0.2491579   0.2495268   0.4995755  )
        15        C      tau(  15) = (   0.3750038   0.3749547   0.6244069  )
        16        C      tau(  16) = (   0.0016366   0.4979779   0.0013734  )
        17        C      tau(  17) = (   0.1250869   0.6243147   0.1250807  )
        18        C      tau(  18) = (   0.0014462   0.7520697   0.2483230  )
        19        C      tau(  19) = (   0.1266755   0.8769178   0.3741906  )
        20        C      tau(  20) = (   0.2488290   0.4983596   0.2486760  )
        21        C      tau(  21) = (   0.3741642   0.6242659   0.3742111  )
        22        C      tau(  22) = (   0.2480673   0.7520817   0.0015447  )
        23        C      tau(  23) = (   0.3729914   0.8777475   0.1265606  )
        24        C      tau(  24) = (   0.0000493   0.5010760   0.5011299  )
        25        C      tau(  25) = (   0.1252054   0.6262200   0.6252733  )
        26        C      tau(  26) = (   0.9993969   0.7487112   0.7492532  )
        27        C      tau(  27) = (   0.1217927   0.8768349   0.8763928  )
        28        C      tau(  28) = (   0.2492749   0.5017254   0.7482724  )
        29        C      tau(  29) = (   0.3741000   0.6263042   0.8750769  )
        30        C      tau(  30) = (   0.2487293   0.7486845   0.5007616  )
        31        C      tau(  31) = (   0.3739266   0.8750581   0.6258828  )
        32        C      tau(  32) = (   0.4987543   0.0011228   0.0002828  )
        33        C      tau(  33) = (   0.6248203   0.1251003   0.1251034  )
        34        C      tau(  34) = (   0.4991217   0.2493918   0.2488717  )
        35        C      tau(  35) = (   0.6243080   0.3746888   0.3747831  )
        36        C      tau(  36) = (   0.7516460   0.0016191   0.2487956  )
        37        C      tau(  37) = (   0.8750430   0.1283649   0.3757598  )
        38        C      tau(  38) = (   0.7517475   0.2480080   0.0019610  )
        39        C      tau(  39) = (   0.8773622   0.3724247   0.1282033  )
        40        C      tau(  40) = (   0.5008161   0.9999897   0.5008301  )
        41        C      tau(  41) = (   0.6256173   0.1249721   0.6252590  )
        42        C      tau(  42) = (   0.5022259   0.2488088   0.7478265  )
        43        C      tau(  43) = (   0.6264784   0.3739683   0.8752045  )
        44        C      tau(  44) = (   0.7487945   0.9989046   0.7489691  )
        45        C      tau(  45) = (   0.8764746   0.1216998   0.8763156  )
        46        C      tau(  46) = (   0.7479635   0.2486819   0.5018806  )
        47        C      tau(  47) = (   0.8751980   0.3739245   0.6263738  )
        48        C      tau(  48) = (   0.5012000   0.5011574   0.0001136  )
        49        C      tau(  49) = (   0.6256259   0.6262099   0.1252968  )
        50        C      tau(  50) = (   0.5020024   0.7489091   0.2490095  )
        51        C      tau(  51) = (   0.6258050   0.8750157   0.3740056  )
        52        C      tau(  52) = (   0.7486304   0.5011458   0.2494302  )
        53        C      tau(  53) = (   0.8750247   0.6261269   0.3741365  )
        54        C      tau(  54) = (   0.7492281   0.7488562   0.9996087  )
        55        C      tau(  55) = (   0.8766209   0.8769033   0.1218021  )
        56        C      tau(  56) = (   0.4990819   0.4992903   0.4990317  )
        57        C      tau(  57) = (   0.6247789   0.6244471   0.6249452  )
        58        C      tau(  58) = (   0.4991767   0.7499842   0.7500845  )
        59        C      tau(  59) = (   0.6239946   0.8751464   0.8754130  )
        60        C      tau(  60) = (   0.7505316   0.4989321   0.7505826  )
        61        C      tau(  61) = (   0.8758455   0.6234984   0.8759288  )
        62        C      tau(  62) = (   0.7498244   0.7497799   0.4993198  )
        63        C      tau(  63) = (   0.8750855   0.8749084   0.6242568  )

   Crystallographic axes

     site n.     atom                  positions (cryst. coord.)
         1        N      tau(   1) = (  0.9893819  0.9897344  0.9891721  )
         2        C      tau(   2) = (  0.9870277  0.2601210  0.2640728  )
         3        C      tau(   3) = (  0.1231717  0.3731672  0.3742038  )
         4        C      tau(   4) = (  0.2603919  0.9894620  0.2619202  )
         5        C      tau(   5) = (  0.3737632  0.1246771  0.3741571  )
         6        C      tau(   6) = (  0.2640151  0.2616009  0.9853609  )
         7        C      tau(   7) = (  0.3737752  0.3731213  0.1223564  )
         8        C      tau(   8) = (  0.0000049  0.0005840  0.4991361  )
         9        C      tau(   9) = (  0.1251361  0.1251278  0.6250981  )
        10        C      tau(  10) = (  0.0020393  0.2482470  0.7515266  )
        11        C      tau(  11) = (  0.1292009  0.3733021  0.8763303  )
        12        C      tau(  12) = (  0.2487801  0.0017974  0.7514403  )
        13        C      tau(  13) = (  0.3754339  0.1292460  0.8748544  )
        14        C      tau(  14) = (  0.2491579  0.2495268  0.4995755  )
        15        C      tau(  15) = (  0.3750038  0.3749547  0.6244069  )
        16        C      tau(  16) = (  0.0016366  0.4979779  0.0013734  )
        17        C      tau(  17) = (  0.1250869  0.6243147  0.1250807  )
        18        C      tau(  18) = (  0.0014462  0.7520697  0.2483230  )
        19        C      tau(  19) = (  0.1266755  0.8769178  0.3741906  )
        20        C      tau(  20) = (  0.2488290  0.4983596  0.2486760  )
        21        C      tau(  21) = (  0.3741642  0.6242659  0.3742111  )
        22        C      tau(  22) = (  0.2480673  0.7520817  0.0015447  )
        23        C      tau(  23) = (  0.3729914  0.8777475  0.1265606  )
        24        C      tau(  24) = (  0.0000493  0.5010760  0.5011299  )
        25        C      tau(  25) = (  0.1252054  0.6262200  0.6252733  )
        26        C      tau(  26) = (  0.9993969  0.7487112  0.7492532  )
        27        C      tau(  27) = (  0.1217927  0.8768349  0.8763928  )
        28        C      tau(  28) = (  0.2492749  0.5017254  0.7482724  )
        29        C      tau(  29) = (  0.3741000  0.6263042  0.8750769  )
        30        C      tau(  30) = (  0.2487293  0.7486845  0.5007616  )
        31        C      tau(  31) = (  0.3739266  0.8750581  0.6258828  )
        32        C      tau(  32) = (  0.4987543  0.0011228  0.0002828  )
        33        C      tau(  33) = (  0.6248203  0.1251003  0.1251034  )
        34        C      tau(  34) = (  0.4991217  0.2493918  0.2488717  )
        35        C      tau(  35) = (  0.6243080  0.3746888  0.3747831  )
        36        C      tau(  36) = (  0.7516460  0.0016191  0.2487956  )
        37        C      tau(  37) = (  0.8750430  0.1283649  0.3757598  )
        38        C      tau(  38) = (  0.7517475  0.2480080  0.0019610  )
        39        C      tau(  39) = (  0.8773622  0.3724247  0.1282033  )
        40        C      tau(  40) = (  0.5008161  0.9999897  0.5008301  )
        41        C      tau(  41) = (  0.6256173  0.1249721  0.6252590  )
        42        C      tau(  42) = (  0.5022259  0.2488088  0.7478265  )
        43        C      tau(  43) = (  0.6264784  0.3739683  0.8752045  )
        44        C      tau(  44) = (  0.7487945  0.9989046  0.7489691  )
        45        C      tau(  45) = (  0.8764746  0.1216998  0.8763156  )
        46        C      tau(  46) = (  0.7479635  0.2486819  0.5018806  )
        47        C      tau(  47) = (  0.8751980  0.3739245  0.6263738  )
        48        C      tau(  48) = (  0.5012000  0.5011574  0.0001136  )
        49        C      tau(  49) = (  0.6256259  0.6262099  0.1252968  )
        50        C      tau(  50) = (  0.5020024  0.7489091  0.2490095  )
        51        C      tau(  51) = (  0.6258050  0.8750157  0.3740056  )
        52        C      tau(  52) = (  0.7486304  0.5011458  0.2494302  )
        53        C      tau(  53) = (  0.8750247  0.6261269  0.3741365  )
        54        C      tau(  54) = (  0.7492281  0.7488562  0.9996087  )
        55        C      tau(  55) = (  0.8766209  0.8769033  0.1218021  )
        56        C      tau(  56) = (  0.4990819  0.4992903  0.4990317  )
        57        C      tau(  57) = (  0.6247789  0.6244471  0.6249452  )
        58        C      tau(  58) = (  0.4991767  0.7499842  0.7500845  )
        59        C      tau(  59) = (  0.6239946  0.8751464  0.8754130  )
        60        C      tau(  60) = (  0.7505316  0.4989321  0.7505826  )
        61        C      tau(  61) = (  0.8758455  0.6234984  0.8759288  )
        62        C      tau(  62) = (  0.7498244  0.7497799  0.4993198  )
        63        C      tau(  63) = (  0.8750855  0.8749084  0.6242568  )

     number of k points=     1
                       cart. coord. in units 2pi/alat
        k(    1) = (   0.0000000   0.0000000   0.0000000), wk =   1.0000000

                       cryst. coord.
        k(    1) = (   0.0000000   0.0000000   0.0000000), wk =   1.0000000

     Dense  grid:    58461 G-vectors     FFT dimensions: (  64,  64,  64)

     Dynamical RAM for                 wfc:       0.35 MB

     Dynamical RAM for     wfc (w. buffer):       0.35 MB

     Dynamical RAM for           str. fact:       0.04 MB

     Dynamical RAM for           local pot:       0.00 MB

     Dynamical RAM for          nlocal pot:       1.17 MB

     Dynamical RAM for                qrad:       0.65 MB

     Dynamical RAM for          rho,v,vnew:       0.49 MB

     Dynamical RAM for               rhoin:       0.16 MB

     Dynamical RAM for            rho*nmix:       0.60 MB

     Dynamical RAM for           G-vectors:       0.08 MB

     Dynamical RAM for          h,s,v(r/c):       0.53 MB

     Dynamical RAM for          <psi|beta>:       0.58 MB

     Dynamical RAM for                 psi:       0.71 MB

     Dynamical RAM for                hpsi:       0.71 MB

     Dynamical RAM for      wfcinit/wfcrot:       1.24 MB

     Estimated static dynamical RAM per process >       3.37 MB

     Estimated max dynamical RAM per process >       6.49 MB

     Estimated total dynamical RAM >     594.05 MB
     Generating pointlists ...
     new r_m :   0.0854 (alat units)  1.1518 (a.u.) for type    1
     new r_m :   0.0847 (alat units)  1.1416 (a.u.) for type    2

     Initial potential from superposition of free atoms

     starting charge     252.5655, renormalised to     254.0000
     Starting wfcs are random

     total cpu time spent up to now is        1.1 secs

     Self-consistent Calculation

     iteration #  1     ecut=    50.00 Ry     beta= 0.70
     Davidson diagonalization with overlap

---- Real-time Memory Report at c_bands before calling an iterative solver
           158 MiB given to the printing process from OS
             0 MiB allocation reported by mallinfo(arena+hblkhd)
        173343 MiB available memory on the node where the printing process lives
------------------
     ethr =  1.00E-02,  avg # of iterations = 12.0

     total cpu time spent up to now is        1.9 secs

     total energy              =    -723.26721774 Ry
     estimated scf accuracy    <       3.70767661 Ry

     total magnetization       =     2.00 Bohr mag/cell
     absolute magnetization    =     2.00 Bohr mag/cell

     iteration #  2     ecut=    50.00 Ry     beta= 0.70
     Davidson diagonalization with overlap

---- Real-time Memory Report at c_bands before calling an iterative solver
           163 MiB given to the printing process from OS
             0 MiB allocation reported by mallinfo(arena+hblkhd)
        173283 MiB available memory on the node where the printing process lives
------------------
     ethr =  1.46E-03,  avg # of iterations = 12.5

     total cpu time spent up to now is        2.3 secs

     total energy              =    -723.66031306 Ry
     estimated scf accuracy    <       0.45752017 Ry

     total magnetization       =     2.00 Bohr mag/cell
     absolute magnetization    =     2.08 Bohr mag/cell

     iteration #  3     ecut=    50.00 Ry     beta= 0.70
     Davidson diagonalization with overlap

---- Real-time Memory Report at c_bands before calling an iterative solver
           164 MiB given to the printing process from OS
             0 MiB allocation reported by mallinfo(arena+hblkhd)
        173283 MiB available memory on the node where the printing process lives
------------------
     c_bands:  2 eigenvalues not converged
     ethr =  1.80E-04,  avg # of iterations = 20.0

     total cpu time spent up to now is        3.0 secs

     total energy              =    -723.72683845 Ry
     estimated scf accuracy    <       0.86623211 Ry

     total magnetization       =     2.00 Bohr mag/cell
     absolute magnetization    =     2.12 Bohr mag/cell

     iteration #  4     ecut=    50.00 Ry     beta= 0.70
     Davidson diagonalization with overlap

---- Real-time Memory Report at c_bands before calling an iterative solver
           165 MiB given to the printing process from OS
             0 MiB allocation reported by mallinfo(arena+hblkhd)
        173285 MiB available memory on the node where the printing process lives
------------------
     c_bands:  1 eigenvalues not converged
     ethr =  1.80E-04,  avg # of iterations = 20.0

     total cpu time spent up to now is        3.9 secs

     total energy              =    -723.90116169 Ry
     estimated scf accuracy    <       0.00966264 Ry

     total magnetization       =     2.00 Bohr mag/cell
     absolute magnetization    =     2.19 Bohr mag/cell

     iteration #  5     ecut=    50.00 Ry     beta= 0.70
     Davidson diagonalization with overlap

---- Real-time Memory Report at c_bands before calling an iterative solver
           165 MiB given to the printing process from OS
             0 MiB allocation reported by mallinfo(arena+hblkhd)
        173280 MiB available memory on the node where the printing process lives
------------------
     c_bands:  3 eigenvalues not converged
     ethr =  3.80E-06,  avg # of iterations = 20.0

     total cpu time spent up to now is        6.3 secs

     total energy              =    -723.90615817 Ry
     estimated scf accuracy    <       0.00412416 Ry

     total magnetization       =     2.00 Bohr mag/cell
     absolute magnetization    =     2.23 Bohr mag/cell

     iteration #  6     ecut=    50.00 Ry     beta= 0.70
     Davidson diagonalization with overlap

---- Real-time Memory Report at c_bands before calling an iterative solver
           165 MiB given to the printing process from OS
             0 MiB allocation reported by mallinfo(arena+hblkhd)
        173277 MiB available memory on the node where the printing process lives
------------------
     c_bands:  3 eigenvalues not converged
     ethr =  1.62E-06,  avg # of iterations = 20.0

     total cpu time spent up to now is        6.9 secs

     total energy              =    -723.90690988 Ry
     estimated scf accuracy    <       0.00084473 Ry

     total magnetization       =     2.00 Bohr mag/cell
     absolute magnetization    =     2.25 Bohr mag/cell

     iteration #  7     ecut=    50.00 Ry     beta= 0.70
     Davidson diagonalization with overlap

---- Real-time Memory Report at c_bands before calling an iterative solver
           165 MiB given to the printing process from OS
             0 MiB allocation reported by mallinfo(arena+hblkhd)
        173273 MiB available memory on the node where the printing process lives
------------------
     c_bands:  1 eigenvalues not converged
     ethr =  3.33E-07,  avg # of iterations = 20.0

     total cpu time spent up to now is        7.3 secs

     total energy              =    -723.90713080 Ry
     estimated scf accuracy    <       0.00011712 Ry

     total magnetization       =     2.00 Bohr mag/cell
     absolute magnetization    =     2.27 Bohr mag/cell

     iteration #  8     ecut=    50.00 Ry     beta= 0.70
     Davidson diagonalization with overlap

---- Real-time Memory Report at c_bands before calling an iterative solver
           165 MiB given to the printing process from OS
             0 MiB allocation reported by mallinfo(arena+hblkhd)
        173276 MiB available memory on the node where the printing process lives
------------------
     c_bands:  1 eigenvalues not converged
     ethr =  4.61E-08,  avg # of iterations = 20.0

     total cpu time spent up to now is        7.9 secs

     total energy              =    -723.90716934 Ry
     estimated scf accuracy    <       0.00002815 Ry

     total magnetization       =     2.00 Bohr mag/cell
     absolute magnetization    =     2.28 Bohr mag/cell

     iteration #  9     ecut=    50.00 Ry     beta= 0.70
     Davidson diagonalization with overlap

---- Real-time Memory Report at c_bands before calling an iterative solver
           165 MiB given to the printing process from OS
             0 MiB allocation reported by mallinfo(arena+hblkhd)
        173278 MiB available memory on the node where the printing process lives
------------------
     c_bands:  3 eigenvalues not converged
     ethr =  1.11E-08,  avg # of iterations = 20.0

     total cpu time spent up to now is        8.5 secs

     total energy              =    -723.90717944 Ry
     estimated scf accuracy    <       0.00000791 Ry

     total magnetization       =     2.00 Bohr mag/cell
     absolute magnetization    =     2.29 Bohr mag/cell

     iteration # 10     ecut=    50.00 Ry     beta= 0.70
     Davidson diagonalization with overlap

---- Real-time Memory Report at c_bands before calling an iterative solver
           165 MiB given to the printing process from OS
             0 MiB allocation reported by mallinfo(arena+hblkhd)
        173276 MiB available memory on the node where the printing process lives
------------------
     c_bands:  2 eigenvalues not converged
     ethr =  3.11E-09,  avg # of iterations = 20.0

     total cpu time spent up to now is        9.1 secs

     total energy              =    -723.90718297 Ry
     estimated scf accuracy    <       0.00000086 Ry

     total magnetization       =     2.00 Bohr mag/cell
     absolute magnetization    =     2.30 Bohr mag/cell

     iteration # 11     ecut=    50.00 Ry     beta= 0.70
     Davidson diagonalization with overlap

---- Real-time Memory Report at c_bands before calling an iterative solver
           166 MiB given to the printing process from OS
             0 MiB allocation reported by mallinfo(arena+hblkhd)
        173288 MiB available memory on the node where the printing process lives
------------------
     c_bands:  2 eigenvalues not converged
     ethr =  3.39E-10,  avg # of iterations = 20.0

     total cpu time spent up to now is        9.7 secs

     total energy              =    -723.90718361 Ry
     estimated scf accuracy    <       0.00000025 Ry

     total magnetization       =     2.00 Bohr mag/cell
     absolute magnetization    =     2.30 Bohr mag/cell

     iteration # 12     ecut=    50.00 Ry     beta= 0.70
     Davidson diagonalization with overlap

---- Real-time Memory Report at c_bands before calling an iterative solver
           166 MiB given to the printing process from OS
             0 MiB allocation reported by mallinfo(arena+hblkhd)
        173283 MiB available memory on the node where the printing process lives
------------------
     ethr =  9.95E-11,  avg # of iterations = 18.0

     total cpu time spent up to now is       10.3 secs

     total energy              =    -723.90718374 Ry
     estimated scf accuracy    <       0.00000010 Ry

     total magnetization       =     2.00 Bohr mag/cell
     absolute magnetization    =     2.30 Bohr mag/cell

     iteration # 13     ecut=    50.00 Ry     beta= 0.70
     Davidson diagonalization with overlap

---- Real-time Memory Report at c_bands before calling an iterative solver
           166 MiB given to the printing process from OS
             0 MiB allocation reported by mallinfo(arena+hblkhd)
        173285 MiB available memory on the node where the printing process lives
------------------
     ethr =  3.93E-11,  avg # of iterations = 18.0

     total cpu time spent up to now is       10.8 secs

     total energy              =    -723.90718379 Ry
     estimated scf accuracy    <       0.00000003 Ry

     total magnetization       =     2.00 Bohr mag/cell
     absolute magnetization    =     2.30 Bohr mag/cell

     iteration # 14     ecut=    50.00 Ry     beta= 0.70
     Davidson diagonalization with overlap

---- Real-time Memory Report at c_bands before calling an iterative solver
           166 MiB given to the printing process from OS
             0 MiB allocation reported by mallinfo(arena+hblkhd)
        173285 MiB available memory on the node where the printing process lives
------------------
     ethr =  1.07E-11,  avg # of iterations = 18.5
 
     Magnetic moment per site  (integrated on atomic sphere of radius R)
     atom   1 (R=0.085)  charge=  2.9142  magn=  0.0042
     atom   2 (R=0.085)  charge=  1.8170  magn=  0.2450
     atom   3 (R=0.085)  charge=  1.7930  magn= -0.0087
     atom   4 (R=0.085)  charge=  1.8050  magn=  0.2451
     atom   5 (R=0.085)  charge=  1.7932  magn= -0.0087
     atom   6 (R=0.085)  charge=  1.8232  magn=  0.2450
     atom   7 (R=0.085)  charge=  1.7933  magn= -0.0087
     atom   8 (R=0.085)  charge=  1.7860  magn=  0.0091
     atom   9 (R=0.085)  charge=  1.7963  magn= -0.0019
     atom  10 (R=0.085)  charge=  1.7834  magn=  0.0060
     atom  11 (R=0.085)  charge=  1.7969  magn= -0.0042
     atom  12 (R=0.085)  charge=  1.7823  magn=  0.0061
     atom  13 (R=0.085)  charge=  1.8040  magn= -0.0039
     atom  14 (R=0.085)  charge=  1.7893  magn=  0.0085
     atom  15 (R=0.085)  charge=  1.7873  magn= -0.0020
     atom  16 (R=0.085)  charge=  1.7820  magn=  0.0089
     atom  17 (R=0.085)  charge=  1.7956  magn= -0.0018
     atom  18 (R=0.085)  charge=  1.7822  magn=  0.0057
     atom  19 (R=0.085)  charge=  1.7952  magn= -0.0035
     atom  20 (R=0.085)  charge=  1.7833  magn=  0.0083
     atom  21 (R=0.085)  charge=  1.7828  magn= -0.0020
     atom  22 (R=0.085)  charge=  1.7828  magn=  0.0056
     atom  23 (R=0.085)  charge=  1.7886  magn= -0.0038
     atom  24 (R=0.085)  charge=  1.7825  magn=  0.0183
     atom  25 (R=0.085)  charge=  1.8067  magn=  0.0094
     atom  26 (R=0.085)  charge=  1.7935  magn=  0.0032
     atom  27 (R=0.085)  charge=  1.7589  magn=  0.0000
     atom  28 (R=0.085)  charge=  1.7896  magn=  0.0221
     atom  29 (R=0.085)  charge=  1.7824  magn= -0.0013
     atom  30 (R=0.085)  charge=  1.7900  magn=  0.0211
     atom  31 (R=0.085)  charge=  1.7823  magn= -0.0013
     atom  32 (R=0.085)  charge=  1.7845  magn=  0.0091
     atom  33 (R=0.085)  charge=  1.7960  magn= -0.0019
     atom  34 (R=0.085)  charge=  1.7868  magn=  0.0084
     atom  35 (R=0.085)  charge=  1.7865  magn= -0.0020
     atom  36 (R=0.085)  charge=  1.7819  magn=  0.0059
     atom  37 (R=0.085)  charge=  1.8033  magn= -0.0036
     atom  38 (R=0.085)  charge=  1.7836  magn=  0.0059
     atom  39 (R=0.085)  charge=  1.7914  magn= -0.0041
     atom  40 (R=0.085)  charge=  1.7835  magn=  0.0180
     atom  41 (R=0.085)  charge=  1.8109  magn=  0.0094
     atom  42 (R=0.085)  charge=  1.7948  magn=  0.0218
     atom  43 (R=0.085)  charge=  1.7819  magn= -0.0013
     atom  44 (R=0.085)  charge=  1.7936  magn=  0.0032
     atom  45 (R=0.085)  charge=  1.7589  magn= -0.0000
     atom  46 (R=0.085)  charge=  1.7948  magn=  0.0215
     atom  47 (R=0.085)  charge=  1.7819  magn= -0.0013
     atom  48 (R=0.085)  charge=  1.7819  magn=  0.0184
     atom  49 (R=0.085)  charge=  1.8063  magn=  0.0093
     atom  50 (R=0.085)  charge=  1.7869  magn=  0.0216
     atom  51 (R=0.085)  charge=  1.7844  magn= -0.0013
     atom  52 (R=0.085)  charge=  1.7870  magn=  0.0219
     atom  53 (R=0.085)  charge=  1.7826  magn= -0.0013
     atom  54 (R=0.085)  charge=  1.7936  magn=  0.0033
     atom  55 (R=0.085)  charge=  1.7588  magn=  0.0001
     atom  56 (R=0.085)  charge=  1.7915  magn=  0.0009
     atom  57 (R=0.085)  charge=  1.7832  magn=  0.0010
     atom  58 (R=0.085)  charge=  1.7914  magn=  0.0018
     atom  59 (R=0.085)  charge=  1.7879  magn= -0.0009
     atom  60 (R=0.085)  charge=  1.7911  magn=  0.0017
     atom  61 (R=0.085)  charge=  1.7855  magn= -0.0009
     atom  62 (R=0.085)  charge=  1.7914  magn=  0.0019
     atom  63 (R=0.085)  charge=  1.7891  magn= -0.0009

     total cpu time spent up to now is       12.1 secs

     End of self-consistent calculation

 ------ SPIN UP ------------


          k = 0.0000 0.0000 0.0000 (  7386 PWs)   bands (ev):

    -8.5511  -6.9224  -6.2844  -6.2745  -6.1944  -6.1567  -5.8808  -4.9099
    -4.1452  -4.1340  -4.1253  -4.0868  -4.0312  -4.0195  -4.0126  -3.9183
    -3.8744  -3.8596  -3.3631  -2.9316  -2.6759  -2.6730  -2.1589  -0.3623
    -0.3536  -0.3261  -0.2826  -0.0770   0.1730   0.1942   0.2811   0.2944
     0.3637   0.6183   0.8377   0.8416   0.9547   0.9702   0.9887   1.0549
     1.0608   1.0649   1.2668   1.2962   3.0727   3.9064   3.9259   4.0711
     4.1904   4.2048   4.2232   4.2758   4.2807   4.2847   4.4220   4.4249
     4.4952   4.4969   4.5656   4.6603   4.6843   4.6903   4.6911   4.7875
     4.7972   4.9227   4.9677   4.9707   5.0487   5.2000   5.2140   5.3011
     5.3586   5.3706   5.3943   5.4008   5.4074   6.0416   6.0477   6.0999
     6.6614   6.6658   6.7280   6.9907   7.0035   7.0408   7.5285   8.3330
     8.3363   8.4121   8.4648   8.4912   8.6857   8.7080   8.7880   8.8326
     8.8427   8.8534   8.8919   8.9001   8.9038   9.2877   9.2895   9.3238
     9.6862   9.7053   9.8987   9.9117   9.9433   9.9602   9.9650   9.9729
     9.9816  10.0287  10.0353  10.0533  10.1262  10.1422  10.2742  10.3263
    10.3339  11.0531  12.2844  12.4188  12.4331  13.9547  14.6910  14.7996
    17.3385  17.3755  17.4128  17.5203  17.5753  17.5819  17.8549  17.9237
    17.9350  18.0332  18.0647  18.3721  18.9941  19.0022  19.0236  20.6925
    20.7966  20.8248  20.8809  20.9404  20.9456  21.0234  21.0251  21.0445

     occupation numbers 
     1.0000   1.0000   1.0000   1.0000   1.0000   1.0000   1.0000   1.0000
     1.0000   1.0000   1.0000   1.0000   1.0000   1.0000   1.0000   1.0000
     1.0000   1.0000   1.0000   1.0000   1.0000   1.0000   1.0000   1.0000
     1.0000   1.0000   1.0000   1.0000   1.0000   1.0000   1.0000   1.0000
     1.0000   1.0000   1.0000   1.0000   1.0000   1.0000   1.0000   1.0000
     1.0000   1.0000   1.0000   1.0000   1.0000   1.0000   1.0000   1.0000
     1.0000   1.0000   1.0000   1.0000   1.0000   1.0000   1.0000   1.0000
     1.0000   1.0000   1.0000   1.0000   1.0000   1.0000   1.0000   1.0000
     1.0000   1.0000   1.0000   1.0000   1.0000   1.0000   1.0000   1.0000
     1.0000   1.0000   1.0000   1.0000   1.0000   1.0000   1.0000   1.0000
     1.0000   1.0000   1.0000   1.0000   1.0000   1.0000   1.0000   1.0000
     1.0000   1.0000   1.0000   1.0000   1.0000   1.0000   1.0000   1.0000
     1.0000   1.0000   1.0000   1.0000   1.0000   1.0000   1.0000   1.0000
     1.0000   1.0000   1.0000   1.0000   1.0000   1.0000   1.0000   1.0000
     1.0000   1.0000   1.0000   1.0000   1.0000   1.0000   1.0000   1.0000
     1.0000   1.0000   1.0000   1.0000   1.0000   1.0000   1.0000   1.0000
     0.0000   0.0000   0.0000   0.0000   0.0000   0.0000   0.0000   0.0000
     0.0000   0.0000   0.0000   0.0000   0.0000   0.0000   0.0000   0.0000
     0.0000   0.0000   0.0000   0.0000   0.0000   0.0000   0.0000   0.0000

 ------ SPIN DOWN ----------


          k = 0.0000 0.0000 0.0000 (  7386 PWs)   bands (ev):

    -8.5257  -6.9080  -6.2624  -6.2510  -6.1499  -6.1144  -5.8436  -4.8931
    -4.1244  -4.1117  -4.0848  -4.0548  -3.9955  -3.9821  -3.9639  -3.9062
    -3.8392  -3.8186  -3.3208  -2.9130  -2.6230  -2.6194  -2.0140  -0.3448
    -0.3355  -0.3046  -0.2654  -0.0115   0.1917   0.2114   0.3190   0.3274
     0.3887   0.6531   0.8499   0.8534   0.9872   1.0011   1.0142   1.0702
     1.0773   1.0825   1.4324   1.4661   3.1865   3.9295   3.9479   4.0970
     4.2246   4.2480   4.2649   4.2905   4.2978   4.3130   4.4687   4.4719
     4.5172   4.5184   4.5892   4.6846   4.7024   4.7075   4.7121   4.8218
     4.8340   4.9359   4.9999   5.0016   5.1300   5.2341   5.2492   5.3247
     5.3736   5.3814   5.4161   5.4518   5.4683   6.1033   6.1070   6.1379
     6.6879   6.6930   6.7622   7.0765   7.0867   7.1016   7.6991   8.3712
     8.3756   8.4488   8.5002   8.5260   8.7195   8.7393   8.8237   8.8754
     8.8839   8.8874   8.9246   8.9297   8.9345   9.3240   9.3265   9.3512
     9.7140   9.7325   9.9284   9.9407   9.9546   9.9740   9.9790   9.9918
    10.0021  10.0618  10.0687  10.0747  10.1543  10.1685  10.3316  10.3810
    10.3884  11.4327  12.5616  12.5657  12.6003  14.4374  16.0168  16.1383
    17.3635  17.3931  17.4299  17.5481  17.6308  17.6382  17.8776  17.9433
    17.9532  18.0731  18.1050  18.4911  19.0462  19.0771  19.1111  20.7430
    20.8108  20.8389  20.8957  20.9581  20.9634  21.0390  21.0520  21.0632

     occupation numbers 
     1.0000   1.0000   1.0000   1.0000   1.0000   1.0000   1.0000   1.0000
     1.0000   1.0000   1.0000   1.0000   1.0000   1.0000   1.0000   1.0000
     1.0000   1.0000   1.0000   1.0000   1.0000   1.0000   1.0000   1.0000
     1.0000   1.0000   1.0000   1.0000   1.0000   1.0000   1.0000   1.0000
     1.0000   1.0000   1.0000   1.0000   1.0000   1.0000   1.0000   1.0000
     1.0000   1.0000   1.0000   1.0000   1.0000   1.0000   1.0000   1.0000
     1.0000   1.0000   1.0000   1.0000   1.0000   1.0000   1.0000   1.0000
     1.0000   1.0000   1.0000   1.0000   1.0000   1.0000   1.0000   1.0000
     1.0000   1.0000   1.0000   1.0000   1.0000   1.0000   1.0000   1.0000
     1.0000   1.0000   1.0000   1.0000   1.0000   1.0000   1.0000   1.0000
     1.0000   1.0000   1.0000   1.0000   1.0000   1.0000   1.0000   1.0000
     1.0000   1.0000   1.0000   1.0000   1.0000   1.0000   1.0000   1.0000
     1.0000   1.0000   1.0000   1.0000   1.0000   1.0000   1.0000   1.0000
     1.0000   1.0000   1.0000   1.0000   1.0000   1.0000   1.0000   1.0000
     1.0000   1.0000   1.0000   1.0000   1.0000   1.0000   1.0000   1.0000
     1.0000   1.0000   1.0000   1.0000   1.0000   1.0000   0.0000   0.0000
     0.0000   0.0000   0.0000   0.0000   0.0000   0.0000   0.0000   0.0000
     0.0000   0.0000   0.0000   0.0000   0.0000   0.0000   0.0000   0.0000
     0.0000   0.0000   0.0000   0.0000   0.0000   0.0000   0.0000   0.0000

     highest occupied, lowest unoccupied level (ev):    14.7996   16.0168

!    total energy              =    -723.90718380 Ry
     estimated scf accuracy    <          5.6E-09 Ry

     The total energy is the sum of the following terms:
     one-electron contribution =     232.27405346 Ry
     hartree contribution      =      70.34056737 Ry
     xc contribution           =    -226.77211030 Ry
     ewald contribution        =    -799.74969434 Ry

     total magnetization       =     2.00 Bohr mag/cell
     absolute magnetization    =     2.30 Bohr mag/cell

     convergence has been achieved in  14 iterations

     Forces acting on atoms (cartesian axes, Ry/au):

     atom    1 type  1   force =    -0.00284251   -0.00389420   -0.00261571
     atom    2 type  2   force =     0.03521737    0.01587886   -0.01260544
     atom    3 type  2   force =    -0.00921961    0.00868617    0.00627631
     atom    4 type  2   force =     0.00955144    0.02381076   -0.00308642
     atom    5 type  2   force =     0.00225707   -0.02117525    0.00164025
     atom    6 type  2   force =    -0.00833306    0.00827487    0.04330790
     atom    7 type  2   force =     0.01016237    0.01194683   -0.00209591
     atom    8 type  2   force =     0.00297862    0.00426445    0.00653510
     atom    9 type  2   force =    -0.00212868   -0.00477312   -0.00300340
     atom   10 type  2   force =     0.00088236    0.00132321    0.00743365
     atom   11 type  2   force =    -0.02867678    0.00593374   -0.00877325
     atom   12 type  2   force =    -0.00005341    0.00389128    0.00338378
     atom   13 type  2   force =    -0.00271025   -0.03983476   -0.00191669
     atom   14 type  2   force =     0.00346760    0.00214727   -0.00436278
     atom   15 type  2   force =    -0.00265222   -0.00142545   -0.00559176
     atom   16 type  2   force =     0.00011522   -0.00101466   -0.00098741
     atom   17 type  2   force =    -0.00141048    0.00632306    0.00017346
     atom   18 type  2   force =     0.00296839   -0.00021946    0.00096481
     atom   19 type  2   force =    -0.00920909   -0.00309298   -0.00520636
     atom   20 type  2   force =     0.00351354   -0.00373479    0.00320622
     atom   21 type  2   force =     0.00274605   -0.00324575   -0.00296453
     atom   22 type  2   force =     0.00210506    0.00175464    0.00197750
     atom   23 type  2   force =     0.00244190   -0.00725281   -0.00073774
     atom   24 type  2   force =     0.00958402    0.00540844    0.00430942
     atom   25 type  2   force =    -0.01227132   -0.01392385   -0.00412314
     atom   26 type  2   force =     0.01495928    0.00612726    0.00170206
     atom   27 type  2   force =    -0.02560502   -0.00852518   -0.00639056
     atom   28 type  2   force =     0.01055198    0.00065905    0.00585546
     atom   29 type  2   force =    -0.00020856   -0.00166180   -0.00133789
     atom   30 type  2   force =     0.00830905    0.00685282    0.00354212
     atom   31 type  2   force =     0.00097288   -0.00163047   -0.00347171
     atom   32 type  2   force =     0.00268442    0.00419016    0.00110793
     atom   33 type  2   force =     0.00046657   -0.00447098   -0.00017242
     atom   34 type  2   force =    -0.00469362    0.00168839    0.00358808
     atom   35 type  2   force =    -0.00507024   -0.00084010   -0.00331134
     atom   36 type  2   force =     0.00119743    0.00495706    0.00016929
     atom   37 type  2   force =     0.00071965   -0.03259675   -0.00722099
     atom   38 type  2   force =     0.00703745    0.00170825   -0.00028046
     atom   39 type  2   force =    -0.01005285    0.00605081   -0.01368695
     atom   40 type  2   force =     0.00475631    0.01229734    0.00461976
     atom   41 type  2   force =    -0.00726416   -0.01557414   -0.00377974
     atom   42 type  2   force =    -0.00030283    0.01740316    0.00604401
     atom   43 type  2   force =    -0.00077085    0.00083529   -0.00093371
     atom   44 type  2   force =     0.00462087    0.01706485    0.00299741
     atom   45 type  2   force =    -0.00744179   -0.02650339   -0.00667483
     atom   46 type  2   force =     0.00650938    0.01608289    0.00109664
     atom   47 type  2   force =    -0.00123242    0.00124956   -0.00183067
     atom   48 type  2   force =     0.00428307    0.00590793    0.00810743
     atom   49 type  2   force =    -0.00397451   -0.01504928   -0.01134806
     atom   50 type  2   force =    -0.01345932    0.00685649    0.00448182
     atom   51 type  2   force =    -0.00004579   -0.00102104    0.00109104
     atom   52 type  2   force =     0.00712889    0.00134749    0.00465917
     atom   53 type  2   force =    -0.00170598   -0.00296519   -0.00044212
     atom   54 type  2   force =     0.00325311    0.00509435    0.01333144
     atom   55 type  2   force =    -0.00714832   -0.00856507   -0.02489288
     atom   56 type  2   force =     0.00417590    0.00427786    0.00504241
     atom   57 type  2   force =    -0.00181785   -0.00069380   -0.00232529
     atom   58 type  2   force =     0.00151649    0.00404931    0.00331875
     atom   59 type  2   force =    -0.00130558   -0.00267516   -0.00369389
     atom   60 type  2   force =     0.00264480    0.00198936    0.00230256
     atom   61 type  2   force =    -0.00333005   -0.00175671   -0.00388781
     atom   62 type  2   force =     0.00467077    0.00481774    0.00181432
     atom   63 type  2   force =    -0.00351216   -0.00303483   -0.00032828
     The non-local contrib.  to forces
     atom    1 type  1   force =    -0.76111644   -0.76445766   -0.75906747
     atom    2 type  2   force =    -0.16439202    0.22053123    0.17808381
     atom    3 type  2   force =     0.05687510    0.08135146    0.07248347
     atom    4 type  2   force =     0.21551759   -0.18876350    0.19763484
     atom    5 type  2   force =     0.07318677    0.04255975    0.07042768
     atom    6 type  2   force =     0.17947032    0.20441915   -0.14640019
     atom    7 type  2   force =     0.07751851    0.08328381    0.06415323
     atom    8 type  2   force =    -0.00460654   -0.00449459    0.05678839
     atom    9 type  2   force =    -0.00558587   -0.00774780    0.01320003
     atom   10 type  2   force =    -0.04444010   -0.01408054   -0.01164494
     atom   11 type  2   force =    -0.10394528    0.06763968   -0.08314735
     atom   12 type  2   force =    -0.01740498   -0.04110440   -0.01464214
     atom   13 type  2   force =     0.05186584   -0.11602714   -0.07386978
     atom   14 type  2   force =     0.00259144    0.00049460    0.04553540
     atom   15 type  2   force =     0.00981302    0.00856532   -0.00325511
     atom   16 type  2   force =    -0.01260491    0.04867154   -0.01323000
     atom   17 type  2   force =    -0.00476382    0.02723362   -0.00326714
     atom   18 type  2   force =    -0.04114082   -0.02207100   -0.01573711
     atom   19 type  2   force =    -0.08138471   -0.07905871    0.05532821
     atom   20 type  2   force =     0.00511920    0.04527319    0.00504581
     atom   21 type  2   force =     0.01426273   -0.00258394    0.01053981
     atom   22 type  2   force =    -0.01367058   -0.02017734   -0.04192253
     atom   23 type  2   force =     0.06676877   -0.08500649   -0.07306566
     atom   24 type  2   force =    -0.06483298    0.03326689    0.03416927
     atom   25 type  2   force =    -0.02430770    0.00030494    0.01350641
     atom   26 type  2   force =    -0.04148020   -0.02064303   -0.02353146
     atom   27 type  2   force =    -0.14695780    0.12518381    0.12369024
     atom   28 type  2   force =     0.08001949    0.02355640   -0.01256486
     atom   29 type  2   force =     0.00078809    0.01823360    0.00505268
     atom   30 type  2   force =     0.07728664   -0.01318123    0.02835404
     atom   31 type  2   force =     0.00344562    0.00340178    0.01654836
     atom   32 type  2   force =     0.05342393   -0.00552994   -0.00828110
     atom   33 type  2   force =     0.01831793   -0.00717967   -0.00356195
     atom   34 type  2   force =     0.04473388    0.00112040    0.00378743
     atom   35 type  2   force =    -0.00334471    0.00880737    0.01017581
     atom   36 type  2   force =    -0.01771682   -0.03980511   -0.01793945
     atom   37 type  2   force =    -0.07157430   -0.10833951    0.04784507
     atom   38 type  2   force =    -0.01365009   -0.01336964   -0.04534801
     atom   39 type  2   force =    -0.08667269    0.07112493   -0.08750390
     atom   40 type  2   force =     0.03535761   -0.05948408    0.03428533
     atom   41 type  2   force =     0.00872543   -0.02667470    0.01370626
     atom   42 type  2   force =     0.02134285    0.08880867   -0.00971602
     atom   43 type  2   force =     0.01688188    0.00071798    0.00436701
     atom   44 type  2   force =    -0.02270156   -0.03691184   -0.02354929
     atom   45 type  2   force =     0.12489199   -0.14763293    0.12425377
     atom   46 type  2   force =    -0.00990436    0.08701244    0.02325874
     atom   47 type  2   force =     0.00328564    0.00118963    0.01620018
     atom   48 type  2   force =     0.03400460    0.03406149   -0.06728814
     atom   49 type  2   force =     0.01206043   -0.00082714   -0.02333730
     atom   50 type  2   force =     0.00901250   -0.01495822    0.07242217
     atom   51 type  2   force =     0.02056115    0.00429725    0.00390412
     atom   52 type  2   force =    -0.01348893    0.02602798    0.07325918
     atom   53 type  2   force =     0.00455611    0.01786351    0.00155242
     atom   54 type  2   force =    -0.02191909   -0.02061280   -0.04446218
     atom   55 type  2   force =     0.12315654    0.12444313   -0.14647478
     atom   56 type  2   force =     0.02328176    0.02301246    0.02310536
     atom   57 type  2   force =     0.00530266    0.00514112    0.00545348
     atom   58 type  2   force =     0.01614180   -0.00646164   -0.01000976
     atom   59 type  2   force =     0.00806163   -0.01446044   -0.01557336
     atom   60 type  2   force =    -0.01033416    0.01818496   -0.01139491
     atom   61 type  2   force =    -0.01478808    0.00868454   -0.01568500
     atom   62 type  2   force =    -0.00756426   -0.00600900    0.01589336
     atom   63 type  2   force =    -0.01558925   -0.01501486    0.00872695
     The ionic contribution  to forces
     atom    1 type  1   force =     2.98725191    2.95414553    2.99754552
     atom    2 type  2   force =     2.41456179   -2.05966421   -2.21532398
     atom    3 type  2   force =     0.48295097   -0.72900677   -0.85298194
     atom    4 type  2   force =    -2.08544034    2.32424699   -2.15797217
     atom    5 type  2   force =    -0.78083269    0.39858315   -0.82718494
     atom    6 type  2   force =    -2.18661602   -2.09810396    2.46068918
     atom    7 type  2   force =    -0.82615215   -0.74662073    0.53804986
     atom    8 type  2   force =     0.25980369    0.21502508   -0.72704750
     atom    9 type  2   force =     0.06702629    0.02611232   -0.22460290
     atom   10 type  2   force =     0.18107694    0.07107763    0.56561360
     atom   11 type  2   force =    -0.52688218   -0.62688808    0.80364024
     atom   12 type  2   force =     0.02864721    0.15983067    0.55059312
     atom   13 type  2   force =    -0.66415784   -0.56686175    0.76173880
     atom   14 type  2   force =    -0.19409205   -0.18006737   -0.71551368
     atom   15 type  2   force =    -0.16992324   -0.13009803   -0.06873344
     atom   16 type  2   force =     0.20313444   -0.77491403    0.22539767
     atom   17 type  2   force =     0.07894094   -0.15367521    0.09615353
     atom   18 type  2   force =     0.23198158    0.46908851    0.00227882
     atom   19 type  2   force =    -0.35437069    0.74583015   -0.70921835
     atom   20 type  2   force =    -0.17657089   -0.72235126   -0.19037033
     atom   21 type  2   force =    -0.17278841   -0.03261142   -0.22563778
     atom   22 type  2   force =     0.03214541    0.47824492    0.24541442
     atom   23 type  2   force =    -0.68674583    0.75284586   -0.30742705
     atom   24 type  2   force =     0.10906546   -0.13653985   -0.17062017
     atom   25 type  2   force =    -0.02350988   -0.07882306   -0.07153241
     atom   26 type  2   force =     0.13243512   -0.09380772   -0.04911819
     atom   27 type  2   force =     1.14284920    0.24326772    0.25135725
     atom   28 type  2   force =    -0.08181236   -0.13523162    0.11287626
     atom   29 type  2   force =    -0.15662879    0.03221943    0.25946755
     atom   30 type  2   force =    -0.01553724    0.13816981   -0.24278398
     atom   31 type  2   force =    -0.15514782    0.17191451   -0.01067577
     atom   32 type  2   force =    -0.74888028    0.19513790    0.26228052
     atom   33 type  2   force =    -0.20429980    0.03210931    0.09040723
     atom   34 type  2   force =    -0.72059830   -0.17612400   -0.19933777
     atom   35 type  2   force =    -0.06573855   -0.13634617   -0.19697388
     atom   36 type  2   force =     0.51926609    0.18308117    0.00305763
     atom   37 type  2   force =     0.73853607   -0.49900354   -0.69166383
     atom   38 type  2   force =     0.53936186    0.07119196    0.20820415
     atom   39 type  2   force =     0.81034160   -0.63901170   -0.43167470
     atom   40 type  2   force =    -0.20196572    0.06224529   -0.20982757
     atom   41 type  2   force =    -0.07161677   -0.08724999   -0.06796849
     atom   42 type  2   force =    -0.13234397    0.02689960    0.08912055
     atom   43 type  2   force =     0.03180722   -0.11462429    0.25346600
     atom   44 type  2   force =    -0.07158487    0.12342754   -0.05430678
     atom   45 type  2   force =     0.24499118    1.15967000    0.24776982
     atom   46 type  2   force =     0.10000104    0.05058606   -0.16923552
     atom   47 type  2   force =     0.22454333   -0.11474283    0.01698066
     atom   48 type  2   force =    -0.13726544   -0.11081136    0.13769625
     atom   49 type  2   force =    -0.07335127   -0.10791206   -0.01940549
     atom   50 type  2   force =    -0.30563621    0.15455058   -0.07941269
     atom   51 type  2   force =    -0.00894721    0.19989727   -0.15509845
     atom   52 type  2   force =     0.14338972   -0.18558741   -0.12159919
     atom   53 type  2   force =     0.23575072    0.01105571   -0.17956398
     atom   54 type  2   force =    -0.05889562   -0.09069479    0.13056163
     atom   55 type  2   force =     0.25234457    0.24518373    1.12954840
     atom   56 type  2   force =    -0.09641539   -0.03003362   -0.12475786
     atom   57 type  2   force =    -0.02475207   -0.03549969   -0.01704756
     atom   58 type  2   force =    -0.07956708    0.04806926    0.04013727
     atom   59 type  2   force =    -0.28703358    0.07792878    0.15149737
     atom   60 type  2   force =     0.06025046   -0.03653783    0.05892415
     atom   61 type  2   force =     0.13361446   -0.30337081    0.15761400
     atom   62 type  2   force =     0.03445956    0.03694267   -0.09105540
     atom   63 type  2   force =     0.12557171    0.07423605   -0.27240770
     The local contribution  to forces
     atom    1 type  1   force =    -2.22903637   -2.19357851   -2.24114507
     atom    2 type  2   force =    -2.21501993    1.85500694    2.02458244
     atom    3 type  2   force =    -0.54914315    0.65630723    0.78671552
     atom    4 type  2   force =     1.87938347   -2.11168380    1.95720146
     atom    5 type  2   force =     0.70979822   -0.46232467    0.75835616
     atom    6 type  2   force =     1.99871875    1.90195877   -2.27103847
     atom    7 type  2   force =     0.75868748    0.67526668   -0.60436803
     atom    8 type  2   force =    -0.25227719   -0.20625861    0.67674762
     atom    9 type  2   force =    -0.06363706   -0.02313595    0.20835120
     atom   10 type  2   force =    -0.13580811   -0.05568629   -0.54658040
     atom   11 type  2   force =     0.60208910    0.56516049   -0.72930764
     atom   12 type  2   force =    -0.01137889   -0.11484628   -0.53261204
     atom   13 type  2   force =     0.60948214    0.64305173   -0.68983871
     atom   14 type  2   force =     0.19486637    0.18171079    0.66557509
     atom   15 type  2   force =     0.15734849    0.12008395    0.06636990
     atom   16 type  2   force =    -0.19047268    0.72518187   -0.21319802
     atom   17 type  2   force =    -0.07565508    0.13270972   -0.09277012
     atom   18 type  2   force =    -0.18792752   -0.44727915    0.01436252
     atom   19 type  2   force =     0.42648139   -0.66988531    0.64863759
     atom   20 type  2   force =     0.17486497    0.67330619    0.18847272
     atom   21 type  2   force =     0.16116285    0.03191650    0.21208408
     atom   22 type  2   force =    -0.01644884   -0.45635444   -0.20157444
     atom   23 type  2   force =     0.62232562   -0.67512399    0.37968967
     atom   24 type  2   force =    -0.03470556    0.10862812    0.14070408
     atom   25 type  2   force =     0.03548315    0.06454725    0.05386138
     atom   26 type  2   force =    -0.07605788    0.12054286    0.07431336
     atom   27 type  2   force =    -1.02156942   -0.37699623   -0.38148461
     atom   28 type  2   force =     0.01226558    0.11229580   -0.09449598
     atom   29 type  2   force =     0.15553610   -0.05216087   -0.26590635
     atom   30 type  2   force =    -0.05351875   -0.11817592    0.21793140
     atom   31 type  2   force =     0.15257665   -0.17697164   -0.00938497
     atom   32 type  2   force =     0.69804339   -0.18543644   -0.25295371
     atom   33 type  2   force =     0.18636416   -0.02940451   -0.08707665
     atom   34 type  2   force =     0.67107838    0.17668267    0.19908095
     atom   35 type  2   force =     0.06393870    0.12666857    0.18342944
     atom   36 type  2   force =    -0.50042424   -0.13831056    0.01498760
     atom   37 type  2   force =    -0.66629391    0.57477113    0.63653195
     atom   38 type  2   force =    -0.51874505   -0.05612661   -0.16317591
     atom   39 type  2   force =    -0.73377326    0.57389943    0.50545741
     atom   40 type  2   force =     0.17125708    0.00952181    0.18012687
     atom   41 type  2   force =     0.05552745    0.09834019    0.05044182
     atom   42 type  2   force =     0.11058444   -0.09831312   -0.07340103
     atom   43 type  2   force =    -0.04956670    0.11472450   -0.25880962
     atom   44 type  2   force =     0.09882222   -0.06947019    0.08081676
     atom   45 type  2   force =    -0.37738550   -1.03855375   -0.37873236
     atom   46 type  2   force =    -0.08365425   -0.12152311    0.14701092
     atom   47 type  2   force =    -0.22911776    0.11477658   -0.03507277
     atom   48 type  2   force =     0.10743692    0.08262874   -0.06236452
     atom   49 type  2   force =     0.05721651    0.09364625    0.03132353
     atom   50 type  2   force =     0.28305157   -0.13277402    0.01141172
     atom   51 type  2   force =    -0.01176682   -0.20523234    0.15223757
     atom   52 type  2   force =    -0.12283997    0.16084836    0.05294214
     atom   53 type  2   force =    -0.24206924   -0.03195152    0.17751679
     atom   54 type  2   force =     0.08397850    0.11636707   -0.07283503
     atom   55 type  2   force =    -0.38271314   -0.37820019   -1.00803763
     atom   56 type  2   force =     0.07720245    0.01126736    0.10665828
     atom   57 type  2   force =     0.01753028    0.02962882    0.00924136
     atom   58 type  2   force =     0.06484039   -0.03759559   -0.02684523
     atom   59 type  2   force =     0.27756944   -0.06617223   -0.13966534
     atom   60 type  2   force =    -0.04735885    0.02031797   -0.04526514
     atom   61 type  2   force =    -0.12222768    0.29289412   -0.14586267
     atom   62 type  2   force =    -0.02231068   -0.02615360    0.07694768
     atom   63 type  2   force =    -0.11356330   -0.06227734    0.26332424
     The core correction contribution to forces
     atom    1 type  1   force =     0.00000000    0.00000000    0.00000000
     atom    2 type  2   force =     0.00000000    0.00000000    0.00000000
     atom    3 type  2   force =     0.00000000    0.00000000    0.00000000
     atom    4 type  2   force =     0.00000000    0.00000000    0.00000000
     atom    5 type  2   force =     0.00000000    0.00000000    0.00000000
     atom    6 type  2   force =     0.00000000    0.00000000    0.00000000
     atom    7 type  2   force =     0.00000000    0.00000000    0.00000000
     atom    8 type  2   force =     0.00000000    0.00000000    0.00000000
     atom    9 type  2   force =     0.00000000    0.00000000    0.00000000
     atom   10 type  2   force =     0.00000000    0.00000000    0.00000000
     atom   11 type  2   force =     0.00000000    0.00000000    0.00000000
     atom   12 type  2   force =     0.00000000    0.00000000    0.00000000
     atom   13 type  2   force =     0.00000000    0.00000000    0.00000000
     atom   14 type  2   force =     0.00000000    0.00000000    0.00000000
     atom   15 type  2   force =     0.00000000    0.00000000    0.00000000
     atom   16 type  2   force =     0.00000000    0.00000000    0.00000000
     atom   17 type  2   force =     0.00000000    0.00000000    0.00000000
     atom   18 type  2   force =     0.00000000    0.00000000    0.00000000
     atom   19 type  2   force =     0.00000000    0.00000000    0.00000000
     atom   20 type  2   force =     0.00000000    0.00000000    0.00000000
     atom   21 type  2   force =     0.00000000    0.00000000    0.00000000
     atom   22 type  2   force =     0.00000000    0.00000000    0.00000000
     atom   23 type  2   force =     0.00000000    0.00000000    0.00000000
     atom   24 type  2   force =     0.00000000    0.00000000    0.00000000
     atom   25 type  2   force =     0.00000000    0.00000000    0.00000000
     atom   26 type  2   force =     0.00000000    0.00000000    0.00000000
     atom   27 type  2   force =     0.00000000    0.00000000    0.00000000
     atom   28 type  2   force =     0.00000000    0.00000000    0.00000000
     atom   29 type  2   force =     0.00000000    0.00000000    0.00000000
     atom   30 type  2   force =     0.00000000    0.00000000    0.00000000
     atom   31 type  2   force =     0.00000000    0.00000000    0.00000000
     atom   32 type  2   force =     0.00000000    0.00000000    0.00000000
     atom   33 type  2   force =     0.00000000    0.00000000    0.00000000
     atom   34 type  2   force =     0.00000000    0.00000000    0.00000000
     atom   35 type  2   force =     0.00000000    0.00000000    0.00000000
     atom   36 type  2   force =     0.00000000    0.00000000    0.00000000
     atom   37 type  2   force =     0.00000000    0.00000000    0.00000000
     atom   38 type  2   force =     0.00000000    0.00000000    0.00000000
     atom   39 type  2   force =     0.00000000    0.00000000    0.00000000
     atom   40 type  2   force =     0.00000000    0.00000000    0.00000000
     atom   41 type  2   force =     0.00000000    0.00000000    0.00000000
     atom   42 type  2   force =     0.00000000    0.00000000    0.00000000
     atom   43 type  2   force =     0.00000000    0.00000000    0.00000000
     atom   44 type  2   force =     0.00000000    0.00000000    0.00000000
     atom   45 type  2   force =     0.00000000    0.00000000    0.00000000
     atom   46 type  2   force =     0.00000000    0.00000000    0.00000000
     atom   47 type  2   force =     0.00000000    0.00000000    0.00000000
     atom   48 type  2   force =     0.00000000    0.00000000    0.00000000
     atom   49 type  2   force =     0.00000000    0.00000000    0.00000000
     atom   50 type  2   force =     0.00000000    0.00000000    0.00000000
     atom   51 type  2   force =     0.00000000    0.00000000    0.00000000
     atom   52 type  2   force =     0.00000000    0.00000000    0.00000000
     atom   53 type  2   force =     0.00000000    0.00000000    0.00000000
     atom   54 type  2   force =     0.00000000    0.00000000    0.00000000
     atom   55 type  2   force =     0.00000000    0.00000000    0.00000000
     atom   56 type  2   force =     0.00000000    0.00000000    0.00000000
     atom   57 type  2   force =     0.00000000    0.00000000    0.00000000
     atom   58 type  2   force =     0.00000000    0.00000000    0.00000000
     atom   59 type  2   force =     0.00000000    0.00000000    0.00000000
     atom   60 type  2   force =     0.00000000    0.00000000    0.00000000
     atom   61 type  2   force =     0.00000000    0.00000000    0.00000000
     atom   62 type  2   force =     0.00000000    0.00000000    0.00000000
     atom   63 type  2   force =     0.00000000    0.00000000    0.00000000
     The Hubbard contrib.    to forces
     atom    1 type  1   force =     0.00000000    0.00000000    0.00000000
     atom    2 type  2   force =     0.00000000    0.00000000    0.00000000
     atom    3 type  2   force =     0.00000000    0.00000000    0.00000000
     atom    4 type  2   force =     0.00000000    0.00000000    0.00000000
     atom    5 type  2   force =     0.00000000    0.00000000    0.00000000
     atom    6 type  2   force =     0.00000000    0.00000000    0.00000000
     atom    7 type  2   force =     0.00000000    0.00000000    0.00000000
     atom    8 type  2   force =     0.00000000    0.00000000    0.00000000
     atom    9 type  2   force =     0.00000000    0.00000000    0.00000000
     atom   10 type  2   force =     0.00000000    0.00000000    0.00000000
     atom   11 type  2   force =     0.00000000    0.00000000    0.00000000
     atom   12 type  2   force =     0.00000000    0.00000000    0.00000000
     atom   13 type  2   force =     0.00000000    0.00000000    0.00000000
     atom   14 type  2   force =     0.00000000    0.00000000    0.00000000
     atom   15 type  2   force =     0.00000000    0.00000000    0.00000000
     atom   16 type  2   force =     0.00000000    0.00000000    0.00000000
     atom   17 type  2   force =     0.00000000    0.00000000    0.00000000
     atom   18 type  2   force =     0.00000000    0.00000000    0.00000000
     atom   19 type  2   force =     0.00000000    0.00000000    0.00000000
     atom   20 type  2   force =     0.00000000    0.00000000    0.00000000
     atom   21 type  2   force =     0.00000000    0.00000000    0.00000000
     atom   22 type  2   force =     0.00000000    0.00000000    0.00000000
     atom   23 type  2   force =     0.00000000    0.00000000    0.00000000
     atom   24 type  2   force =     0.00000000    0.00000000    0.00000000
     atom   25 type  2   force =     0.00000000    0.00000000    0.00000000
     atom   26 type  2   force =     0.00000000    0.00000000    0.00000000
     atom   27 type  2   force =     0.00000000    0.00000000    0.00000000
     atom   28 type  2   force =     0.00000000    0.00000000    0.00000000
     atom   29 type  2   force =     0.00000000    0.00000000    0.00000000
     atom   30 type  2   force =     0.00000000    0.00000000    0.00000000
     atom   31 type  2   force =     0.00000000    0.00000000    0.00000000
     atom   32 type  2   force =     0.00000000    0.00000000    0.00000000
     atom   33 type  2   force =     0.00000000    0.00000000    0.00000000
     atom   34 type  2   force =     0.00000000    0.00000000    0.00000000
     atom   35 type  2   force =     0.00000000    0.00000000    0.00000000
     atom   36 type  2   force =     0.00000000    0.00000000    0.00000000
     atom   37 type  2   force =     0.00000000    0.00000000    0.00000000
     atom   38 type  2   force =     0.00000000    0.00000000    0.00000000
     atom   39 type  2   force =     0.00000000    0.00000000    0.00000000
     atom   40 type  2   force =     0.00000000    0.00000000    0.00000000
     atom   41 type  2   force =     0.00000000    0.00000000    0.00000000
     atom   42 type  2   force =     0.00000000    0.00000000    0.00000000
     atom   43 type  2   force =     0.00000000    0.00000000    0.00000000
     atom   44 type  2   force =     0.00000000    0.00000000    0.00000000
     atom   45 type  2   force =     0.00000000    0.00000000    0.00000000
     atom   46 type  2   force =     0.00000000    0.00000000    0.00000000
     atom   47 type  2   force =     0.00000000    0.00000000    0.00000000
     atom   48 type  2   force =     0.00000000    0.00000000    0.00000000
     atom   49 type  2   force =     0.00000000    0.00000000    0.00000000
     atom   50 type  2   force =     0.00000000    0.00000000    0.00000000
     atom   51 type  2   force =     0.00000000    0.00000000    0.00000000
     atom   52 type  2   force =     0.00000000    0.00000000    0.00000000
     atom   53 type  2   force =     0.00000000    0.00000000    0.00000000
     atom   54 type  2   force =     0.00000000    0.00000000    0.00000000
     atom   55 type  2   force =     0.00000000    0.00000000    0.00000000
     atom   56 type  2   force =     0.00000000    0.00000000    0.00000000
     atom   57 type  2   force =     0.00000000    0.00000000    0.00000000
     atom   58 type  2   force =     0.00000000    0.00000000    0.00000000
     atom   59 type  2   force =     0.00000000    0.00000000    0.00000000
     atom   60 type  2   force =     0.00000000    0.00000000    0.00000000
     atom   61 type  2   force =     0.00000000    0.00000000    0.00000000
     atom   62 type  2   force =     0.00000000    0.00000000    0.00000000
     atom   63 type  2   force =     0.00000000    0.00000000    0.00000000
     The SCF correction term to forces
     atom    1 type  1   force =    -0.00002472   -0.00002684    0.00000217
     atom    2 type  2   force =    -0.00001559   -0.00001838    0.00000313
     atom    3 type  2   force =     0.00001436    0.00001097    0.00001011
     atom    4 type  2   force =     0.00000762   -0.00001222    0.00000029
     atom    5 type  2   force =     0.00002165   -0.00001677   -0.00000781
     atom    6 type  2   force =     0.00001079   -0.00002237    0.00000822
     atom    7 type  2   force =     0.00002541   -0.00000622    0.00001989
     atom    8 type  2   force =    -0.00002445   -0.00003072   -0.00000256
     atom    9 type  2   force =    -0.00001516   -0.00002497   -0.00000088
     atom   10 type  2   force =    -0.00002949   -0.00001088   -0.00000376
     atom   11 type  2   force =    -0.00002154   -0.00000163   -0.00000765
     atom   12 type  2   force =     0.00000015   -0.00001199   -0.00000431
     atom   13 type  2   force =     0.00001649   -0.00002088    0.00000385
     atom   14 type  2   force =     0.00001872   -0.00001404   -0.00000875
     atom   15 type  2   force =     0.00002639    0.00000002   -0.00002226
     atom   16 type  2   force =    -0.00002474    0.00002268   -0.00000623
     atom   17 type  2   force =    -0.00001562    0.00003165    0.00000803
     atom   18 type  2   force =    -0.00002796    0.00001890    0.00001142
     atom   19 type  2   force =    -0.00001819   -0.00000239   -0.00000296
     atom   20 type  2   force =     0.00001714    0.00001380    0.00000887
     atom   21 type  2   force =     0.00002577    0.00000983    0.00000020
     atom   22 type  2   force =    -0.00000404    0.00001822    0.00001089
     atom   23 type  2   force =     0.00001023    0.00000852    0.00001614
     atom   24 type  2   force =    -0.00002601    0.00002999    0.00000709
     atom   25 type  2   force =    -0.00002000    0.00002374   -0.00000767
     atom   26 type  2   force =    -0.00002087    0.00001187   -0.00001079
     atom   27 type  2   force =    -0.00001012   -0.00000375   -0.00000260
     atom   28 type  2   force =    -0.00000384    0.00001518   -0.00000911
     atom   29 type  2   force =     0.00001293    0.00002275   -0.00000091
     atom   30 type  2   force =    -0.00000471    0.00001688   -0.00000849
     atom   31 type  2   force =     0.00001531    0.00000159   -0.00000849
     atom   32 type  2   force =     0.00001428   -0.00000464    0.00001307
     atom   33 type  2   force =     0.00000115   -0.00001939    0.00000980
     atom   34 type  2   force =     0.00000930   -0.00001396    0.00000831
     atom   35 type  2   force =    -0.00000878    0.00000685    0.00000813
     atom   36 type  2   force =    -0.00001071   -0.00003172    0.00001435
     atom   37 type  2   force =    -0.00003132   -0.00004811    0.00001665
     atom   38 type  2   force =    -0.00001239   -0.00001074   -0.00000985
     atom   39 type  2   force =    -0.00003161    0.00001487   -0.00001491
     atom   40 type  2   force =     0.00002423   -0.00000895   -0.00001402
     atom   41 type  2   force =     0.00001662   -0.00001293   -0.00000850
     atom   42 type  2   force =     0.00003073   -0.00001528   -0.00000865
     atom   43 type  2   force =     0.00002364   -0.00000618   -0.00000625
     atom   44 type  2   force =     0.00000196   -0.00000396   -0.00001244
     atom   45 type  2   force =    -0.00002257   -0.00000999   -0.00001523
     atom   46 type  2   force =    -0.00001616   -0.00001577    0.00001335
     atom   47 type  2   force =    -0.00002675    0.00000290    0.00001211
     atom   48 type  2   force =     0.00002389    0.00000577    0.00001469
     atom   49 type  2   force =     0.00001672    0.00002039    0.00002205
     atom   50 type  2   force =     0.00002970    0.00001487    0.00001148
     atom   51 type  2   force =     0.00002398   -0.00000650   -0.00000135
     atom   52 type  2   force =    -0.00001504    0.00003527    0.00000788
     atom   53 type  2   force =    -0.00002667    0.00004383    0.00000350
     atom   54 type  2   force =     0.00000621    0.00001158    0.00001786
     atom   55 type  2   force =    -0.00001941   -0.00001502    0.00002198
     atom   56 type  2   force =     0.00002398    0.00000838   -0.00001252
     atom   57 type  2   force =     0.00001817    0.00001265   -0.00002172
     atom   58 type  2   force =     0.00001826    0.00001400   -0.00001268
     atom   59 type  2   force =     0.00001381    0.00000544   -0.00000172
     atom   60 type  2   force =     0.00000425    0.00000097   -0.00001070
     atom   61 type  2   force =    -0.00001186    0.00001216   -0.00000329
     atom   62 type  2   force =     0.00000305    0.00001439   -0.00002048
     atom   63 type  2   force =    -0.00001444   -0.00000196   -0.00002093

     Total force =     0.127078     Total SCF correction =     0.000226

     Writing all to output data dir ./pwscf.save/ :
     XML data file, charge density, pseudopotentials, collected wavefunctions
 
     init_run     :      0.39s CPU      0.45s WALL (       1 calls)
     electrons    :     10.45s CPU     11.15s WALL (       1 calls)
     forces       :      2.06s CPU      2.07s WALL (       1 calls)

     Called by init_run:
     wfcinit      :      0.10s CPU      0.12s WALL (       1 calls)
     wfcinit:wfcr :      0.10s CPU      0.11s WALL (       1 calls)
     potinit      :      0.19s CPU      0.20s WALL (       1 calls)
     hinit0       :      0.04s CPU      0.06s WALL (       1 calls)

     Called by electrons:
     c_bands      :      9.10s CPU      9.33s WALL (      14 calls)
     sum_band     :      0.22s CPU      0.24s WALL (      14 calls)
     v_of_rho     :      0.66s CPU      0.94s WALL (      15 calls)
     v_h          :      0.07s CPU      0.14s WALL (      15 calls)
     v_xc         :      0.59s CPU      0.81s WALL (      15 calls)
     mix_rho      :      0.18s CPU      0.20s WALL (      14 calls)

     Called by c_bands:
     init_us_2    :      0.02s CPU      0.02s WALL (      30 calls)
     regterg      :      6.83s CPU      7.05s WALL (      14 calls)

     Called by sum_band:
     sum_band:wei :      0.00s CPU      0.00s WALL (      14 calls)
     sum_band:loo :      0.16s CPU      0.17s WALL (      14 calls)
     sum_band:buf :      0.00s CPU      0.00s WALL (      14 calls)
     sum_band:ini :      0.01s CPU      0.01s WALL (      14 calls)

     Called by *egterg:
     rdiaghg      :      4.60s CPU      4.73s WALL (     273 calls)
     regterg:over :      0.22s CPU      0.23s WALL (     259 calls)
     regterg:upda :      0.11s CPU      0.11s WALL (     259 calls)
     regterg:last :      0.12s CPU      0.12s WALL (      51 calls)
     rdiaghg:chol :      0.15s CPU      0.15s WALL (     273 calls)
     rdiaghg:inve :      0.03s CPU      0.03s WALL (     273 calls)
     rdiaghg:para :      0.42s CPU      0.45s WALL (     546 calls)
     h_psi        :      1.71s CPU      1.75s WALL (     274 calls)
     g_psi        :      0.00s CPU      0.00s WALL (     259 calls)

     Called by h_psi:
     h_psi:calbec :      0.27s CPU      0.27s WALL (     274 calls)
     vloc_psi     :      1.33s CPU      1.36s WALL (     274 calls)
                                        0.00s GPU  (     274 calls)
     add_vuspsi   :      0.10s CPU      0.11s WALL (     274 calls)

     General routines
     calbec       :      2.30s CPU      2.31s WALL (     278 calls)
     fft          :      0.31s CPU      0.42s WALL (     196 calls)
     ffts         :      0.02s CPU      0.03s WALL (      14 calls)
     fftw         :      1.39s CPU      1.42s WALL (   10092 calls)
 
     Parallel routines
 
     PWSCF        :     13.90s CPU     14.86s WALL

 
   This run was terminated on:  16:57:27  16Nov2025            

=------------------------------------------------------------------------------=
   JOB DONE.
=------------------------------------------------------------------------------=
