
     Program PWSCF v.7.5 starts on 16Nov2025 at 17:22:22 

     This program is part of the open-source Quantum ESPRESSO suite
     for quantum simulation of materials; please cite
         "P. Giannozzi et al., J. Phys.:Condens. Matter 21 395502 (2009);
         "P. Giannozzi et al., J. Phys.:Condens. Matter 29 465901 (2017);
         "P. Giannozzi et al., J. Chem. Phys. 152 154105 (2020);
          URL http://www.quantum-espresso.org", 
     in publications or presentations arising from this work. More details at
     http://www.quantum-espresso.org/quote

     Parallel version (MPI), running on    96 processors

     MPI processes distributed on     2 nodes
     174065 MiB available memory on the printing compute node when the environment starts
 
     Reading input from supercell-377.in

     Current dimensions of program PWSCF are:
     Max number of different atomic species (ntypx) = 10
     Max number of k-points (npk) =  40000
     Max angular momentum in pseudopotentials (lmaxx) =  4

     gamma-point specific algorithms are used
 
     K-points division:     npool     =       2
     R & G space division:  proc/nbgrp/npool/nimage =      48
     Subspace diagonalization in iterative solution of the eigenvalue problem:
     one sub-group per band group will be used
     scalapack distributed-memory algorithm (size of sub-group:  2*  2 procs)

 
     Parallelization info
     --------------------
     sticks:   dense  smooth     PW     G-vecs:    dense   smooth      PW
     Min          59      59     14                 2432     2432     302
     Max          62      62     16                 2442     2442     316
     Sum        2885    2885    725               116921   116921   14771
 
     Using Slab Decomposition
 


     bravais-lattice index     =            0
     lattice parameter (alat)  =      13.4813  a.u.
     unit-cell volume          =    2450.1683 (a.u.)^3
     number of atoms/cell      =           63
     number of atomic types    =            2
     number of electrons       =       254.00 (up: 128.00, down: 126.00)
     number of Kohn-Sham states=          152
     kinetic-energy cutoff     =      50.0000  Ry
     charge density cutoff     =     200.0000  Ry
     scf convergence threshold =      1.0E-08
     mixing beta               =       0.7000
     number of iterations used =            8  plain     mixing
     Exchange-correlation= PBE
                           (   1   4   3   4   0   0   0)

     celldm(1)=  13.481306  celldm(2)=   0.000000  celldm(3)=   0.000000
     celldm(4)=   0.000000  celldm(5)=   0.000000  celldm(6)=   0.000000

     crystal axes: (cart. coord. in units of alat)
               a(1) = (   1.000000   0.000000   0.000000 )  
               a(2) = (   0.000000   1.000000   0.000000 )  
               a(3) = (   0.000000   0.000000   1.000000 )  

     reciprocal axes: (cart. coord. in units 2 pi/alat)
               b(1) = (  1.000000  0.000000  0.000000 )  
               b(2) = (  0.000000  1.000000  0.000000 )  
               b(3) = (  0.000000  0.000000  1.000000 )  


     PseudoPot. # 1 for N  read from file:
     ./N_ONCV_PBE-1.2.upf
     MD5 check sum: 5312fdf34e96954e02a33bdc911c617a
     Pseudo is Norm-conserving, Zval =  5.0
     Generated using ONCVPSP code by D. R. Hamann
     Using radial grid of  602 points,  4 beta functions with: 
                l(1) =   0
                l(2) =   0
                l(3) =   1
                l(4) =   1

     PseudoPot. # 2 for C  read from file:
     ./C_ONCV_PBE-1.2.upf
     MD5 check sum: d60b57d9bdca4133f5fde4b584ee909d
     Pseudo is Norm-conserving, Zval =  4.0
     Generated using ONCVPSP code by D. R. Hamann
     Using radial grid of  602 points,  4 beta functions with: 
                l(1) =   0
                l(2) =   0
                l(3) =   1
                l(4) =   1

     atomic species   valence    mass     pseudopotential
     N                 5.00    14.00670     N ( 1.00)
     C                 4.00    12.01070     C ( 1.00)

     Starting magnetic structure 
     atomic species   magnetization
     N               0.000
     C               0.000

     No symmetry found


                                    s                        frac. trans.

      isym =  1     identity                                     

 cryst.   s( 1) = (     1          0          0      )
                  (     0          1          0      )
                  (     0          0          1      )

 cart.    s( 1) = (  1.0000000  0.0000000  0.0000000 )
                  (  0.0000000  1.0000000  0.0000000 )
                  (  0.0000000  0.0000000  1.0000000 )


   Cartesian axes

     site n.     atom                  positions (alat units)
         1        N      tau(   1) = (   0.9893819   0.9897344   0.9891721  )
         2        C      tau(   2) = (   0.9870277   0.2601210   0.2640728  )
         3        C      tau(   3) = (   0.1231717   0.3731672   0.3742038  )
         4        C      tau(   4) = (   0.2603919   0.9894620   0.2619202  )
         5        C      tau(   5) = (   0.3737632   0.1246771   0.3741571  )
         6        C      tau(   6) = (   0.2640151   0.2616009   0.9853609  )
         7        C      tau(   7) = (   0.3737752   0.3731213   0.1223564  )
         8        C      tau(   8) = (   0.0000049   0.0005840   0.4991361  )
         9        C      tau(   9) = (   0.1251361   0.1251278   0.6250981  )
        10        C      tau(  10) = (   0.0020393   0.2482470   0.7515266  )
        11        C      tau(  11) = (   0.1292009   0.3733021   0.8763303  )
        12        C      tau(  12) = (   0.2487801   0.0017974   0.7514403  )
        13        C      tau(  13) = (   0.3754339   0.1292460   0.8748544  )
        14        C      tau(  14) = (   0.2491579   0.2495268   0.4995755  )
        15        C      tau(  15) = (   0.3750038   0.3749547   0.6244069  )
        16        C      tau(  16) = (   0.0016366   0.4979779   0.0013734  )
        17        C      tau(  17) = (   0.1250869   0.6243147   0.1250807  )
        18        C      tau(  18) = (   0.0014462   0.7520697   0.2483230  )
        19        C      tau(  19) = (   0.1266755   0.8769178   0.3741906  )
        20        C      tau(  20) = (   0.2488290   0.4983596   0.2486760  )
        21        C      tau(  21) = (   0.3741642   0.6242659   0.3742111  )
        22        C      tau(  22) = (   0.2480673   0.7520817   0.0015447  )
        23        C      tau(  23) = (   0.3729914   0.8777475   0.1265606  )
        24        C      tau(  24) = (   0.0000493   0.5010760   0.5011299  )
        25        C      tau(  25) = (   0.1252054   0.6262200   0.6252733  )
        26        C      tau(  26) = (   0.9993969   0.7487112   0.7492532  )
        27        C      tau(  27) = (   0.1217927   0.8768349   0.8763928  )
        28        C      tau(  28) = (   0.2492749   0.5017254   0.7482724  )
        29        C      tau(  29) = (   0.3741000   0.6263042   0.8750769  )
        30        C      tau(  30) = (   0.2487293   0.7486845   0.5007616  )
        31        C      tau(  31) = (   0.3739266   0.8750581   0.6258828  )
        32        C      tau(  32) = (   0.4987543   0.0011228   0.0002828  )
        33        C      tau(  33) = (   0.6248203   0.1251003   0.1251034  )
        34        C      tau(  34) = (   0.4991217   0.2493918   0.2488717  )
        35        C      tau(  35) = (   0.6243080   0.3746888   0.3747831  )
        36        C      tau(  36) = (   0.7516460   0.0016191   0.2487956  )
        37        C      tau(  37) = (   0.8750430   0.1283649   0.3757598  )
        38        C      tau(  38) = (   0.7517475   0.2480080   0.0019610  )
        39        C      tau(  39) = (   0.8773622   0.3724247   0.1282033  )
        40        C      tau(  40) = (   0.5008161   0.9999897   0.5008301  )
        41        C      tau(  41) = (   0.6256173   0.1249721   0.6252590  )
        42        C      tau(  42) = (   0.5022259   0.2488088   0.7478265  )
        43        C      tau(  43) = (   0.6264784   0.3739683   0.8752045  )
        44        C      tau(  44) = (   0.7487945   0.9989046   0.7489691  )
        45        C      tau(  45) = (   0.8764746   0.1216998   0.8763156  )
        46        C      tau(  46) = (   0.7479635   0.2486819   0.5018806  )
        47        C      tau(  47) = (   0.8751980   0.3739245   0.6263738  )
        48        C      tau(  48) = (   0.5012000   0.5011574   0.0001136  )
        49        C      tau(  49) = (   0.6256259   0.6262099   0.1252968  )
        50        C      tau(  50) = (   0.5005188   0.7489091   0.2490095  )
        51        C      tau(  51) = (   0.6258050   0.8750157   0.3740056  )
        52        C      tau(  52) = (   0.7486304   0.5011458   0.2494302  )
        53        C      tau(  53) = (   0.8750247   0.6261269   0.3741365  )
        54        C      tau(  54) = (   0.7492281   0.7488562   0.9996087  )
        55        C      tau(  55) = (   0.8766209   0.8769033   0.1218021  )
        56        C      tau(  56) = (   0.4990819   0.4992903   0.4990317  )
        57        C      tau(  57) = (   0.6247789   0.6244471   0.6249452  )
        58        C      tau(  58) = (   0.4991767   0.7499842   0.7500845  )
        59        C      tau(  59) = (   0.6239946   0.8751464   0.8754130  )
        60        C      tau(  60) = (   0.7505316   0.4989321   0.7505826  )
        61        C      tau(  61) = (   0.8758455   0.6234984   0.8759288  )
        62        C      tau(  62) = (   0.7498244   0.7497799   0.4993198  )
        63        C      tau(  63) = (   0.8750855   0.8749084   0.6257403  )

   Crystallographic axes

     site n.     atom                  positions (cryst. coord.)
         1        N      tau(   1) = (  0.9893819  0.9897344  0.9891721  )
         2        C      tau(   2) = (  0.9870277  0.2601210  0.2640728  )
         3        C      tau(   3) = (  0.1231717  0.3731672  0.3742038  )
         4        C      tau(   4) = (  0.2603919  0.9894620  0.2619202  )
         5        C      tau(   5) = (  0.3737632  0.1246771  0.3741571  )
         6        C      tau(   6) = (  0.2640151  0.2616009  0.9853609  )
         7        C      tau(   7) = (  0.3737752  0.3731213  0.1223564  )
         8        C      tau(   8) = (  0.0000049  0.0005840  0.4991361  )
         9        C      tau(   9) = (  0.1251361  0.1251278  0.6250981  )
        10        C      tau(  10) = (  0.0020393  0.2482470  0.7515266  )
        11        C      tau(  11) = (  0.1292009  0.3733021  0.8763303  )
        12        C      tau(  12) = (  0.2487801  0.0017974  0.7514403  )
        13        C      tau(  13) = (  0.3754339  0.1292460  0.8748544  )
        14        C      tau(  14) = (  0.2491579  0.2495268  0.4995755  )
        15        C      tau(  15) = (  0.3750038  0.3749547  0.6244069  )
        16        C      tau(  16) = (  0.0016366  0.4979779  0.0013734  )
        17        C      tau(  17) = (  0.1250869  0.6243147  0.1250807  )
        18        C      tau(  18) = (  0.0014462  0.7520697  0.2483230  )
        19        C      tau(  19) = (  0.1266755  0.8769178  0.3741906  )
        20        C      tau(  20) = (  0.2488290  0.4983596  0.2486760  )
        21        C      tau(  21) = (  0.3741642  0.6242659  0.3742111  )
        22        C      tau(  22) = (  0.2480673  0.7520817  0.0015447  )
        23        C      tau(  23) = (  0.3729914  0.8777475  0.1265606  )
        24        C      tau(  24) = (  0.0000493  0.5010760  0.5011299  )
        25        C      tau(  25) = (  0.1252054  0.6262200  0.6252733  )
        26        C      tau(  26) = (  0.9993969  0.7487112  0.7492532  )
        27        C      tau(  27) = (  0.1217927  0.8768349  0.8763928  )
        28        C      tau(  28) = (  0.2492749  0.5017254  0.7482724  )
        29        C      tau(  29) = (  0.3741000  0.6263042  0.8750769  )
        30        C      tau(  30) = (  0.2487293  0.7486845  0.5007616  )
        31        C      tau(  31) = (  0.3739266  0.8750581  0.6258828  )
        32        C      tau(  32) = (  0.4987543  0.0011228  0.0002828  )
        33        C      tau(  33) = (  0.6248203  0.1251003  0.1251034  )
        34        C      tau(  34) = (  0.4991217  0.2493918  0.2488717  )
        35        C      tau(  35) = (  0.6243080  0.3746888  0.3747831  )
        36        C      tau(  36) = (  0.7516460  0.0016191  0.2487956  )
        37        C      tau(  37) = (  0.8750430  0.1283649  0.3757598  )
        38        C      tau(  38) = (  0.7517475  0.2480080  0.0019610  )
        39        C      tau(  39) = (  0.8773622  0.3724247  0.1282033  )
        40        C      tau(  40) = (  0.5008161  0.9999897  0.5008301  )
        41        C      tau(  41) = (  0.6256173  0.1249721  0.6252590  )
        42        C      tau(  42) = (  0.5022259  0.2488088  0.7478265  )
        43        C      tau(  43) = (  0.6264784  0.3739683  0.8752045  )
        44        C      tau(  44) = (  0.7487945  0.9989046  0.7489691  )
        45        C      tau(  45) = (  0.8764746  0.1216998  0.8763156  )
        46        C      tau(  46) = (  0.7479635  0.2486819  0.5018806  )
        47        C      tau(  47) = (  0.8751980  0.3739245  0.6263738  )
        48        C      tau(  48) = (  0.5012000  0.5011574  0.0001136  )
        49        C      tau(  49) = (  0.6256259  0.6262099  0.1252968  )
        50        C      tau(  50) = (  0.5005188  0.7489091  0.2490095  )
        51        C      tau(  51) = (  0.6258050  0.8750157  0.3740056  )
        52        C      tau(  52) = (  0.7486304  0.5011458  0.2494302  )
        53        C      tau(  53) = (  0.8750247  0.6261269  0.3741365  )
        54        C      tau(  54) = (  0.7492281  0.7488562  0.9996087  )
        55        C      tau(  55) = (  0.8766209  0.8769033  0.1218021  )
        56        C      tau(  56) = (  0.4990819  0.4992903  0.4990317  )
        57        C      tau(  57) = (  0.6247789  0.6244471  0.6249452  )
        58        C      tau(  58) = (  0.4991767  0.7499842  0.7500845  )
        59        C      tau(  59) = (  0.6239946  0.8751464  0.8754130  )
        60        C      tau(  60) = (  0.7505316  0.4989321  0.7505826  )
        61        C      tau(  61) = (  0.8758455  0.6234984  0.8759288  )
        62        C      tau(  62) = (  0.7498244  0.7497799  0.4993198  )
        63        C      tau(  63) = (  0.8750855  0.8749084  0.6257403  )

     number of k points=     1
                       cart. coord. in units 2pi/alat
        k(    1) = (   0.0000000   0.0000000   0.0000000), wk =   1.0000000

                       cryst. coord.
        k(    1) = (   0.0000000   0.0000000   0.0000000), wk =   1.0000000

     Dense  grid:    58461 G-vectors     FFT dimensions: (  64,  64,  64)

     Dynamical RAM for                 wfc:       0.35 MB

     Dynamical RAM for     wfc (w. buffer):       0.35 MB

     Dynamical RAM for           str. fact:       0.04 MB

     Dynamical RAM for           local pot:       0.00 MB

     Dynamical RAM for          nlocal pot:       1.17 MB

     Dynamical RAM for                qrad:       0.65 MB

     Dynamical RAM for          rho,v,vnew:       0.49 MB

     Dynamical RAM for               rhoin:       0.16 MB

     Dynamical RAM for            rho*nmix:       0.60 MB

     Dynamical RAM for           G-vectors:       0.08 MB

     Dynamical RAM for          h,s,v(r/c):       0.53 MB

     Dynamical RAM for          <psi|beta>:       0.58 MB

     Dynamical RAM for                 psi:       0.71 MB

     Dynamical RAM for                hpsi:       0.71 MB

     Dynamical RAM for      wfcinit/wfcrot:       1.24 MB

     Estimated static dynamical RAM per process >       3.37 MB

     Estimated max dynamical RAM per process >       6.49 MB

     Estimated total dynamical RAM >     594.05 MB
     Generating pointlists ...
     new r_m :   0.0854 (alat units)  1.1518 (a.u.) for type    1
     new r_m :   0.0847 (alat units)  1.1416 (a.u.) for type    2

     Initial potential from superposition of free atoms

     starting charge     252.5655, renormalised to     254.0000
     Starting wfcs are random

     total cpu time spent up to now is        1.3 secs

     Self-consistent Calculation

     iteration #  1     ecut=    50.00 Ry     beta= 0.70
     Davidson diagonalization with overlap

---- Real-time Memory Report at c_bands before calling an iterative solver
           158 MiB given to the printing process from OS
             0 MiB allocation reported by mallinfo(arena+hblkhd)
        173100 MiB available memory on the node where the printing process lives
------------------
     ethr =  1.00E-02,  avg # of iterations = 12.0

     total cpu time spent up to now is        2.1 secs

     total energy              =    -723.26893836 Ry
     estimated scf accuracy    <       3.70834415 Ry

     total magnetization       =     2.00 Bohr mag/cell
     absolute magnetization    =     2.00 Bohr mag/cell

     iteration #  2     ecut=    50.00 Ry     beta= 0.70
     Davidson diagonalization with overlap

---- Real-time Memory Report at c_bands before calling an iterative solver
           163 MiB given to the printing process from OS
             0 MiB allocation reported by mallinfo(arena+hblkhd)
        173041 MiB available memory on the node where the printing process lives
------------------
     ethr =  1.46E-03,  avg # of iterations = 14.0

     total cpu time spent up to now is        3.4 secs

     total energy              =    -723.66275199 Ry
     estimated scf accuracy    <       0.45363104 Ry

     total magnetization       =     2.00 Bohr mag/cell
     absolute magnetization    =     2.07 Bohr mag/cell

     iteration #  3     ecut=    50.00 Ry     beta= 0.70
     Davidson diagonalization with overlap

---- Real-time Memory Report at c_bands before calling an iterative solver
           164 MiB given to the printing process from OS
             0 MiB allocation reported by mallinfo(arena+hblkhd)
        173049 MiB available memory on the node where the printing process lives
------------------
     c_bands:  2 eigenvalues not converged
     ethr =  1.79E-04,  avg # of iterations = 20.0

     total cpu time spent up to now is        5.7 secs

     total energy              =    -723.72802788 Ry
     estimated scf accuracy    <       0.85859028 Ry

     total magnetization       =     2.00 Bohr mag/cell
     absolute magnetization    =     2.12 Bohr mag/cell

     iteration #  4     ecut=    50.00 Ry     beta= 0.70
     Davidson diagonalization with overlap

---- Real-time Memory Report at c_bands before calling an iterative solver
           165 MiB given to the printing process from OS
             0 MiB allocation reported by mallinfo(arena+hblkhd)
        173042 MiB available memory on the node where the printing process lives
------------------
     c_bands:  1 eigenvalues not converged
     ethr =  1.79E-04,  avg # of iterations = 20.0

     total cpu time spent up to now is        6.8 secs

     total energy              =    -723.90124051 Ry
     estimated scf accuracy    <       0.00970131 Ry

     total magnetization       =     2.00 Bohr mag/cell
     absolute magnetization    =     2.19 Bohr mag/cell

     iteration #  5     ecut=    50.00 Ry     beta= 0.70
     Davidson diagonalization with overlap

---- Real-time Memory Report at c_bands before calling an iterative solver
           165 MiB given to the printing process from OS
             0 MiB allocation reported by mallinfo(arena+hblkhd)
        173051 MiB available memory on the node where the printing process lives
------------------
     c_bands:  3 eigenvalues not converged
     ethr =  3.82E-06,  avg # of iterations = 20.0

     total cpu time spent up to now is        8.4 secs

     total energy              =    -723.90607441 Ry
     estimated scf accuracy    <       0.00404261 Ry

     total magnetization       =     2.00 Bohr mag/cell
     absolute magnetization    =     2.23 Bohr mag/cell

     iteration #  6     ecut=    50.00 Ry     beta= 0.70
     Davidson diagonalization with overlap

---- Real-time Memory Report at c_bands before calling an iterative solver
           165 MiB given to the printing process from OS
             0 MiB allocation reported by mallinfo(arena+hblkhd)
        173048 MiB available memory on the node where the printing process lives
------------------
     c_bands:  3 eigenvalues not converged
     ethr =  1.59E-06,  avg # of iterations = 20.0

     total cpu time spent up to now is        9.1 secs

     total energy              =    -723.90681474 Ry
     estimated scf accuracy    <       0.00084968 Ry

     total magnetization       =     2.00 Bohr mag/cell
     absolute magnetization    =     2.25 Bohr mag/cell

     iteration #  7     ecut=    50.00 Ry     beta= 0.70
     Davidson diagonalization with overlap

---- Real-time Memory Report at c_bands before calling an iterative solver
           165 MiB given to the printing process from OS
             0 MiB allocation reported by mallinfo(arena+hblkhd)
        173045 MiB available memory on the node where the printing process lives
------------------
     ethr =  3.35E-07,  avg # of iterations = 19.5

     total cpu time spent up to now is       11.4 secs

     total energy              =    -723.90703643 Ry
     estimated scf accuracy    <       0.00011874 Ry

     total magnetization       =     2.00 Bohr mag/cell
     absolute magnetization    =     2.27 Bohr mag/cell

     iteration #  8     ecut=    50.00 Ry     beta= 0.70
     Davidson diagonalization with overlap

---- Real-time Memory Report at c_bands before calling an iterative solver
           165 MiB given to the printing process from OS
             0 MiB allocation reported by mallinfo(arena+hblkhd)
        173040 MiB available memory on the node where the printing process lives
------------------
     c_bands:  2 eigenvalues not converged
     ethr =  4.67E-08,  avg # of iterations = 20.0

     total cpu time spent up to now is       12.1 secs

     total energy              =    -723.90707570 Ry
     estimated scf accuracy    <       0.00002838 Ry

     total magnetization       =     2.00 Bohr mag/cell
     absolute magnetization    =     2.28 Bohr mag/cell

     iteration #  9     ecut=    50.00 Ry     beta= 0.70
     Davidson diagonalization with overlap

---- Real-time Memory Report at c_bands before calling an iterative solver
           165 MiB given to the printing process from OS
             0 MiB allocation reported by mallinfo(arena+hblkhd)
        173043 MiB available memory on the node where the printing process lives
------------------
     c_bands:  3 eigenvalues not converged
     ethr =  1.12E-08,  avg # of iterations = 20.0

     total cpu time spent up to now is       12.9 secs

     total energy              =    -723.90708597 Ry
     estimated scf accuracy    <       0.00000765 Ry

     total magnetization       =     2.00 Bohr mag/cell
     absolute magnetization    =     2.29 Bohr mag/cell

     iteration # 10     ecut=    50.00 Ry     beta= 0.70
     Davidson diagonalization with overlap

---- Real-time Memory Report at c_bands before calling an iterative solver
           165 MiB given to the printing process from OS
             0 MiB allocation reported by mallinfo(arena+hblkhd)
        173033 MiB available memory on the node where the printing process lives
------------------
     c_bands:  3 eigenvalues not converged
     ethr =  3.01E-09,  avg # of iterations = 20.0

     total cpu time spent up to now is       13.4 secs

     total energy              =    -723.90708946 Ry
     estimated scf accuracy    <       0.00000086 Ry

     total magnetization       =     2.00 Bohr mag/cell
     absolute magnetization    =     2.30 Bohr mag/cell

     iteration # 11     ecut=    50.00 Ry     beta= 0.70
     Davidson diagonalization with overlap

---- Real-time Memory Report at c_bands before calling an iterative solver
           165 MiB given to the printing process from OS
             0 MiB allocation reported by mallinfo(arena+hblkhd)
        173045 MiB available memory on the node where the printing process lives
------------------
     c_bands:  1 eigenvalues not converged
     ethr =  3.40E-10,  avg # of iterations = 20.0

     total cpu time spent up to now is       14.6 secs

     total energy              =    -723.90709009 Ry
     estimated scf accuracy    <       0.00000024 Ry

     total magnetization       =     2.00 Bohr mag/cell
     absolute magnetization    =     2.30 Bohr mag/cell

     iteration # 12     ecut=    50.00 Ry     beta= 0.70
     Davidson diagonalization with overlap

---- Real-time Memory Report at c_bands before calling an iterative solver
           165 MiB given to the printing process from OS
             0 MiB allocation reported by mallinfo(arena+hblkhd)
        173044 MiB available memory on the node where the printing process lives
------------------
     ethr =  9.43E-11,  avg # of iterations = 18.0

     total cpu time spent up to now is       15.2 secs

     total energy              =    -723.90709021 Ry
     estimated scf accuracy    <       0.00000010 Ry

     total magnetization       =     2.00 Bohr mag/cell
     absolute magnetization    =     2.30 Bohr mag/cell

     iteration # 13     ecut=    50.00 Ry     beta= 0.70
     Davidson diagonalization with overlap

---- Real-time Memory Report at c_bands before calling an iterative solver
           165 MiB given to the printing process from OS
             0 MiB allocation reported by mallinfo(arena+hblkhd)
        173045 MiB available memory on the node where the printing process lives
------------------
     ethr =  3.80E-11,  avg # of iterations = 15.5

     total cpu time spent up to now is       15.7 secs

     total energy              =    -723.90709025 Ry
     estimated scf accuracy    <       0.00000003 Ry

     total magnetization       =     2.00 Bohr mag/cell
     absolute magnetization    =     2.30 Bohr mag/cell

     iteration # 14     ecut=    50.00 Ry     beta= 0.70
     Davidson diagonalization with overlap

---- Real-time Memory Report at c_bands before calling an iterative solver
           165 MiB given to the printing process from OS
             0 MiB allocation reported by mallinfo(arena+hblkhd)
        173048 MiB available memory on the node where the printing process lives
------------------
     ethr =  1.01E-11,  avg # of iterations = 20.0
 
     Magnetic moment per site  (integrated on atomic sphere of radius R)
     atom   1 (R=0.085)  charge=  2.9143  magn=  0.0042
     atom   2 (R=0.085)  charge=  1.8170  magn=  0.2450
     atom   3 (R=0.085)  charge=  1.7930  magn= -0.0087
     atom   4 (R=0.085)  charge=  1.8051  magn=  0.2456
     atom   5 (R=0.085)  charge=  1.7932  magn= -0.0087
     atom   6 (R=0.085)  charge=  1.8232  magn=  0.2449
     atom   7 (R=0.085)  charge=  1.7933  magn= -0.0087
     atom   8 (R=0.085)  charge=  1.7841  magn=  0.0091
     atom   9 (R=0.085)  charge=  1.7963  magn= -0.0019
     atom  10 (R=0.085)  charge=  1.7834  magn=  0.0060
     atom  11 (R=0.085)  charge=  1.7969  magn= -0.0042
     atom  12 (R=0.085)  charge=  1.7823  magn=  0.0061
     atom  13 (R=0.085)  charge=  1.8040  magn= -0.0039
     atom  14 (R=0.085)  charge=  1.7893  magn=  0.0085
     atom  15 (R=0.085)  charge=  1.7873  magn= -0.0020
     atom  16 (R=0.085)  charge=  1.7820  magn=  0.0089
     atom  17 (R=0.085)  charge=  1.7956  magn= -0.0018
     atom  18 (R=0.085)  charge=  1.7822  magn=  0.0057
     atom  19 (R=0.085)  charge=  1.7952  magn= -0.0035
     atom  20 (R=0.085)  charge=  1.7834  magn=  0.0083
     atom  21 (R=0.085)  charge=  1.7847  magn= -0.0020
     atom  22 (R=0.085)  charge=  1.7829  magn=  0.0057
     atom  23 (R=0.085)  charge=  1.7905  magn= -0.0037
     atom  24 (R=0.085)  charge=  1.7825  magn=  0.0182
     atom  25 (R=0.085)  charge=  1.8067  magn=  0.0094
     atom  26 (R=0.085)  charge=  1.7954  magn=  0.0032
     atom  27 (R=0.085)  charge=  1.7590  magn=  0.0001
     atom  28 (R=0.085)  charge=  1.7896  magn=  0.0221
     atom  29 (R=0.085)  charge=  1.7824  magn= -0.0014
     atom  30 (R=0.085)  charge=  1.7901  magn=  0.0212
     atom  31 (R=0.085)  charge=  1.7823  magn= -0.0013
     atom  32 (R=0.085)  charge=  1.7844  magn=  0.0090
     atom  33 (R=0.085)  charge=  1.7960  magn= -0.0019
     atom  34 (R=0.085)  charge=  1.7868  magn=  0.0085
     atom  35 (R=0.085)  charge=  1.7865  magn= -0.0020
     atom  36 (R=0.085)  charge=  1.7818  magn=  0.0059
     atom  37 (R=0.085)  charge=  1.8032  magn= -0.0036
     atom  38 (R=0.085)  charge=  1.7836  magn=  0.0058
     atom  39 (R=0.085)  charge=  1.7914  magn= -0.0041
     atom  40 (R=0.085)  charge=  1.7835  magn=  0.0181
     atom  41 (R=0.085)  charge=  1.8109  magn=  0.0094
     atom  42 (R=0.085)  charge=  1.7948  magn=  0.0218
     atom  43 (R=0.085)  charge=  1.7819  magn= -0.0013
     atom  44 (R=0.085)  charge=  1.7956  magn=  0.0032
     atom  45 (R=0.085)  charge=  1.7590  magn= -0.0000
     atom  46 (R=0.085)  charge=  1.7948  magn=  0.0215
     atom  47 (R=0.085)  charge=  1.7819  magn= -0.0013
     atom  48 (R=0.085)  charge=  1.7819  magn=  0.0184
     atom  49 (R=0.085)  charge=  1.8043  magn=  0.0094
     atom  50 (R=0.085)  charge=  1.7873  magn=  0.0212
     atom  51 (R=0.085)  charge=  1.7824  magn= -0.0013
     atom  52 (R=0.085)  charge=  1.7869  magn=  0.0218
     atom  53 (R=0.085)  charge=  1.7825  magn= -0.0013
     atom  54 (R=0.085)  charge=  1.7935  magn=  0.0032
     atom  55 (R=0.085)  charge=  1.7588  magn=  0.0001
     atom  56 (R=0.085)  charge=  1.7915  magn=  0.0009
     atom  57 (R=0.085)  charge=  1.7832  magn=  0.0010
     atom  58 (R=0.085)  charge=  1.7914  magn=  0.0018
     atom  59 (R=0.085)  charge=  1.7880  magn= -0.0009
     atom  60 (R=0.085)  charge=  1.7911  magn=  0.0017
     atom  61 (R=0.085)  charge=  1.7855  magn= -0.0009
     atom  62 (R=0.085)  charge=  1.7894  magn=  0.0019
     atom  63 (R=0.085)  charge=  1.7892  magn= -0.0009

     total cpu time spent up to now is       16.3 secs

     End of self-consistent calculation

 ------ SPIN UP ------------


          k = 0.0000 0.0000 0.0000 (  7386 PWs)   bands (ev):

    -8.5516  -6.9254  -6.2869  -6.2707  -6.1900  -6.1572  -5.8819  -4.9096
    -4.1439  -4.1285  -4.1235  -4.0943  -4.0280  -4.0190  -4.0128  -3.9257
    -3.8708  -3.8608  -3.3598  -2.9311  -2.6755  -2.6752  -2.1617  -0.3617
    -0.3539  -0.3267  -0.2812  -0.0763   0.1717   0.1912   0.2834   0.2923
     0.3671   0.6199   0.8354   0.8440   0.9535   0.9759   0.9864   1.0527
     1.0591   1.0628   1.2718   1.2964   3.0740   3.9071   3.9244   4.0688
     4.1901   4.2068   4.2216   4.2694   4.2805   4.2871   4.4237   4.4282
     4.4937   4.5013   4.5681   4.6574   4.6842   4.6881   4.6922   4.7868
     4.7970   4.9240   4.9698   4.9733   5.0472   5.2006   5.2094   5.2977
     5.3553   5.3720   5.3959   5.4041   5.4091   6.0398   6.0467   6.1018
     6.6631   6.6656   6.7243   6.9931   7.0038   7.0407   7.5313   8.3261
     8.3368   8.4129   8.4647   8.4921   8.6866   8.7095   8.7894   8.8311
     8.8446   8.8504   8.8939   8.8991   8.9006   9.2887   9.2912   9.3252
     9.6835   9.7029   9.9002   9.9088   9.9378   9.9555   9.9650   9.9796
     9.9862  10.0263  10.0449  10.0578  10.1250  10.1443  10.2688  10.3245
    10.3336  11.0528  12.2888  12.4185  12.4280  13.9569  14.6912  14.7983
    17.3337  17.3749  17.4169  17.5170  17.5767  17.5853  17.8523  17.9244
    17.9368  18.0382  18.0655  18.3689  18.9943  19.0013  19.0248  20.6848
    20.7974  20.8289  20.8854  20.9315  20.9477  21.0290  21.0327  21.0426

     occupation numbers 
     1.0000   1.0000   1.0000   1.0000   1.0000   1.0000   1.0000   1.0000
     1.0000   1.0000   1.0000   1.0000   1.0000   1.0000   1.0000   1.0000
     1.0000   1.0000   1.0000   1.0000   1.0000   1.0000   1.0000   1.0000
     1.0000   1.0000   1.0000   1.0000   1.0000   1.0000   1.0000   1.0000
     1.0000   1.0000   1.0000   1.0000   1.0000   1.0000   1.0000   1.0000
     1.0000   1.0000   1.0000   1.0000   1.0000   1.0000   1.0000   1.0000
     1.0000   1.0000   1.0000   1.0000   1.0000   1.0000   1.0000   1.0000
     1.0000   1.0000   1.0000   1.0000   1.0000   1.0000   1.0000   1.0000
     1.0000   1.0000   1.0000   1.0000   1.0000   1.0000   1.0000   1.0000
     1.0000   1.0000   1.0000   1.0000   1.0000   1.0000   1.0000   1.0000
     1.0000   1.0000   1.0000   1.0000   1.0000   1.0000   1.0000   1.0000
     1.0000   1.0000   1.0000   1.0000   1.0000   1.0000   1.0000   1.0000
     1.0000   1.0000   1.0000   1.0000   1.0000   1.0000   1.0000   1.0000
     1.0000   1.0000   1.0000   1.0000   1.0000   1.0000   1.0000   1.0000
     1.0000   1.0000   1.0000   1.0000   1.0000   1.0000   1.0000   1.0000
     1.0000   1.0000   1.0000   1.0000   1.0000   1.0000   1.0000   1.0000
     0.0000   0.0000   0.0000   0.0000   0.0000   0.0000   0.0000   0.0000
     0.0000   0.0000   0.0000   0.0000   0.0000   0.0000   0.0000   0.0000
     0.0000   0.0000   0.0000   0.0000   0.0000   0.0000   0.0000   0.0000

 ------ SPIN DOWN ----------


          k = 0.0000 0.0000 0.0000 (  7386 PWs)   bands (ev):

    -8.5262  -6.9109  -6.2647  -6.2475  -6.1451  -6.1148  -5.8447  -4.8928
    -4.1234  -4.1064  -4.0852  -4.0630  -3.9955  -3.9754  -3.9637  -3.9136
    -3.8355  -3.8208  -3.3176  -2.9125  -2.6229  -2.6214  -2.0165  -0.3442
    -0.3357  -0.3048  -0.2642  -0.0113   0.1905   0.2090   0.3205   0.3250
     0.3925   0.6549   0.8476   0.8557   0.9881   1.0047   1.0118   1.0704
     1.0765   1.0779   1.4371   1.4665   3.1878   3.9302   3.9465   4.0949
     4.2248   4.2499   4.2642   4.2838   4.3005   4.3123   4.4708   4.4735
     4.5163   4.5237   4.5915   4.6818   4.7009   4.7068   4.7134   4.8210
     4.8336   4.9369   5.0008   5.0052   5.1282   5.2346   5.2445   5.3215
     5.3690   5.3828   5.4167   5.4562   5.4712   6.1019   6.1060   6.1398
     6.6898   6.6928   6.7587   7.0766   7.0900   7.1007   7.7016   8.3630
     8.3764   8.4499   8.5011   8.5265   8.7207   8.7410   8.8251   8.8760
     8.8811   8.8874   8.9205   8.9299   8.9349   9.3253   9.3278   9.3522
     9.7113   9.7303   9.9279   9.9382   9.9506   9.9693   9.9788  10.0000
    10.0067  10.0614  10.0723  10.0825  10.1527  10.1698  10.3265  10.3787
    10.3884  11.4319  12.5612  12.5644  12.6024  14.4386  16.0169  16.1395
    17.3591  17.3922  17.4336  17.5441  17.6322  17.6419  17.8751  17.9440
    17.9549  18.0784  18.1058  18.4887  19.0446  19.0776  19.1121  20.7349
    20.8116  20.8431  20.9002  20.9498  20.9657  21.0451  21.0583  21.0607

     occupation numbers 
     1.0000   1.0000   1.0000   1.0000   1.0000   1.0000   1.0000   1.0000
     1.0000   1.0000   1.0000   1.0000   1.0000   1.0000   1.0000   1.0000
     1.0000   1.0000   1.0000   1.0000   1.0000   1.0000   1.0000   1.0000
     1.0000   1.0000   1.0000   1.0000   1.0000   1.0000   1.0000   1.0000
     1.0000   1.0000   1.0000   1.0000   1.0000   1.0000   1.0000   1.0000
     1.0000   1.0000   1.0000   1.0000   1.0000   1.0000   1.0000   1.0000
     1.0000   1.0000   1.0000   1.0000   1.0000   1.0000   1.0000   1.0000
     1.0000   1.0000   1.0000   1.0000   1.0000   1.0000   1.0000   1.0000
     1.0000   1.0000   1.0000   1.0000   1.0000   1.0000   1.0000   1.0000
     1.0000   1.0000   1.0000   1.0000   1.0000   1.0000   1.0000   1.0000
     1.0000   1.0000   1.0000   1.0000   1.0000   1.0000   1.0000   1.0000
     1.0000   1.0000   1.0000   1.0000   1.0000   1.0000   1.0000   1.0000
     1.0000   1.0000   1.0000   1.0000   1.0000   1.0000   1.0000   1.0000
     1.0000   1.0000   1.0000   1.0000   1.0000   1.0000   1.0000   1.0000
     1.0000   1.0000   1.0000   1.0000   1.0000   1.0000   1.0000   1.0000
     1.0000   1.0000   1.0000   1.0000   1.0000   1.0000   0.0000   0.0000
     0.0000   0.0000   0.0000   0.0000   0.0000   0.0000   0.0000   0.0000
     0.0000   0.0000   0.0000   0.0000   0.0000   0.0000   0.0000   0.0000
     0.0000   0.0000   0.0000   0.0000   0.0000   0.0000   0.0000   0.0000

     highest occupied, lowest unoccupied level (ev):    14.7983   16.0169

!    total energy              =    -723.90709027 Ry
     estimated scf accuracy    <          5.1E-09 Ry

     The total energy is the sum of the following terms:
     one-electron contribution =     232.27188646 Ry
     hartree contribution      =      70.34203586 Ry
     xc contribution           =    -226.77204998 Ry
     ewald contribution        =    -799.74896261 Ry

     total magnetization       =     2.00 Bohr mag/cell
     absolute magnetization    =     2.30 Bohr mag/cell

     convergence has been achieved in  14 iterations

     Forces acting on atoms (cartesian axes, Ry/au):

     atom    1 type  1   force =    -0.00279765   -0.00394897   -0.00271414
     atom    2 type  2   force =     0.03526110    0.01578607   -0.01253012
     atom    3 type  2   force =    -0.00923857    0.00863631    0.00621552
     atom    4 type  2   force =     0.00870933    0.02488613   -0.00273415
     atom    5 type  2   force =     0.00231090   -0.02120765    0.00164775
     atom    6 type  2   force =    -0.00836304    0.00828482    0.04334114
     atom    7 type  2   force =     0.01024107    0.01200884   -0.00211269
     atom    8 type  2   force =     0.00222958    0.00350177    0.01041358
     atom    9 type  2   force =    -0.00177026   -0.00440193   -0.00358393
     atom   10 type  2   force =     0.00086917    0.00127560    0.00735244
     atom   11 type  2   force =    -0.02867368    0.00590232   -0.00878288
     atom   12 type  2   force =    -0.00011819    0.00388426    0.00328877
     atom   13 type  2   force =    -0.00285139   -0.03992444   -0.00182080
     atom   14 type  2   force =     0.00352640    0.00221672   -0.00426298
     atom   15 type  2   force =    -0.00278642   -0.00133536   -0.00586186
     atom   16 type  2   force =     0.00007788   -0.00108744   -0.00096158
     atom   17 type  2   force =    -0.00140941    0.00639844    0.00015662
     atom   18 type  2   force =     0.00294142   -0.00026348    0.00093543
     atom   19 type  2   force =    -0.00976501   -0.00352290   -0.00467665
     atom   20 type  2   force =     0.00294464   -0.00433009    0.00351494
     atom   21 type  2   force =    -0.00112089   -0.00410999   -0.00210671
     atom   22 type  2   force =     0.00153351    0.00219796    0.00132196
     atom   23 type  2   force =    -0.00059207   -0.00714425   -0.00166417
     atom   24 type  2   force =     0.00963481    0.00537826    0.00419695
     atom   25 type  2   force =    -0.01267636   -0.01348956   -0.00462810
     atom   26 type  2   force =     0.01578911    0.00515203    0.00570132
     atom   27 type  2   force =    -0.02501927   -0.00890076   -0.00584135
     atom   28 type  2   force =     0.01042953    0.00077893    0.00601454
     atom   29 type  2   force =    -0.00012720   -0.00162975   -0.00127763
     atom   30 type  2   force =     0.00774623    0.00652446    0.00403385
     atom   31 type  2   force =     0.00105250   -0.00160040   -0.00349551
     atom   32 type  2   force =     0.00313414    0.00377264    0.00145802
     atom   33 type  2   force =     0.00056450   -0.00442093   -0.00021392
     atom   34 type  2   force =    -0.00469989    0.00167619    0.00356739
     atom   35 type  2   force =    -0.00500958   -0.00088263   -0.00330782
     atom   36 type  2   force =     0.00057685    0.00438665   -0.00016872
     atom   37 type  2   force =     0.00032336   -0.03323608   -0.00659803
     atom   38 type  2   force =     0.00709580    0.00180905   -0.00024904
     atom   39 type  2   force =    -0.01008451    0.00609576   -0.01373575
     atom   40 type  2   force =     0.00533307    0.01263687    0.00488617
     atom   41 type  2   force =    -0.00704227   -0.01580661   -0.00428327
     atom   42 type  2   force =    -0.00002885    0.01731688    0.00616385
     atom   43 type  2   force =    -0.00087807    0.00076659   -0.00102655
     atom   44 type  2   force =     0.00360804    0.01804697    0.00704608
     atom   45 type  2   force =    -0.00772339   -0.02585386   -0.00603527
     atom   46 type  2   force =     0.00647877    0.01612626    0.00104450
     atom   47 type  2   force =    -0.00121441    0.00127681   -0.00183448
     atom   48 type  2   force =     0.00484402    0.00555486    0.00775748
     atom   49 type  2   force =    -0.00799363   -0.01412490   -0.01020103
     atom   50 type  2   force =     0.00433517    0.00655798    0.00349277
     atom   51 type  2   force =    -0.00331654   -0.00146631    0.00085578
     atom   52 type  2   force =     0.00636080    0.00218642    0.00498411
     atom   53 type  2   force =    -0.00131907   -0.00237954    0.00018605
     atom   54 type  2   force =     0.00264940    0.00547222    0.01393859
     atom   55 type  2   force =    -0.00715013   -0.00852446   -0.02489132
     atom   56 type  2   force =     0.00468955    0.00453688    0.00485016
     atom   57 type  2   force =    -0.00208713   -0.00102511   -0.00287043
     atom   58 type  2   force =     0.00152721    0.00404820    0.00322719
     atom   59 type  2   force =    -0.00185107   -0.00233874   -0.00317409
     atom   60 type  2   force =     0.00261602    0.00202090    0.00223582
     atom   61 type  2   force =    -0.00303875   -0.00244014   -0.00326808
     atom   62 type  2   force =     0.00490362    0.00533741    0.00510453
     atom   63 type  2   force =    -0.00359081   -0.00304219   -0.01802026
     The non-local contrib.  to forces
     atom    1 type  1   force =    -0.76094677   -0.76454209   -0.75925327
     atom    2 type  2   force =    -0.16470029    0.22015522    0.17819165
     atom    3 type  2   force =     0.05668411    0.08120884    0.07250942
     atom    4 type  2   force =     0.21468417   -0.18837613    0.19787739
     atom    5 type  2   force =     0.07303968    0.04248023    0.07016279
     atom    6 type  2   force =     0.17951761    0.20434345   -0.14647293
     atom    7 type  2   force =     0.07735223    0.08315766    0.06428649
     atom    8 type  2   force =    -0.00497503   -0.00517572    0.06047833
     atom    9 type  2   force =    -0.00453296   -0.00672493    0.01359222
     atom   10 type  2   force =    -0.04457604   -0.01401279   -0.01150522
     atom   11 type  2   force =    -0.10387879    0.06770884   -0.08320540
     atom   12 type  2   force =    -0.01725682   -0.04121050   -0.01447318
     atom   13 type  2   force =     0.05217821   -0.11642233   -0.07340106
     atom   14 type  2   force =     0.00313196    0.00099691    0.04533038
     atom   15 type  2   force =     0.01009179    0.00905339   -0.00334641
     atom   16 type  2   force =    -0.01241705    0.04849452   -0.01304828
     atom   17 type  2   force =    -0.00457560    0.02726472   -0.00336316
     atom   18 type  2   force =    -0.04094326   -0.02211174   -0.01592233
     atom   19 type  2   force =    -0.08163499   -0.07909469    0.05589173
     atom   20 type  2   force =     0.00449029    0.04483722    0.00506780
     atom   21 type  2   force =     0.01068640   -0.00312401    0.01115927
     atom   22 type  2   force =    -0.01424856   -0.02025294   -0.04237729
     atom   23 type  2   force =     0.06344918   -0.08454852   -0.07240077
     atom   24 type  2   force =    -0.06448660    0.03331945    0.03428380
     atom   25 type  2   force =    -0.02550907    0.00127466    0.01426859
     atom   26 type  2   force =    -0.04107207   -0.02152718   -0.01980129
     atom   27 type  2   force =    -0.14663134    0.12517758    0.12410906
     atom   28 type  2   force =     0.07960367    0.02394114   -0.01288312
     atom   29 type  2   force =     0.00059420    0.01834556    0.00490492
     atom   30 type  2   force =     0.07656351   -0.01337870    0.02907165
     atom   31 type  2   force =     0.00327775    0.00325898    0.01660316
     atom   32 type  2   force =     0.05260938   -0.00659502   -0.00705528
     atom   33 type  2   force =     0.01815356   -0.00726556   -0.00386915
     atom   34 type  2   force =     0.04476583    0.00111392    0.00380721
     atom   35 type  2   force =    -0.00346239    0.00880786    0.01033910
     atom   36 type  2   force =    -0.01843221   -0.04027508   -0.01807798
     atom   37 type  2   force =    -0.07180277   -0.10913159    0.04844782
     atom   38 type  2   force =    -0.01364486   -0.01318783   -0.04507513
     atom   39 type  2   force =    -0.08678861    0.07137539   -0.08721031
     atom   40 type  2   force =     0.03511661   -0.05832758    0.03563901
     atom   41 type  2   force =     0.00998602   -0.02733312    0.01452037
     atom   42 type  2   force =     0.02140176    0.08839490   -0.01000564
     atom   43 type  2   force =     0.01708857    0.00017637    0.00383276
     atom   44 type  2   force =    -0.02347526   -0.03621828   -0.01968449
     atom   45 type  2   force =     0.12490469   -0.14716720    0.12494209
     atom   46 type  2   force =    -0.01005341    0.08699158    0.02330048
     atom   47 type  2   force =     0.00328505    0.00118562    0.01617432
     atom   48 type  2   force =     0.03355148    0.03308466   -0.06835562
     atom   49 type  2   force =     0.00850422    0.00000536   -0.02301578
     atom   50 type  2   force =     0.02998396   -0.01451624    0.07158753
     atom   51 type  2   force =     0.01752419    0.00367586    0.00398189
     atom   52 type  2   force =    -0.01410496    0.02682664    0.07324170
     atom   53 type  2   force =     0.00478944    0.01839043    0.00229015
     atom   54 type  2   force =    -0.02255460   -0.02053504   -0.04404623
     atom   55 type  2   force =     0.12333265    0.12445987   -0.14664716
     atom   56 type  2   force =     0.02234939    0.02359086    0.02182419
     atom   57 type  2   force =     0.00410186    0.00390174    0.00575827
     atom   58 type  2   force =     0.01605149   -0.00625000   -0.00985855
     atom   59 type  2   force =     0.00736393   -0.01428339   -0.01478472
     atom   60 type  2   force =    -0.01014067    0.01817740   -0.01133240
     atom   61 type  2   force =    -0.01491844    0.00821229   -0.01474930
     atom   62 type  2   force =    -0.00766652   -0.00523573    0.01883803
     atom   63 type  2   force =    -0.01573515   -0.01511566   -0.01260301
     The ionic contribution  to forces
     atom    1 type  1   force =     2.98693962    2.95744818    3.00826909
     atom    2 type  2   force =     2.41183015   -2.06089632   -2.21329779
     atom    3 type  2   force =     0.48006960   -0.73016247   -0.85232226
     atom    4 type  2   force =    -2.09130135    2.33304721   -2.15542550
     atom    5 type  2   force =    -0.77874974    0.40034410   -0.82606181
     atom    6 type  2   force =    -2.18625129   -2.09786563    2.46095793
     atom    7 type  2   force =    -0.82406148   -0.74904436    0.53816200
     atom    8 type  2   force =     0.23155783    0.18960292   -0.72581236
     atom    9 type  2   force =     0.06593565    0.02648815   -0.22956819
     atom   10 type  2   force =     0.18098702    0.07355743    0.56347970
     atom   11 type  2   force =    -0.52729018   -0.62726394    0.80339452
     atom   12 type  2   force =     0.03095488    0.16150527    0.54843616
     atom   13 type  2   force =    -0.66308691   -0.56567741    0.76135629
     atom   14 type  2   force =    -0.19478510   -0.18060615   -0.71593037
     atom   15 type  2   force =    -0.16883872   -0.13063129   -0.06937140
     atom   16 type  2   force =     0.20063172   -0.77605672    0.22756613
     atom   17 type  2   force =     0.07131346   -0.15608851    0.09675333
     atom   18 type  2   force =     0.22060374    0.47144878    0.00987696
     atom   19 type  2   force =    -0.36999799    0.74824049   -0.70255152
     atom   20 type  2   force =    -0.18128540   -0.73004494   -0.18928067
     atom   21 type  2   force =    -0.17448258   -0.05721398   -0.20009864
     atom   22 type  2   force =     0.02881011    0.47783129    0.23945171
     atom   23 type  2   force =    -0.68852369    0.77828727   -0.32938215
     atom   24 type  2   force =     0.10507753   -0.13406608   -0.17283317
     atom   25 type  2   force =    -0.02569310   -0.07934415   -0.07575862
     atom   26 type  2   force =     0.15558855   -0.11957178   -0.04830253
     atom   27 type  2   force =     1.14895521    0.24385734    0.25474249
     atom   28 type  2   force =    -0.08144257   -0.13644329    0.11176840
     atom   29 type  2   force =    -0.15448847    0.03055666    0.25709374
     atom   30 type  2   force =    -0.02226807    0.13915147   -0.23697375
     atom   31 type  2   force =    -0.15306098    0.17288308   -0.01111275
     atom   32 type  2   force =    -0.74472297    0.19574646    0.26436922
     atom   33 type  2   force =    -0.20210893    0.02970415    0.09436124
     atom   34 type  2   force =    -0.71738792   -0.17650166   -0.19823866
     atom   35 type  2   force =    -0.06284737   -0.13391359   -0.19781090
     atom   36 type  2   force =     0.51746627    0.17258129    0.01064557
     atom   37 type  2   force =     0.73640879   -0.50822451   -0.68807675
     atom   38 type  2   force =     0.53869647    0.07236365    0.21111283
     atom   39 type  2   force =     0.80814294   -0.63784808   -0.42894305
     atom   40 type  2   force =    -0.19426398    0.06128209   -0.21200191
     atom   41 type  2   force =    -0.07053310   -0.08775759   -0.07384743
     atom   42 type  2   force =    -0.13170734    0.02743201    0.08799963
     atom   43 type  2   force =     0.03222237   -0.11408321    0.25413956
     atom   44 type  2   force =    -0.09759346    0.14817449   -0.05354175
     atom   45 type  2   force =     0.24393100    1.16761567    0.25268490
     atom   46 type  2   force =     0.10088786    0.04814972   -0.17212457
     atom   47 type  2   force =     0.22346154   -0.11436298    0.01376880
     atom   48 type  2   force =    -0.13219016   -0.11119955    0.13879553
     atom   49 type  2   force =    -0.07477779   -0.08145072    0.01029689
     atom   50 type  2   force =    -0.23543678    0.15351226   -0.08071885
     atom   51 type  2   force =    -0.00154624    0.17439019   -0.17600122
     atom   52 type  2   force =     0.13953977   -0.17590021   -0.11941586
     atom   53 type  2   force =     0.22806370    0.02175975   -0.17766010
     atom   54 type  2   force =    -0.06564599   -0.09314442    0.14650487
     atom   55 type  2   force =     0.24488723    0.24275067    1.14092114
     atom   56 type  2   force =    -0.09053432   -0.02958359   -0.12576515
     atom   57 type  2   force =    -0.02255934   -0.03454189   -0.02477407
     atom   58 type  2   force =    -0.07914878    0.04710490    0.03798422
     atom   59 type  2   force =    -0.29295898    0.07695348    0.15820513
     atom   60 type  2   force =     0.05915645   -0.03828072    0.05679826
     atom   61 type  2   force =     0.13143712   -0.31093892    0.16306953
     atom   62 type  2   force =     0.05561549    0.06230746   -0.09812490
     atom   63 type  2   force =     0.12239900    0.07263073   -0.34183712
     The local contribution  to forces
     atom    1 type  1   force =    -2.22885258   -2.19686237   -2.25176908
     atom    2 type  2   force =    -2.21193916    1.85651383    2.02253500
     atom    3 type  2   force =    -0.54609100    0.65754695    0.78597691
     atom    4 type  2   force =     1.88523640   -2.11980361    1.95477593
     atom    5 type  2   force =     0.70791760   -0.46404685    0.75751602
     atom    6 type  2   force =     1.99827838    1.90179620   -2.27118934
     atom    7 type  2   force =     0.75684293    0.67786981   -0.60461808
     atom    8 type  2   force =    -0.22441497   -0.18092651    0.67570873
     atom    9 type  2   force =    -0.06324099   -0.02417420    0.21234909
     atom   10 type  2   force =    -0.13559826   -0.05829109   -0.54466101
     atom   11 type  2   force =     0.60243148    0.56542772   -0.72900292
     atom   12 type  2   force =    -0.01389753   -0.11642978   -0.53071266
     atom   13 type  2   force =     0.60795943    0.64216170   -0.68982047
     atom   14 type  2   force =     0.19507789    0.18180538    0.66630350
     atom   15 type  2   force =     0.15585047    0.12020693    0.06683439
     atom   16 type  2   force =    -0.18819866    0.72642334   -0.21550912
     atom   17 type  2   force =    -0.06821765    0.13516098   -0.09327854
     atom   18 type  2   force =    -0.17677825   -0.44965101    0.00693092
     atom   19 type  2   force =     0.44179937   -0.67269698    0.64194724
     atom   20 type  2   force =     0.17963780    0.68083300    0.18767963
     atom   21 type  2   force =     0.16256459    0.05618803    0.18678989
     atom   22 type  2   force =    -0.01310678   -0.45542867   -0.19580090
     atom   23 type  2   force =     0.62439091   -0.70092237    0.40006315
     atom   24 type  2   force =    -0.03101514    0.10606528    0.14269523
     atom   25 type  2   force =     0.03846041    0.06452815    0.05682635
     atom   26 type  2   force =    -0.09879165    0.14621019    0.07377364
     atom   27 type  2   force =    -1.02741488   -0.37796401   -0.38473132
     atom   28 type  2   force =     0.01218725    0.11323597   -0.09290263
     atom   29 type  2   force =     0.15367117   -0.05058208   -0.26331179
     atom   30 type  2   force =    -0.04663068   -0.11929358    0.21190294
     atom   31 type  2   force =     0.15073675   -0.17777048   -0.00901791
     atom   32 type  2   force =     0.69514948   -0.18540553   -0.25590749
     atom   33 type  2   force =     0.18443179   -0.02687250   -0.09075272
     atom   34 type  2   force =     0.66782899    0.17704382    0.19795127
     atom   35 type  2   force =     0.06122338    0.12418100    0.18411390
     atom   36 type  2   force =    -0.49853420   -0.12791939    0.00721213
     atom   37 type  2   force =    -0.66433873    0.58413500    0.63297533
     atom   38 type  2   force =    -0.51803184   -0.05738776   -0.16631385
     atom   39 type  2   force =    -0.73149393    0.57252353    0.50239538
     atom   40 type  2   force =     0.16437266    0.00966256    0.18122188
     atom   41 type  2   force =     0.05340162    0.09926302    0.05500910
     atom   42 type  2   force =     0.11016175   -0.09853138   -0.07186283
     atom   43 type  2   force =    -0.05029786    0.11464706   -0.25902962
     atom   44 type  2   force =     0.12458681   -0.09393670    0.08024193
     atom   45 type  2   force =    -0.37662562   -1.04632365   -0.38368851
     atom   46 type  2   force =    -0.08442578   -0.11903543    0.14981252
     atom   47 type  2   force =    -0.22802032    0.11441784   -0.03183209
     atom   48 type  2   force =     0.10337547    0.08363343   -0.06273311
     atom   49 type  2   force =     0.05817847    0.06727095    0.00245670
     atom   50 type  2   force =     0.20967514   -0.13248108    0.01257151
     atom   51 type  2   force =    -0.01940301   -0.17955334    0.17283509
     atom   52 type  2   force =    -0.11914296    0.15119497    0.05110907
     atom   53 type  2   force =    -0.23422942   -0.04260156    0.17550929
     atom   54 type  2   force =     0.09075705    0.11910997   -0.08857395
     atom   55 type  2   force =    -0.37543884   -0.37575388   -1.01922230
     atom   56 type  2   force =     0.07276535    0.01048880    0.10876085
     atom   57 type  2   force =     0.01626761    0.02957405    0.01612618
     atom   58 type  2   force =     0.06452207   -0.03684701   -0.02492473
     atom   59 type  2   force =     0.28364329   -0.06504353   -0.14663164
     atom   60 type  2   force =    -0.04648952    0.02209234   -0.04325851
     atom   61 type  2   force =    -0.11963195    0.30024421   -0.15162175
     atom   62 type  2   force =    -0.04313218   -0.05177551    0.08436875
     atom   63 type  2   force =    -0.11032609   -0.06058387    0.33639691
     The core correction contribution to forces
     atom    1 type  1   force =     0.00000000    0.00000000    0.00000000
     atom    2 type  2   force =     0.00000000    0.00000000    0.00000000
     atom    3 type  2   force =     0.00000000    0.00000000    0.00000000
     atom    4 type  2   force =     0.00000000    0.00000000    0.00000000
     atom    5 type  2   force =     0.00000000    0.00000000    0.00000000
     atom    6 type  2   force =     0.00000000    0.00000000    0.00000000
     atom    7 type  2   force =     0.00000000    0.00000000    0.00000000
     atom    8 type  2   force =     0.00000000    0.00000000    0.00000000
     atom    9 type  2   force =     0.00000000    0.00000000    0.00000000
     atom   10 type  2   force =     0.00000000    0.00000000    0.00000000
     atom   11 type  2   force =     0.00000000    0.00000000    0.00000000
     atom   12 type  2   force =     0.00000000    0.00000000    0.00000000
     atom   13 type  2   force =     0.00000000    0.00000000    0.00000000
     atom   14 type  2   force =     0.00000000    0.00000000    0.00000000
     atom   15 type  2   force =     0.00000000    0.00000000    0.00000000
     atom   16 type  2   force =     0.00000000    0.00000000    0.00000000
     atom   17 type  2   force =     0.00000000    0.00000000    0.00000000
     atom   18 type  2   force =     0.00000000    0.00000000    0.00000000
     atom   19 type  2   force =     0.00000000    0.00000000    0.00000000
     atom   20 type  2   force =     0.00000000    0.00000000    0.00000000
     atom   21 type  2   force =     0.00000000    0.00000000    0.00000000
     atom   22 type  2   force =     0.00000000    0.00000000    0.00000000
     atom   23 type  2   force =     0.00000000    0.00000000    0.00000000
     atom   24 type  2   force =     0.00000000    0.00000000    0.00000000
     atom   25 type  2   force =     0.00000000    0.00000000    0.00000000
     atom   26 type  2   force =     0.00000000    0.00000000    0.00000000
     atom   27 type  2   force =     0.00000000    0.00000000    0.00000000
     atom   28 type  2   force =     0.00000000    0.00000000    0.00000000
     atom   29 type  2   force =     0.00000000    0.00000000    0.00000000
     atom   30 type  2   force =     0.00000000    0.00000000    0.00000000
     atom   31 type  2   force =     0.00000000    0.00000000    0.00000000
     atom   32 type  2   force =     0.00000000    0.00000000    0.00000000
     atom   33 type  2   force =     0.00000000    0.00000000    0.00000000
     atom   34 type  2   force =     0.00000000    0.00000000    0.00000000
     atom   35 type  2   force =     0.00000000    0.00000000    0.00000000
     atom   36 type  2   force =     0.00000000    0.00000000    0.00000000
     atom   37 type  2   force =     0.00000000    0.00000000    0.00000000
     atom   38 type  2   force =     0.00000000    0.00000000    0.00000000
     atom   39 type  2   force =     0.00000000    0.00000000    0.00000000
     atom   40 type  2   force =     0.00000000    0.00000000    0.00000000
     atom   41 type  2   force =     0.00000000    0.00000000    0.00000000
     atom   42 type  2   force =     0.00000000    0.00000000    0.00000000
     atom   43 type  2   force =     0.00000000    0.00000000    0.00000000
     atom   44 type  2   force =     0.00000000    0.00000000    0.00000000
     atom   45 type  2   force =     0.00000000    0.00000000    0.00000000
     atom   46 type  2   force =     0.00000000    0.00000000    0.00000000
     atom   47 type  2   force =     0.00000000    0.00000000    0.00000000
     atom   48 type  2   force =     0.00000000    0.00000000    0.00000000
     atom   49 type  2   force =     0.00000000    0.00000000    0.00000000
     atom   50 type  2   force =     0.00000000    0.00000000    0.00000000
     atom   51 type  2   force =     0.00000000    0.00000000    0.00000000
     atom   52 type  2   force =     0.00000000    0.00000000    0.00000000
     atom   53 type  2   force =     0.00000000    0.00000000    0.00000000
     atom   54 type  2   force =     0.00000000    0.00000000    0.00000000
     atom   55 type  2   force =     0.00000000    0.00000000    0.00000000
     atom   56 type  2   force =     0.00000000    0.00000000    0.00000000
     atom   57 type  2   force =     0.00000000    0.00000000    0.00000000
     atom   58 type  2   force =     0.00000000    0.00000000    0.00000000
     atom   59 type  2   force =     0.00000000    0.00000000    0.00000000
     atom   60 type  2   force =     0.00000000    0.00000000    0.00000000
     atom   61 type  2   force =     0.00000000    0.00000000    0.00000000
     atom   62 type  2   force =     0.00000000    0.00000000    0.00000000
     atom   63 type  2   force =     0.00000000    0.00000000    0.00000000
     The Hubbard contrib.    to forces
     atom    1 type  1   force =     0.00000000    0.00000000    0.00000000
     atom    2 type  2   force =     0.00000000    0.00000000    0.00000000
     atom    3 type  2   force =     0.00000000    0.00000000    0.00000000
     atom    4 type  2   force =     0.00000000    0.00000000    0.00000000
     atom    5 type  2   force =     0.00000000    0.00000000    0.00000000
     atom    6 type  2   force =     0.00000000    0.00000000    0.00000000
     atom    7 type  2   force =     0.00000000    0.00000000    0.00000000
     atom    8 type  2   force =     0.00000000    0.00000000    0.00000000
     atom    9 type  2   force =     0.00000000    0.00000000    0.00000000
     atom   10 type  2   force =     0.00000000    0.00000000    0.00000000
     atom   11 type  2   force =     0.00000000    0.00000000    0.00000000
     atom   12 type  2   force =     0.00000000    0.00000000    0.00000000
     atom   13 type  2   force =     0.00000000    0.00000000    0.00000000
     atom   14 type  2   force =     0.00000000    0.00000000    0.00000000
     atom   15 type  2   force =     0.00000000    0.00000000    0.00000000
     atom   16 type  2   force =     0.00000000    0.00000000    0.00000000
     atom   17 type  2   force =     0.00000000    0.00000000    0.00000000
     atom   18 type  2   force =     0.00000000    0.00000000    0.00000000
     atom   19 type  2   force =     0.00000000    0.00000000    0.00000000
     atom   20 type  2   force =     0.00000000    0.00000000    0.00000000
     atom   21 type  2   force =     0.00000000    0.00000000    0.00000000
     atom   22 type  2   force =     0.00000000    0.00000000    0.00000000
     atom   23 type  2   force =     0.00000000    0.00000000    0.00000000
     atom   24 type  2   force =     0.00000000    0.00000000    0.00000000
     atom   25 type  2   force =     0.00000000    0.00000000    0.00000000
     atom   26 type  2   force =     0.00000000    0.00000000    0.00000000
     atom   27 type  2   force =     0.00000000    0.00000000    0.00000000
     atom   28 type  2   force =     0.00000000    0.00000000    0.00000000
     atom   29 type  2   force =     0.00000000    0.00000000    0.00000000
     atom   30 type  2   force =     0.00000000    0.00000000    0.00000000
     atom   31 type  2   force =     0.00000000    0.00000000    0.00000000
     atom   32 type  2   force =     0.00000000    0.00000000    0.00000000
     atom   33 type  2   force =     0.00000000    0.00000000    0.00000000
     atom   34 type  2   force =     0.00000000    0.00000000    0.00000000
     atom   35 type  2   force =     0.00000000    0.00000000    0.00000000
     atom   36 type  2   force =     0.00000000    0.00000000    0.00000000
     atom   37 type  2   force =     0.00000000    0.00000000    0.00000000
     atom   38 type  2   force =     0.00000000    0.00000000    0.00000000
     atom   39 type  2   force =     0.00000000    0.00000000    0.00000000
     atom   40 type  2   force =     0.00000000    0.00000000    0.00000000
     atom   41 type  2   force =     0.00000000    0.00000000    0.00000000
     atom   42 type  2   force =     0.00000000    0.00000000    0.00000000
     atom   43 type  2   force =     0.00000000    0.00000000    0.00000000
     atom   44 type  2   force =     0.00000000    0.00000000    0.00000000
     atom   45 type  2   force =     0.00000000    0.00000000    0.00000000
     atom   46 type  2   force =     0.00000000    0.00000000    0.00000000
     atom   47 type  2   force =     0.00000000    0.00000000    0.00000000
     atom   48 type  2   force =     0.00000000    0.00000000    0.00000000
     atom   49 type  2   force =     0.00000000    0.00000000    0.00000000
     atom   50 type  2   force =     0.00000000    0.00000000    0.00000000
     atom   51 type  2   force =     0.00000000    0.00000000    0.00000000
     atom   52 type  2   force =     0.00000000    0.00000000    0.00000000
     atom   53 type  2   force =     0.00000000    0.00000000    0.00000000
     atom   54 type  2   force =     0.00000000    0.00000000    0.00000000
     atom   55 type  2   force =     0.00000000    0.00000000    0.00000000
     atom   56 type  2   force =     0.00000000    0.00000000    0.00000000
     atom   57 type  2   force =     0.00000000    0.00000000    0.00000000
     atom   58 type  2   force =     0.00000000    0.00000000    0.00000000
     atom   59 type  2   force =     0.00000000    0.00000000    0.00000000
     atom   60 type  2   force =     0.00000000    0.00000000    0.00000000
     atom   61 type  2   force =     0.00000000    0.00000000    0.00000000
     atom   62 type  2   force =     0.00000000    0.00000000    0.00000000
     atom   63 type  2   force =     0.00000000    0.00000000    0.00000000
     The SCF correction term to forces
     atom    1 type  1   force =    -0.00002282   -0.00002373   -0.00000078
     atom    2 type  2   force =    -0.00001450   -0.00001769    0.00000113
     atom    3 type  2   force =     0.00001383    0.00001195    0.00001155
     atom    4 type  2   force =     0.00000522   -0.00001236   -0.00000188
     atom    5 type  2   force =     0.00001846   -0.00001616   -0.00000914
     atom    6 type  2   force =     0.00000737   -0.00002024    0.00000558
     atom    7 type  2   force =     0.00002249   -0.00000531    0.00001700
     atom    8 type  2   force =    -0.00002314   -0.00002995   -0.00000103
     atom    9 type  2   force =    -0.00001686   -0.00002199    0.00000305
     atom   10 type  2   force =    -0.00002844   -0.00000898   -0.00000093
     atom   11 type  2   force =    -0.00002108   -0.00000134   -0.00000898
     atom   12 type  2   force =    -0.00000362   -0.00001177   -0.00000145
     atom   13 type  2   force =     0.00001298   -0.00001743    0.00000454
     atom   14 type  2   force =     0.00001676   -0.00001045   -0.00000639
     atom   15 type  2   force =     0.00002515    0.00000457   -0.00001834
     atom   16 type  2   force =    -0.00002303    0.00002037   -0.00001021
     atom   17 type  2   force =    -0.00001451    0.00003021    0.00000510
     atom   18 type  2   force =    -0.00002571    0.00001946    0.00000998
     atom   19 type  2   force =    -0.00001629   -0.00000276   -0.00000400
     atom   20 type  2   force =     0.00001705    0.00001360    0.00000829
     atom   21 type  2   force =     0.00002581    0.00000894    0.00000286
     atom   22 type  2   force =    -0.00000616    0.00001725    0.00000853
     atom   23 type  2   force =     0.00000663    0.00000833    0.00001569
     atom   24 type  2   force =    -0.00002588    0.00002859    0.00001119
     atom   25 type  2   force =    -0.00001949    0.00002074   -0.00000431
     atom   26 type  2   force =    -0.00002062    0.00000976   -0.00000840
     atom   27 type  2   force =    -0.00001315   -0.00000271   -0.00000148
     atom   28 type  2   force =    -0.00000371    0.00001407   -0.00000801
     atom   29 type  2   force =     0.00001100    0.00001908   -0.00000440
     atom   30 type  2   force =    -0.00000342    0.00001423   -0.00000689
     atom   31 type  2   force =     0.00001408   -0.00000302   -0.00000791
     atom   32 type  2   force =     0.00001335   -0.00000430    0.00001167
     atom   33 type  2   force =     0.00000319   -0.00001806    0.00000681
     atom   34 type  2   force =     0.00000831   -0.00001092    0.00000766
     atom   35 type  2   force =    -0.00000809    0.00001107    0.00001018
     atom   36 type  2   force =    -0.00000791   -0.00003120    0.00001166
     atom   37 type  2   force =    -0.00002883   -0.00004603    0.00001566
     atom   38 type  2   force =    -0.00000887   -0.00001004   -0.00001279
     atom   39 type  2   force =    -0.00002981    0.00001389   -0.00001768
     atom   40 type  2   force =     0.00002289   -0.00001123   -0.00001271
     atom   41 type  2   force =     0.00001830   -0.00000995   -0.00000521
     atom   42 type  2   force =     0.00003008   -0.00000969   -0.00000721
     atom   43 type  2   force =     0.00002396   -0.00000466   -0.00000915
     atom   44 type  2   force =     0.00000505   -0.00000359   -0.00000951
     atom   45 type  2   force =    -0.00001836   -0.00000971   -0.00001364
     atom   46 type  2   force =    -0.00001480   -0.00001063    0.00001617
     atom   47 type  2   force =    -0.00002558    0.00000529    0.00001459
     atom   48 type  2   force =     0.00002233    0.00000529    0.00001078
     atom   49 type  2   force =     0.00001658    0.00001848    0.00002125
     atom   50 type  2   force =     0.00002796    0.00001200    0.00001268
     atom   51 type  2   force =     0.00002363   -0.00001005    0.00000011
     atom   52 type  2   force =    -0.00001594    0.00003399    0.00000930
     atom   53 type  2   force =    -0.00002769    0.00004082    0.00000680
     atom   54 type  2   force =     0.00000804    0.00001069    0.00001400
     atom   55 type  2   force =    -0.00001607   -0.00001215    0.00001710
     atom   56 type  2   force =     0.00002423    0.00000978   -0.00000963
     atom   57 type  2   force =     0.00001784    0.00000995   -0.00002071
     atom   58 type  2   force =     0.00001754    0.00000928   -0.00001365
     atom   59 type  2   force =     0.00001580    0.00000366   -0.00000276
     atom   60 type  2   force =     0.00000485    0.00000085   -0.00001142
     atom   61 type  2   force =    -0.00001037    0.00001124   -0.00000647
     atom   62 type  2   force =     0.00000194    0.00001017   -0.00001725
     atom   63 type  2   force =    -0.00001347   -0.00000442   -0.00001693

     Total force =     0.128596     Total SCF correction =     0.000212

     Writing all to output data dir ./pwscf.save/ :
     XML data file, charge density, pseudopotentials, collected wavefunctions
 
     init_run     :      0.35s CPU      0.50s WALL (       1 calls)
     electrons    :     15.32s CPU     15.68s WALL (       1 calls)
     forces       :      3.96s CPU      3.97s WALL (       1 calls)

     Called by init_run:
     wfcinit      :      0.05s CPU      0.08s WALL (       1 calls)
     wfcinit:wfcr :      0.05s CPU      0.05s WALL (       1 calls)
     potinit      :      0.20s CPU      0.20s WALL (       1 calls)
     hinit0       :      0.05s CPU      0.15s WALL (       1 calls)

     Called by electrons:
     c_bands      :     11.54s CPU     11.84s WALL (      14 calls)
     sum_band     :      2.14s CPU      2.15s WALL (      14 calls)
     v_of_rho     :      0.70s CPU      0.70s WALL (      15 calls)
     v_h          :      0.00s CPU      0.00s WALL (      15 calls)
     v_xc         :      0.69s CPU      0.70s WALL (      15 calls)
     mix_rho      :      0.07s CPU      0.07s WALL (      14 calls)

     Called by c_bands:
     init_us_2    :      0.02s CPU      0.02s WALL (      30 calls)
     regterg      :      6.89s CPU      7.18s WALL (      14 calls)

     Called by sum_band:
     sum_band:wei :      0.07s CPU      0.07s WALL (      14 calls)
     sum_band:loo :      1.51s CPU      1.52s WALL (      14 calls)
     sum_band:buf :      0.00s CPU      0.00s WALL (      14 calls)
     sum_band:ini :      0.01s CPU      0.01s WALL (      14 calls)

     Called by *egterg:
     rdiaghg      :      4.10s CPU      4.21s WALL (     271 calls)
     regterg:over :      0.26s CPU      0.27s WALL (     257 calls)
     regterg:upda :      0.27s CPU      0.35s WALL (     257 calls)
     regterg:last :      0.13s CPU      0.13s WALL (      52 calls)
     rdiaghg:chol :      0.14s CPU      0.14s WALL (     271 calls)
     rdiaghg:inve :      0.03s CPU      0.03s WALL (     271 calls)
     rdiaghg:para :      0.37s CPU      0.40s WALL (     542 calls)
     h_psi        :      2.02s CPU      2.08s WALL (     272 calls)
     g_psi        :      0.00s CPU      0.00s WALL (     257 calls)

     Called by h_psi:
     h_psi:calbec :      0.28s CPU      0.28s WALL (     272 calls)
     vloc_psi     :      1.63s CPU      1.69s WALL (     272 calls)
                                        0.00s GPU  (     272 calls)
     add_vuspsi   :      0.11s CPU      0.11s WALL (     272 calls)

     General routines
     calbec       :      4.17s CPU      4.19s WALL (     276 calls)
     fft          :      0.49s CPU      0.60s WALL (     196 calls)
     ffts         :      0.03s CPU      0.03s WALL (      14 calls)
     fftw         :      3.03s CPU      3.09s WALL (   10106 calls)
 
     Parallel routines
 
     PWSCF        :     21.20s CPU     21.91s WALL

 
   This run was terminated on:  17:22:44  16Nov2025            

=------------------------------------------------------------------------------=
   JOB DONE.
=------------------------------------------------------------------------------=
