
     Program PWSCF v.7.5 starts on 16Nov2025 at 16:21:38 

     This program is part of the open-source Quantum ESPRESSO suite
     for quantum simulation of materials; please cite
         "P. Giannozzi et al., J. Phys.:Condens. Matter 21 395502 (2009);
         "P. Giannozzi et al., J. Phys.:Condens. Matter 29 465901 (2017);
         "P. Giannozzi et al., J. Chem. Phys. 152 154105 (2020);
          URL http://www.quantum-espresso.org", 
     in publications or presentations arising from this work. More details at
     http://www.quantum-espresso.org/quote

     Parallel version (MPI), running on    96 processors

     MPI processes distributed on     2 nodes
     174639 MiB available memory on the printing compute node when the environment starts
 
     Reading input from supercell-183.in

     Current dimensions of program PWSCF are:
     Max number of different atomic species (ntypx) = 10
     Max number of k-points (npk) =  40000
     Max angular momentum in pseudopotentials (lmaxx) =  4

     gamma-point specific algorithms are used
 
     K-points division:     npool     =       2
     R & G space division:  proc/nbgrp/npool/nimage =      48
     Subspace diagonalization in iterative solution of the eigenvalue problem:
     one sub-group per band group will be used
     scalapack distributed-memory algorithm (size of sub-group:  2*  2 procs)

 
     Parallelization info
     --------------------
     sticks:   dense  smooth     PW     G-vecs:    dense   smooth      PW
     Min          59      59     14                 2432     2432     302
     Max          62      62     16                 2442     2442     316
     Sum        2885    2885    725               116921   116921   14771
 
     Using Slab Decomposition
 


     bravais-lattice index     =            0
     lattice parameter (alat)  =      13.4813  a.u.
     unit-cell volume          =    2450.1683 (a.u.)^3
     number of atoms/cell      =           63
     number of atomic types    =            2
     number of electrons       =       254.00 (up: 128.00, down: 126.00)
     number of Kohn-Sham states=          152
     kinetic-energy cutoff     =      50.0000  Ry
     charge density cutoff     =     200.0000  Ry
     scf convergence threshold =      1.0E-08
     mixing beta               =       0.7000
     number of iterations used =            8  plain     mixing
     Exchange-correlation= PBE
                           (   1   4   3   4   0   0   0)

     celldm(1)=  13.481306  celldm(2)=   0.000000  celldm(3)=   0.000000
     celldm(4)=   0.000000  celldm(5)=   0.000000  celldm(6)=   0.000000

     crystal axes: (cart. coord. in units of alat)
               a(1) = (   1.000000   0.000000   0.000000 )  
               a(2) = (   0.000000   1.000000   0.000000 )  
               a(3) = (   0.000000   0.000000   1.000000 )  

     reciprocal axes: (cart. coord. in units 2 pi/alat)
               b(1) = (  1.000000  0.000000  0.000000 )  
               b(2) = (  0.000000  1.000000  0.000000 )  
               b(3) = (  0.000000  0.000000  1.000000 )  


     PseudoPot. # 1 for N  read from file:
     ./N_ONCV_PBE-1.2.upf
     MD5 check sum: 5312fdf34e96954e02a33bdc911c617a
     Pseudo is Norm-conserving, Zval =  5.0
     Generated using ONCVPSP code by D. R. Hamann
     Using radial grid of  602 points,  4 beta functions with: 
                l(1) =   0
                l(2) =   0
                l(3) =   1
                l(4) =   1

     PseudoPot. # 2 for C  read from file:
     ./C_ONCV_PBE-1.2.upf
     MD5 check sum: d60b57d9bdca4133f5fde4b584ee909d
     Pseudo is Norm-conserving, Zval =  4.0
     Generated using ONCVPSP code by D. R. Hamann
     Using radial grid of  602 points,  4 beta functions with: 
                l(1) =   0
                l(2) =   0
                l(3) =   1
                l(4) =   1

     atomic species   valence    mass     pseudopotential
     N                 5.00    14.00670     N ( 1.00)
     C                 4.00    12.01070     C ( 1.00)

     Starting magnetic structure 
     atomic species   magnetization
     N               0.000
     C               0.000

     No symmetry found


                                    s                        frac. trans.

      isym =  1     identity                                     

 cryst.   s( 1) = (     1          0          0      )
                  (     0          1          0      )
                  (     0          0          1      )

 cart.    s( 1) = (  1.0000000  0.0000000  0.0000000 )
                  (  0.0000000  1.0000000  0.0000000 )
                  (  0.0000000  0.0000000  1.0000000 )


   Cartesian axes

     site n.     atom                  positions (alat units)
         1        N      tau(   1) = (   0.9893819   0.9897344   0.9891721  )
         2        C      tau(   2) = (   0.9870277   0.2601210   0.2640728  )
         3        C      tau(   3) = (   0.1231717   0.3731672   0.3742038  )
         4        C      tau(   4) = (   0.2603919   0.9894620   0.2619202  )
         5        C      tau(   5) = (   0.3737632   0.1246771   0.3741571  )
         6        C      tau(   6) = (   0.2640151   0.2616009   0.9853609  )
         7        C      tau(   7) = (   0.3737752   0.3731213   0.1223564  )
         8        C      tau(   8) = (   0.0000049   0.0005840   0.4991361  )
         9        C      tau(   9) = (   0.1251361   0.1251278   0.6250981  )
        10        C      tau(  10) = (   0.0020393   0.2482470   0.7515266  )
        11        C      tau(  11) = (   0.1292009   0.3733021   0.8763303  )
        12        C      tau(  12) = (   0.2487801   0.0017974   0.7514403  )
        13        C      tau(  13) = (   0.3754339   0.1292460   0.8748544  )
        14        C      tau(  14) = (   0.2491579   0.2495268   0.4995755  )
        15        C      tau(  15) = (   0.3750038   0.3749547   0.6244069  )
        16        C      tau(  16) = (   0.0016366   0.4979779   0.0013734  )
        17        C      tau(  17) = (   0.1250869   0.6243147   0.1250807  )
        18        C      tau(  18) = (   0.0014462   0.7520697   0.2483230  )
        19        C      tau(  19) = (   0.1266755   0.8769178   0.3741906  )
        20        C      tau(  20) = (   0.2488290   0.4983596   0.2486760  )
        21        C      tau(  21) = (   0.3741642   0.6242659   0.3742111  )
        22        C      tau(  22) = (   0.2480673   0.7520817   0.0015447  )
        23        C      tau(  23) = (   0.3729914   0.8777475   0.1265606  )
        24        C      tau(  24) = (   0.0000493   0.5010760   0.5011299  )
        25        C      tau(  25) = (   0.1252054   0.6262200   0.6252733  )
        26        C      tau(  26) = (   0.9993969   0.7487112   0.7492532  )
        27        C      tau(  27) = (   0.1217927   0.8768349   0.8763928  )
        28        C      tau(  28) = (   0.2492749   0.5017254   0.7482724  )
        29        C      tau(  29) = (   0.3741000   0.6263042   0.8750769  )
        30        C      tau(  30) = (   0.2487293   0.7486845   0.5007616  )
        31        C      tau(  31) = (   0.3739266   0.8765416   0.6258828  )
        32        C      tau(  32) = (   0.4987543   0.0011228   0.0002828  )
        33        C      tau(  33) = (   0.6248203   0.1251003   0.1251034  )
        34        C      tau(  34) = (   0.4991217   0.2493918   0.2488717  )
        35        C      tau(  35) = (   0.6243080   0.3746888   0.3747831  )
        36        C      tau(  36) = (   0.7516460   0.0016191   0.2487956  )
        37        C      tau(  37) = (   0.8750430   0.1283649   0.3757598  )
        38        C      tau(  38) = (   0.7517475   0.2480080   0.0019610  )
        39        C      tau(  39) = (   0.8773622   0.3724247   0.1282033  )
        40        C      tau(  40) = (   0.5008161   0.9999897   0.5008301  )
        41        C      tau(  41) = (   0.6256173   0.1249721   0.6252590  )
        42        C      tau(  42) = (   0.5022259   0.2488088   0.7478265  )
        43        C      tau(  43) = (   0.6264784   0.3739683   0.8752045  )
        44        C      tau(  44) = (   0.7487945   0.9989046   0.7489691  )
        45        C      tau(  45) = (   0.8764746   0.1216998   0.8763156  )
        46        C      tau(  46) = (   0.7479635   0.2486819   0.5018806  )
        47        C      tau(  47) = (   0.8751980   0.3739245   0.6263738  )
        48        C      tau(  48) = (   0.5012000   0.5011574   0.0001136  )
        49        C      tau(  49) = (   0.6256259   0.6262099   0.1252968  )
        50        C      tau(  50) = (   0.5005188   0.7489091   0.2490095  )
        51        C      tau(  51) = (   0.6258050   0.8750157   0.3740056  )
        52        C      tau(  52) = (   0.7486304   0.5011458   0.2494302  )
        53        C      tau(  53) = (   0.8750247   0.6261269   0.3741365  )
        54        C      tau(  54) = (   0.7492281   0.7488562   0.9996087  )
        55        C      tau(  55) = (   0.8766209   0.8769033   0.1218021  )
        56        C      tau(  56) = (   0.4990819   0.4992903   0.4990317  )
        57        C      tau(  57) = (   0.6247789   0.6244471   0.6249452  )
        58        C      tau(  58) = (   0.4991767   0.7499842   0.7500845  )
        59        C      tau(  59) = (   0.6239946   0.8751464   0.8754130  )
        60        C      tau(  60) = (   0.7505316   0.4989321   0.7505826  )
        61        C      tau(  61) = (   0.8758455   0.6234984   0.8759288  )
        62        C      tau(  62) = (   0.7498244   0.7497799   0.4993198  )
        63        C      tau(  63) = (   0.8750855   0.8749084   0.6242568  )

   Crystallographic axes

     site n.     atom                  positions (cryst. coord.)
         1        N      tau(   1) = (  0.9893819  0.9897344  0.9891721  )
         2        C      tau(   2) = (  0.9870277  0.2601210  0.2640728  )
         3        C      tau(   3) = (  0.1231717  0.3731672  0.3742038  )
         4        C      tau(   4) = (  0.2603919  0.9894620  0.2619202  )
         5        C      tau(   5) = (  0.3737632  0.1246771  0.3741571  )
         6        C      tau(   6) = (  0.2640151  0.2616009  0.9853609  )
         7        C      tau(   7) = (  0.3737752  0.3731213  0.1223564  )
         8        C      tau(   8) = (  0.0000049  0.0005840  0.4991361  )
         9        C      tau(   9) = (  0.1251361  0.1251278  0.6250981  )
        10        C      tau(  10) = (  0.0020393  0.2482470  0.7515266  )
        11        C      tau(  11) = (  0.1292009  0.3733021  0.8763303  )
        12        C      tau(  12) = (  0.2487801  0.0017974  0.7514403  )
        13        C      tau(  13) = (  0.3754339  0.1292460  0.8748544  )
        14        C      tau(  14) = (  0.2491579  0.2495268  0.4995755  )
        15        C      tau(  15) = (  0.3750038  0.3749547  0.6244069  )
        16        C      tau(  16) = (  0.0016366  0.4979779  0.0013734  )
        17        C      tau(  17) = (  0.1250869  0.6243147  0.1250807  )
        18        C      tau(  18) = (  0.0014462  0.7520697  0.2483230  )
        19        C      tau(  19) = (  0.1266755  0.8769178  0.3741906  )
        20        C      tau(  20) = (  0.2488290  0.4983596  0.2486760  )
        21        C      tau(  21) = (  0.3741642  0.6242659  0.3742111  )
        22        C      tau(  22) = (  0.2480673  0.7520817  0.0015447  )
        23        C      tau(  23) = (  0.3729914  0.8777475  0.1265606  )
        24        C      tau(  24) = (  0.0000493  0.5010760  0.5011299  )
        25        C      tau(  25) = (  0.1252054  0.6262200  0.6252733  )
        26        C      tau(  26) = (  0.9993969  0.7487112  0.7492532  )
        27        C      tau(  27) = (  0.1217927  0.8768349  0.8763928  )
        28        C      tau(  28) = (  0.2492749  0.5017254  0.7482724  )
        29        C      tau(  29) = (  0.3741000  0.6263042  0.8750769  )
        30        C      tau(  30) = (  0.2487293  0.7486845  0.5007616  )
        31        C      tau(  31) = (  0.3739266  0.8765416  0.6258828  )
        32        C      tau(  32) = (  0.4987543  0.0011228  0.0002828  )
        33        C      tau(  33) = (  0.6248203  0.1251003  0.1251034  )
        34        C      tau(  34) = (  0.4991217  0.2493918  0.2488717  )
        35        C      tau(  35) = (  0.6243080  0.3746888  0.3747831  )
        36        C      tau(  36) = (  0.7516460  0.0016191  0.2487956  )
        37        C      tau(  37) = (  0.8750430  0.1283649  0.3757598  )
        38        C      tau(  38) = (  0.7517475  0.2480080  0.0019610  )
        39        C      tau(  39) = (  0.8773622  0.3724247  0.1282033  )
        40        C      tau(  40) = (  0.5008161  0.9999897  0.5008301  )
        41        C      tau(  41) = (  0.6256173  0.1249721  0.6252590  )
        42        C      tau(  42) = (  0.5022259  0.2488088  0.7478265  )
        43        C      tau(  43) = (  0.6264784  0.3739683  0.8752045  )
        44        C      tau(  44) = (  0.7487945  0.9989046  0.7489691  )
        45        C      tau(  45) = (  0.8764746  0.1216998  0.8763156  )
        46        C      tau(  46) = (  0.7479635  0.2486819  0.5018806  )
        47        C      tau(  47) = (  0.8751980  0.3739245  0.6263738  )
        48        C      tau(  48) = (  0.5012000  0.5011574  0.0001136  )
        49        C      tau(  49) = (  0.6256259  0.6262099  0.1252968  )
        50        C      tau(  50) = (  0.5005188  0.7489091  0.2490095  )
        51        C      tau(  51) = (  0.6258050  0.8750157  0.3740056  )
        52        C      tau(  52) = (  0.7486304  0.5011458  0.2494302  )
        53        C      tau(  53) = (  0.8750247  0.6261269  0.3741365  )
        54        C      tau(  54) = (  0.7492281  0.7488562  0.9996087  )
        55        C      tau(  55) = (  0.8766209  0.8769033  0.1218021  )
        56        C      tau(  56) = (  0.4990819  0.4992903  0.4990317  )
        57        C      tau(  57) = (  0.6247789  0.6244471  0.6249452  )
        58        C      tau(  58) = (  0.4991767  0.7499842  0.7500845  )
        59        C      tau(  59) = (  0.6239946  0.8751464  0.8754130  )
        60        C      tau(  60) = (  0.7505316  0.4989321  0.7505826  )
        61        C      tau(  61) = (  0.8758455  0.6234984  0.8759288  )
        62        C      tau(  62) = (  0.7498244  0.7497799  0.4993198  )
        63        C      tau(  63) = (  0.8750855  0.8749084  0.6242568  )

     number of k points=     1
                       cart. coord. in units 2pi/alat
        k(    1) = (   0.0000000   0.0000000   0.0000000), wk =   1.0000000

                       cryst. coord.
        k(    1) = (   0.0000000   0.0000000   0.0000000), wk =   1.0000000

     Dense  grid:    58461 G-vectors     FFT dimensions: (  64,  64,  64)

     Dynamical RAM for                 wfc:       0.35 MB

     Dynamical RAM for     wfc (w. buffer):       0.35 MB

     Dynamical RAM for           str. fact:       0.04 MB

     Dynamical RAM for           local pot:       0.00 MB

     Dynamical RAM for          nlocal pot:       1.17 MB

     Dynamical RAM for                qrad:       0.65 MB

     Dynamical RAM for          rho,v,vnew:       0.49 MB

     Dynamical RAM for               rhoin:       0.16 MB

     Dynamical RAM for            rho*nmix:       0.60 MB

     Dynamical RAM for           G-vectors:       0.08 MB

     Dynamical RAM for          h,s,v(r/c):       0.53 MB

     Dynamical RAM for          <psi|beta>:       0.58 MB

     Dynamical RAM for                 psi:       0.71 MB

     Dynamical RAM for                hpsi:       0.71 MB

     Dynamical RAM for      wfcinit/wfcrot:       1.24 MB

     Estimated static dynamical RAM per process >       3.37 MB

     Estimated max dynamical RAM per process >       6.49 MB

     Estimated total dynamical RAM >     594.05 MB
     Generating pointlists ...
     new r_m :   0.0854 (alat units)  1.1518 (a.u.) for type    1
     new r_m :   0.0847 (alat units)  1.1416 (a.u.) for type    2

     Initial potential from superposition of free atoms

     starting charge     252.5655, renormalised to     254.0000
     Starting wfcs are random

     total cpu time spent up to now is        3.2 secs

     Self-consistent Calculation

     iteration #  1     ecut=    50.00 Ry     beta= 0.70
     Davidson diagonalization with overlap

---- Real-time Memory Report at c_bands before calling an iterative solver
           158 MiB given to the printing process from OS
             0 MiB allocation reported by mallinfo(arena+hblkhd)
        173674 MiB available memory on the node where the printing process lives
------------------
     ethr =  1.00E-02,  avg # of iterations = 12.0

     total cpu time spent up to now is        6.1 secs

     total energy              =    -723.26861029 Ry
     estimated scf accuracy    <       3.70772862 Ry

     total magnetization       =     2.00 Bohr mag/cell
     absolute magnetization    =     2.00 Bohr mag/cell

     iteration #  2     ecut=    50.00 Ry     beta= 0.70
     Davidson diagonalization with overlap

---- Real-time Memory Report at c_bands before calling an iterative solver
           164 MiB given to the printing process from OS
             0 MiB allocation reported by mallinfo(arena+hblkhd)
        173609 MiB available memory on the node where the printing process lives
------------------
     ethr =  1.46E-03,  avg # of iterations = 11.5

     total cpu time spent up to now is        6.7 secs

     total energy              =    -723.66177525 Ry
     estimated scf accuracy    <       0.45390132 Ry

     total magnetization       =     2.00 Bohr mag/cell
     absolute magnetization    =     2.07 Bohr mag/cell

     iteration #  3     ecut=    50.00 Ry     beta= 0.70
     Davidson diagonalization with overlap

---- Real-time Memory Report at c_bands before calling an iterative solver
           164 MiB given to the printing process from OS
             0 MiB allocation reported by mallinfo(arena+hblkhd)
        173616 MiB available memory on the node where the printing process lives
------------------
     c_bands:  2 eigenvalues not converged
     ethr =  1.79E-04,  avg # of iterations = 20.0

     total cpu time spent up to now is       10.4 secs

     total energy              =    -723.72738057 Ry
     estimated scf accuracy    <       0.86154756 Ry

     total magnetization       =     2.00 Bohr mag/cell
     absolute magnetization    =     2.12 Bohr mag/cell

     iteration #  4     ecut=    50.00 Ry     beta= 0.70
     Davidson diagonalization with overlap

---- Real-time Memory Report at c_bands before calling an iterative solver
           165 MiB given to the printing process from OS
             0 MiB allocation reported by mallinfo(arena+hblkhd)
        173614 MiB available memory on the node where the printing process lives
------------------
     c_bands:  1 eigenvalues not converged
     ethr =  1.79E-04,  avg # of iterations = 20.0

     total cpu time spent up to now is       11.5 secs

     total energy              =    -723.90114156 Ry
     estimated scf accuracy    <       0.00966063 Ry

     total magnetization       =     2.00 Bohr mag/cell
     absolute magnetization    =     2.19 Bohr mag/cell

     iteration #  5     ecut=    50.00 Ry     beta= 0.70
     Davidson diagonalization with overlap

---- Real-time Memory Report at c_bands before calling an iterative solver
           165 MiB given to the printing process from OS
             0 MiB allocation reported by mallinfo(arena+hblkhd)
        173606 MiB available memory on the node where the printing process lives
------------------
     c_bands:  4 eigenvalues not converged
     ethr =  3.80E-06,  avg # of iterations = 20.0

     total cpu time spent up to now is       11.9 secs

     total energy              =    -723.90604546 Ry
     estimated scf accuracy    <       0.00406282 Ry

     total magnetization       =     2.00 Bohr mag/cell
     absolute magnetization    =     2.23 Bohr mag/cell

     iteration #  6     ecut=    50.00 Ry     beta= 0.70
     Davidson diagonalization with overlap

---- Real-time Memory Report at c_bands before calling an iterative solver
           165 MiB given to the printing process from OS
             0 MiB allocation reported by mallinfo(arena+hblkhd)
        173606 MiB available memory on the node where the printing process lives
------------------
     c_bands:  3 eigenvalues not converged
     ethr =  1.60E-06,  avg # of iterations = 20.0

     total cpu time spent up to now is       13.2 secs

     total energy              =    -723.90679283 Ry
     estimated scf accuracy    <       0.00084473 Ry

     total magnetization       =     2.00 Bohr mag/cell
     absolute magnetization    =     2.25 Bohr mag/cell

     iteration #  7     ecut=    50.00 Ry     beta= 0.70
     Davidson diagonalization with overlap

---- Real-time Memory Report at c_bands before calling an iterative solver
           165 MiB given to the printing process from OS
             0 MiB allocation reported by mallinfo(arena+hblkhd)
        173604 MiB available memory on the node where the printing process lives
------------------
     c_bands:  1 eigenvalues not converged
     ethr =  3.33E-07,  avg # of iterations = 19.0

     total cpu time spent up to now is       14.6 secs

     total energy              =    -723.90701414 Ry
     estimated scf accuracy    <       0.00011760 Ry

     total magnetization       =     2.00 Bohr mag/cell
     absolute magnetization    =     2.27 Bohr mag/cell

     iteration #  8     ecut=    50.00 Ry     beta= 0.70
     Davidson diagonalization with overlap

---- Real-time Memory Report at c_bands before calling an iterative solver
           165 MiB given to the printing process from OS
             0 MiB allocation reported by mallinfo(arena+hblkhd)
        173597 MiB available memory on the node where the printing process lives
------------------
     c_bands:  2 eigenvalues not converged
     ethr =  4.63E-08,  avg # of iterations = 20.0

     total cpu time spent up to now is       15.2 secs

     total energy              =    -723.90705274 Ry
     estimated scf accuracy    <       0.00002874 Ry

     total magnetization       =     2.00 Bohr mag/cell
     absolute magnetization    =     2.28 Bohr mag/cell

     iteration #  9     ecut=    50.00 Ry     beta= 0.70
     Davidson diagonalization with overlap

---- Real-time Memory Report at c_bands before calling an iterative solver
           166 MiB given to the printing process from OS
             0 MiB allocation reported by mallinfo(arena+hblkhd)
        173592 MiB available memory on the node where the printing process lives
------------------
     c_bands:  4 eigenvalues not converged
     ethr =  1.13E-08,  avg # of iterations = 20.0

     total cpu time spent up to now is       15.7 secs

     total energy              =    -723.90706297 Ry
     estimated scf accuracy    <       0.00000785 Ry

     total magnetization       =     2.00 Bohr mag/cell
     absolute magnetization    =     2.29 Bohr mag/cell

     iteration # 10     ecut=    50.00 Ry     beta= 0.70
     Davidson diagonalization with overlap

---- Real-time Memory Report at c_bands before calling an iterative solver
           166 MiB given to the printing process from OS
             0 MiB allocation reported by mallinfo(arena+hblkhd)
        173595 MiB available memory on the node where the printing process lives
------------------
     c_bands:  2 eigenvalues not converged
     ethr =  3.09E-09,  avg # of iterations = 20.0

     total cpu time spent up to now is       16.7 secs

     total energy              =    -723.90706651 Ry
     estimated scf accuracy    <       0.00000086 Ry

     total magnetization       =     2.00 Bohr mag/cell
     absolute magnetization    =     2.29 Bohr mag/cell

     iteration # 11     ecut=    50.00 Ry     beta= 0.70
     Davidson diagonalization with overlap

---- Real-time Memory Report at c_bands before calling an iterative solver
           166 MiB given to the printing process from OS
             0 MiB allocation reported by mallinfo(arena+hblkhd)
        173599 MiB available memory on the node where the printing process lives
------------------
     c_bands:  1 eigenvalues not converged
     ethr =  3.40E-10,  avg # of iterations = 20.0

     total cpu time spent up to now is       17.5 secs

     total energy              =    -723.90706715 Ry
     estimated scf accuracy    <       0.00000024 Ry

     total magnetization       =     2.00 Bohr mag/cell
     absolute magnetization    =     2.30 Bohr mag/cell

     iteration # 12     ecut=    50.00 Ry     beta= 0.70
     Davidson diagonalization with overlap

---- Real-time Memory Report at c_bands before calling an iterative solver
           166 MiB given to the printing process from OS
             0 MiB allocation reported by mallinfo(arena+hblkhd)
        173597 MiB available memory on the node where the printing process lives
------------------
     ethr =  9.44E-11,  avg # of iterations = 18.0

     total cpu time spent up to now is       18.6 secs

     total energy              =    -723.90706727 Ry
     estimated scf accuracy    <       0.00000010 Ry

     total magnetization       =     2.00 Bohr mag/cell
     absolute magnetization    =     2.30 Bohr mag/cell

     iteration # 13     ecut=    50.00 Ry     beta= 0.70
     Davidson diagonalization with overlap

---- Real-time Memory Report at c_bands before calling an iterative solver
           166 MiB given to the printing process from OS
             0 MiB allocation reported by mallinfo(arena+hblkhd)
        173596 MiB available memory on the node where the printing process lives
------------------
     ethr =  4.01E-11,  avg # of iterations = 17.0

     total cpu time spent up to now is       19.1 secs

     total energy              =    -723.90706732 Ry
     estimated scf accuracy    <       0.00000003 Ry

     total magnetization       =     2.00 Bohr mag/cell
     absolute magnetization    =     2.30 Bohr mag/cell

     iteration # 14     ecut=    50.00 Ry     beta= 0.70
     Davidson diagonalization with overlap

---- Real-time Memory Report at c_bands before calling an iterative solver
           166 MiB given to the printing process from OS
             0 MiB allocation reported by mallinfo(arena+hblkhd)
        173600 MiB available memory on the node where the printing process lives
------------------
     ethr =  1.05E-11,  avg # of iterations = 19.0
 
     Magnetic moment per site  (integrated on atomic sphere of radius R)
     atom   1 (R=0.085)  charge=  2.9142  magn=  0.0042
     atom   2 (R=0.085)  charge=  1.8170  magn=  0.2449
     atom   3 (R=0.085)  charge=  1.7930  magn= -0.0087
     atom   4 (R=0.085)  charge=  1.8051  magn=  0.2455
     atom   5 (R=0.085)  charge=  1.7933  magn= -0.0087
     atom   6 (R=0.085)  charge=  1.8233  magn=  0.2450
     atom   7 (R=0.085)  charge=  1.7933  magn= -0.0087
     atom   8 (R=0.085)  charge=  1.7860  magn=  0.0091
     atom   9 (R=0.085)  charge=  1.7964  magn= -0.0019
     atom  10 (R=0.085)  charge=  1.7834  magn=  0.0060
     atom  11 (R=0.085)  charge=  1.7969  magn= -0.0042
     atom  12 (R=0.085)  charge=  1.7842  magn=  0.0061
     atom  13 (R=0.085)  charge=  1.8041  magn= -0.0039
     atom  14 (R=0.085)  charge=  1.7893  magn=  0.0085
     atom  15 (R=0.085)  charge=  1.7873  magn= -0.0020
     atom  16 (R=0.085)  charge=  1.7820  magn=  0.0089
     atom  17 (R=0.085)  charge=  1.7956  magn= -0.0018
     atom  18 (R=0.085)  charge=  1.7823  magn=  0.0057
     atom  19 (R=0.085)  charge=  1.7953  magn= -0.0035
     atom  20 (R=0.085)  charge=  1.7834  magn=  0.0083
     atom  21 (R=0.085)  charge=  1.7846  magn= -0.0020
     atom  22 (R=0.085)  charge=  1.7829  magn=  0.0057
     atom  23 (R=0.085)  charge=  1.7905  magn= -0.0037
     atom  24 (R=0.085)  charge=  1.7825  magn=  0.0182
     atom  25 (R=0.085)  charge=  1.8067  magn=  0.0094
     atom  26 (R=0.085)  charge=  1.7935  magn=  0.0032
     atom  27 (R=0.085)  charge=  1.7588  magn=  0.0001
     atom  28 (R=0.085)  charge=  1.7896  magn=  0.0221
     atom  29 (R=0.085)  charge=  1.7823  magn= -0.0014
     atom  30 (R=0.085)  charge=  1.7882  magn=  0.0212
     atom  31 (R=0.085)  charge=  1.7816  magn= -0.0013
     atom  32 (R=0.085)  charge=  1.7844  magn=  0.0090
     atom  33 (R=0.085)  charge=  1.7960  magn= -0.0019
     atom  34 (R=0.085)  charge=  1.7869  magn=  0.0085
     atom  35 (R=0.085)  charge=  1.7865  magn= -0.0020
     atom  36 (R=0.085)  charge=  1.7818  magn=  0.0059
     atom  37 (R=0.085)  charge=  1.8033  magn= -0.0036
     atom  38 (R=0.085)  charge=  1.7836  magn=  0.0058
     atom  39 (R=0.085)  charge=  1.7914  magn= -0.0041
     atom  40 (R=0.085)  charge=  1.7854  magn=  0.0181
     atom  41 (R=0.085)  charge=  1.8110  magn=  0.0094
     atom  42 (R=0.085)  charge=  1.7948  magn=  0.0218
     atom  43 (R=0.085)  charge=  1.7819  magn= -0.0013
     atom  44 (R=0.085)  charge=  1.7937  magn=  0.0032
     atom  45 (R=0.085)  charge=  1.7589  magn= -0.0000
     atom  46 (R=0.085)  charge=  1.7948  magn=  0.0214
     atom  47 (R=0.085)  charge=  1.7819  magn= -0.0013
     atom  48 (R=0.085)  charge=  1.7819  magn=  0.0184
     atom  49 (R=0.085)  charge=  1.8043  magn=  0.0094
     atom  50 (R=0.085)  charge=  1.7873  magn=  0.0212
     atom  51 (R=0.085)  charge=  1.7825  magn= -0.0013
     atom  52 (R=0.085)  charge=  1.7869  magn=  0.0218
     atom  53 (R=0.085)  charge=  1.7826  magn= -0.0013
     atom  54 (R=0.085)  charge=  1.7935  magn=  0.0032
     atom  55 (R=0.085)  charge=  1.7588  magn=  0.0001
     atom  56 (R=0.085)  charge=  1.7914  magn=  0.0009
     atom  57 (R=0.085)  charge=  1.7831  magn=  0.0010
     atom  58 (R=0.085)  charge=  1.7895  magn=  0.0018
     atom  59 (R=0.085)  charge=  1.7880  magn= -0.0009
     atom  60 (R=0.085)  charge=  1.7911  magn=  0.0017
     atom  61 (R=0.085)  charge=  1.7854  magn= -0.0009
     atom  62 (R=0.085)  charge=  1.7913  magn=  0.0019
     atom  63 (R=0.085)  charge=  1.7891  magn= -0.0009

     total cpu time spent up to now is       19.7 secs

     End of self-consistent calculation

 ------ SPIN UP ------------


          k = 0.0000 0.0000 0.0000 (  7386 PWs)   bands (ev):

    -8.5508  -6.9230  -6.2856  -6.2709  -6.1939  -6.1594  -5.8793  -4.9115
    -4.1431  -4.1265  -4.1256  -4.0931  -4.0307  -4.0244  -4.0125  -3.9169
    -3.8728  -3.8592  -3.3579  -2.9344  -2.6753  -2.6735  -2.1623  -0.3623
    -0.3564  -0.3272  -0.2810  -0.0772   0.1724   0.1931   0.2850   0.2959
     0.3669   0.6190   0.8361   0.8439   0.9517   0.9709   0.9858   1.0547
     1.0606   1.0682   1.2673   1.2972   3.0733   3.9066   3.9268   4.0677
     4.1886   4.2072   4.2229   4.2743   4.2808   4.2865   4.4241   4.4252
     4.4935   4.4987   4.5666   4.6604   4.6826   4.6882   4.6911   4.7877
     4.7991   4.9236   4.9659   4.9728   5.0506   5.1989   5.2094   5.3019
     5.3577   5.3711   5.3958   5.4037   5.4089   6.0398   6.0472   6.1006
     6.6606   6.6661   6.7265   6.9918   7.0046   7.0404   7.5239   8.3337
     8.3360   8.4123   8.4644   8.4955   8.6871   8.7073   8.7884   8.8294
     8.8483   8.8576   8.8908   8.8990   8.9008   9.2854   9.2868   9.3237
     9.6853   9.7019   9.8968   9.9107   9.9464   9.9588   9.9637   9.9773
     9.9884  10.0269  10.0329  10.0578  10.1249  10.1480  10.2680  10.3258
    10.3348  11.0530  12.2885  12.4139  12.4336  13.9567  14.6910  14.7994
    17.3414  17.3762  17.4096  17.5297  17.5751  17.5792  17.8488  17.9243
    17.9344  18.0326  18.0675  18.3700  18.9947  19.0009  19.0233  20.6913
    20.7982  20.8221  20.8766  20.9473  20.9481  21.0258  21.0324  21.0441

     occupation numbers 
     1.0000   1.0000   1.0000   1.0000   1.0000   1.0000   1.0000   1.0000
     1.0000   1.0000   1.0000   1.0000   1.0000   1.0000   1.0000   1.0000
     1.0000   1.0000   1.0000   1.0000   1.0000   1.0000   1.0000   1.0000
     1.0000   1.0000   1.0000   1.0000   1.0000   1.0000   1.0000   1.0000
     1.0000   1.0000   1.0000   1.0000   1.0000   1.0000   1.0000   1.0000
     1.0000   1.0000   1.0000   1.0000   1.0000   1.0000   1.0000   1.0000
     1.0000   1.0000   1.0000   1.0000   1.0000   1.0000   1.0000   1.0000
     1.0000   1.0000   1.0000   1.0000   1.0000   1.0000   1.0000   1.0000
     1.0000   1.0000   1.0000   1.0000   1.0000   1.0000   1.0000   1.0000
     1.0000   1.0000   1.0000   1.0000   1.0000   1.0000   1.0000   1.0000
     1.0000   1.0000   1.0000   1.0000   1.0000   1.0000   1.0000   1.0000
     1.0000   1.0000   1.0000   1.0000   1.0000   1.0000   1.0000   1.0000
     1.0000   1.0000   1.0000   1.0000   1.0000   1.0000   1.0000   1.0000
     1.0000   1.0000   1.0000   1.0000   1.0000   1.0000   1.0000   1.0000
     1.0000   1.0000   1.0000   1.0000   1.0000   1.0000   1.0000   1.0000
     1.0000   1.0000   1.0000   1.0000   1.0000   1.0000   1.0000   1.0000
     0.0000   0.0000   0.0000   0.0000   0.0000   0.0000   0.0000   0.0000
     0.0000   0.0000   0.0000   0.0000   0.0000   0.0000   0.0000   0.0000
     0.0000   0.0000   0.0000   0.0000   0.0000   0.0000   0.0000   0.0000

 ------ SPIN DOWN ----------


          k = 0.0000 0.0000 0.0000 (  7386 PWs)   bands (ev):

    -8.5253  -6.9085  -6.2636  -6.2476  -6.1492  -6.1167  -5.8422  -4.8948
    -4.1223  -4.1063  -4.0842  -4.0612  -3.9982  -3.9826  -3.9651  -3.9046
    -3.8363  -3.8183  -3.3157  -2.9158  -2.6220  -2.6209  -2.0173  -0.3449
    -0.3382  -0.3057  -0.2638  -0.0118   0.1913   0.2107   0.3223   0.3294
     0.3920   0.6539   0.8483   0.8556   0.9865   1.0007   1.0107   1.0713
     1.0781   1.0828   1.4329   1.4673   3.1870   3.9296   3.9490   4.0938
     4.2226   4.2512   4.2641   4.2897   4.2985   4.3139   4.4704   4.4721
     4.5166   4.5200   4.5903   4.6847   4.6994   4.7063   4.7122   4.8219
     4.8361   4.9373   4.9983   5.0036   5.1315   5.2328   5.2445   5.3259
     5.3727   5.3817   5.4180   5.4533   5.4705   6.1020   6.1063   6.1386
     6.6872   6.6935   6.7608   7.0770   7.0887   7.1005   7.6937   8.3726
     8.3753   8.4495   8.4996   8.5300   8.7213   8.7386   8.8238   8.8747
     8.8831   8.8916   8.9214   8.9316   8.9333   9.3217   9.3239   9.3510
     9.7130   9.7296   9.9305   9.9344   9.9590   9.9731   9.9779   9.9962
    10.0086  10.0617  10.0689  10.0756  10.1526  10.1736  10.3258  10.3803
    10.3891  11.4328  12.5559  12.5662  12.6058  14.4387  16.0164  16.1396
    17.3662  17.3933  17.4267  17.5571  17.6321  17.6352  17.8715  17.9438
    17.9526  18.0725  18.1081  18.4896  19.0422  19.0797  19.1108  20.7416
    20.8124  20.8361  20.8914  20.9630  20.9658  21.0437  21.0588  21.0630

     occupation numbers 
     1.0000   1.0000   1.0000   1.0000   1.0000   1.0000   1.0000   1.0000
     1.0000   1.0000   1.0000   1.0000   1.0000   1.0000   1.0000   1.0000
     1.0000   1.0000   1.0000   1.0000   1.0000   1.0000   1.0000   1.0000
     1.0000   1.0000   1.0000   1.0000   1.0000   1.0000   1.0000   1.0000
     1.0000   1.0000   1.0000   1.0000   1.0000   1.0000   1.0000   1.0000
     1.0000   1.0000   1.0000   1.0000   1.0000   1.0000   1.0000   1.0000
     1.0000   1.0000   1.0000   1.0000   1.0000   1.0000   1.0000   1.0000
     1.0000   1.0000   1.0000   1.0000   1.0000   1.0000   1.0000   1.0000
     1.0000   1.0000   1.0000   1.0000   1.0000   1.0000   1.0000   1.0000
     1.0000   1.0000   1.0000   1.0000   1.0000   1.0000   1.0000   1.0000
     1.0000   1.0000   1.0000   1.0000   1.0000   1.0000   1.0000   1.0000
     1.0000   1.0000   1.0000   1.0000   1.0000   1.0000   1.0000   1.0000
     1.0000   1.0000   1.0000   1.0000   1.0000   1.0000   1.0000   1.0000
     1.0000   1.0000   1.0000   1.0000   1.0000   1.0000   1.0000   1.0000
     1.0000   1.0000   1.0000   1.0000   1.0000   1.0000   1.0000   1.0000
     1.0000   1.0000   1.0000   1.0000   1.0000   1.0000   0.0000   0.0000
     0.0000   0.0000   0.0000   0.0000   0.0000   0.0000   0.0000   0.0000
     0.0000   0.0000   0.0000   0.0000   0.0000   0.0000   0.0000   0.0000
     0.0000   0.0000   0.0000   0.0000   0.0000   0.0000   0.0000   0.0000

     highest occupied, lowest unoccupied level (ev):    14.7994   16.0164

!    total energy              =    -723.90706733 Ry
     estimated scf accuracy    <          5.6E-09 Ry

     The total energy is the sum of the following terms:
     one-electron contribution =     232.28883008 Ry
     hartree contribution      =      70.33389351 Ry
     xc contribution           =    -226.77190683 Ry
     ewald contribution        =    -799.75788409 Ry

     total magnetization       =     2.00 Bohr mag/cell
     absolute magnetization    =     2.30 Bohr mag/cell

     convergence has been achieved in  14 iterations

     Forces acting on atoms (cartesian axes, Ry/au):

     atom    1 type  1   force =    -0.00260699   -0.00379121   -0.00271622
     atom    2 type  2   force =     0.03514567    0.01584857   -0.01260682
     atom    3 type  2   force =    -0.00931388    0.00858635    0.00619726
     atom    4 type  2   force =     0.00882805    0.02476071   -0.00271539
     atom    5 type  2   force =     0.00258254   -0.02070840    0.00096223
     atom    6 type  2   force =    -0.00826671    0.00832884    0.04345969
     atom    7 type  2   force =     0.01024327    0.01205320   -0.00211931
     atom    8 type  2   force =     0.00306835    0.00419999    0.00654931
     atom    9 type  2   force =    -0.00275862   -0.00415643   -0.00262156
     atom   10 type  2   force =     0.00075932    0.00138706    0.00735620
     atom   11 type  2   force =    -0.02865322    0.00587698   -0.00881000
     atom   12 type  2   force =    -0.00083632    0.00779487    0.00414757
     atom   13 type  2   force =    -0.00319446   -0.03932161   -0.00120944
     atom   14 type  2   force =     0.00349010    0.00211124   -0.00432128
     atom   15 type  2   force =    -0.00279191   -0.00131542   -0.00567318
     atom   16 type  2   force =     0.00018351   -0.00103856   -0.00101897
     atom   17 type  2   force =    -0.00142823    0.00639740    0.00023654
     atom   18 type  2   force =     0.00278691   -0.00009386    0.00087535
     atom   19 type  2   force =    -0.00952452   -0.00374065   -0.00553024
     atom   20 type  2   force =     0.00287088   -0.00431453    0.00361041
     atom   21 type  2   force =    -0.00081003   -0.00352649   -0.00148494
     atom   22 type  2   force =     0.00145613    0.00202486    0.00130690
     atom   23 type  2   force =    -0.00059220   -0.00710534   -0.00165763
     atom   24 type  2   force =     0.00972126    0.00548297    0.00421099
     atom   25 type  2   force =    -0.01171260   -0.01325066   -0.00368018
     atom   26 type  2   force =     0.01484174    0.00603372    0.00167967
     atom   27 type  2   force =    -0.02546254   -0.00922998   -0.00668251
     atom   28 type  2   force =     0.01047195    0.00065605    0.00596160
     atom   29 type  2   force =    -0.00049944   -0.00107142   -0.00191989
     atom   30 type  2   force =     0.00845869    0.01036941    0.00481269
     atom   31 type  2   force =     0.00155735   -0.01936696   -0.00358018
     atom   32 type  2   force =     0.00321308    0.00377836    0.00138050
     atom   33 type  2   force =     0.00051323   -0.00439194   -0.00015935
     atom   34 type  2   force =    -0.00482092    0.00174932    0.00351901
     atom   35 type  2   force =    -0.00500295   -0.00095126   -0.00329367
     atom   36 type  2   force =     0.00053399    0.00447495   -0.00004638
     atom   37 type  2   force =     0.00069308   -0.03261143   -0.00711087
     atom   38 type  2   force =     0.00702981    0.00171172   -0.00027868
     atom   39 type  2   force =    -0.01008271    0.00610596   -0.01373937
     atom   40 type  2   force =     0.00627656    0.01652894    0.00419534
     atom   41 type  2   force =    -0.00677288   -0.01489456   -0.00401535
     atom   42 type  2   force =    -0.00016537    0.01738007    0.00599266
     atom   43 type  2   force =    -0.00090092    0.00069981   -0.00101127
     atom   44 type  2   force =     0.00456086    0.01703029    0.00302085
     atom   45 type  2   force =    -0.00745972   -0.02649037   -0.00668859
     atom   46 type  2   force =     0.00654013    0.01612606    0.00124281
     atom   47 type  2   force =    -0.00121395    0.00130374   -0.00184732
     atom   48 type  2   force =     0.00495560    0.00564962    0.00771681
     atom   49 type  2   force =    -0.00795055   -0.01409267   -0.01015839
     atom   50 type  2   force =     0.00422929    0.00656423    0.00341668
     atom   51 type  2   force =    -0.00430404   -0.00239273    0.00062446
     atom   52 type  2   force =     0.00643001    0.00208134    0.00497605
     atom   53 type  2   force =    -0.00166010   -0.00300421   -0.00040913
     atom   54 type  2   force =     0.00268092    0.00556308    0.01406241
     atom   55 type  2   force =    -0.00711841   -0.00870901   -0.02491873
     atom   56 type  2   force =     0.00482290    0.00459249    0.00468026
     atom   57 type  2   force =    -0.00236009   -0.00011551   -0.00258786
     atom   58 type  2   force =     0.00055491    0.00804777    0.00240491
     atom   59 type  2   force =    -0.00089163   -0.00329323   -0.00338592
     atom   60 type  2   force =     0.00255380    0.00201767    0.00242319
     atom   61 type  2   force =    -0.00340314   -0.00181653   -0.00379066
     atom   62 type  2   force =     0.00408989    0.00440014    0.00116438
     atom   63 type  2   force =    -0.00358475   -0.00292280   -0.00039744
     The non-local contrib.  to forces
     atom    1 type  1   force =    -0.75982968   -0.76454523   -0.75937303
     atom    2 type  2   force =    -0.16467526    0.22045722    0.17807286
     atom    3 type  2   force =     0.05677253    0.08099413    0.07256204
     atom    4 type  2   force =     0.21520129   -0.18824952    0.19768095
     atom    5 type  2   force =     0.07296164    0.04324048    0.06968091
     atom    6 type  2   force =     0.17945065    0.20452141   -0.14615046
     atom    7 type  2   force =     0.07735056    0.08347786    0.06431159
     atom    8 type  2   force =    -0.00450419   -0.00447848    0.05687389
     atom    9 type  2   force =    -0.00606133   -0.00713876    0.01323749
     atom   10 type  2   force =    -0.04465164   -0.01392298   -0.01159014
     atom   11 type  2   force =    -0.10397148    0.06750050   -0.08312370
     atom   12 type  2   force =    -0.01794024   -0.03740887   -0.01398875
     atom   13 type  2   force =     0.05202169   -0.11585191   -0.07287093
     atom   14 type  2   force =     0.00268208    0.00033987    0.04565349
     atom   15 type  2   force =     0.01008389    0.00888034   -0.00376738
     atom   16 type  2   force =    -0.01243693    0.04874023   -0.01320542
     atom   17 type  2   force =    -0.00452822    0.02724885   -0.00329534
     atom   18 type  2   force =    -0.04150307   -0.02234663   -0.01625439
     atom   19 type  2   force =    -0.08211994   -0.07861492    0.05419986
     atom   20 type  2   force =     0.00449478    0.04496881    0.00529804
     atom   21 type  2   force =     0.01078855   -0.00259109    0.01169181
     atom   22 type  2   force =    -0.01469418   -0.02011230   -0.04264972
     atom   23 type  2   force =     0.06345021   -0.08457846   -0.07273768
     atom   24 type  2   force =    -0.06440473    0.03337687    0.03419553
     atom   25 type  2   force =    -0.02394445    0.00092811    0.01392830
     atom   26 type  2   force =    -0.04172790   -0.02060046   -0.02340775
     atom   27 type  2   force =    -0.14616563    0.12603633    0.12246510
     atom   28 type  2   force =     0.08000490    0.02330245   -0.01257249
     atom   29 type  2   force =     0.00062444    0.01914519    0.00443809
     atom   30 type  2   force =     0.07720641   -0.00949890    0.02951295
     atom   31 type  2   force =     0.00394324   -0.01799841    0.01644173
     atom   32 type  2   force =     0.05268717   -0.00648285   -0.00707948
     atom   33 type  2   force =     0.01824625   -0.00733189   -0.00368203
     atom   34 type  2   force =     0.04475940    0.00126642    0.00353580
     atom   35 type  2   force =    -0.00352802    0.00873499    0.01033875
     atom   36 type  2   force =    -0.01884891   -0.04055976   -0.01748803
     atom   37 type  2   force =    -0.07178480   -0.10865911    0.04771310
     atom   38 type  2   force =    -0.01363433   -0.01342993   -0.04525000
     atom   39 type  2   force =    -0.08679258    0.07133848   -0.08753776
     atom   40 type  2   force =     0.03566075   -0.05483558    0.03480234
     atom   41 type  2   force =     0.00945896   -0.02562869    0.01410928
     atom   42 type  2   force =     0.02090057    0.08867081   -0.00978802
     atom   43 type  2   force =     0.01713101    0.00009846    0.00384921
     atom   44 type  2   force =    -0.02249234   -0.03685320   -0.02359662
     atom   45 type  2   force =     0.12494613   -0.14769664    0.12430762
     atom   46 type  2   force =    -0.00959956    0.08722289    0.02311516
     atom   47 type  2   force =     0.00329940    0.00150838    0.01620962
     atom   48 type  2   force =     0.03353044    0.03325837   -0.06862934
     atom   49 type  2   force =     0.00841182   -0.00004790   -0.02283863
     atom   50 type  2   force =     0.02986926   -0.01444128    0.07150683
     atom   51 type  2   force =     0.01600543    0.00409015    0.00435210
     atom   52 type  2   force =    -0.01415896    0.02653744    0.07306570
     atom   53 type  2   force =     0.00470405    0.01786133    0.00169539
     atom   54 type  2   force =    -0.02213033   -0.02087100   -0.04340087
     atom   55 type  2   force =     0.12338153    0.12493432   -0.14652806
     atom   56 type  2   force =     0.02289453    0.02389514    0.02203040
     atom   57 type  2   force =     0.00467337    0.00562164    0.00532227
     atom   58 type  2   force =     0.01548340   -0.00282595   -0.01075927
     atom   59 type  2   force =     0.00893916   -0.01385616   -0.01441327
     atom   60 type  2   force =    -0.01054800    0.01841959   -0.01149299
     atom   61 type  2   force =    -0.01486226    0.00868588   -0.01550267
     atom   62 type  2   force =    -0.00844189   -0.00578405    0.01507890
     atom   63 type  2   force =    -0.01576729   -0.01508858    0.00846598
     The ionic contribution  to forces
     atom    1 type  1   force =     2.98289380    2.95251155    2.99833525
     atom    2 type  2   force =     2.41199440   -2.05850215   -2.21569641
     atom    3 type  2   force =     0.48072318   -0.72716218   -0.85249646
     atom    4 type  2   force =    -2.09107274    2.33093851   -2.16022187
     atom    5 type  2   force =    -0.77874186    0.40521691   -0.83440766
     atom    6 type  2   force =    -2.18709388   -2.09573222    2.46127054
     atom    7 type  2   force =    -0.82406156   -0.74681797    0.53706875
     atom    8 type  2   force =     0.25436498    0.21284168   -0.72805045
     atom    9 type  2   force =     0.05759369    0.03085245   -0.22425712
     atom   10 type  2   force =     0.17875170    0.07327562    0.56616362
     atom   11 type  2   force =    -0.52798993   -0.62422394    0.80327163
     atom   12 type  2   force =     0.00323749    0.16177462    0.57589955
     atom   13 type  2   force =    -0.66303343   -0.56190816    0.76932089
     atom   14 type  2   force =    -0.19671147   -0.17247204   -0.71732640
     atom   15 type  2   force =    -0.16883854   -0.12167968   -0.06820173
     atom   16 type  2   force =     0.20049240   -0.77380199    0.22501730
     atom   17 type  2   force =     0.07199292   -0.15593460    0.09374406
     atom   18 type  2   force =     0.22355604    0.46798461    0.00279942
     atom   19 type  2   force =    -0.36193521    0.74292483   -0.70683423
     atom   20 type  2   force =    -0.18039792   -0.72823704   -0.18925079
     atom   21 type  2   force =    -0.17448111   -0.05363548   -0.19218716
     atom   22 type  2   force =     0.02858721    0.47616892    0.23482254
     atom   23 type  2   force =    -0.68852349    0.77545300   -0.33160859
     atom   24 type  2   force =     0.10724910   -0.13432956   -0.17010151
     atom   25 type  2   force =    -0.01737414   -0.07495771   -0.07035064
     atom   26 type  2   force =     0.13269720   -0.09593146   -0.05009786
     atom   27 type  2   force =     1.14058479    0.23853220    0.25024591
     atom   28 type  2   force =    -0.07948553   -0.12820368    0.11044004
     atom   29 type  2   force =    -0.15450437    0.03558527    0.24864755
     atom   30 type  2   force =     0.00542077    0.13978538   -0.20956923
     atom   31 type  2   force =    -0.15359898    0.10383958   -0.00769092
     atom   32 type  2   force =    -0.74258646    0.19306068    0.26465845
     atom   33 type  2   force =    -0.20143122    0.02983453    0.09136651
     atom   34 type  2   force =    -0.71723746   -0.17396703   -0.20050728
     atom   35 type  2   force =    -0.06351437   -0.13091914   -0.19796139
     atom   36 type  2   force =     0.51560186    0.17394516    0.00255323
     atom   37 type  2   force =     0.73639622   -0.49997639   -0.69286251
     atom   38 type  2   force =     0.53959517    0.07225066    0.20926535
     atom   39 type  2   force =     0.80814290   -0.63675332   -0.43116926
     atom   40 type  2   force =    -0.17129526    0.06286657   -0.23486534
     atom   41 type  2   force =    -0.06233968   -0.08356347   -0.06850543
     atom   42 type  2   force =    -0.12861727    0.03453569    0.09155199
     atom   43 type  2   force =     0.03292066   -0.11110454    0.25401679
     atom   44 type  2   force =    -0.06925127    0.12053014   -0.05334789
     atom   45 type  2   force =     0.24385735    1.15937190    0.24884244
     atom   46 type  2   force =     0.10111192    0.05277022   -0.17045062
     atom   47 type  2   force =     0.22346134   -0.11213712    0.01660343
     atom   48 type  2   force =    -0.13234120   -0.10863017    0.13651425
     atom   49 type  2   force =    -0.07545868   -0.08132191    0.00726527
     atom   50 type  2   force =    -0.23757289    0.15089032   -0.08052433
     atom   51 type  2   force =    -0.00978956    0.16917123   -0.18035207
     atom   52 type  2   force =     0.13862732   -0.17598924   -0.12123556
     atom   53 type  2   force =     0.22807261    0.01363979   -0.18138390
     atom   54 type  2   force =    -0.06373329   -0.09177252    0.13840617
     atom   55 type  2   force =     0.24488618    0.24157920    1.13196805
     atom   56 type  2   force =    -0.09343878   -0.02258187   -0.12227105
     atom   57 type  2   force =    -0.03067264   -0.03024670   -0.01942186
     atom   58 type  2   force =    -0.10245167    0.04946400    0.01463285
     atom   59 type  2   force =    -0.28483105    0.07158519    0.15391957
     atom   60 type  2   force =     0.05897753   -0.03367162    0.05842718
     atom   61 type  2   force =     0.13143133   -0.30267216    0.15813512
     atom   62 type  2   force =     0.02778572    0.03478888   -0.09837639
     atom   63 type  2   force =     0.12339914    0.07086776   -0.27358983
     The local contribution  to forces
     atom    1 type  1   force =    -2.22572441   -2.19175128   -2.24174081
     atom    2 type  2   force =    -2.21223765    1.85388854    2.02495496
     atom    3 type  2   force =    -0.54690278    0.65471757    0.78605964
     atom    4 type  2   force =     1.88461451   -2.11793622    1.95976925
     atom    5 type  2   force =     0.70826559   -0.46917079    0.76564112
     atom    6 type  2   force =     1.99928716    1.89953569   -2.27172818
     atom    7 type  2   force =     0.75685020    0.67537443   -0.60357533
     atom    8 type  2   force =    -0.24684763   -0.20415331    0.67766769
     atom    9 type  2   force =    -0.05435211   -0.02786948    0.20833620
     atom   10 type  2   force =    -0.13338871   -0.05798118   -0.54727638
     atom   11 type  2   force =     0.60325081    0.56257565   -0.72900986
     atom   12 type  2   force =     0.01379050   -0.11657935   -0.55782237
     atom   13 type  2   force =     0.60772163    0.63843375   -0.69772662
     atom   14 type  2   force =     0.19742350    0.17423081    0.66729873
     atom   15 type  2   force =     0.15585704    0.11145424    0.06625311
     atom   16 type  2   force =    -0.18792556    0.72397694   -0.21288010
     atom   17 type  2   force =    -0.06895703    0.13502856   -0.09027714
     atom   18 type  2   force =    -0.17931847   -0.44577333    0.01426046
     atom   19 type  2   force =     0.43446858   -0.66806870    0.64704965
     atom   20 type  2   force =     0.17867679    0.67891516    0.18749503
     atom   21 type  2   force =     0.16277762    0.05266815    0.17894846
     atom   22 type  2   force =    -0.01251105   -0.45407051   -0.19093684
     atom   23 type  2   force =     0.62439474   -0.69800962    0.40261227
     atom   24 type  2   force =    -0.03317490    0.10638134    0.14004484
     atom   25 type  2   force =     0.02954798    0.06073518    0.05268619
     atom   26 type  2   force =    -0.07618376    0.12253636    0.07513350
     atom   27 type  2   force =    -1.01994778   -0.37381369   -0.37945326
     atom   28 type  2   force =     0.00987659    0.10551833   -0.09195857
     atom   29 type  2   force =     0.15328775   -0.05584288   -0.25506340
     atom   30 type  2   force =    -0.07424275   -0.11995158    0.18481671
     atom   31 type  2   force =     0.15111990   -0.10522460   -0.01238414
     atom   32 type  2   force =     0.69301894   -0.18281578   -0.25627235
     atom   33 type  2   force =     0.18361786   -0.02689778   -0.08790856
     atom   34 type  2   force =     0.66757059    0.17443847    0.20042497
     atom   35 type  2   force =     0.06196867    0.12119718    0.18425915
     atom   36 type  2   force =    -0.49628894   -0.12889862    0.01481774
     atom   37 type  2   force =    -0.66396776    0.57604976    0.63796196
     atom   38 type  2   force =    -0.51899766   -0.05712317   -0.16433982
     atom   39 type  2   force =    -0.73147914    0.57148091    0.50492723
     atom   40 type  2   force =     0.14180833    0.00848789    0.20421246
     atom   41 type  2   force =     0.04601003    0.09428429    0.05032393
     atom   42 type  2   force =     0.10743984   -0.10584124   -0.07582676
     atom   43 type  2   force =    -0.05105556    0.11168513   -0.25893007
     atom   44 type  2   force =     0.09622188   -0.06666364    0.07991258
     atom   45 type  2   force =    -0.37631913   -1.03817913   -0.37988554
     atom   46 type  2   force =    -0.08503603   -0.12387993    0.14850088
     atom   47 type  2   force =    -0.22802585    0.11190144   -0.03473672
     atom   48 type  2   force =     0.10366268    0.08099216   -0.06023902
     atom   49 type  2   force =     0.05900136    0.06723640    0.00533593
     atom   50 type  2   force =     0.21182599   -0.12991876    0.01236396
     atom   51 type  2   force =    -0.01062277   -0.17566436    0.17656638
     atom   52 type  2   force =    -0.11810003    0.15147353    0.05307830
     atom   53 type  2   force =    -0.23448754   -0.03456962    0.17921244
     atom   54 type  2   force =     0.08845934    0.11817550   -0.08101730
     atom   55 type  2   force =    -0.37544702   -0.37522928   -1.01043685
     atom   56 type  2   force =     0.07526371    0.00324521    0.10486959
     atom   57 type  2   force =     0.02354110    0.02447773    0.01146950
     atom   58 type  2   force =     0.08742443   -0.03861921   -0.00151779
     atom   59 type  2   force =     0.27490520   -0.06104592   -0.14295215
     atom   60 type  2   force =    -0.04595847    0.01724433   -0.04456207
     atom   61 type  2   force =    -0.12003825    0.29213645   -0.14647702
     atom   62 type  2   force =    -0.01533568   -0.02463549    0.08441847
     atom   63 type  2   force =    -0.11128159   -0.05871651    0.26468311
     The core correction contribution to forces
     atom    1 type  1   force =     0.00000000    0.00000000    0.00000000
     atom    2 type  2   force =     0.00000000    0.00000000    0.00000000
     atom    3 type  2   force =     0.00000000    0.00000000    0.00000000
     atom    4 type  2   force =     0.00000000    0.00000000    0.00000000
     atom    5 type  2   force =     0.00000000    0.00000000    0.00000000
     atom    6 type  2   force =     0.00000000    0.00000000    0.00000000
     atom    7 type  2   force =     0.00000000    0.00000000    0.00000000
     atom    8 type  2   force =     0.00000000    0.00000000    0.00000000
     atom    9 type  2   force =     0.00000000    0.00000000    0.00000000
     atom   10 type  2   force =     0.00000000    0.00000000    0.00000000
     atom   11 type  2   force =     0.00000000    0.00000000    0.00000000
     atom   12 type  2   force =     0.00000000    0.00000000    0.00000000
     atom   13 type  2   force =     0.00000000    0.00000000    0.00000000
     atom   14 type  2   force =     0.00000000    0.00000000    0.00000000
     atom   15 type  2   force =     0.00000000    0.00000000    0.00000000
     atom   16 type  2   force =     0.00000000    0.00000000    0.00000000
     atom   17 type  2   force =     0.00000000    0.00000000    0.00000000
     atom   18 type  2   force =     0.00000000    0.00000000    0.00000000
     atom   19 type  2   force =     0.00000000    0.00000000    0.00000000
     atom   20 type  2   force =     0.00000000    0.00000000    0.00000000
     atom   21 type  2   force =     0.00000000    0.00000000    0.00000000
     atom   22 type  2   force =     0.00000000    0.00000000    0.00000000
     atom   23 type  2   force =     0.00000000    0.00000000    0.00000000
     atom   24 type  2   force =     0.00000000    0.00000000    0.00000000
     atom   25 type  2   force =     0.00000000    0.00000000    0.00000000
     atom   26 type  2   force =     0.00000000    0.00000000    0.00000000
     atom   27 type  2   force =     0.00000000    0.00000000    0.00000000
     atom   28 type  2   force =     0.00000000    0.00000000    0.00000000
     atom   29 type  2   force =     0.00000000    0.00000000    0.00000000
     atom   30 type  2   force =     0.00000000    0.00000000    0.00000000
     atom   31 type  2   force =     0.00000000    0.00000000    0.00000000
     atom   32 type  2   force =     0.00000000    0.00000000    0.00000000
     atom   33 type  2   force =     0.00000000    0.00000000    0.00000000
     atom   34 type  2   force =     0.00000000    0.00000000    0.00000000
     atom   35 type  2   force =     0.00000000    0.00000000    0.00000000
     atom   36 type  2   force =     0.00000000    0.00000000    0.00000000
     atom   37 type  2   force =     0.00000000    0.00000000    0.00000000
     atom   38 type  2   force =     0.00000000    0.00000000    0.00000000
     atom   39 type  2   force =     0.00000000    0.00000000    0.00000000
     atom   40 type  2   force =     0.00000000    0.00000000    0.00000000
     atom   41 type  2   force =     0.00000000    0.00000000    0.00000000
     atom   42 type  2   force =     0.00000000    0.00000000    0.00000000
     atom   43 type  2   force =     0.00000000    0.00000000    0.00000000
     atom   44 type  2   force =     0.00000000    0.00000000    0.00000000
     atom   45 type  2   force =     0.00000000    0.00000000    0.00000000
     atom   46 type  2   force =     0.00000000    0.00000000    0.00000000
     atom   47 type  2   force =     0.00000000    0.00000000    0.00000000
     atom   48 type  2   force =     0.00000000    0.00000000    0.00000000
     atom   49 type  2   force =     0.00000000    0.00000000    0.00000000
     atom   50 type  2   force =     0.00000000    0.00000000    0.00000000
     atom   51 type  2   force =     0.00000000    0.00000000    0.00000000
     atom   52 type  2   force =     0.00000000    0.00000000    0.00000000
     atom   53 type  2   force =     0.00000000    0.00000000    0.00000000
     atom   54 type  2   force =     0.00000000    0.00000000    0.00000000
     atom   55 type  2   force =     0.00000000    0.00000000    0.00000000
     atom   56 type  2   force =     0.00000000    0.00000000    0.00000000
     atom   57 type  2   force =     0.00000000    0.00000000    0.00000000
     atom   58 type  2   force =     0.00000000    0.00000000    0.00000000
     atom   59 type  2   force =     0.00000000    0.00000000    0.00000000
     atom   60 type  2   force =     0.00000000    0.00000000    0.00000000
     atom   61 type  2   force =     0.00000000    0.00000000    0.00000000
     atom   62 type  2   force =     0.00000000    0.00000000    0.00000000
     atom   63 type  2   force =     0.00000000    0.00000000    0.00000000
     The Hubbard contrib.    to forces
     atom    1 type  1   force =     0.00000000    0.00000000    0.00000000
     atom    2 type  2   force =     0.00000000    0.00000000    0.00000000
     atom    3 type  2   force =     0.00000000    0.00000000    0.00000000
     atom    4 type  2   force =     0.00000000    0.00000000    0.00000000
     atom    5 type  2   force =     0.00000000    0.00000000    0.00000000
     atom    6 type  2   force =     0.00000000    0.00000000    0.00000000
     atom    7 type  2   force =     0.00000000    0.00000000    0.00000000
     atom    8 type  2   force =     0.00000000    0.00000000    0.00000000
     atom    9 type  2   force =     0.00000000    0.00000000    0.00000000
     atom   10 type  2   force =     0.00000000    0.00000000    0.00000000
     atom   11 type  2   force =     0.00000000    0.00000000    0.00000000
     atom   12 type  2   force =     0.00000000    0.00000000    0.00000000
     atom   13 type  2   force =     0.00000000    0.00000000    0.00000000
     atom   14 type  2   force =     0.00000000    0.00000000    0.00000000
     atom   15 type  2   force =     0.00000000    0.00000000    0.00000000
     atom   16 type  2   force =     0.00000000    0.00000000    0.00000000
     atom   17 type  2   force =     0.00000000    0.00000000    0.00000000
     atom   18 type  2   force =     0.00000000    0.00000000    0.00000000
     atom   19 type  2   force =     0.00000000    0.00000000    0.00000000
     atom   20 type  2   force =     0.00000000    0.00000000    0.00000000
     atom   21 type  2   force =     0.00000000    0.00000000    0.00000000
     atom   22 type  2   force =     0.00000000    0.00000000    0.00000000
     atom   23 type  2   force =     0.00000000    0.00000000    0.00000000
     atom   24 type  2   force =     0.00000000    0.00000000    0.00000000
     atom   25 type  2   force =     0.00000000    0.00000000    0.00000000
     atom   26 type  2   force =     0.00000000    0.00000000    0.00000000
     atom   27 type  2   force =     0.00000000    0.00000000    0.00000000
     atom   28 type  2   force =     0.00000000    0.00000000    0.00000000
     atom   29 type  2   force =     0.00000000    0.00000000    0.00000000
     atom   30 type  2   force =     0.00000000    0.00000000    0.00000000
     atom   31 type  2   force =     0.00000000    0.00000000    0.00000000
     atom   32 type  2   force =     0.00000000    0.00000000    0.00000000
     atom   33 type  2   force =     0.00000000    0.00000000    0.00000000
     atom   34 type  2   force =     0.00000000    0.00000000    0.00000000
     atom   35 type  2   force =     0.00000000    0.00000000    0.00000000
     atom   36 type  2   force =     0.00000000    0.00000000    0.00000000
     atom   37 type  2   force =     0.00000000    0.00000000    0.00000000
     atom   38 type  2   force =     0.00000000    0.00000000    0.00000000
     atom   39 type  2   force =     0.00000000    0.00000000    0.00000000
     atom   40 type  2   force =     0.00000000    0.00000000    0.00000000
     atom   41 type  2   force =     0.00000000    0.00000000    0.00000000
     atom   42 type  2   force =     0.00000000    0.00000000    0.00000000
     atom   43 type  2   force =     0.00000000    0.00000000    0.00000000
     atom   44 type  2   force =     0.00000000    0.00000000    0.00000000
     atom   45 type  2   force =     0.00000000    0.00000000    0.00000000
     atom   46 type  2   force =     0.00000000    0.00000000    0.00000000
     atom   47 type  2   force =     0.00000000    0.00000000    0.00000000
     atom   48 type  2   force =     0.00000000    0.00000000    0.00000000
     atom   49 type  2   force =     0.00000000    0.00000000    0.00000000
     atom   50 type  2   force =     0.00000000    0.00000000    0.00000000
     atom   51 type  2   force =     0.00000000    0.00000000    0.00000000
     atom   52 type  2   force =     0.00000000    0.00000000    0.00000000
     atom   53 type  2   force =     0.00000000    0.00000000    0.00000000
     atom   54 type  2   force =     0.00000000    0.00000000    0.00000000
     atom   55 type  2   force =     0.00000000    0.00000000    0.00000000
     atom   56 type  2   force =     0.00000000    0.00000000    0.00000000
     atom   57 type  2   force =     0.00000000    0.00000000    0.00000000
     atom   58 type  2   force =     0.00000000    0.00000000    0.00000000
     atom   59 type  2   force =     0.00000000    0.00000000    0.00000000
     atom   60 type  2   force =     0.00000000    0.00000000    0.00000000
     atom   61 type  2   force =     0.00000000    0.00000000    0.00000000
     atom   62 type  2   force =     0.00000000    0.00000000    0.00000000
     atom   63 type  2   force =     0.00000000    0.00000000    0.00000000
     The SCF correction term to forces
     atom    1 type  1   force =    -0.00002550   -0.00002861    0.00000201
     atom    2 type  2   force =    -0.00001461   -0.00001740    0.00000141
     atom    3 type  2   force =     0.00001440    0.00001447    0.00001168
     atom    4 type  2   force =     0.00000619   -0.00001441   -0.00000408
     atom    5 type  2   force =     0.00001837   -0.00001736   -0.00001250
     atom    6 type  2   force =     0.00001056   -0.00001840    0.00000743
     atom    7 type  2   force =     0.00002527   -0.00000348    0.00001531
     atom    8 type  2   force =    -0.00002360   -0.00003226   -0.00000219
     atom    9 type  2   force =    -0.00001767   -0.00002299    0.00000150
     atom   10 type  2   force =    -0.00003081   -0.00000676   -0.00000125
     atom   11 type  2   force =    -0.00002141    0.00000242   -0.00000843
     atom   12 type  2   force =    -0.00000286   -0.00001388   -0.00000122
     atom   13 type  2   force =     0.00001686   -0.00001764    0.00000686
     atom   14 type  2   force =     0.00001720   -0.00000976   -0.00000746
     atom   15 type  2   force =     0.00002691    0.00000732   -0.00001754
     atom   16 type  2   force =    -0.00002520    0.00002390   -0.00001111
     atom   17 type  2   force =    -0.00001469    0.00003224    0.00000460
     atom   18 type  2   force =    -0.00002639    0.00001913    0.00000949
     atom   19 type  2   force =    -0.00001674   -0.00000422   -0.00000588
     atom   20 type  2   force =     0.00001845    0.00001618    0.00000776
     atom   21 type  2   force =     0.00002611    0.00000957    0.00000159
     atom   22 type  2   force =    -0.00000464    0.00001640    0.00001056
     atom   23 type  2   force =     0.00000755    0.00000739    0.00001602
     atom   24 type  2   force =    -0.00002700    0.00003196    0.00001176
     atom   25 type  2   force =    -0.00002077    0.00002140   -0.00000440
     atom   26 type  2   force =    -0.00002259    0.00000693   -0.00000858
     atom   27 type  2   force =    -0.00001272   -0.00000719   -0.00000063
     atom   28 type  2   force =    -0.00000280    0.00001658   -0.00000774
     atom   29 type  2   force =     0.00001395    0.00001865   -0.00000248
     atom   30 type  2   force =    -0.00000453    0.00001215   -0.00000811
     atom   31 type  2   force =     0.00001440   -0.00000588   -0.00000722
     atom   32 type  2   force =     0.00001464   -0.00000604    0.00001353
     atom   33 type  2   force =     0.00000155   -0.00001915    0.00000437
     atom   34 type  2   force =     0.00000774   -0.00001090    0.00000516
     atom   35 type  2   force =    -0.00000802    0.00001335    0.00000946
     atom   36 type  2   force =    -0.00000881   -0.00003419    0.00001032
     atom   37 type  2   force =    -0.00002938   -0.00004804    0.00001621
     atom   38 type  2   force =    -0.00001217   -0.00000820   -0.00001458
     atom   39 type  2   force =    -0.00003268    0.00001754   -0.00001995
     atom   40 type  2   force =     0.00002395   -0.00001230   -0.00001448
     atom   41 type  2   force =     0.00001902   -0.00000905   -0.00000349
     atom   42 type  2   force =     0.00003270   -0.00000755   -0.00000490
     atom   43 type  2   force =     0.00002418   -0.00000159   -0.00000757
     atom   44 type  2   force =     0.00000381   -0.00000537   -0.00000758
     atom   45 type  2   force =    -0.00002286   -0.00000886   -0.00001346
     atom   46 type  2   force =    -0.00001499   -0.00000948    0.00001703
     atom   47 type  2   force =    -0.00002762    0.00000868    0.00001599
     atom   48 type  2   force =     0.00002489    0.00000689    0.00001055
     atom   49 type  2   force =     0.00001615    0.00001839    0.00001868
     atom   50 type  2   force =     0.00002814    0.00001159    0.00000985
     atom   51 type  2   force =     0.00002407   -0.00001211   -0.00000231
     atom   52 type  2   force =    -0.00001711    0.00003724    0.00000725
     atom   53 type  2   force =    -0.00002800    0.00004193    0.00000658
     atom   54 type  2   force =     0.00000641    0.00000874    0.00001405
     atom   55 type  2   force =    -0.00001789   -0.00001562    0.00001777
     atom   56 type  2   force =     0.00002465    0.00001166   -0.00000905
     atom   57 type  2   force =     0.00001929    0.00000945   -0.00001813
     atom   58 type  2   force =     0.00001995    0.00000657   -0.00001124
     atom   59 type  2   force =     0.00001626    0.00000130   -0.00000043
     atom   60 type  2   force =     0.00000395    0.00000301   -0.00000930
     atom   61 type  2   force =    -0.00001276    0.00001096   -0.00000645
     atom   62 type  2   force =     0.00000296    0.00000845   -0.00001696
     atom   63 type  2   force =    -0.00001380   -0.00000782   -0.00001707

     Total force =     0.128819     Total SCF correction =     0.000223

     Writing all to output data dir ./pwscf.save/ :
     XML data file, charge density, pseudopotentials, collected wavefunctions
 
     init_run     :      0.58s CPU      0.62s WALL (       1 calls)
     electrons    :     16.38s CPU     16.66s WALL (       1 calls)
     forces       :      2.52s CPU      2.53s WALL (       1 calls)

     Called by init_run:
     wfcinit      :      0.05s CPU      0.06s WALL (       1 calls)
     wfcinit:wfcr :      0.04s CPU      0.05s WALL (       1 calls)
     potinit      :      0.37s CPU      0.37s WALL (       1 calls)
     hinit0       :      0.06s CPU      0.08s WALL (       1 calls)

     Called by electrons:
     c_bands      :     10.75s CPU     10.93s WALL (      14 calls)
     sum_band     :      2.79s CPU      2.80s WALL (      14 calls)
     v_of_rho     :      0.61s CPU      0.62s WALL (      15 calls)
     v_h          :      0.01s CPU      0.01s WALL (      15 calls)
     v_xc         :      0.61s CPU      0.61s WALL (      15 calls)
     mix_rho      :      1.41s CPU      1.41s WALL (      14 calls)

     Called by c_bands:
     init_us_2    :      0.02s CPU      0.02s WALL (      30 calls)
     regterg      :     10.47s CPU     10.65s WALL (      14 calls)

     Called by sum_band:
     sum_band:wei :      0.02s CPU      0.02s WALL (      14 calls)
     sum_band:loo :      2.65s CPU      2.66s WALL (      14 calls)
     sum_band:buf :      0.00s CPU      0.00s WALL (      14 calls)
     sum_band:ini :      0.01s CPU      0.01s WALL (      14 calls)

     Called by *egterg:
     rdiaghg      :      4.13s CPU      4.24s WALL (     272 calls)
     regterg:over :      1.02s CPU      1.03s WALL (     258 calls)
     regterg:upda :      0.61s CPU      0.62s WALL (     258 calls)
     regterg:last :      0.26s CPU      0.27s WALL (      52 calls)
     rdiaghg:chol :      0.13s CPU      0.14s WALL (     272 calls)
     rdiaghg:inve :      0.03s CPU      0.03s WALL (     272 calls)
     rdiaghg:para :      0.42s CPU      0.45s WALL (     544 calls)
     h_psi        :      4.09s CPU      4.14s WALL (     273 calls)
     g_psi        :      0.00s CPU      0.00s WALL (     258 calls)

     Called by h_psi:
     h_psi:calbec :      0.80s CPU      0.81s WALL (     273 calls)
     vloc_psi     :      3.18s CPU      3.22s WALL (     273 calls)
                                        0.00s GPU  (     273 calls)
     add_vuspsi   :      0.10s CPU      0.11s WALL (     273 calls)

     General routines
     calbec       :      3.31s CPU      3.32s WALL (     277 calls)
     fft          :      0.44s CPU      0.46s WALL (     196 calls)
     ffts         :      0.04s CPU      0.04s WALL (      14 calls)
     fftw         :      5.72s CPU      5.77s WALL (   10110 calls)
 
     Parallel routines
 
     PWSCF        :     22.53s CPU     22.98s WALL

 
   This run was terminated on:  16:22: 1  16Nov2025            

=------------------------------------------------------------------------------=
   JOB DONE.
=------------------------------------------------------------------------------=
