
     Program PWSCF v.7.5 starts on 16Nov2025 at 16:53:13 

     This program is part of the open-source Quantum ESPRESSO suite
     for quantum simulation of materials; please cite
         "P. Giannozzi et al., J. Phys.:Condens. Matter 21 395502 (2009);
         "P. Giannozzi et al., J. Phys.:Condens. Matter 29 465901 (2017);
         "P. Giannozzi et al., J. Chem. Phys. 152 154105 (2020);
          URL http://www.quantum-espresso.org", 
     in publications or presentations arising from this work. More details at
     http://www.quantum-espresso.org/quote

     Parallel version (MPI), running on    96 processors

     MPI processes distributed on     2 nodes
     174361 MiB available memory on the printing compute node when the environment starts
 
     Reading input from supercell-282.in

     Current dimensions of program PWSCF are:
     Max number of different atomic species (ntypx) = 10
     Max number of k-points (npk) =  40000
     Max angular momentum in pseudopotentials (lmaxx) =  4

     gamma-point specific algorithms are used
 
     K-points division:     npool     =       2
     R & G space division:  proc/nbgrp/npool/nimage =      48
     Subspace diagonalization in iterative solution of the eigenvalue problem:
     one sub-group per band group will be used
     scalapack distributed-memory algorithm (size of sub-group:  2*  2 procs)

 
     Parallelization info
     --------------------
     sticks:   dense  smooth     PW     G-vecs:    dense   smooth      PW
     Min          59      59     14                 2432     2432     302
     Max          62      62     16                 2442     2442     316
     Sum        2885    2885    725               116921   116921   14771
 
     Using Slab Decomposition
 


     bravais-lattice index     =            0
     lattice parameter (alat)  =      13.4813  a.u.
     unit-cell volume          =    2450.1683 (a.u.)^3
     number of atoms/cell      =           63
     number of atomic types    =            2
     number of electrons       =       254.00 (up: 128.00, down: 126.00)
     number of Kohn-Sham states=          152
     kinetic-energy cutoff     =      50.0000  Ry
     charge density cutoff     =     200.0000  Ry
     scf convergence threshold =      1.0E-08
     mixing beta               =       0.7000
     number of iterations used =            8  plain     mixing
     Exchange-correlation= PBE
                           (   1   4   3   4   0   0   0)

     celldm(1)=  13.481306  celldm(2)=   0.000000  celldm(3)=   0.000000
     celldm(4)=   0.000000  celldm(5)=   0.000000  celldm(6)=   0.000000

     crystal axes: (cart. coord. in units of alat)
               a(1) = (   1.000000   0.000000   0.000000 )  
               a(2) = (   0.000000   1.000000   0.000000 )  
               a(3) = (   0.000000   0.000000   1.000000 )  

     reciprocal axes: (cart. coord. in units 2 pi/alat)
               b(1) = (  1.000000  0.000000  0.000000 )  
               b(2) = (  0.000000  1.000000  0.000000 )  
               b(3) = (  0.000000  0.000000  1.000000 )  


     PseudoPot. # 1 for N  read from file:
     ./N_ONCV_PBE-1.2.upf
     MD5 check sum: 5312fdf34e96954e02a33bdc911c617a
     Pseudo is Norm-conserving, Zval =  5.0
     Generated using ONCVPSP code by D. R. Hamann
     Using radial grid of  602 points,  4 beta functions with: 
                l(1) =   0
                l(2) =   0
                l(3) =   1
                l(4) =   1

     PseudoPot. # 2 for C  read from file:
     ./C_ONCV_PBE-1.2.upf
     MD5 check sum: d60b57d9bdca4133f5fde4b584ee909d
     Pseudo is Norm-conserving, Zval =  4.0
     Generated using ONCVPSP code by D. R. Hamann
     Using radial grid of  602 points,  4 beta functions with: 
                l(1) =   0
                l(2) =   0
                l(3) =   1
                l(4) =   1

     atomic species   valence    mass     pseudopotential
     N                 5.00    14.00670     N ( 1.00)
     C                 4.00    12.01070     C ( 1.00)

     Starting magnetic structure 
     atomic species   magnetization
     N               0.000
     C               0.000

     No symmetry found


                                    s                        frac. trans.

      isym =  1     identity                                     

 cryst.   s( 1) = (     1          0          0      )
                  (     0          1          0      )
                  (     0          0          1      )

 cart.    s( 1) = (  1.0000000  0.0000000  0.0000000 )
                  (  0.0000000  1.0000000  0.0000000 )
                  (  0.0000000  0.0000000  1.0000000 )


   Cartesian axes

     site n.     atom                  positions (alat units)
         1        N      tau(   1) = (   0.9893819   0.9897344   0.9891721  )
         2        C      tau(   2) = (   0.9870277   0.2601210   0.2640728  )
         3        C      tau(   3) = (   0.1231717   0.3731672   0.3742038  )
         4        C      tau(   4) = (   0.2603919   0.9894620   0.2619202  )
         5        C      tau(   5) = (   0.3737632   0.1246771   0.3741571  )
         6        C      tau(   6) = (   0.2640151   0.2616009   0.9853609  )
         7        C      tau(   7) = (   0.3737752   0.3731213   0.1223564  )
         8        C      tau(   8) = (   0.0000049   0.0005840   0.4991361  )
         9        C      tau(   9) = (   0.1251361   0.1251278   0.6250981  )
        10        C      tau(  10) = (   0.0020393   0.2482470   0.7515266  )
        11        C      tau(  11) = (   0.1292009   0.3733021   0.8763303  )
        12        C      tau(  12) = (   0.2487801   0.0017974   0.7514403  )
        13        C      tau(  13) = (   0.3754339   0.1292460   0.8748544  )
        14        C      tau(  14) = (   0.2491579   0.2495268   0.4995755  )
        15        C      tau(  15) = (   0.3750038   0.3749547   0.6244069  )
        16        C      tau(  16) = (   0.0016366   0.4979779   0.0013734  )
        17        C      tau(  17) = (   0.1250869   0.6243147   0.1250807  )
        18        C      tau(  18) = (   0.0014462   0.7520697   0.2483230  )
        19        C      tau(  19) = (   0.1266755   0.8769178   0.3741906  )
        20        C      tau(  20) = (   0.2488290   0.4983596   0.2486760  )
        21        C      tau(  21) = (   0.3741642   0.6242659   0.3742111  )
        22        C      tau(  22) = (   0.2480673   0.7520817   0.0015447  )
        23        C      tau(  23) = (   0.3729914   0.8777475   0.1265606  )
        24        C      tau(  24) = (   0.0000493   0.5010760   0.5011299  )
        25        C      tau(  25) = (   0.1252054   0.6262200   0.6252733  )
        26        C      tau(  26) = (   0.9993969   0.7487112   0.7492532  )
        27        C      tau(  27) = (   0.1217927   0.8768349   0.8763928  )
        28        C      tau(  28) = (   0.2492749   0.5017254   0.7482724  )
        29        C      tau(  29) = (   0.3741000   0.6263042   0.8750769  )
        30        C      tau(  30) = (   0.2487293   0.7486845   0.5007616  )
        31        C      tau(  31) = (   0.3739266   0.8750581   0.6258828  )
        32        C      tau(  32) = (   0.4987543   0.0011228   0.0002828  )
        33        C      tau(  33) = (   0.6248203   0.1251003   0.1251034  )
        34        C      tau(  34) = (   0.4991217   0.2493918   0.2488717  )
        35        C      tau(  35) = (   0.6243080   0.3746888   0.3747831  )
        36        C      tau(  36) = (   0.7516460   0.0016191   0.2487956  )
        37        C      tau(  37) = (   0.8750430   0.1283649   0.3757598  )
        38        C      tau(  38) = (   0.7517475   0.2480080   0.0019610  )
        39        C      tau(  39) = (   0.8773622   0.3724247   0.1282033  )
        40        C      tau(  40) = (   0.5008161   0.9999897   0.5008301  )
        41        C      tau(  41) = (   0.6256173   0.1249721   0.6252590  )
        42        C      tau(  42) = (   0.5022259   0.2488088   0.7478265  )
        43        C      tau(  43) = (   0.6264784   0.3739683   0.8752045  )
        44        C      tau(  44) = (   0.7487945   0.9989046   0.7489691  )
        45        C      tau(  45) = (   0.8764746   0.1216998   0.8763156  )
        46        C      tau(  46) = (   0.7479635   0.2486819   0.5018806  )
        47        C      tau(  47) = (   0.8751980   0.3739245   0.6248903  )
        48        C      tau(  48) = (   0.5012000   0.5011574   0.0001136  )
        49        C      tau(  49) = (   0.6256259   0.6262099   0.1252968  )
        50        C      tau(  50) = (   0.5005188   0.7489091   0.2490095  )
        51        C      tau(  51) = (   0.6258050   0.8750157   0.3740056  )
        52        C      tau(  52) = (   0.7486304   0.5011458   0.2494302  )
        53        C      tau(  53) = (   0.8750247   0.6261269   0.3741365  )
        54        C      tau(  54) = (   0.7492281   0.7488562   0.9996087  )
        55        C      tau(  55) = (   0.8766209   0.8769033   0.1218021  )
        56        C      tau(  56) = (   0.4990819   0.4992903   0.4990317  )
        57        C      tau(  57) = (   0.6247789   0.6244471   0.6249452  )
        58        C      tau(  58) = (   0.4991767   0.7499842   0.7500845  )
        59        C      tau(  59) = (   0.6239946   0.8751464   0.8754130  )
        60        C      tau(  60) = (   0.7505316   0.4989321   0.7505826  )
        61        C      tau(  61) = (   0.8758455   0.6234984   0.8759288  )
        62        C      tau(  62) = (   0.7498244   0.7497799   0.4993198  )
        63        C      tau(  63) = (   0.8750855   0.8749084   0.6242568  )

   Crystallographic axes

     site n.     atom                  positions (cryst. coord.)
         1        N      tau(   1) = (  0.9893819  0.9897344  0.9891721  )
         2        C      tau(   2) = (  0.9870277  0.2601210  0.2640728  )
         3        C      tau(   3) = (  0.1231717  0.3731672  0.3742038  )
         4        C      tau(   4) = (  0.2603919  0.9894620  0.2619202  )
         5        C      tau(   5) = (  0.3737632  0.1246771  0.3741571  )
         6        C      tau(   6) = (  0.2640151  0.2616009  0.9853609  )
         7        C      tau(   7) = (  0.3737752  0.3731213  0.1223564  )
         8        C      tau(   8) = (  0.0000049  0.0005840  0.4991361  )
         9        C      tau(   9) = (  0.1251361  0.1251278  0.6250981  )
        10        C      tau(  10) = (  0.0020393  0.2482470  0.7515266  )
        11        C      tau(  11) = (  0.1292009  0.3733021  0.8763303  )
        12        C      tau(  12) = (  0.2487801  0.0017974  0.7514403  )
        13        C      tau(  13) = (  0.3754339  0.1292460  0.8748544  )
        14        C      tau(  14) = (  0.2491579  0.2495268  0.4995755  )
        15        C      tau(  15) = (  0.3750038  0.3749547  0.6244069  )
        16        C      tau(  16) = (  0.0016366  0.4979779  0.0013734  )
        17        C      tau(  17) = (  0.1250869  0.6243147  0.1250807  )
        18        C      tau(  18) = (  0.0014462  0.7520697  0.2483230  )
        19        C      tau(  19) = (  0.1266755  0.8769178  0.3741906  )
        20        C      tau(  20) = (  0.2488290  0.4983596  0.2486760  )
        21        C      tau(  21) = (  0.3741642  0.6242659  0.3742111  )
        22        C      tau(  22) = (  0.2480673  0.7520817  0.0015447  )
        23        C      tau(  23) = (  0.3729914  0.8777475  0.1265606  )
        24        C      tau(  24) = (  0.0000493  0.5010760  0.5011299  )
        25        C      tau(  25) = (  0.1252054  0.6262200  0.6252733  )
        26        C      tau(  26) = (  0.9993969  0.7487112  0.7492532  )
        27        C      tau(  27) = (  0.1217927  0.8768349  0.8763928  )
        28        C      tau(  28) = (  0.2492749  0.5017254  0.7482724  )
        29        C      tau(  29) = (  0.3741000  0.6263042  0.8750769  )
        30        C      tau(  30) = (  0.2487293  0.7486845  0.5007616  )
        31        C      tau(  31) = (  0.3739266  0.8750581  0.6258828  )
        32        C      tau(  32) = (  0.4987543  0.0011228  0.0002828  )
        33        C      tau(  33) = (  0.6248203  0.1251003  0.1251034  )
        34        C      tau(  34) = (  0.4991217  0.2493918  0.2488717  )
        35        C      tau(  35) = (  0.6243080  0.3746888  0.3747831  )
        36        C      tau(  36) = (  0.7516460  0.0016191  0.2487956  )
        37        C      tau(  37) = (  0.8750430  0.1283649  0.3757598  )
        38        C      tau(  38) = (  0.7517475  0.2480080  0.0019610  )
        39        C      tau(  39) = (  0.8773622  0.3724247  0.1282033  )
        40        C      tau(  40) = (  0.5008161  0.9999897  0.5008301  )
        41        C      tau(  41) = (  0.6256173  0.1249721  0.6252590  )
        42        C      tau(  42) = (  0.5022259  0.2488088  0.7478265  )
        43        C      tau(  43) = (  0.6264784  0.3739683  0.8752045  )
        44        C      tau(  44) = (  0.7487945  0.9989046  0.7489691  )
        45        C      tau(  45) = (  0.8764746  0.1216998  0.8763156  )
        46        C      tau(  46) = (  0.7479635  0.2486819  0.5018806  )
        47        C      tau(  47) = (  0.8751980  0.3739245  0.6248903  )
        48        C      tau(  48) = (  0.5012000  0.5011574  0.0001136  )
        49        C      tau(  49) = (  0.6256259  0.6262099  0.1252968  )
        50        C      tau(  50) = (  0.5005188  0.7489091  0.2490095  )
        51        C      tau(  51) = (  0.6258050  0.8750157  0.3740056  )
        52        C      tau(  52) = (  0.7486304  0.5011458  0.2494302  )
        53        C      tau(  53) = (  0.8750247  0.6261269  0.3741365  )
        54        C      tau(  54) = (  0.7492281  0.7488562  0.9996087  )
        55        C      tau(  55) = (  0.8766209  0.8769033  0.1218021  )
        56        C      tau(  56) = (  0.4990819  0.4992903  0.4990317  )
        57        C      tau(  57) = (  0.6247789  0.6244471  0.6249452  )
        58        C      tau(  58) = (  0.4991767  0.7499842  0.7500845  )
        59        C      tau(  59) = (  0.6239946  0.8751464  0.8754130  )
        60        C      tau(  60) = (  0.7505316  0.4989321  0.7505826  )
        61        C      tau(  61) = (  0.8758455  0.6234984  0.8759288  )
        62        C      tau(  62) = (  0.7498244  0.7497799  0.4993198  )
        63        C      tau(  63) = (  0.8750855  0.8749084  0.6242568  )

     number of k points=     1
                       cart. coord. in units 2pi/alat
        k(    1) = (   0.0000000   0.0000000   0.0000000), wk =   1.0000000

                       cryst. coord.
        k(    1) = (   0.0000000   0.0000000   0.0000000), wk =   1.0000000

     Dense  grid:    58461 G-vectors     FFT dimensions: (  64,  64,  64)

     Dynamical RAM for                 wfc:       0.35 MB

     Dynamical RAM for     wfc (w. buffer):       0.35 MB

     Dynamical RAM for           str. fact:       0.04 MB

     Dynamical RAM for           local pot:       0.00 MB

     Dynamical RAM for          nlocal pot:       1.17 MB

     Dynamical RAM for                qrad:       0.65 MB

     Dynamical RAM for          rho,v,vnew:       0.49 MB

     Dynamical RAM for               rhoin:       0.16 MB

     Dynamical RAM for            rho*nmix:       0.60 MB

     Dynamical RAM for           G-vectors:       0.08 MB

     Dynamical RAM for          h,s,v(r/c):       0.53 MB

     Dynamical RAM for          <psi|beta>:       0.58 MB

     Dynamical RAM for                 psi:       0.71 MB

     Dynamical RAM for                hpsi:       0.71 MB

     Dynamical RAM for      wfcinit/wfcrot:       1.24 MB

     Estimated static dynamical RAM per process >       3.37 MB

     Estimated max dynamical RAM per process >       6.49 MB

     Estimated total dynamical RAM >     594.05 MB
     Generating pointlists ...
     new r_m :   0.0854 (alat units)  1.1518 (a.u.) for type    1
     new r_m :   0.0847 (alat units)  1.1416 (a.u.) for type    2

     Initial potential from superposition of free atoms

     starting charge     252.5655, renormalised to     254.0000
     Starting wfcs are random

     total cpu time spent up to now is        1.4 secs

     Self-consistent Calculation

     iteration #  1     ecut=    50.00 Ry     beta= 0.70
     Davidson diagonalization with overlap

---- Real-time Memory Report at c_bands before calling an iterative solver
           158 MiB given to the printing process from OS
             0 MiB allocation reported by mallinfo(arena+hblkhd)
        173409 MiB available memory on the node where the printing process lives
------------------
     ethr =  1.00E-02,  avg # of iterations = 12.0

     total cpu time spent up to now is        2.2 secs

     total energy              =    -723.26694357 Ry
     estimated scf accuracy    <       3.70732607 Ry

     total magnetization       =     2.00 Bohr mag/cell
     absolute magnetization    =     2.00 Bohr mag/cell

     iteration #  2     ecut=    50.00 Ry     beta= 0.70
     Davidson diagonalization with overlap

---- Real-time Memory Report at c_bands before calling an iterative solver
           164 MiB given to the printing process from OS
             0 MiB allocation reported by mallinfo(arena+hblkhd)
        173333 MiB available memory on the node where the printing process lives
------------------
     ethr =  1.46E-03,  avg # of iterations = 12.0

     total cpu time spent up to now is        3.2 secs

     total energy              =    -723.66229398 Ry
     estimated scf accuracy    <       0.45388436 Ry

     total magnetization       =     2.00 Bohr mag/cell
     absolute magnetization    =     2.08 Bohr mag/cell

     iteration #  3     ecut=    50.00 Ry     beta= 0.70
     Davidson diagonalization with overlap

---- Real-time Memory Report at c_bands before calling an iterative solver
           164 MiB given to the printing process from OS
             0 MiB allocation reported by mallinfo(arena+hblkhd)
        173342 MiB available memory on the node where the printing process lives
------------------
     c_bands:  3 eigenvalues not converged
     ethr =  1.79E-04,  avg # of iterations = 20.0

     total cpu time spent up to now is        3.7 secs

     total energy              =    -723.72755035 Ry
     estimated scf accuracy    <       0.86198686 Ry

     total magnetization       =     2.00 Bohr mag/cell
     absolute magnetization    =     2.12 Bohr mag/cell

     iteration #  4     ecut=    50.00 Ry     beta= 0.70
     Davidson diagonalization with overlap

---- Real-time Memory Report at c_bands before calling an iterative solver
           165 MiB given to the printing process from OS
             0 MiB allocation reported by mallinfo(arena+hblkhd)
        173334 MiB available memory on the node where the printing process lives
------------------
     c_bands:  1 eigenvalues not converged
     ethr =  1.79E-04,  avg # of iterations = 20.0

     total cpu time spent up to now is        4.4 secs

     total energy              =    -723.90118324 Ry
     estimated scf accuracy    <       0.00974459 Ry

     total magnetization       =     2.00 Bohr mag/cell
     absolute magnetization    =     2.19 Bohr mag/cell

     iteration #  5     ecut=    50.00 Ry     beta= 0.70
     Davidson diagonalization with overlap

---- Real-time Memory Report at c_bands before calling an iterative solver
           165 MiB given to the printing process from OS
             0 MiB allocation reported by mallinfo(arena+hblkhd)
        173332 MiB available memory on the node where the printing process lives
------------------
     c_bands:  4 eigenvalues not converged
     ethr =  3.84E-06,  avg # of iterations = 20.0

     total cpu time spent up to now is        4.8 secs

     total energy              =    -723.90610907 Ry
     estimated scf accuracy    <       0.00408049 Ry

     total magnetization       =     2.00 Bohr mag/cell
     absolute magnetization    =     2.23 Bohr mag/cell

     iteration #  6     ecut=    50.00 Ry     beta= 0.70
     Davidson diagonalization with overlap

---- Real-time Memory Report at c_bands before calling an iterative solver
           165 MiB given to the printing process from OS
             0 MiB allocation reported by mallinfo(arena+hblkhd)
        173324 MiB available memory on the node where the printing process lives
------------------
     c_bands:  3 eigenvalues not converged
     ethr =  1.61E-06,  avg # of iterations = 20.0

     total cpu time spent up to now is        5.6 secs

     total energy              =    -723.90685828 Ry
     estimated scf accuracy    <       0.00085983 Ry

     total magnetization       =     2.00 Bohr mag/cell
     absolute magnetization    =     2.25 Bohr mag/cell

     iteration #  7     ecut=    50.00 Ry     beta= 0.70
     Davidson diagonalization with overlap

---- Real-time Memory Report at c_bands before calling an iterative solver
           165 MiB given to the printing process from OS
             0 MiB allocation reported by mallinfo(arena+hblkhd)
        173325 MiB available memory on the node where the printing process lives
------------------
     c_bands:  1 eigenvalues not converged
     ethr =  3.39E-07,  avg # of iterations = 20.0

     total cpu time spent up to now is        6.1 secs

     total energy              =    -723.90708262 Ry
     estimated scf accuracy    <       0.00011959 Ry

     total magnetization       =     2.00 Bohr mag/cell
     absolute magnetization    =     2.27 Bohr mag/cell

     iteration #  8     ecut=    50.00 Ry     beta= 0.70
     Davidson diagonalization with overlap

---- Real-time Memory Report at c_bands before calling an iterative solver
           165 MiB given to the printing process from OS
             0 MiB allocation reported by mallinfo(arena+hblkhd)
        173319 MiB available memory on the node where the printing process lives
------------------
     c_bands:  1 eigenvalues not converged
     ethr =  4.71E-08,  avg # of iterations = 20.0

     total cpu time spent up to now is        8.4 secs

     total energy              =    -723.90712192 Ry
     estimated scf accuracy    <       0.00002882 Ry

     total magnetization       =     2.00 Bohr mag/cell
     absolute magnetization    =     2.28 Bohr mag/cell

     iteration #  9     ecut=    50.00 Ry     beta= 0.70
     Davidson diagonalization with overlap

---- Real-time Memory Report at c_bands before calling an iterative solver
           166 MiB given to the printing process from OS
             0 MiB allocation reported by mallinfo(arena+hblkhd)
        173329 MiB available memory on the node where the printing process lives
------------------
     c_bands:  3 eigenvalues not converged
     ethr =  1.13E-08,  avg # of iterations = 20.0

     total cpu time spent up to now is       10.0 secs

     total energy              =    -723.90713230 Ry
     estimated scf accuracy    <       0.00000791 Ry

     total magnetization       =     2.00 Bohr mag/cell
     absolute magnetization    =     2.29 Bohr mag/cell

     iteration # 10     ecut=    50.00 Ry     beta= 0.70
     Davidson diagonalization with overlap

---- Real-time Memory Report at c_bands before calling an iterative solver
           166 MiB given to the printing process from OS
             0 MiB allocation reported by mallinfo(arena+hblkhd)
        173320 MiB available memory on the node where the printing process lives
------------------
     c_bands:  2 eigenvalues not converged
     ethr =  3.12E-09,  avg # of iterations = 20.0

     total cpu time spent up to now is       10.9 secs

     total energy              =    -723.90713586 Ry
     estimated scf accuracy    <       0.00000084 Ry

     total magnetization       =     2.00 Bohr mag/cell
     absolute magnetization    =     2.29 Bohr mag/cell

     iteration # 11     ecut=    50.00 Ry     beta= 0.70
     Davidson diagonalization with overlap

---- Real-time Memory Report at c_bands before calling an iterative solver
           166 MiB given to the printing process from OS
             0 MiB allocation reported by mallinfo(arena+hblkhd)
        173335 MiB available memory on the node where the printing process lives
------------------
     c_bands:  1 eigenvalues not converged
     ethr =  3.32E-10,  avg # of iterations = 20.0

     total cpu time spent up to now is       11.7 secs

     total energy              =    -723.90713650 Ry
     estimated scf accuracy    <       0.00000023 Ry

     total magnetization       =     2.00 Bohr mag/cell
     absolute magnetization    =     2.30 Bohr mag/cell

     iteration # 12     ecut=    50.00 Ry     beta= 0.70
     Davidson diagonalization with overlap

---- Real-time Memory Report at c_bands before calling an iterative solver
           166 MiB given to the printing process from OS
             0 MiB allocation reported by mallinfo(arena+hblkhd)
        173335 MiB available memory on the node where the printing process lives
------------------
     ethr =  9.08E-11,  avg # of iterations = 17.5

     total cpu time spent up to now is       12.4 secs

     total energy              =    -723.90713661 Ry
     estimated scf accuracy    <       0.00000010 Ry

     total magnetization       =     2.00 Bohr mag/cell
     absolute magnetization    =     2.30 Bohr mag/cell

     iteration # 13     ecut=    50.00 Ry     beta= 0.70
     Davidson diagonalization with overlap

---- Real-time Memory Report at c_bands before calling an iterative solver
           166 MiB given to the printing process from OS
             0 MiB allocation reported by mallinfo(arena+hblkhd)
        173334 MiB available memory on the node where the printing process lives
------------------
     ethr =  3.78E-11,  avg # of iterations = 17.0

     total cpu time spent up to now is       12.9 secs

     total energy              =    -723.90713666 Ry
     estimated scf accuracy    <       0.00000003 Ry

     total magnetization       =     2.00 Bohr mag/cell
     absolute magnetization    =     2.30 Bohr mag/cell

     iteration # 14     ecut=    50.00 Ry     beta= 0.70
     Davidson diagonalization with overlap

---- Real-time Memory Report at c_bands before calling an iterative solver
           166 MiB given to the printing process from OS
             0 MiB allocation reported by mallinfo(arena+hblkhd)
        173336 MiB available memory on the node where the printing process lives
------------------
     ethr =  1.06E-11,  avg # of iterations = 19.0
 
     Magnetic moment per site  (integrated on atomic sphere of radius R)
     atom   1 (R=0.085)  charge=  2.9143  magn=  0.0042
     atom   2 (R=0.085)  charge=  1.8171  magn=  0.2448
     atom   3 (R=0.085)  charge=  1.7931  magn= -0.0087
     atom   4 (R=0.085)  charge=  1.8051  magn=  0.2455
     atom   5 (R=0.085)  charge=  1.7932  magn= -0.0087
     atom   6 (R=0.085)  charge=  1.8232  magn=  0.2450
     atom   7 (R=0.085)  charge=  1.7933  magn= -0.0087
     atom   8 (R=0.085)  charge=  1.7860  magn=  0.0091
     atom   9 (R=0.085)  charge=  1.7963  magn= -0.0019
     atom  10 (R=0.085)  charge=  1.7816  magn=  0.0061
     atom  11 (R=0.085)  charge=  1.7968  magn= -0.0042
     atom  12 (R=0.085)  charge=  1.7823  magn=  0.0061
     atom  13 (R=0.085)  charge=  1.8040  magn= -0.0039
     atom  14 (R=0.085)  charge=  1.7893  magn=  0.0085
     atom  15 (R=0.085)  charge=  1.7873  magn= -0.0020
     atom  16 (R=0.085)  charge=  1.7820  magn=  0.0089
     atom  17 (R=0.085)  charge=  1.7956  magn= -0.0018
     atom  18 (R=0.085)  charge=  1.7822  magn=  0.0057
     atom  19 (R=0.085)  charge=  1.7953  magn= -0.0035
     atom  20 (R=0.085)  charge=  1.7834  magn=  0.0083
     atom  21 (R=0.085)  charge=  1.7847  magn= -0.0020
     atom  22 (R=0.085)  charge=  1.7829  magn=  0.0057
     atom  23 (R=0.085)  charge=  1.7905  magn= -0.0037
     atom  24 (R=0.085)  charge=  1.7844  magn=  0.0182
     atom  25 (R=0.085)  charge=  1.8067  magn=  0.0094
     atom  26 (R=0.085)  charge=  1.7935  magn=  0.0032
     atom  27 (R=0.085)  charge=  1.7589  magn=  0.0001
     atom  28 (R=0.085)  charge=  1.7896  magn=  0.0221
     atom  29 (R=0.085)  charge=  1.7824  magn= -0.0014
     atom  30 (R=0.085)  charge=  1.7901  magn=  0.0211
     atom  31 (R=0.085)  charge=  1.7823  magn= -0.0013
     atom  32 (R=0.085)  charge=  1.7844  magn=  0.0090
     atom  33 (R=0.085)  charge=  1.7960  magn= -0.0019
     atom  34 (R=0.085)  charge=  1.7869  magn=  0.0085
     atom  35 (R=0.085)  charge=  1.7866  magn= -0.0020
     atom  36 (R=0.085)  charge=  1.7818  magn=  0.0059
     atom  37 (R=0.085)  charge=  1.8034  magn= -0.0036
     atom  38 (R=0.085)  charge=  1.7836  magn=  0.0058
     atom  39 (R=0.085)  charge=  1.7914  magn= -0.0041
     atom  40 (R=0.085)  charge=  1.7835  magn=  0.0181
     atom  41 (R=0.085)  charge=  1.8109  magn=  0.0094
     atom  42 (R=0.085)  charge=  1.7948  magn=  0.0219
     atom  43 (R=0.085)  charge=  1.7818  magn= -0.0013
     atom  44 (R=0.085)  charge=  1.7936  magn=  0.0032
     atom  45 (R=0.085)  charge=  1.7588  magn= -0.0000
     atom  46 (R=0.085)  charge=  1.7966  magn=  0.0214
     atom  47 (R=0.085)  charge=  1.7825  magn= -0.0013
     atom  48 (R=0.085)  charge=  1.7819  magn=  0.0184
     atom  49 (R=0.085)  charge=  1.8043  magn=  0.0094
     atom  50 (R=0.085)  charge=  1.7873  magn=  0.0212
     atom  51 (R=0.085)  charge=  1.7825  magn= -0.0013
     atom  52 (R=0.085)  charge=  1.7869  magn=  0.0218
     atom  53 (R=0.085)  charge=  1.7827  magn= -0.0013
     atom  54 (R=0.085)  charge=  1.7935  magn=  0.0032
     atom  55 (R=0.085)  charge=  1.7588  magn=  0.0001
     atom  56 (R=0.085)  charge=  1.7914  magn=  0.0009
     atom  57 (R=0.085)  charge=  1.7832  magn=  0.0010
     atom  58 (R=0.085)  charge=  1.7914  magn=  0.0018
     atom  59 (R=0.085)  charge=  1.7879  magn= -0.0009
     atom  60 (R=0.085)  charge=  1.7892  magn=  0.0017
     atom  61 (R=0.085)  charge=  1.7853  magn= -0.0009
     atom  62 (R=0.085)  charge=  1.7913  magn=  0.0019
     atom  63 (R=0.085)  charge=  1.7891  magn= -0.0009

     total cpu time spent up to now is       13.5 secs

     End of self-consistent calculation

 ------ SPIN UP ------------


          k = 0.0000 0.0000 0.0000 (  7386 PWs)   bands (ev):

    -8.5506  -6.9235  -6.2866  -6.2693  -6.1975  -6.1559  -5.8793  -4.9111
    -4.1449  -4.1309  -4.1246  -4.0894  -4.0324  -4.0196  -4.0096  -3.9176
    -3.8739  -3.8624  -3.3592  -2.9348  -2.6764  -2.6733  -2.1595  -0.3616
    -0.3540  -0.3249  -0.2828  -0.0766   0.1729   0.1935   0.2804   0.2987
     0.3645   0.6174   0.8355   0.8437   0.9525   0.9726   0.9893   1.0515
     1.0623   1.0626   1.2686   1.2975   3.0737   3.9068   3.9258   4.0701
     4.1882   4.2076   4.2234   4.2722   4.2812   4.2873   4.4209   4.4263
     4.4950   4.4987   4.5675   4.6601   4.6830   4.6882   4.6925   4.7874
     4.7980   4.9226   4.9684   4.9755   5.0474   5.1996   5.2093   5.3009
     5.3543   5.3726   5.3942   5.4029   5.4077   6.0406   6.0470   6.1009
     6.6595   6.6666   6.7286   6.9904   7.0040   7.0406   7.5311   8.3322
     8.3373   8.4111   8.4635   8.4937   8.6829   8.7089   8.7864   8.8303
     8.8455   8.8536   8.8918   8.8981   8.9047   9.2884   9.2925   9.3247
     9.6846   9.7040   9.8971   9.9162   9.9384   9.9614   9.9688   9.9755
     9.9894  10.0259  10.0338  10.0555  10.1239  10.1406  10.2694  10.3230
    10.3363  11.0533  12.2841  12.4173  12.4356  13.9547  14.6908  14.7994
    17.3398  17.3749  17.4154  17.5264  17.5739  17.5817  17.8504  17.9245
    17.9370  18.0274  18.0675  18.3688  18.9948  19.0036  19.0222  20.6925
    20.7960  20.8303  20.8816  20.9433  20.9504  21.0192  21.0309  21.0460

     occupation numbers 
     1.0000   1.0000   1.0000   1.0000   1.0000   1.0000   1.0000   1.0000
     1.0000   1.0000   1.0000   1.0000   1.0000   1.0000   1.0000   1.0000
     1.0000   1.0000   1.0000   1.0000   1.0000   1.0000   1.0000   1.0000
     1.0000   1.0000   1.0000   1.0000   1.0000   1.0000   1.0000   1.0000
     1.0000   1.0000   1.0000   1.0000   1.0000   1.0000   1.0000   1.0000
     1.0000   1.0000   1.0000   1.0000   1.0000   1.0000   1.0000   1.0000
     1.0000   1.0000   1.0000   1.0000   1.0000   1.0000   1.0000   1.0000
     1.0000   1.0000   1.0000   1.0000   1.0000   1.0000   1.0000   1.0000
     1.0000   1.0000   1.0000   1.0000   1.0000   1.0000   1.0000   1.0000
     1.0000   1.0000   1.0000   1.0000   1.0000   1.0000   1.0000   1.0000
     1.0000   1.0000   1.0000   1.0000   1.0000   1.0000   1.0000   1.0000
     1.0000   1.0000   1.0000   1.0000   1.0000   1.0000   1.0000   1.0000
     1.0000   1.0000   1.0000   1.0000   1.0000   1.0000   1.0000   1.0000
     1.0000   1.0000   1.0000   1.0000   1.0000   1.0000   1.0000   1.0000
     1.0000   1.0000   1.0000   1.0000   1.0000   1.0000   1.0000   1.0000
     1.0000   1.0000   1.0000   1.0000   1.0000   1.0000   1.0000   1.0000
     0.0000   0.0000   0.0000   0.0000   0.0000   0.0000   0.0000   0.0000
     0.0000   0.0000   0.0000   0.0000   0.0000   0.0000   0.0000   0.0000
     0.0000   0.0000   0.0000   0.0000   0.0000   0.0000   0.0000   0.0000

 ------ SPIN DOWN ----------


          k = 0.0000 0.0000 0.0000 (  7386 PWs)   bands (ev):

    -8.5251  -6.9091  -6.2644  -6.2461  -6.1527  -6.1132  -5.8422  -4.8943
    -4.1242  -4.1058  -4.0867  -4.0587  -3.9967  -3.9827  -3.9624  -3.9051
    -3.8378  -3.8203  -3.3169  -2.9161  -2.6232  -2.6198  -2.0146  -0.3441
    -0.3358  -0.3033  -0.2656  -0.0115   0.1916   0.2107   0.3181   0.3321
     0.3893   0.6524   0.8477   0.8554   0.9855   1.0025   1.0150   1.0679
     1.0774   1.0806   1.4343   1.4674   3.1874   3.9299   3.9479   4.0962
     4.2233   4.2501   4.2655   4.2872   4.3009   4.3131   4.4683   4.4735
     4.5166   4.5196   4.5912   4.6843   4.7008   4.7057   4.7137   4.8218
     4.8348   4.9362   5.0007   5.0060   5.1284   5.2336   5.2446   5.3248
     5.3682   5.3837   5.4160   5.4538   5.4691   6.1024   6.1064   6.1388
     6.6861   6.6939   6.7630   7.0763   7.0880   7.1003   7.7009   8.3701
     8.3763   8.4483   8.4996   8.5282   8.7167   8.7401   8.8224   8.8737
     8.8823   8.8882   8.9238   8.9305   8.9363   9.3245   9.3295   9.3523
     9.7124   9.7313   9.9304   9.9412   9.9513   9.9752   9.9826   9.9933
    10.0093  10.0597  10.0661  10.0779  10.1516  10.1664  10.3270  10.3778
    10.3909  11.4329  12.5550  12.5712  12.6024  14.4375  16.0161  16.1396
    17.3652  17.3924  17.4323  17.5538  17.6298  17.6379  17.8732  17.9440
    17.9551  18.0673  18.1078  18.4877  19.0460  19.0793  19.1093  20.7431
    20.8103  20.8443  20.8963  20.9611  20.9683  21.0389  21.0570  21.0613

     occupation numbers 
     1.0000   1.0000   1.0000   1.0000   1.0000   1.0000   1.0000   1.0000
     1.0000   1.0000   1.0000   1.0000   1.0000   1.0000   1.0000   1.0000
     1.0000   1.0000   1.0000   1.0000   1.0000   1.0000   1.0000   1.0000
     1.0000   1.0000   1.0000   1.0000   1.0000   1.0000   1.0000   1.0000
     1.0000   1.0000   1.0000   1.0000   1.0000   1.0000   1.0000   1.0000
     1.0000   1.0000   1.0000   1.0000   1.0000   1.0000   1.0000   1.0000
     1.0000   1.0000   1.0000   1.0000   1.0000   1.0000   1.0000   1.0000
     1.0000   1.0000   1.0000   1.0000   1.0000   1.0000   1.0000   1.0000
     1.0000   1.0000   1.0000   1.0000   1.0000   1.0000   1.0000   1.0000
     1.0000   1.0000   1.0000   1.0000   1.0000   1.0000   1.0000   1.0000
     1.0000   1.0000   1.0000   1.0000   1.0000   1.0000   1.0000   1.0000
     1.0000   1.0000   1.0000   1.0000   1.0000   1.0000   1.0000   1.0000
     1.0000   1.0000   1.0000   1.0000   1.0000   1.0000   1.0000   1.0000
     1.0000   1.0000   1.0000   1.0000   1.0000   1.0000   1.0000   1.0000
     1.0000   1.0000   1.0000   1.0000   1.0000   1.0000   1.0000   1.0000
     1.0000   1.0000   1.0000   1.0000   1.0000   1.0000   0.0000   0.0000
     0.0000   0.0000   0.0000   0.0000   0.0000   0.0000   0.0000   0.0000
     0.0000   0.0000   0.0000   0.0000   0.0000   0.0000   0.0000   0.0000
     0.0000   0.0000   0.0000   0.0000   0.0000   0.0000   0.0000   0.0000

     highest occupied, lowest unoccupied level (ev):    14.7994   16.0161

!    total energy              =    -723.90713667 Ry
     estimated scf accuracy    <          5.3E-09 Ry

     The total energy is the sum of the following terms:
     one-electron contribution =     232.28145796 Ry
     hartree contribution      =      70.33745059 Ry
     xc contribution           =    -226.77191818 Ry
     ewald contribution        =    -799.75412704 Ry

     total magnetization       =     2.00 Bohr mag/cell
     absolute magnetization    =     2.30 Bohr mag/cell

     convergence has been achieved in  14 iterations

     Forces acting on atoms (cartesian axes, Ry/au):

     atom    1 type  1   force =    -0.00264764   -0.00382319   -0.00260887
     atom    2 type  2   force =     0.03515380    0.01588078   -0.01256287
     atom    3 type  2   force =    -0.00868974    0.00885749    0.00555644
     atom    4 type  2   force =     0.00880083    0.02477317   -0.00277600
     atom    5 type  2   force =     0.00229477   -0.02120970    0.00161620
     atom    6 type  2   force =    -0.00844963    0.00819859    0.04327936
     atom    7 type  2   force =     0.01023708    0.01201738   -0.00211801
     atom    8 type  2   force =     0.00302280    0.00434975    0.00665293
     atom    9 type  2   force =    -0.00177679   -0.00508345   -0.00236801
     atom   10 type  2   force =     0.00020199    0.00201776    0.00374317
     atom   11 type  2   force =    -0.02925550    0.00627732   -0.00932872
     atom   12 type  2   force =     0.00002639    0.00379175    0.00325768
     atom   13 type  2   force =    -0.00283550   -0.03994646   -0.00185720
     atom   14 type  2   force =     0.00339920    0.00214036   -0.00429344
     atom   15 type  2   force =    -0.00278844   -0.00133471   -0.00569765
     atom   16 type  2   force =     0.00021049   -0.00097119   -0.00097047
     atom   17 type  2   force =    -0.00140899    0.00637578    0.00027703
     atom   18 type  2   force =     0.00279905   -0.00014076    0.00091899
     atom   19 type  2   force =    -0.00918275   -0.00312824   -0.00524258
     atom   20 type  2   force =     0.00304098   -0.00443165    0.00348839
     atom   21 type  2   force =    -0.00111893   -0.00410725   -0.00212169
     atom   22 type  2   force =     0.00142970    0.00209120    0.00128654
     atom   23 type  2   force =    -0.00060148   -0.00712044   -0.00167690
     atom   24 type  2   force =     0.01036665    0.00630109    0.00043894
     atom   25 type  2   force =    -0.01265473   -0.01416309   -0.00341225
     atom   26 type  2   force =     0.01487795    0.00617112    0.00177374
     atom   27 type  2   force =    -0.02565921   -0.00859490   -0.00647007
     atom   28 type  2   force =     0.01056824    0.00070340    0.00598087
     atom   29 type  2   force =    -0.00012803   -0.00162889   -0.00129436
     atom   30 type  2   force =     0.00760753    0.00644787    0.00399851
     atom   31 type  2   force =     0.00105347   -0.00159630   -0.00333116
     atom   32 type  2   force =     0.00323071    0.00388975    0.00144333
     atom   33 type  2   force =     0.00056708   -0.00438533   -0.00009425
     atom   34 type  2   force =    -0.00480073    0.00179585    0.00355489
     atom   35 type  2   force =    -0.00560731   -0.00121953   -0.00388681
     atom   36 type  2   force =     0.00070381    0.00426881   -0.00018959
     atom   37 type  2   force =     0.00045715   -0.03324014   -0.00780832
     atom   38 type  2   force =     0.00697094    0.00168263   -0.00027823
     atom   39 type  2   force =    -0.01006604    0.00609213   -0.01375736
     atom   40 type  2   force =     0.00546239    0.01273040    0.00484645
     atom   41 type  2   force =    -0.00704279   -0.01508890   -0.00307327
     atom   42 type  2   force =    -0.00016998    0.01741863    0.00613134
     atom   43 type  2   force =    -0.00024915    0.00040833   -0.00161572
     atom   44 type  2   force =     0.00462737    0.01706947    0.00309842
     atom   45 type  2   force =    -0.00780507   -0.02595230   -0.00717038
     atom   46 type  2   force =     0.00562431    0.01532137   -0.00272289
     atom   47 type  2   force =    -0.00147219    0.00134634    0.01562599
     atom   48 type  2   force =     0.00495381    0.00567892    0.00774014
     atom   49 type  2   force =    -0.00799562   -0.01409181   -0.01009328
     atom   50 type  2   force =     0.00422726    0.00668592    0.00348473
     atom   51 type  2   force =    -0.00393065   -0.00181885    0.00027144
     atom   52 type  2   force =     0.00649763    0.00206325    0.00498862
     atom   53 type  2   force =    -0.00132898   -0.00242058   -0.00094357
     atom   54 type  2   force =     0.00250609    0.00534976    0.01393137
     atom   55 type  2   force =    -0.00713391   -0.00851837   -0.02493268
     atom   56 type  2   force =     0.00482093    0.00463644    0.00481343
     atom   57 type  2   force =    -0.00208012   -0.00032428   -0.00166035
     atom   58 type  2   force =     0.00138460    0.00415020    0.00319694
     atom   59 type  2   force =    -0.00125904   -0.00268909   -0.00374379
     atom   60 type  2   force =     0.00358325    0.00101163   -0.00171258
     atom   61 type  2   force =    -0.00303505   -0.00246155   -0.00439768
     atom   62 type  2   force =     0.00404314    0.00444484    0.00123888
     atom   63 type  2   force =    -0.00357739   -0.00294853   -0.00042375
     The non-local contrib.  to forces
     atom    1 type  1   force =    -0.76077264   -0.76418795   -0.75907812
     atom    2 type  2   force =    -0.16466040    0.22042811    0.17820895
     atom    3 type  2   force =     0.05731180    0.08115934    0.07187457
     atom    4 type  2   force =     0.21502413   -0.18839743    0.19779237
     atom    5 type  2   force =     0.07302875    0.04247648    0.07021691
     atom    6 type  2   force =     0.17913694    0.20427676   -0.14652259
     atom    7 type  2   force =     0.07732786    0.08312769    0.06398869
     atom    8 type  2   force =    -0.00457108   -0.00468748    0.05659714
     atom    9 type  2   force =    -0.00457903   -0.00876235    0.01282748
     atom   10 type  2   force =    -0.04492367   -0.01382746   -0.01512872
     atom   11 type  2   force =    -0.10441600    0.06774410   -0.08378609
     atom   12 type  2   force =    -0.01685155   -0.04152739   -0.01432963
     atom   13 type  2   force =     0.05217774   -0.11641530   -0.07334082
     atom   14 type  2   force =     0.00275367    0.00069380    0.04546137
     atom   15 type  2   force =     0.01008697    0.00903897   -0.00374455
     atom   16 type  2   force =    -0.01237806    0.04878491   -0.01304461
     atom   17 type  2   force =    -0.00456485    0.02731795   -0.00309762
     atom   18 type  2   force =    -0.04095239   -0.02185090   -0.01588030
     atom   19 type  2   force =    -0.08103572   -0.07909362    0.05526498
     atom   20 type  2   force =     0.00474509    0.04482360    0.00491903
     atom   21 type  2   force =     0.01069458   -0.00314517    0.01123881
     atom   22 type  2   force =    -0.01449651   -0.02026230   -0.04253652
     atom   23 type  2   force =     0.06345332   -0.08456272   -0.07270079
     atom   24 type  2   force =    -0.06392678    0.03409257    0.03047762
     atom   25 type  2   force =    -0.02549757   -0.00079047    0.01341653
     atom   26 type  2   force =    -0.04166500   -0.02085300   -0.02372165
     atom   27 type  2   force =    -0.14716993    0.12508743    0.12341976
     atom   28 type  2   force =     0.07996500    0.02367685   -0.01279355
     atom   29 type  2   force =     0.00059951    0.01832263    0.00498593
     atom   30 type  2   force =     0.07619140   -0.01363726    0.02915135
     atom   31 type  2   force =     0.00330992    0.00323433    0.01619619
     atom   32 type  2   force =     0.05287162   -0.00662811   -0.00720398
     atom   33 type  2   force =     0.01813494   -0.00731769   -0.00360097
     atom   34 type  2   force =     0.04449047    0.00108357    0.00365725
     atom   35 type  2   force =    -0.00402891    0.00882421    0.00974692
     atom   36 type  2   force =    -0.01843948   -0.04056934   -0.01803545
     atom   37 type  2   force =    -0.07177931   -0.10917745    0.04715083
     atom   38 type  2   force =    -0.01370885   -0.01349341   -0.04507533
     atom   39 type  2   force =    -0.08681977    0.07140517   -0.08740386
     atom   40 type  2   force =     0.03548249   -0.05803834    0.03577257
     atom   41 type  2   force =     0.01001009   -0.02518445    0.01369744
     atom   42 type  2   force =     0.02105538    0.08863973   -0.00988764
     atom   43 type  2   force =     0.01770250    0.00023562    0.00317868
     atom   44 type  2   force =    -0.02284015   -0.03692064   -0.02364903
     atom   45 type  2   force =     0.12500051   -0.14712286    0.12352923
     atom   46 type  2   force =    -0.01079465    0.08638454    0.01948908
     atom   47 type  2   force =     0.00300386    0.00107371    0.03721556
     atom   48 type  2   force =     0.03385091    0.03305046   -0.06852253
     atom   49 type  2   force =     0.00850163   -0.00006229   -0.02277941
     atom   50 type  2   force =     0.02968738   -0.01458147    0.07140502
     atom   51 type  2   force =     0.01694168    0.00370100    0.00336615
     atom   52 type  2   force =    -0.01415198    0.02649758    0.07327923
     atom   53 type  2   force =     0.00479398    0.01837377    0.00097829
     atom   54 type  2   force =    -0.02257104   -0.02088184   -0.04408081
     atom   55 type  2   force =     0.12328744    0.12441572   -0.14676668
     atom   56 type  2   force =     0.02274277    0.02392099    0.02191025
     atom   57 type  2   force =     0.00412671    0.00601898    0.00492169
     atom   58 type  2   force =     0.01565511   -0.00593319   -0.00977057
     atom   59 type  2   force =     0.00796267   -0.01423307   -0.01542759
     atom   60 type  2   force =    -0.00953808    0.01755076   -0.01515621
     atom   61 type  2   force =    -0.01492395    0.00820212   -0.01612010
     atom   62 type  2   force =    -0.00818711   -0.00582244    0.01508357
     atom   63 type  2   force =    -0.01577766   -0.01508179    0.00849357
     The ionic contribution  to forces
     atom    1 type  1   force =     2.98287082    2.95553283    2.99513091
     atom    2 type  2   force =     2.41514417   -2.06250491   -2.22396365
     atom    3 type  2   force =     0.48901454   -0.73017053   -0.85692931
     atom    4 type  2   force =    -2.08972130    2.33319156   -2.15844393
     atom    5 type  2   force =    -0.77872195    0.40034421   -0.82636308
     atom    6 type  2   force =    -2.18782191   -2.09772238    2.45802475
     atom    7 type  2   force =    -0.82406194   -0.74904438    0.53484203
     atom    8 type  2   force =     0.25781015    0.21251088   -0.72491691
     atom    9 type  2   force =     0.06595050    0.02646671   -0.21884065
     atom   10 type  2   force =     0.15499103    0.09584034    0.56461764
     atom   11 type  2   force =    -0.53593962   -0.62725976    0.79913284
     atom   12 type  2   force =     0.02794034    0.16105126    0.55166756
     atom   13 type  2   force =    -0.66308103   -0.56566930    0.76109030
     atom   14 type  2   force =    -0.19176764   -0.18105927   -0.71268733
     atom   15 type  2   force =    -0.16883867   -0.13063124   -0.06536696
     atom   16 type  2   force =     0.19767122   -0.77731399    0.21781354
     atom   17 type  2   force =     0.07130874   -0.15609489    0.09074783
     atom   18 type  2   force =     0.22354104    0.47020770    0.00011040
     atom   19 type  2   force =    -0.36122084    0.74827675   -0.70694813
     atom   20 type  2   force =    -0.17973536   -0.72989879   -0.19259911
     atom   21 type  2   force =    -0.17446297   -0.05721425   -0.20039708
     atom   22 type  2   force =     0.02724366    0.47797862    0.23612701
     atom   23 type  2   force =    -0.68852337    0.77828732   -0.33270264
     atom   24 type  2   force =     0.13100790   -0.11111871   -0.17131702
     atom   25 type  2   force =    -0.02569068   -0.07932296   -0.06510135
     atom   26 type  2   force =     0.12924229   -0.09624820   -0.04691758
     atom   27 type  2   force =     1.13993783    0.24382075    0.25006320
     atom   28 type  2   force =    -0.08438817   -0.13689497    0.11509922
     atom   29 type  2   force =    -0.15450941    0.03055922    0.25682439
     atom   30 type  2   force =    -0.01927716    0.13869480   -0.23368596
     atom   31 type  2   force =    -0.15306119    0.17288308   -0.00710806
     atom   32 type  2   force =    -0.74318469    0.19560730    0.26110318
     atom   33 type  2   force =    -0.20210463    0.02971053    0.08834350
     atom   34 type  2   force =    -0.71891390   -0.17663873   -0.20152952
     atom   35 type  2   force =    -0.07166262   -0.13388607   -0.20223427
     atom   36 type  2   force =     0.51456730    0.17382942    0.00083045
     atom   37 type  2   force =     0.73640194   -0.50863128   -0.69675150
     atom   38 type  2   force =     0.54159619    0.07360942    0.20128461
     atom   39 type  2   force =     0.80814423   -0.63784817   -0.44012153
     atom   40 type  2   force =    -0.19724750    0.06172712   -0.20871322
     atom   41 type  2   force =    -0.07053704   -0.08777907   -0.06308815
     atom   42 type  2   force =    -0.12870641    0.02788243    0.09136889
     atom   43 type  2   force =     0.04123113   -0.11409424    0.24962146
     atom   44 type  2   force =    -0.07072362    0.12515604   -0.05211127
     atom   45 type  2   force =     0.24384140    1.16735203    0.24395305
     atom   46 type  2   force =     0.07453819    0.02561718   -0.17032985
     atom   47 type  2   force =     0.22247343   -0.11301451    0.08238128
     atom   48 type  2   force =    -0.13062024   -0.11135185    0.13550954
     atom   49 type  2   force =    -0.07477748   -0.08145711    0.00428269
     atom   50 type  2   force =    -0.23698160    0.15336259   -0.08401786
     atom   51 type  2   force =    -0.01044212    0.17438281   -0.18053341
     atom   52 type  2   force =     0.13660863   -0.17466729   -0.12909611
     atom   53 type  2   force =     0.22805600    0.02153750   -0.18628842
     atom   54 type  2   force =    -0.06266434   -0.09187691    0.13676549
     atom   55 type  2   force =     0.24488612    0.24275036    1.12974185
     atom   56 type  2   force =    -0.09347714   -0.02913692   -0.12257088
     atom   57 type  2   force =    -0.02258403   -0.03452076   -0.01413749
     atom   58 type  2   force =    -0.07621522    0.04755194    0.04122910
     atom   59 type  2   force =    -0.28413083    0.07695783    0.15380728
     atom   60 type  2   force =     0.08576592   -0.06157355    0.05781483
     atom   61 type  2   force =     0.13139027   -0.31107515    0.15446730
     atom   62 type  2   force =     0.02922275    0.03933747   -0.09722860
     atom   63 type  2   force =     0.12339893    0.07370216   -0.27075528
     The local contribution  to forces
     atom    1 type  1   force =    -2.22480670   -2.19517787   -2.23872882
     atom    2 type  2   force =    -2.21539919    1.85794077    2.03312137
     atom    3 type  2   force =    -0.55511255    0.65782095    0.79052975
     atom    4 type  2   force =     1.88341146   -2.12004334    1.95780811
     atom    5 type  2   force =     0.70788768   -0.46404835    0.75770224
     atom    6 type  2   force =     2.00014459    1.90162649   -2.26829472
     atom    7 type  2   force =     0.75686392    0.67790164   -0.60103174
     atom    8 type  2   force =    -0.25027693   -0.20347892    0.67490611
     atom    9 type  2   force =    -0.06321471   -0.02280082    0.20357636
     atom   10 type  2   force =    -0.10991963   -0.08002336   -0.54581062
     atom   11 type  2   force =     0.61103827    0.56575579   -0.72473200
     atom   12 type  2   force =    -0.01114193   -0.11575468   -0.53414307
     atom   13 type  2   force =     0.60797006    0.64211950   -0.68967638
     atom   14 type  2   force =     0.19231416    0.18248086    0.66286931
     atom   15 type  2   force =     0.15585502    0.12021604    0.06336320
     atom   16 type  2   force =    -0.18514205    0.72750009   -0.20579460
     atom   17 type  2   force =    -0.06822152    0.13508535   -0.08744512
     atom   18 type  2   force =    -0.17984789   -0.44855367    0.01660994
     atom   19 type  2   force =     0.43300677   -0.67234543    0.64637550
     atom   20 type  2   force =     0.17793131    0.68059179    0.19109145
     atom   21 type  2   force =     0.16254175    0.05620618    0.18696420
     atom   22 type  2   force =    -0.01139502   -0.45567697   -0.19237896
     atom   23 type  2   force =     0.62437988   -0.70088867    0.40364276
     atom   24 type  2   force =    -0.05677311    0.08326100    0.14119752
     atom   25 type  2   force =     0.03846963    0.06589297    0.04820876
     atom   26 type  2   force =    -0.07276256    0.12322832    0.07235593
     atom   27 type  2   force =    -1.01849913   -0.37753269   -0.38001608
     atom   28 type  2   force =     0.01491143    0.11386984   -0.09638344
     atom   29 type  2   force =     0.15368623   -0.05056544   -0.26316654
     atom   30 type  2   force =    -0.04938539   -0.11865989    0.20847125
     atom   31 type  2   force =     0.15070824   -0.17774582   -0.01247900
     atom   32 type  2   force =     0.69344643   -0.18511973   -0.25253422
     atom   33 type  2   force =     0.18444990   -0.02679676   -0.08491090
     atom   34 type  2   force =     0.66952981    0.17732581    0.20135144
     atom   35 type  2   force =     0.07000832    0.12379594    0.18852152
     atom   36 type  2   force =    -0.49550111   -0.12899521    0.01693339
     atom   37 type  2   force =    -0.66422175    0.58457992    0.64170692
     atom   38 type  2   force =    -0.52099047   -0.05846224   -0.15653998
     atom   39 type  2   force =    -0.73144398    0.57248426    0.51371962
     atom   40 type  2   force =     0.16712055    0.00901769    0.17773108
     atom   41 type  2   force =     0.05338164    0.09784848    0.04625496
     atom   42 type  2   force =     0.10736620   -0.09913166   -0.07540926
     atom   43 type  2   force =    -0.05929122    0.11423286   -0.25447323
     atom   44 type  2   force =     0.09810244   -0.07119790    0.07880304
     atom   45 type  2   force =    -0.37671018   -1.04621047   -0.37470311
     atom   46 type  2   force =    -0.05818879   -0.09670434    0.14803278
     atom   47 type  2   force =    -0.22700749    0.11324501   -0.10405499
     atom   48 type  2   force =     0.10161525    0.08393733   -0.05932230
     atom   49 type  2   force =     0.05817999    0.06737403    0.00831812
     atom   50 type  2   force =     0.21141048   -0.13214310    0.01601698
     atom   51 type  2   force =    -0.01053834   -0.17992888    0.17736868
     atom   52 type  2   force =    -0.11602698    0.15016234    0.06073010
     atom   53 type  2   force =    -0.23423675   -0.04241034    0.18429045
     atom   54 type  2   force =     0.08765060    0.11806473   -0.07883349
     atom   55 type  2   force =    -0.37537495   -0.37570569   -1.00799505
     atom   56 type  2   force =     0.07544886    0.00980622    0.10541362
     atom   57 type  2   force =     0.01627534    0.02813131    0.00750541
     atom   58 type  2   force =     0.06184352   -0.03751210   -0.02831618
     atom   59 type  2   force =     0.27481027   -0.06545113   -0.14218659
     atom   60 type  2   force =    -0.07273291    0.04499705   -0.04442926
     atom   61 type  2   force =    -0.11957393    0.30036583   -0.14280430
     atom   62 type  2   force =    -0.01707984   -0.02911809    0.08333172
     atom   63 type  2   force =    -0.11126957   -0.06159966    0.26178871
     The core correction contribution to forces
     atom    1 type  1   force =     0.00000000    0.00000000    0.00000000
     atom    2 type  2   force =     0.00000000    0.00000000    0.00000000
     atom    3 type  2   force =     0.00000000    0.00000000    0.00000000
     atom    4 type  2   force =     0.00000000    0.00000000    0.00000000
     atom    5 type  2   force =     0.00000000    0.00000000    0.00000000
     atom    6 type  2   force =     0.00000000    0.00000000    0.00000000
     atom    7 type  2   force =     0.00000000    0.00000000    0.00000000
     atom    8 type  2   force =     0.00000000    0.00000000    0.00000000
     atom    9 type  2   force =     0.00000000    0.00000000    0.00000000
     atom   10 type  2   force =     0.00000000    0.00000000    0.00000000
     atom   11 type  2   force =     0.00000000    0.00000000    0.00000000
     atom   12 type  2   force =     0.00000000    0.00000000    0.00000000
     atom   13 type  2   force =     0.00000000    0.00000000    0.00000000
     atom   14 type  2   force =     0.00000000    0.00000000    0.00000000
     atom   15 type  2   force =     0.00000000    0.00000000    0.00000000
     atom   16 type  2   force =     0.00000000    0.00000000    0.00000000
     atom   17 type  2   force =     0.00000000    0.00000000    0.00000000
     atom   18 type  2   force =     0.00000000    0.00000000    0.00000000
     atom   19 type  2   force =     0.00000000    0.00000000    0.00000000
     atom   20 type  2   force =     0.00000000    0.00000000    0.00000000
     atom   21 type  2   force =     0.00000000    0.00000000    0.00000000
     atom   22 type  2   force =     0.00000000    0.00000000    0.00000000
     atom   23 type  2   force =     0.00000000    0.00000000    0.00000000
     atom   24 type  2   force =     0.00000000    0.00000000    0.00000000
     atom   25 type  2   force =     0.00000000    0.00000000    0.00000000
     atom   26 type  2   force =     0.00000000    0.00000000    0.00000000
     atom   27 type  2   force =     0.00000000    0.00000000    0.00000000
     atom   28 type  2   force =     0.00000000    0.00000000    0.00000000
     atom   29 type  2   force =     0.00000000    0.00000000    0.00000000
     atom   30 type  2   force =     0.00000000    0.00000000    0.00000000
     atom   31 type  2   force =     0.00000000    0.00000000    0.00000000
     atom   32 type  2   force =     0.00000000    0.00000000    0.00000000
     atom   33 type  2   force =     0.00000000    0.00000000    0.00000000
     atom   34 type  2   force =     0.00000000    0.00000000    0.00000000
     atom   35 type  2   force =     0.00000000    0.00000000    0.00000000
     atom   36 type  2   force =     0.00000000    0.00000000    0.00000000
     atom   37 type  2   force =     0.00000000    0.00000000    0.00000000
     atom   38 type  2   force =     0.00000000    0.00000000    0.00000000
     atom   39 type  2   force =     0.00000000    0.00000000    0.00000000
     atom   40 type  2   force =     0.00000000    0.00000000    0.00000000
     atom   41 type  2   force =     0.00000000    0.00000000    0.00000000
     atom   42 type  2   force =     0.00000000    0.00000000    0.00000000
     atom   43 type  2   force =     0.00000000    0.00000000    0.00000000
     atom   44 type  2   force =     0.00000000    0.00000000    0.00000000
     atom   45 type  2   force =     0.00000000    0.00000000    0.00000000
     atom   46 type  2   force =     0.00000000    0.00000000    0.00000000
     atom   47 type  2   force =     0.00000000    0.00000000    0.00000000
     atom   48 type  2   force =     0.00000000    0.00000000    0.00000000
     atom   49 type  2   force =     0.00000000    0.00000000    0.00000000
     atom   50 type  2   force =     0.00000000    0.00000000    0.00000000
     atom   51 type  2   force =     0.00000000    0.00000000    0.00000000
     atom   52 type  2   force =     0.00000000    0.00000000    0.00000000
     atom   53 type  2   force =     0.00000000    0.00000000    0.00000000
     atom   54 type  2   force =     0.00000000    0.00000000    0.00000000
     atom   55 type  2   force =     0.00000000    0.00000000    0.00000000
     atom   56 type  2   force =     0.00000000    0.00000000    0.00000000
     atom   57 type  2   force =     0.00000000    0.00000000    0.00000000
     atom   58 type  2   force =     0.00000000    0.00000000    0.00000000
     atom   59 type  2   force =     0.00000000    0.00000000    0.00000000
     atom   60 type  2   force =     0.00000000    0.00000000    0.00000000
     atom   61 type  2   force =     0.00000000    0.00000000    0.00000000
     atom   62 type  2   force =     0.00000000    0.00000000    0.00000000
     atom   63 type  2   force =     0.00000000    0.00000000    0.00000000
     The Hubbard contrib.    to forces
     atom    1 type  1   force =     0.00000000    0.00000000    0.00000000
     atom    2 type  2   force =     0.00000000    0.00000000    0.00000000
     atom    3 type  2   force =     0.00000000    0.00000000    0.00000000
     atom    4 type  2   force =     0.00000000    0.00000000    0.00000000
     atom    5 type  2   force =     0.00000000    0.00000000    0.00000000
     atom    6 type  2   force =     0.00000000    0.00000000    0.00000000
     atom    7 type  2   force =     0.00000000    0.00000000    0.00000000
     atom    8 type  2   force =     0.00000000    0.00000000    0.00000000
     atom    9 type  2   force =     0.00000000    0.00000000    0.00000000
     atom   10 type  2   force =     0.00000000    0.00000000    0.00000000
     atom   11 type  2   force =     0.00000000    0.00000000    0.00000000
     atom   12 type  2   force =     0.00000000    0.00000000    0.00000000
     atom   13 type  2   force =     0.00000000    0.00000000    0.00000000
     atom   14 type  2   force =     0.00000000    0.00000000    0.00000000
     atom   15 type  2   force =     0.00000000    0.00000000    0.00000000
     atom   16 type  2   force =     0.00000000    0.00000000    0.00000000
     atom   17 type  2   force =     0.00000000    0.00000000    0.00000000
     atom   18 type  2   force =     0.00000000    0.00000000    0.00000000
     atom   19 type  2   force =     0.00000000    0.00000000    0.00000000
     atom   20 type  2   force =     0.00000000    0.00000000    0.00000000
     atom   21 type  2   force =     0.00000000    0.00000000    0.00000000
     atom   22 type  2   force =     0.00000000    0.00000000    0.00000000
     atom   23 type  2   force =     0.00000000    0.00000000    0.00000000
     atom   24 type  2   force =     0.00000000    0.00000000    0.00000000
     atom   25 type  2   force =     0.00000000    0.00000000    0.00000000
     atom   26 type  2   force =     0.00000000    0.00000000    0.00000000
     atom   27 type  2   force =     0.00000000    0.00000000    0.00000000
     atom   28 type  2   force =     0.00000000    0.00000000    0.00000000
     atom   29 type  2   force =     0.00000000    0.00000000    0.00000000
     atom   30 type  2   force =     0.00000000    0.00000000    0.00000000
     atom   31 type  2   force =     0.00000000    0.00000000    0.00000000
     atom   32 type  2   force =     0.00000000    0.00000000    0.00000000
     atom   33 type  2   force =     0.00000000    0.00000000    0.00000000
     atom   34 type  2   force =     0.00000000    0.00000000    0.00000000
     atom   35 type  2   force =     0.00000000    0.00000000    0.00000000
     atom   36 type  2   force =     0.00000000    0.00000000    0.00000000
     atom   37 type  2   force =     0.00000000    0.00000000    0.00000000
     atom   38 type  2   force =     0.00000000    0.00000000    0.00000000
     atom   39 type  2   force =     0.00000000    0.00000000    0.00000000
     atom   40 type  2   force =     0.00000000    0.00000000    0.00000000
     atom   41 type  2   force =     0.00000000    0.00000000    0.00000000
     atom   42 type  2   force =     0.00000000    0.00000000    0.00000000
     atom   43 type  2   force =     0.00000000    0.00000000    0.00000000
     atom   44 type  2   force =     0.00000000    0.00000000    0.00000000
     atom   45 type  2   force =     0.00000000    0.00000000    0.00000000
     atom   46 type  2   force =     0.00000000    0.00000000    0.00000000
     atom   47 type  2   force =     0.00000000    0.00000000    0.00000000
     atom   48 type  2   force =     0.00000000    0.00000000    0.00000000
     atom   49 type  2   force =     0.00000000    0.00000000    0.00000000
     atom   50 type  2   force =     0.00000000    0.00000000    0.00000000
     atom   51 type  2   force =     0.00000000    0.00000000    0.00000000
     atom   52 type  2   force =     0.00000000    0.00000000    0.00000000
     atom   53 type  2   force =     0.00000000    0.00000000    0.00000000
     atom   54 type  2   force =     0.00000000    0.00000000    0.00000000
     atom   55 type  2   force =     0.00000000    0.00000000    0.00000000
     atom   56 type  2   force =     0.00000000    0.00000000    0.00000000
     atom   57 type  2   force =     0.00000000    0.00000000    0.00000000
     atom   58 type  2   force =     0.00000000    0.00000000    0.00000000
     atom   59 type  2   force =     0.00000000    0.00000000    0.00000000
     atom   60 type  2   force =     0.00000000    0.00000000    0.00000000
     atom   61 type  2   force =     0.00000000    0.00000000    0.00000000
     atom   62 type  2   force =     0.00000000    0.00000000    0.00000000
     atom   63 type  2   force =     0.00000000    0.00000000    0.00000000
     The SCF correction term to forces
     atom    1 type  1   force =    -0.00002270   -0.00002620   -0.00000045
     atom    2 type  2   force =    -0.00001435   -0.00001918    0.00000284
     atom    3 type  2   force =     0.00001290    0.00001173    0.00001381
     atom    4 type  2   force =     0.00000296   -0.00001361   -0.00000018
     atom    5 type  2   force =     0.00001671   -0.00001804   -0.00000749
     atom    6 type  2   force =     0.00000718   -0.00001828    0.00000430
     atom    7 type  2   force =     0.00002366   -0.00000357    0.00001539
     atom    8 type  2   force =    -0.00002292   -0.00003073   -0.00000103
     atom    9 type  2   force =    -0.00001713   -0.00002298    0.00000119
     atom   10 type  2   force =    -0.00002932   -0.00000776   -0.00000275
     atom   11 type  2   force =    -0.00002173    0.00000118   -0.00001109
     atom   12 type  2   force =    -0.00000406   -0.00001344   -0.00000480
     atom   13 type  2   force =     0.00001415   -0.00001736    0.00000206
     atom   14 type  2   force =     0.00001542   -0.00001103   -0.00000440
     atom   15 type  2   force =     0.00002466    0.00000552   -0.00001696
     atom   16 type  2   force =    -0.00002420    0.00002180   -0.00001242
     atom   17 type  2   force =    -0.00001494    0.00003137    0.00000433
     atom   18 type  2   force =    -0.00002529    0.00002011    0.00001134
     atom   19 type  2   force =    -0.00001655   -0.00000193   -0.00000254
     atom   20 type  2   force =     0.00001635    0.00001574    0.00000940
     atom   21 type  2   force =     0.00002413    0.00000998    0.00000476
     atom   22 type  2   force =    -0.00000602    0.00001585    0.00000739
     atom   23 type  2   force =     0.00000510    0.00000764    0.00001615
     atom   24 type  2   force =    -0.00002494    0.00003023    0.00001320
     atom   25 type  2   force =    -0.00001970    0.00002138   -0.00000382
     atom   26 type  2   force =    -0.00002036    0.00000800   -0.00001058
     atom   27 type  2   force =    -0.00001155   -0.00000639   -0.00000458
     atom   28 type  2   force =    -0.00000360    0.00001568   -0.00000897
     atom   29 type  2   force =     0.00001206    0.00001870   -0.00000577
     atom   30 type  2   force =    -0.00000491    0.00001422   -0.00000576
     atom   31 type  2   force =     0.00001290   -0.00000388   -0.00000792
     atom   32 type  2   force =     0.00001377   -0.00000571    0.00001073
     atom   33 type  2   force =     0.00000328   -0.00001741    0.00000649
     atom   34 type  2   force =     0.00000931   -0.00001079    0.00000810
     atom   35 type  2   force =    -0.00000768    0.00001039    0.00001139
     atom   36 type  2   force =    -0.00000648   -0.00003206    0.00001440
     atom   37 type  2   force =    -0.00002732   -0.00004733    0.00001781
     atom   38 type  2   force =    -0.00000951   -0.00000714   -0.00001515
     atom   39 type  2   force =    -0.00003011    0.00001488   -0.00001921
     atom   40 type  2   force =     0.00002326   -0.00001206   -0.00001160
     atom   41 type  2   force =     0.00001893   -0.00000985   -0.00000512
     atom   42 type  2   force =     0.00003126   -0.00000787   -0.00000826
     atom   43 type  2   force =     0.00002486   -0.00000192   -0.00001025
     atom   44 type  2   force =     0.00000511   -0.00000403   -0.00001194
     atom   45 type  2   force =    -0.00002038   -0.00000700   -0.00001718
     atom   46 type  2   force =    -0.00001402   -0.00001201    0.00001749
     atom   47 type  2   force =    -0.00002557    0.00000613    0.00001651
     atom   48 type  2   force =     0.00002431    0.00000698    0.00000781
     atom   49 type  2   force =     0.00001666    0.00001757    0.00001770
     atom   50 type  2   force =     0.00002742    0.00001190    0.00001297
     atom   51 type  2   force =     0.00002455   -0.00000977    0.00000240
     atom   52 type  2   force =    -0.00001562    0.00003462    0.00000778
     atom   53 type  2   force =    -0.00002580    0.00004249    0.00000849
     atom   54 type  2   force =     0.00000729    0.00000778    0.00001256
     atom   55 type  2   force =    -0.00001610   -0.00001476    0.00001958
     atom   56 type  2   force =     0.00002285    0.00001014   -0.00000718
     atom   57 type  2   force =     0.00001827    0.00001019   -0.00001758
     atom   58 type  2   force =     0.00001761    0.00000756   -0.00001304
     atom   59 type  2   force =     0.00001526    0.00000128   -0.00000451
     atom   60 type  2   force =     0.00000474    0.00000138   -0.00000956
     atom   61 type  2   force =    -0.00001104    0.00000965   -0.00000821
     atom   62 type  2   force =     0.00000375    0.00001191   -0.00001544
     atom   63 type  2   force =    -0.00001268   -0.00000524   -0.00001838

     Total force =     0.127584     Total SCF correction =     0.000215

     Writing all to output data dir ./pwscf.save/ :
     XML data file, charge density, pseudopotentials, collected wavefunctions
 
     init_run     :      0.79s CPU      0.85s WALL (       1 calls)
     electrons    :     11.69s CPU     12.39s WALL (       1 calls)
     forces       :      0.05s CPU      0.05s WALL (       1 calls)

     Called by init_run:
     wfcinit      :      0.06s CPU      0.09s WALL (       1 calls)
     wfcinit:wfcr :      0.06s CPU      0.07s WALL (       1 calls)
     potinit      :      0.58s CPU      0.58s WALL (       1 calls)
     hinit0       :      0.03s CPU      0.06s WALL (       1 calls)

     Called by electrons:
     c_bands      :      8.36s CPU      8.74s WALL (      14 calls)
     sum_band     :      1.61s CPU      1.66s WALL (      14 calls)
     v_of_rho     :      0.39s CPU      0.40s WALL (      15 calls)
     v_h          :      0.07s CPU      0.07s WALL (      15 calls)
     v_xc         :      0.32s CPU      0.33s WALL (      15 calls)
     mix_rho      :      0.23s CPU      0.31s WALL (      14 calls)

     Called by c_bands:
     init_us_2    :      0.02s CPU      0.02s WALL (      30 calls)
     regterg      :      7.59s CPU      7.96s WALL (      14 calls)

     Called by sum_band:
     sum_band:wei :      0.03s CPU      0.03s WALL (      14 calls)
     sum_band:loo :      0.20s CPU      0.21s WALL (      14 calls)
     sum_band:buf :      0.00s CPU      0.00s WALL (      14 calls)
     sum_band:ini :      0.01s CPU      0.01s WALL (      14 calls)

     Called by *egterg:
     rdiaghg      :      4.02s CPU      4.13s WALL (     273 calls)
     regterg:over :      0.43s CPU      0.44s WALL (     259 calls)
     regterg:upda :      0.27s CPU      0.27s WALL (     259 calls)
     regterg:last :      0.13s CPU      0.13s WALL (      51 calls)
     rdiaghg:chol :      0.14s CPU      0.15s WALL (     273 calls)
     rdiaghg:inve :      0.03s CPU      0.03s WALL (     273 calls)
     rdiaghg:para :      0.38s CPU      0.40s WALL (     546 calls)
     h_psi        :      2.71s CPU      2.95s WALL (     274 calls)
     g_psi        :      0.00s CPU      0.00s WALL (     259 calls)

     Called by h_psi:
     h_psi:calbec :      0.99s CPU      1.19s WALL (     274 calls)
     vloc_psi     :      1.61s CPU      1.64s WALL (     274 calls)
                                        0.00s GPU  (     274 calls)
     add_vuspsi   :      0.10s CPU      0.11s WALL (     274 calls)

     General routines
     calbec       :      1.00s CPU      1.21s WALL (     278 calls)
     fft          :      0.22s CPU      0.26s WALL (     196 calls)
     ffts         :      0.03s CPU      0.04s WALL (      14 calls)
     fftw         :      1.71s CPU      1.74s WALL (   10120 calls)
 
     Parallel routines
 
     PWSCF        :     13.59s CPU     14.57s WALL

 
   This run was terminated on:  16:53:28  16Nov2025            

=------------------------------------------------------------------------------=
   JOB DONE.
=------------------------------------------------------------------------------=
