
     Program PWSCF v.7.5 starts on 16Nov2025 at 16:32:43 

     This program is part of the open-source Quantum ESPRESSO suite
     for quantum simulation of materials; please cite
         "P. Giannozzi et al., J. Phys.:Condens. Matter 21 395502 (2009);
         "P. Giannozzi et al., J. Phys.:Condens. Matter 29 465901 (2017);
         "P. Giannozzi et al., J. Chem. Phys. 152 154105 (2020);
          URL http://www.quantum-espresso.org", 
     in publications or presentations arising from this work. More details at
     http://www.quantum-espresso.org/quote

     Parallel version (MPI), running on    96 processors

     MPI processes distributed on     2 nodes
     174548 MiB available memory on the printing compute node when the environment starts
 
     Reading input from supercell-217.in

     Current dimensions of program PWSCF are:
     Max number of different atomic species (ntypx) = 10
     Max number of k-points (npk) =  40000
     Max angular momentum in pseudopotentials (lmaxx) =  4

     gamma-point specific algorithms are used
 
     K-points division:     npool     =       2
     R & G space division:  proc/nbgrp/npool/nimage =      48
     Subspace diagonalization in iterative solution of the eigenvalue problem:
     one sub-group per band group will be used
     scalapack distributed-memory algorithm (size of sub-group:  2*  2 procs)

 
     Parallelization info
     --------------------
     sticks:   dense  smooth     PW     G-vecs:    dense   smooth      PW
     Min          59      59     14                 2432     2432     302
     Max          62      62     16                 2442     2442     316
     Sum        2885    2885    725               116921   116921   14771
 
     Using Slab Decomposition
 


     bravais-lattice index     =            0
     lattice parameter (alat)  =      13.4813  a.u.
     unit-cell volume          =    2450.1683 (a.u.)^3
     number of atoms/cell      =           63
     number of atomic types    =            2
     number of electrons       =       254.00 (up: 128.00, down: 126.00)
     number of Kohn-Sham states=          152
     kinetic-energy cutoff     =      50.0000  Ry
     charge density cutoff     =     200.0000  Ry
     scf convergence threshold =      1.0E-08
     mixing beta               =       0.7000
     number of iterations used =            8  plain     mixing
     Exchange-correlation= PBE
                           (   1   4   3   4   0   0   0)

     celldm(1)=  13.481306  celldm(2)=   0.000000  celldm(3)=   0.000000
     celldm(4)=   0.000000  celldm(5)=   0.000000  celldm(6)=   0.000000

     crystal axes: (cart. coord. in units of alat)
               a(1) = (   1.000000   0.000000   0.000000 )  
               a(2) = (   0.000000   1.000000   0.000000 )  
               a(3) = (   0.000000   0.000000   1.000000 )  

     reciprocal axes: (cart. coord. in units 2 pi/alat)
               b(1) = (  1.000000  0.000000  0.000000 )  
               b(2) = (  0.000000  1.000000  0.000000 )  
               b(3) = (  0.000000  0.000000  1.000000 )  


     PseudoPot. # 1 for N  read from file:
     ./N_ONCV_PBE-1.2.upf
     MD5 check sum: 5312fdf34e96954e02a33bdc911c617a
     Pseudo is Norm-conserving, Zval =  5.0
     Generated using ONCVPSP code by D. R. Hamann
     Using radial grid of  602 points,  4 beta functions with: 
                l(1) =   0
                l(2) =   0
                l(3) =   1
                l(4) =   1

     PseudoPot. # 2 for C  read from file:
     ./C_ONCV_PBE-1.2.upf
     MD5 check sum: d60b57d9bdca4133f5fde4b584ee909d
     Pseudo is Norm-conserving, Zval =  4.0
     Generated using ONCVPSP code by D. R. Hamann
     Using radial grid of  602 points,  4 beta functions with: 
                l(1) =   0
                l(2) =   0
                l(3) =   1
                l(4) =   1

     atomic species   valence    mass     pseudopotential
     N                 5.00    14.00670     N ( 1.00)
     C                 4.00    12.01070     C ( 1.00)

     Starting magnetic structure 
     atomic species   magnetization
     N               0.000
     C               0.000

     No symmetry found


                                    s                        frac. trans.

      isym =  1     identity                                     

 cryst.   s( 1) = (     1          0          0      )
                  (     0          1          0      )
                  (     0          0          1      )

 cart.    s( 1) = (  1.0000000  0.0000000  0.0000000 )
                  (  0.0000000  1.0000000  0.0000000 )
                  (  0.0000000  0.0000000  1.0000000 )


   Cartesian axes

     site n.     atom                  positions (alat units)
         1        N      tau(   1) = (   0.9893819   0.9897344   0.9891721  )
         2        C      tau(   2) = (   0.9870277   0.2601210   0.2640728  )
         3        C      tau(   3) = (   0.1231717   0.3731672   0.3742038  )
         4        C      tau(   4) = (   0.2603919   0.9894620   0.2619202  )
         5        C      tau(   5) = (   0.3737632   0.1246771   0.3741571  )
         6        C      tau(   6) = (   0.2640151   0.2616009   0.9853609  )
         7        C      tau(   7) = (   0.3737752   0.3731213   0.1223564  )
         8        C      tau(   8) = (   0.0000049   0.0005840   0.4991361  )
         9        C      tau(   9) = (   0.1251361   0.1251278   0.6250981  )
        10        C      tau(  10) = (   0.0020393   0.2482470   0.7515266  )
        11        C      tau(  11) = (   0.1292009   0.3733021   0.8763303  )
        12        C      tau(  12) = (   0.2487801   0.0017974   0.7514403  )
        13        C      tau(  13) = (   0.3754339   0.1292460   0.8748544  )
        14        C      tau(  14) = (   0.2491579   0.2495268   0.4995755  )
        15        C      tau(  15) = (   0.3750038   0.3749547   0.6244069  )
        16        C      tau(  16) = (   0.0016366   0.4979779   0.0013734  )
        17        C      tau(  17) = (   0.1250869   0.6243147   0.1250807  )
        18        C      tau(  18) = (   0.0014462   0.7520697   0.2483230  )
        19        C      tau(  19) = (   0.1266755   0.8769178   0.3741906  )
        20        C      tau(  20) = (   0.2488290   0.4983596   0.2486760  )
        21        C      tau(  21) = (   0.3741642   0.6242659   0.3742111  )
        22        C      tau(  22) = (   0.2480673   0.7520817   0.0015447  )
        23        C      tau(  23) = (   0.3729914   0.8777475   0.1265606  )
        24        C      tau(  24) = (   0.0000493   0.5010760   0.5011299  )
        25        C      tau(  25) = (   0.1252054   0.6262200   0.6252733  )
        26        C      tau(  26) = (   0.9993969   0.7487112   0.7492532  )
        27        C      tau(  27) = (   0.1217927   0.8768349   0.8763928  )
        28        C      tau(  28) = (   0.2492749   0.5017254   0.7482724  )
        29        C      tau(  29) = (   0.3741000   0.6263042   0.8750769  )
        30        C      tau(  30) = (   0.2487293   0.7486845   0.5007616  )
        31        C      tau(  31) = (   0.3739266   0.8750581   0.6258828  )
        32        C      tau(  32) = (   0.4987543   0.0011228   0.0002828  )
        33        C      tau(  33) = (   0.6248203   0.1251003   0.1251034  )
        34        C      tau(  34) = (   0.4991217   0.2493918   0.2488717  )
        35        C      tau(  35) = (   0.6243080   0.3746888   0.3747831  )
        36        C      tau(  36) = (   0.7516460   0.0016191   0.2487956  )
        37        C      tau(  37) = (   0.8765265   0.1283649   0.3757598  )
        38        C      tau(  38) = (   0.7517475   0.2480080   0.0019610  )
        39        C      tau(  39) = (   0.8773622   0.3724247   0.1282033  )
        40        C      tau(  40) = (   0.5008161   0.9999897   0.5008301  )
        41        C      tau(  41) = (   0.6256173   0.1249721   0.6252590  )
        42        C      tau(  42) = (   0.5022259   0.2488088   0.7478265  )
        43        C      tau(  43) = (   0.6264784   0.3739683   0.8752045  )
        44        C      tau(  44) = (   0.7487945   0.9989046   0.7489691  )
        45        C      tau(  45) = (   0.8764746   0.1216998   0.8763156  )
        46        C      tau(  46) = (   0.7479635   0.2486819   0.5018806  )
        47        C      tau(  47) = (   0.8751980   0.3739245   0.6263738  )
        48        C      tau(  48) = (   0.5012000   0.5011574   0.0001136  )
        49        C      tau(  49) = (   0.6256259   0.6262099   0.1252968  )
        50        C      tau(  50) = (   0.5005188   0.7489091   0.2490095  )
        51        C      tau(  51) = (   0.6258050   0.8750157   0.3740056  )
        52        C      tau(  52) = (   0.7486304   0.5011458   0.2494302  )
        53        C      tau(  53) = (   0.8750247   0.6261269   0.3741365  )
        54        C      tau(  54) = (   0.7492281   0.7488562   0.9996087  )
        55        C      tau(  55) = (   0.8766209   0.8769033   0.1218021  )
        56        C      tau(  56) = (   0.4990819   0.4992903   0.4990317  )
        57        C      tau(  57) = (   0.6247789   0.6244471   0.6249452  )
        58        C      tau(  58) = (   0.4991767   0.7499842   0.7500845  )
        59        C      tau(  59) = (   0.6239946   0.8751464   0.8754130  )
        60        C      tau(  60) = (   0.7505316   0.4989321   0.7505826  )
        61        C      tau(  61) = (   0.8758455   0.6234984   0.8759288  )
        62        C      tau(  62) = (   0.7498244   0.7497799   0.4993198  )
        63        C      tau(  63) = (   0.8750855   0.8749084   0.6242568  )

   Crystallographic axes

     site n.     atom                  positions (cryst. coord.)
         1        N      tau(   1) = (  0.9893819  0.9897344  0.9891721  )
         2        C      tau(   2) = (  0.9870277  0.2601210  0.2640728  )
         3        C      tau(   3) = (  0.1231717  0.3731672  0.3742038  )
         4        C      tau(   4) = (  0.2603919  0.9894620  0.2619202  )
         5        C      tau(   5) = (  0.3737632  0.1246771  0.3741571  )
         6        C      tau(   6) = (  0.2640151  0.2616009  0.9853609  )
         7        C      tau(   7) = (  0.3737752  0.3731213  0.1223564  )
         8        C      tau(   8) = (  0.0000049  0.0005840  0.4991361  )
         9        C      tau(   9) = (  0.1251361  0.1251278  0.6250981  )
        10        C      tau(  10) = (  0.0020393  0.2482470  0.7515266  )
        11        C      tau(  11) = (  0.1292009  0.3733021  0.8763303  )
        12        C      tau(  12) = (  0.2487801  0.0017974  0.7514403  )
        13        C      tau(  13) = (  0.3754339  0.1292460  0.8748544  )
        14        C      tau(  14) = (  0.2491579  0.2495268  0.4995755  )
        15        C      tau(  15) = (  0.3750038  0.3749547  0.6244069  )
        16        C      tau(  16) = (  0.0016366  0.4979779  0.0013734  )
        17        C      tau(  17) = (  0.1250869  0.6243147  0.1250807  )
        18        C      tau(  18) = (  0.0014462  0.7520697  0.2483230  )
        19        C      tau(  19) = (  0.1266755  0.8769178  0.3741906  )
        20        C      tau(  20) = (  0.2488290  0.4983596  0.2486760  )
        21        C      tau(  21) = (  0.3741642  0.6242659  0.3742111  )
        22        C      tau(  22) = (  0.2480673  0.7520817  0.0015447  )
        23        C      tau(  23) = (  0.3729914  0.8777475  0.1265606  )
        24        C      tau(  24) = (  0.0000493  0.5010760  0.5011299  )
        25        C      tau(  25) = (  0.1252054  0.6262200  0.6252733  )
        26        C      tau(  26) = (  0.9993969  0.7487112  0.7492532  )
        27        C      tau(  27) = (  0.1217927  0.8768349  0.8763928  )
        28        C      tau(  28) = (  0.2492749  0.5017254  0.7482724  )
        29        C      tau(  29) = (  0.3741000  0.6263042  0.8750769  )
        30        C      tau(  30) = (  0.2487293  0.7486845  0.5007616  )
        31        C      tau(  31) = (  0.3739266  0.8750581  0.6258828  )
        32        C      tau(  32) = (  0.4987543  0.0011228  0.0002828  )
        33        C      tau(  33) = (  0.6248203  0.1251003  0.1251034  )
        34        C      tau(  34) = (  0.4991217  0.2493918  0.2488717  )
        35        C      tau(  35) = (  0.6243080  0.3746888  0.3747831  )
        36        C      tau(  36) = (  0.7516460  0.0016191  0.2487956  )
        37        C      tau(  37) = (  0.8765265  0.1283649  0.3757598  )
        38        C      tau(  38) = (  0.7517475  0.2480080  0.0019610  )
        39        C      tau(  39) = (  0.8773622  0.3724247  0.1282033  )
        40        C      tau(  40) = (  0.5008161  0.9999897  0.5008301  )
        41        C      tau(  41) = (  0.6256173  0.1249721  0.6252590  )
        42        C      tau(  42) = (  0.5022259  0.2488088  0.7478265  )
        43        C      tau(  43) = (  0.6264784  0.3739683  0.8752045  )
        44        C      tau(  44) = (  0.7487945  0.9989046  0.7489691  )
        45        C      tau(  45) = (  0.8764746  0.1216998  0.8763156  )
        46        C      tau(  46) = (  0.7479635  0.2486819  0.5018806  )
        47        C      tau(  47) = (  0.8751980  0.3739245  0.6263738  )
        48        C      tau(  48) = (  0.5012000  0.5011574  0.0001136  )
        49        C      tau(  49) = (  0.6256259  0.6262099  0.1252968  )
        50        C      tau(  50) = (  0.5005188  0.7489091  0.2490095  )
        51        C      tau(  51) = (  0.6258050  0.8750157  0.3740056  )
        52        C      tau(  52) = (  0.7486304  0.5011458  0.2494302  )
        53        C      tau(  53) = (  0.8750247  0.6261269  0.3741365  )
        54        C      tau(  54) = (  0.7492281  0.7488562  0.9996087  )
        55        C      tau(  55) = (  0.8766209  0.8769033  0.1218021  )
        56        C      tau(  56) = (  0.4990819  0.4992903  0.4990317  )
        57        C      tau(  57) = (  0.6247789  0.6244471  0.6249452  )
        58        C      tau(  58) = (  0.4991767  0.7499842  0.7500845  )
        59        C      tau(  59) = (  0.6239946  0.8751464  0.8754130  )
        60        C      tau(  60) = (  0.7505316  0.4989321  0.7505826  )
        61        C      tau(  61) = (  0.8758455  0.6234984  0.8759288  )
        62        C      tau(  62) = (  0.7498244  0.7497799  0.4993198  )
        63        C      tau(  63) = (  0.8750855  0.8749084  0.6242568  )

     number of k points=     1
                       cart. coord. in units 2pi/alat
        k(    1) = (   0.0000000   0.0000000   0.0000000), wk =   1.0000000

                       cryst. coord.
        k(    1) = (   0.0000000   0.0000000   0.0000000), wk =   1.0000000

     Dense  grid:    58461 G-vectors     FFT dimensions: (  64,  64,  64)

     Dynamical RAM for                 wfc:       0.35 MB

     Dynamical RAM for     wfc (w. buffer):       0.35 MB

     Dynamical RAM for           str. fact:       0.04 MB

     Dynamical RAM for           local pot:       0.00 MB

     Dynamical RAM for          nlocal pot:       1.17 MB

     Dynamical RAM for                qrad:       0.65 MB

     Dynamical RAM for          rho,v,vnew:       0.49 MB

     Dynamical RAM for               rhoin:       0.16 MB

     Dynamical RAM for            rho*nmix:       0.60 MB

     Dynamical RAM for           G-vectors:       0.08 MB

     Dynamical RAM for          h,s,v(r/c):       0.53 MB

     Dynamical RAM for          <psi|beta>:       0.58 MB

     Dynamical RAM for                 psi:       0.71 MB

     Dynamical RAM for                hpsi:       0.71 MB

     Dynamical RAM for      wfcinit/wfcrot:       1.24 MB

     Estimated static dynamical RAM per process >       3.37 MB

     Estimated max dynamical RAM per process >       6.49 MB

     Estimated total dynamical RAM >     594.05 MB
     Generating pointlists ...
     new r_m :   0.0854 (alat units)  1.1518 (a.u.) for type    1
     new r_m :   0.0846 (alat units)  1.1403 (a.u.) for type    2

     Initial potential from superposition of free atoms

     starting charge     252.5655, renormalised to     254.0000
     Starting wfcs are random

     total cpu time spent up to now is        1.1 secs

     Self-consistent Calculation

     iteration #  1     ecut=    50.00 Ry     beta= 0.70
     Davidson diagonalization with overlap

---- Real-time Memory Report at c_bands before calling an iterative solver
           157 MiB given to the printing process from OS
             0 MiB allocation reported by mallinfo(arena+hblkhd)
        173575 MiB available memory on the node where the printing process lives
------------------
     ethr =  1.00E-02,  avg # of iterations = 12.0

     total cpu time spent up to now is        1.9 secs

     total energy              =    -723.26769361 Ry
     estimated scf accuracy    <       3.71023317 Ry

     total magnetization       =     2.00 Bohr mag/cell
     absolute magnetization    =     2.00 Bohr mag/cell

     iteration #  2     ecut=    50.00 Ry     beta= 0.70
     Davidson diagonalization with overlap

---- Real-time Memory Report at c_bands before calling an iterative solver
           163 MiB given to the printing process from OS
             0 MiB allocation reported by mallinfo(arena+hblkhd)
        173514 MiB available memory on the node where the printing process lives
------------------
     ethr =  1.46E-03,  avg # of iterations = 12.0

     total cpu time spent up to now is        2.8 secs

     total energy              =    -723.66014711 Ry
     estimated scf accuracy    <       0.45833726 Ry

     total magnetization       =     2.00 Bohr mag/cell
     absolute magnetization    =     2.07 Bohr mag/cell

     iteration #  3     ecut=    50.00 Ry     beta= 0.70
     Davidson diagonalization with overlap

---- Real-time Memory Report at c_bands before calling an iterative solver
           163 MiB given to the printing process from OS
             0 MiB allocation reported by mallinfo(arena+hblkhd)
        173521 MiB available memory on the node where the printing process lives
------------------
     c_bands:  1 eigenvalues not converged
     ethr =  1.80E-04,  avg # of iterations = 20.0

     total cpu time spent up to now is        3.4 secs

     total energy              =    -723.72601697 Ry
     estimated scf accuracy    <       0.87051795 Ry

     total magnetization       =     2.00 Bohr mag/cell
     absolute magnetization    =     2.12 Bohr mag/cell

     iteration #  4     ecut=    50.00 Ry     beta= 0.70
     Davidson diagonalization with overlap

---- Real-time Memory Report at c_bands before calling an iterative solver
           164 MiB given to the printing process from OS
             0 MiB allocation reported by mallinfo(arena+hblkhd)
        173521 MiB available memory on the node where the printing process lives
------------------
     c_bands:  1 eigenvalues not converged
     ethr =  1.80E-04,  avg # of iterations = 20.0

     total cpu time spent up to now is        4.3 secs

     total energy              =    -723.90108422 Ry
     estimated scf accuracy    <       0.00974958 Ry

     total magnetization       =     2.00 Bohr mag/cell
     absolute magnetization    =     2.19 Bohr mag/cell

     iteration #  5     ecut=    50.00 Ry     beta= 0.70
     Davidson diagonalization with overlap

---- Real-time Memory Report at c_bands before calling an iterative solver
           164 MiB given to the printing process from OS
             0 MiB allocation reported by mallinfo(arena+hblkhd)
        173523 MiB available memory on the node where the printing process lives
------------------
     c_bands:  3 eigenvalues not converged
     ethr =  3.84E-06,  avg # of iterations = 20.0

     total cpu time spent up to now is        5.6 secs

     total energy              =    -723.90606623 Ry
     estimated scf accuracy    <       0.00414859 Ry

     total magnetization       =     2.00 Bohr mag/cell
     absolute magnetization    =     2.23 Bohr mag/cell

     iteration #  6     ecut=    50.00 Ry     beta= 0.70
     Davidson diagonalization with overlap

---- Real-time Memory Report at c_bands before calling an iterative solver
           164 MiB given to the printing process from OS
             0 MiB allocation reported by mallinfo(arena+hblkhd)
        173521 MiB available memory on the node where the printing process lives
------------------
     c_bands:  3 eigenvalues not converged
     ethr =  1.63E-06,  avg # of iterations = 20.0

     total cpu time spent up to now is        6.7 secs

     total energy              =    -723.90682354 Ry
     estimated scf accuracy    <       0.00087215 Ry

     total magnetization       =     2.00 Bohr mag/cell
     absolute magnetization    =     2.25 Bohr mag/cell

     iteration #  7     ecut=    50.00 Ry     beta= 0.70
     Davidson diagonalization with overlap

---- Real-time Memory Report at c_bands before calling an iterative solver
           165 MiB given to the printing process from OS
             0 MiB allocation reported by mallinfo(arena+hblkhd)
        173515 MiB available memory on the node where the printing process lives
------------------
     ethr =  3.43E-07,  avg # of iterations = 18.5

     total cpu time spent up to now is        7.3 secs

     total energy              =    -723.90705067 Ry
     estimated scf accuracy    <       0.00012203 Ry

     total magnetization       =     2.00 Bohr mag/cell
     absolute magnetization    =     2.27 Bohr mag/cell

     iteration #  8     ecut=    50.00 Ry     beta= 0.70
     Davidson diagonalization with overlap

---- Real-time Memory Report at c_bands before calling an iterative solver
           165 MiB given to the printing process from OS
             0 MiB allocation reported by mallinfo(arena+hblkhd)
        173504 MiB available memory on the node where the printing process lives
------------------
     ethr =  4.80E-08,  avg # of iterations = 18.0

     total cpu time spent up to now is        9.7 secs

     total energy              =    -723.90709053 Ry
     estimated scf accuracy    <       0.00002879 Ry

     total magnetization       =     2.00 Bohr mag/cell
     absolute magnetization    =     2.28 Bohr mag/cell

     iteration #  9     ecut=    50.00 Ry     beta= 0.70
     Davidson diagonalization with overlap

---- Real-time Memory Report at c_bands before calling an iterative solver
           165 MiB given to the printing process from OS
             0 MiB allocation reported by mallinfo(arena+hblkhd)
        173511 MiB available memory on the node where the printing process lives
------------------
     c_bands:  3 eigenvalues not converged
     ethr =  1.13E-08,  avg # of iterations = 20.0

     total cpu time spent up to now is       10.9 secs

     total energy              =    -723.90710095 Ry
     estimated scf accuracy    <       0.00000806 Ry

     total magnetization       =     2.00 Bohr mag/cell
     absolute magnetization    =     2.29 Bohr mag/cell

     iteration # 10     ecut=    50.00 Ry     beta= 0.70
     Davidson diagonalization with overlap

---- Real-time Memory Report at c_bands before calling an iterative solver
           165 MiB given to the printing process from OS
             0 MiB allocation reported by mallinfo(arena+hblkhd)
        173508 MiB available memory on the node where the printing process lives
------------------
     c_bands:  2 eigenvalues not converged
     ethr =  3.17E-09,  avg # of iterations = 20.0

     total cpu time spent up to now is       11.7 secs

     total energy              =    -723.90710458 Ry
     estimated scf accuracy    <       0.00000089 Ry

     total magnetization       =     2.00 Bohr mag/cell
     absolute magnetization    =     2.30 Bohr mag/cell

     iteration # 11     ecut=    50.00 Ry     beta= 0.70
     Davidson diagonalization with overlap

---- Real-time Memory Report at c_bands before calling an iterative solver
           165 MiB given to the printing process from OS
             0 MiB allocation reported by mallinfo(arena+hblkhd)
        173516 MiB available memory on the node where the printing process lives
------------------
     c_bands:  1 eigenvalues not converged
     ethr =  3.49E-10,  avg # of iterations = 20.0

     total cpu time spent up to now is       12.4 secs

     total energy              =    -723.90710524 Ry
     estimated scf accuracy    <       0.00000025 Ry

     total magnetization       =     2.00 Bohr mag/cell
     absolute magnetization    =     2.30 Bohr mag/cell

     iteration # 12     ecut=    50.00 Ry     beta= 0.70
     Davidson diagonalization with overlap

---- Real-time Memory Report at c_bands before calling an iterative solver
           165 MiB given to the printing process from OS
             0 MiB allocation reported by mallinfo(arena+hblkhd)
        173514 MiB available memory on the node where the printing process lives
------------------
     c_bands:  1 eigenvalues not converged
     ethr =  9.96E-11,  avg # of iterations = 19.0

     total cpu time spent up to now is       12.9 secs

     total energy              =    -723.90710537 Ry
     estimated scf accuracy    <       0.00000010 Ry

     total magnetization       =     2.00 Bohr mag/cell
     absolute magnetization    =     2.30 Bohr mag/cell

     iteration # 13     ecut=    50.00 Ry     beta= 0.70
     Davidson diagonalization with overlap

---- Real-time Memory Report at c_bands before calling an iterative solver
           165 MiB given to the printing process from OS
             0 MiB allocation reported by mallinfo(arena+hblkhd)
        173511 MiB available memory on the node where the printing process lives
------------------
     ethr =  3.85E-11,  avg # of iterations = 19.0

     total cpu time spent up to now is       13.5 secs

     total energy              =    -723.90710541 Ry
     estimated scf accuracy    <       0.00000003 Ry

     total magnetization       =     2.00 Bohr mag/cell
     absolute magnetization    =     2.30 Bohr mag/cell

     iteration # 14     ecut=    50.00 Ry     beta= 0.70
     Davidson diagonalization with overlap

---- Real-time Memory Report at c_bands before calling an iterative solver
           165 MiB given to the printing process from OS
             0 MiB allocation reported by mallinfo(arena+hblkhd)
        173518 MiB available memory on the node where the printing process lives
------------------
     c_bands:  1 eigenvalues not converged
     ethr =  1.08E-11,  avg # of iterations = 19.0
 
     Magnetic moment per site  (integrated on atomic sphere of radius R)
     atom   1 (R=0.085)  charge=  2.9143  magn=  0.0042
     atom   2 (R=0.085)  charge=  1.8145  magn=  0.2437
     atom   3 (R=0.085)  charge=  1.7883  magn= -0.0087
     atom   4 (R=0.085)  charge=  1.8002  magn=  0.2451
     atom   5 (R=0.085)  charge=  1.7882  magn= -0.0087
     atom   6 (R=0.085)  charge=  1.8184  magn=  0.2444
     atom   7 (R=0.085)  charge=  1.7885  magn= -0.0087
     atom   8 (R=0.085)  charge=  1.7829  magn=  0.0091
     atom   9 (R=0.085)  charge=  1.7914  magn= -0.0019
     atom  10 (R=0.085)  charge=  1.7786  magn=  0.0060
     atom  11 (R=0.085)  charge=  1.7920  magn= -0.0042
     atom  12 (R=0.085)  charge=  1.7775  magn=  0.0061
     atom  13 (R=0.085)  charge=  1.7990  magn= -0.0039
     atom  14 (R=0.085)  charge=  1.7842  magn=  0.0085
     atom  15 (R=0.085)  charge=  1.7824  magn= -0.0020
     atom  16 (R=0.085)  charge=  1.7772  magn=  0.0089
     atom  17 (R=0.085)  charge=  1.7906  magn= -0.0018
     atom  18 (R=0.085)  charge=  1.7775  magn=  0.0057
     atom  19 (R=0.085)  charge=  1.7905  magn= -0.0035
     atom  20 (R=0.085)  charge=  1.7786  magn=  0.0083
     atom  21 (R=0.085)  charge=  1.7796  magn= -0.0020
     atom  22 (R=0.085)  charge=  1.7781  magn=  0.0057
     atom  23 (R=0.085)  charge=  1.7856  magn= -0.0037
     atom  24 (R=0.085)  charge=  1.7776  magn=  0.0182
     atom  25 (R=0.085)  charge=  1.8017  magn=  0.0093
     atom  26 (R=0.085)  charge=  1.7885  magn=  0.0032
     atom  27 (R=0.085)  charge=  1.7541  magn=  0.0000
     atom  28 (R=0.085)  charge=  1.7848  magn=  0.0221
     atom  29 (R=0.085)  charge=  1.7775  magn= -0.0013
     atom  30 (R=0.085)  charge=  1.7852  magn=  0.0211
     atom  31 (R=0.085)  charge=  1.7774  magn= -0.0013
     atom  32 (R=0.085)  charge=  1.7795  magn=  0.0090
     atom  33 (R=0.085)  charge=  1.7908  magn= -0.0019
     atom  34 (R=0.085)  charge=  1.7818  magn=  0.0084
     atom  35 (R=0.085)  charge=  1.7814  magn= -0.0020
     atom  36 (R=0.085)  charge=  1.7753  magn=  0.0061
     atom  37 (R=0.085)  charge=  1.7987  magn= -0.0038
     atom  38 (R=0.085)  charge=  1.7788  magn=  0.0058
     atom  39 (R=0.085)  charge=  1.7864  magn= -0.0041
     atom  40 (R=0.085)  charge=  1.7786  magn=  0.0180
     atom  41 (R=0.085)  charge=  1.8058  magn=  0.0094
     atom  42 (R=0.085)  charge=  1.7899  magn=  0.0218
     atom  43 (R=0.085)  charge=  1.7770  magn= -0.0013
     atom  44 (R=0.085)  charge=  1.7887  magn=  0.0032
     atom  45 (R=0.085)  charge=  1.7542  magn= -0.0000
     atom  46 (R=0.085)  charge=  1.7881  magn=  0.0222
     atom  47 (R=0.085)  charge=  1.7770  magn= -0.0013
     atom  48 (R=0.085)  charge=  1.7770  magn=  0.0184
     atom  49 (R=0.085)  charge=  1.7992  magn=  0.0093
     atom  50 (R=0.085)  charge=  1.7823  magn=  0.0212
     atom  51 (R=0.085)  charge=  1.7775  magn= -0.0013
     atom  52 (R=0.085)  charge=  1.7819  magn=  0.0217
     atom  53 (R=0.085)  charge=  1.7777  magn= -0.0013
     atom  54 (R=0.085)  charge=  1.7885  magn=  0.0032
     atom  55 (R=0.085)  charge=  1.7541  magn=  0.0001
     atom  56 (R=0.085)  charge=  1.7864  magn=  0.0009
     atom  57 (R=0.085)  charge=  1.7783  magn=  0.0010
     atom  58 (R=0.085)  charge=  1.7864  magn=  0.0018
     atom  59 (R=0.085)  charge=  1.7829  magn= -0.0009
     atom  60 (R=0.085)  charge=  1.7861  magn=  0.0017
     atom  61 (R=0.085)  charge=  1.7805  magn= -0.0009
     atom  62 (R=0.085)  charge=  1.7863  magn=  0.0019
     atom  63 (R=0.085)  charge=  1.7841  magn= -0.0009

     total cpu time spent up to now is       14.3 secs

     End of self-consistent calculation

 ------ SPIN UP ------------


          k = 0.0000 0.0000 0.0000 (  7386 PWs)   bands (ev):

    -8.5503  -6.9222  -6.2837  -6.2687  -6.1953  -6.1575  -5.8817  -4.9127
    -4.1415  -4.1272  -4.1246  -4.0910  -4.0318  -4.0182  -4.0115  -3.9174
    -3.8776  -3.8608  -3.3598  -2.9325  -2.6760  -2.6728  -2.1636  -0.3627
    -0.3532  -0.3271  -0.2808  -0.0799   0.1719   0.1927   0.2830   0.2971
     0.3673   0.6191   0.8363   0.8447   0.9563   0.9727   0.9867   1.0511
     1.0635   1.0657   1.2634   1.2958   3.0712   3.9111   3.9261   4.0714
     4.1872   4.2067   4.2209   4.2778   4.2812   4.2858   4.4203   4.4268
     4.4961   4.4992   4.5676   4.6596   4.6843   4.6908   4.6925   4.7883
     4.7949   4.9217   4.9677   4.9718   5.0472   5.2008   5.2107   5.3001
     5.3594   5.3712   5.3935   5.4034   5.4078   6.0398   6.0475   6.1025
     6.6621   6.6640   6.7264   6.9888   7.0059   7.0398   7.5258   8.3326
     8.3380   8.4094   8.4639   8.4915   8.6889   8.7097   8.7837   8.8303
     8.8460   8.8570   8.8927   8.9003   8.9023   9.2872   9.2880   9.3234
     9.6810   9.6984   9.8948   9.9141   9.9443   9.9619   9.9645   9.9786
     9.9878  10.0259  10.0370  10.0569  10.1285  10.1425  10.2696  10.3242
    10.3359  11.0540  12.2879  12.4157  12.4277  13.9574  14.6940  14.7981
    17.3400  17.3780  17.4114  17.5242  17.5765  17.5822  17.8544  17.9220
    17.9360  18.0308  18.0641  18.3715  18.9928  18.9996  19.0269  20.6915
    20.7979  20.8223  20.8776  20.9435  20.9491  21.0266  21.0311  21.0437

     occupation numbers 
     1.0000   1.0000   1.0000   1.0000   1.0000   1.0000   1.0000   1.0000
     1.0000   1.0000   1.0000   1.0000   1.0000   1.0000   1.0000   1.0000
     1.0000   1.0000   1.0000   1.0000   1.0000   1.0000   1.0000   1.0000
     1.0000   1.0000   1.0000   1.0000   1.0000   1.0000   1.0000   1.0000
     1.0000   1.0000   1.0000   1.0000   1.0000   1.0000   1.0000   1.0000
     1.0000   1.0000   1.0000   1.0000   1.0000   1.0000   1.0000   1.0000
     1.0000   1.0000   1.0000   1.0000   1.0000   1.0000   1.0000   1.0000
     1.0000   1.0000   1.0000   1.0000   1.0000   1.0000   1.0000   1.0000
     1.0000   1.0000   1.0000   1.0000   1.0000   1.0000   1.0000   1.0000
     1.0000   1.0000   1.0000   1.0000   1.0000   1.0000   1.0000   1.0000
     1.0000   1.0000   1.0000   1.0000   1.0000   1.0000   1.0000   1.0000
     1.0000   1.0000   1.0000   1.0000   1.0000   1.0000   1.0000   1.0000
     1.0000   1.0000   1.0000   1.0000   1.0000   1.0000   1.0000   1.0000
     1.0000   1.0000   1.0000   1.0000   1.0000   1.0000   1.0000   1.0000
     1.0000   1.0000   1.0000   1.0000   1.0000   1.0000   1.0000   1.0000
     1.0000   1.0000   1.0000   1.0000   1.0000   1.0000   1.0000   1.0000
     0.0000   0.0000   0.0000   0.0000   0.0000   0.0000   0.0000   0.0000
     0.0000   0.0000   0.0000   0.0000   0.0000   0.0000   0.0000   0.0000
     0.0000   0.0000   0.0000   0.0000   0.0000   0.0000   0.0000   0.0000

 ------ SPIN DOWN ----------


          k = 0.0000 0.0000 0.0000 (  7386 PWs)   bands (ev):

    -8.5248  -6.9077  -6.2614  -6.2459  -6.1500  -6.1151  -5.8444  -4.8959
    -4.1209  -4.1059  -4.0825  -4.0587  -3.9940  -3.9814  -3.9648  -3.9052
    -3.8418  -3.8206  -3.3174  -2.9139  -2.6233  -2.6190  -2.0188  -0.3451
    -0.3350  -0.3056  -0.2636  -0.0143   0.1908   0.2099   0.3209   0.3301
     0.3924   0.6539   0.8485   0.8563   0.9896   1.0031   1.0128   1.0680
     1.0794   1.0820   1.4289   1.4655   3.1848   3.9342   3.9482   4.0975
     4.2219   4.2493   4.2640   4.2923   4.2988   4.3136   4.4675   4.4736
     4.5178   4.5208   4.5911   4.6838   4.7044   4.7075   4.7121   4.8232
     4.8313   4.9351   5.0002   5.0025   5.1286   5.2346   5.2459   5.3241
     5.3751   5.3822   5.4187   5.4501   5.4685   6.1023   6.1068   6.1404
     6.6886   6.6914   6.7608   7.0757   7.0883   7.0998   7.6963   8.3713
     8.3771   8.4463   8.4995   8.5266   8.7227   8.7416   8.8197   8.8764
     8.8860   8.8886   8.9249   8.9302   8.9326   9.3237   9.3247   9.3506
     9.7087   9.7259   9.9289   9.9383   9.9566   9.9759   9.9780   9.9976
    10.0083  10.0607  10.0692  10.0779  10.1561  10.1684  10.3271  10.3787
    10.3905  11.4336  12.5549  12.5666  12.6016  14.4382  16.0171  16.1368
    17.3650  17.3955  17.4284  17.5520  17.6315  17.6394  17.8771  17.9415
    17.9541  18.0710  18.1041  18.4909  19.0395  19.0796  19.1144  20.7419
    20.8122  20.8365  20.8924  20.9607  20.9669  21.0436  21.0581  21.0610

     occupation numbers 
     1.0000   1.0000   1.0000   1.0000   1.0000   1.0000   1.0000   1.0000
     1.0000   1.0000   1.0000   1.0000   1.0000   1.0000   1.0000   1.0000
     1.0000   1.0000   1.0000   1.0000   1.0000   1.0000   1.0000   1.0000
     1.0000   1.0000   1.0000   1.0000   1.0000   1.0000   1.0000   1.0000
     1.0000   1.0000   1.0000   1.0000   1.0000   1.0000   1.0000   1.0000
     1.0000   1.0000   1.0000   1.0000   1.0000   1.0000   1.0000   1.0000
     1.0000   1.0000   1.0000   1.0000   1.0000   1.0000   1.0000   1.0000
     1.0000   1.0000   1.0000   1.0000   1.0000   1.0000   1.0000   1.0000
     1.0000   1.0000   1.0000   1.0000   1.0000   1.0000   1.0000   1.0000
     1.0000   1.0000   1.0000   1.0000   1.0000   1.0000   1.0000   1.0000
     1.0000   1.0000   1.0000   1.0000   1.0000   1.0000   1.0000   1.0000
     1.0000   1.0000   1.0000   1.0000   1.0000   1.0000   1.0000   1.0000
     1.0000   1.0000   1.0000   1.0000   1.0000   1.0000   1.0000   1.0000
     1.0000   1.0000   1.0000   1.0000   1.0000   1.0000   1.0000   1.0000
     1.0000   1.0000   1.0000   1.0000   1.0000   1.0000   1.0000   1.0000
     1.0000   1.0000   1.0000   1.0000   1.0000   1.0000   0.0000   0.0000
     0.0000   0.0000   0.0000   0.0000   0.0000   0.0000   0.0000   0.0000
     0.0000   0.0000   0.0000   0.0000   0.0000   0.0000   0.0000   0.0000
     0.0000   0.0000   0.0000   0.0000   0.0000   0.0000   0.0000   0.0000

     highest occupied, lowest unoccupied level (ev):    14.7981   16.0171

!    total energy              =    -723.90710543 Ry
     estimated scf accuracy    <          6.0E-09 Ry

     The total energy is the sum of the following terms:
     one-electron contribution =     232.31133415 Ry
     hartree contribution      =      70.32290348 Ry
     xc contribution           =    -226.77210289 Ry
     ewald contribution        =    -799.76924017 Ry

     total magnetization       =     2.00 Bohr mag/cell
     absolute magnetization    =     2.30 Bohr mag/cell

     convergence has been achieved in  14 iterations

     Forces acting on atoms (cartesian axes, Ry/au):

     atom    1 type  1   force =    -0.00276289   -0.00387224   -0.00247601
     atom    2 type  2   force =     0.03988426    0.01879819   -0.01398942
     atom    3 type  2   force =    -0.00866893    0.00922968    0.00572710
     atom    4 type  2   force =     0.00881362    0.02473896   -0.00275430
     atom    5 type  2   force =     0.00237153   -0.02122463    0.00164081
     atom    6 type  2   force =    -0.00832617    0.00828111    0.04331626
     atom    7 type  2   force =     0.01021247    0.01201470   -0.00209780
     atom    8 type  2   force =     0.00696674    0.00343822    0.00755398
     atom    9 type  2   force =    -0.00152094   -0.00508334   -0.00233555
     atom   10 type  2   force =     0.00080979    0.00131627    0.00741152
     atom   11 type  2   force =    -0.02863280    0.00589073   -0.00882197
     atom   12 type  2   force =     0.00000631    0.00396902    0.00345602
     atom   13 type  2   force =    -0.00282066   -0.03996025   -0.00180910
     atom   14 type  2   force =     0.00339050    0.00211693   -0.00445653
     atom   15 type  2   force =    -0.00282098   -0.00132661   -0.00567921
     atom   16 type  2   force =     0.00027699   -0.00103571   -0.00094513
     atom   17 type  2   force =    -0.00137469    0.00638021    0.00024891
     atom   18 type  2   force =     0.00282602   -0.00014573    0.00095096
     atom   19 type  2   force =    -0.00855790   -0.00378238   -0.00494023
     atom   20 type  2   force =     0.00309137   -0.00421573    0.00364776
     atom   21 type  2   force =    -0.00109340   -0.00408704   -0.00215968
     atom   22 type  2   force =     0.00143831    0.00209312    0.00124135
     atom   23 type  2   force =    -0.00061683   -0.00715433   -0.00171627
     atom   24 type  2   force =     0.00955474    0.00540917    0.00427468
     atom   25 type  2   force =    -0.01230171   -0.01386152   -0.00405865
     atom   26 type  2   force =     0.01502636    0.00621006    0.00159657
     atom   27 type  2   force =    -0.02566934   -0.00857856   -0.00644987
     atom   28 type  2   force =     0.01051407    0.00073107    0.00591274
     atom   29 type  2   force =    -0.00011590   -0.00166195   -0.00128642
     atom   30 type  2   force =     0.00775565    0.00646852    0.00404542
     atom   31 type  2   force =     0.00101003   -0.00158729   -0.00352939
     atom   32 type  2   force =     0.00325429    0.00377965    0.00148166
     atom   33 type  2   force =     0.00114103   -0.00408448    0.00050663
     atom   34 type  2   force =    -0.00476938    0.00172990    0.00353835
     atom   35 type  2   force =    -0.00432003   -0.00159421   -0.00363146
     atom   36 type  2   force =     0.00427973    0.00498088    0.00059033
     atom   37 type  2   force =    -0.01751847   -0.03416268   -0.00724312
     atom   38 type  2   force =     0.00696458    0.00173244   -0.00034460
     atom   39 type  2   force =    -0.01055812    0.00560474   -0.01343362
     atom   40 type  2   force =     0.00536462    0.01260441    0.00503455
     atom   41 type  2   force =    -0.00677970   -0.01575360   -0.00438838
     atom   42 type  2   force =    -0.00007892    0.01752851    0.00601830
     atom   43 type  2   force =    -0.00087064    0.00078986   -0.00104886
     atom   44 type  2   force =     0.00454528    0.01711784    0.00305984
     atom   45 type  2   force =    -0.00740598   -0.02650642   -0.00666492
     atom   46 type  2   force =     0.00989405    0.01526744    0.00063695
     atom   47 type  2   force =    -0.00179923    0.00155710   -0.00162977
     atom   48 type  2   force =     0.00486607    0.00556666    0.00781545
     atom   49 type  2   force =    -0.00793685   -0.01412098   -0.01017653
     atom   50 type  2   force =     0.00428951    0.00671828    0.00339556
     atom   51 type  2   force =    -0.00339623   -0.00119644    0.00060246
     atom   52 type  2   force =     0.00640770    0.00217136    0.00496955
     atom   53 type  2   force =    -0.00163241   -0.00302508   -0.00038023
     atom   54 type  2   force =     0.00275888    0.00533423    0.01390634
     atom   55 type  2   force =    -0.00776493   -0.00887805   -0.02526755
     atom   56 type  2   force =     0.00483726    0.00456855    0.00482416
     atom   57 type  2   force =    -0.00171099   -0.00069781   -0.00223166
     atom   58 type  2   force =     0.00146055    0.00408788    0.00330001
     atom   59 type  2   force =    -0.00120090   -0.00270964   -0.00372456
     atom   60 type  2   force =     0.00275794    0.00207468    0.00242678
     atom   61 type  2   force =    -0.00353612   -0.00183786   -0.00383184
     atom   62 type  2   force =     0.00396532    0.00443972    0.00114283
     atom   63 type  2   force =    -0.00417353   -0.00259551   -0.00077126
     The non-local contrib.  to forces
     atom    1 type  1   force =    -0.76043967   -0.76410921   -0.75875785
     atom    2 type  2   force =    -0.15889665    0.22131823    0.17495439
     atom    3 type  2   force =     0.05755525    0.08189466    0.07267968
     atom    4 type  2   force =     0.21483515   -0.18835749    0.19770499
     atom    5 type  2   force =     0.07275341    0.04250453    0.07015029
     atom    6 type  2   force =     0.17957000    0.20434713   -0.14658886
     atom    7 type  2   force =     0.07720798    0.08314847    0.06420036
     atom    8 type  2   force =    -0.00082472   -0.00534519    0.05760419
     atom    9 type  2   force =    -0.00491114   -0.00780548    0.01369380
     atom   10 type  2   force =    -0.04421562   -0.01432664   -0.01151518
     atom   11 type  2   force =    -0.10393898    0.06767983   -0.08310765
     atom   12 type  2   force =    -0.01716779   -0.04106986   -0.01433223
     atom   13 type  2   force =     0.05231606   -0.11648097   -0.07326102
     atom   14 type  2   force =     0.00248628    0.00051541    0.04546678
     atom   15 type  2   force =     0.00994413    0.00897847   -0.00381287
     atom   16 type  2   force =    -0.01256872    0.04843949   -0.01283794
     atom   17 type  2   force =    -0.00464842    0.02727176   -0.00331002
     atom   18 type  2   force =    -0.04081202   -0.02212671   -0.01554999
     atom   19 type  2   force =    -0.08045079   -0.07954731    0.05526333
     atom   20 type  2   force =     0.00477339    0.04528107    0.00484455
     atom   21 type  2   force =     0.01109939   -0.00317207    0.01125919
     atom   22 type  2   force =    -0.01446049   -0.02022332   -0.04256052
     atom   23 type  2   force =     0.06328581   -0.08449290   -0.07265791
     atom   24 type  2   force =    -0.06458337    0.03336898    0.03406666
     atom   25 type  2   force =    -0.02445716    0.00029810    0.01392591
     atom   26 type  2   force =    -0.04206414   -0.02019205   -0.02405866
     atom   27 type  2   force =    -0.14713589    0.12507261    0.12334436
     atom   28 type  2   force =     0.08006913    0.02352192   -0.01261584
     atom   29 type  2   force =     0.00061387    0.01842217    0.00494565
     atom   30 type  2   force =     0.07669351   -0.01332736    0.02890323
     atom   31 type  2   force =     0.00312877    0.00318794    0.01664897
     atom   32 type  2   force =     0.05296201   -0.00665663   -0.00701448
     atom   33 type  2   force =     0.01883545   -0.00723721   -0.00323797
     atom   34 type  2   force =     0.04452310    0.00108959    0.00374254
     atom   35 type  2   force =    -0.00284855    0.00832785    0.01028661
     atom   36 type  2   force =    -0.01544508   -0.04021266   -0.01773961
     atom   37 type  2   force =    -0.09441943   -0.11079030    0.04837498
     atom   38 type  2   force =    -0.01340768   -0.01318145   -0.04505643
     atom   39 type  2   force =    -0.08611496    0.07018111   -0.08621628
     atom   40 type  2   force =     0.03475254   -0.05850641    0.03550524
     atom   41 type  2   force =     0.00956517   -0.02629256    0.01365359
     atom   42 type  2   force =     0.02104932    0.08899049   -0.00995947
     atom   43 type  2   force =     0.01713615    0.00013008    0.00395702
     atom   44 type  2   force =    -0.02248891   -0.03721859   -0.02353874
     atom   45 type  2   force =     0.12485667   -0.14763615    0.12424851
     atom   46 type  2   force =    -0.00757277    0.08765524    0.02349219
     atom   47 type  2   force =     0.00377141    0.00200257    0.01704953
     atom   48 type  2   force =     0.03353718    0.03311878   -0.06834111
     atom   49 type  2   force =     0.00843205   -0.00009790   -0.02278230
     atom   50 type  2   force =     0.02977049   -0.01431464    0.07134234
     atom   51 type  2   force =     0.01764943    0.00413578    0.00337336
     atom   52 type  2   force =    -0.01402828    0.02636338    0.07286267
     atom   53 type  2   force =     0.00474468    0.01790331    0.00160811
     atom   54 type  2   force =    -0.02291519   -0.02109907   -0.04437621
     atom   55 type  2   force =     0.12376131    0.12345817   -0.14753043
     atom   56 type  2   force =     0.02292693    0.02394442    0.02216376
     atom   57 type  2   force =     0.00512681    0.00503522    0.00528372
     atom   58 type  2   force =     0.01613061   -0.00640020   -0.00999965
     atom   59 type  2   force =     0.00784012   -0.01419931   -0.01553477
     atom   60 type  2   force =    -0.01061879    0.01883125   -0.01096601
     atom   61 type  2   force =    -0.01451154    0.00872733   -0.01551422
     atom   62 type  2   force =    -0.00820870   -0.00583973    0.01544726
     atom   63 type  2   force =    -0.01526011   -0.01396646    0.00736562
     The ionic contribution  to forces
     atom    1 type  1   force =     2.98070882    2.95292344    2.99530648
     atom    2 type  2   force =     2.40978089   -2.02840798   -2.24181702
     atom    3 type  2   force =     0.48530569   -0.72146501   -0.85252632
     atom    4 type  2   force =    -2.08275059    2.33117158   -2.15942361
     atom    5 type  2   force =    -0.76978541    0.40102109   -0.82620943
     atom    6 type  2   force =    -2.18450441   -2.09777819    2.45912046
     atom    7 type  2   force =    -0.82103648   -0.74902437    0.53704731
     atom    8 type  2   force =     0.25752926    0.18915814   -0.70209587
     atom    9 type  2   force =     0.07026847    0.02637478   -0.21592553
     atom   10 type  2   force =     0.17783691    0.07202691    0.56809397
     atom   11 type  2   force =    -0.52778541   -0.62660002    0.80323996
     atom   12 type  2   force =     0.03064517    0.15996805    0.55175321
     atom   13 type  2   force =    -0.66085729   -0.56635273    0.76122368
     atom   14 type  2   force =    -0.18647309   -0.17761423   -0.71232431
     atom   15 type  2   force =    -0.16578323   -0.13062332   -0.06819346
     atom   16 type  2   force =     0.19900998   -0.77436383    0.22484375
     atom   17 type  2   force =     0.07144394   -0.15604862    0.09307282
     atom   18 type  2   force =     0.22090516    0.46670269    0.00130605
     atom   19 type  2   force =    -0.35764335    0.74020262   -0.70684767
     atom   20 type  2   force =    -0.17869209   -0.72918121   -0.19093950
     atom   21 type  2   force =    -0.17224657   -0.05789121   -0.20024436
     atom   22 type  2   force =     0.02869970    0.47796583    0.23683515
     atom   23 type  2   force =    -0.68551457    0.77825917   -0.33163642
     atom   24 type  2   force =     0.10385768   -0.13403515   -0.16963720
     atom   25 type  2   force =    -0.02557071   -0.07931316   -0.06969158
     atom   26 type  2   force =     0.12911264   -0.09431581   -0.04860417
     atom   27 type  2   force =     1.14071191    0.24311031    0.25020561
     atom   28 type  2   force =    -0.08087668   -0.13551668    0.11327891
     atom   29 type  2   force =    -0.15340434    0.03123670    0.25695415
     atom   30 type  2   force =    -0.01768294    0.13701297   -0.23426525
     atom   31 type  2   force =    -0.15008852    0.17286449   -0.00825962
     atom   32 type  2   force =    -0.74137848    0.19574460    0.26334181
     atom   33 type  2   force =    -0.19781171    0.02981350    0.09950057
     atom   34 type  2   force =    -0.71013169   -0.17846200   -0.19688801
     atom   35 type  2   force =    -0.05897083   -0.14226457   -0.19791648
     atom   36 type  2   force =     0.51545777    0.19982373    0.02791233
     atom   37 type  2   force =     0.67594526   -0.50533070   -0.69783032
     atom   38 type  2   force =     0.53699792    0.07022369    0.21140284
     atom   39 type  2   force =     0.80250500   -0.63779083   -0.43122645
     atom   40 type  2   force =    -0.18920230    0.06472989   -0.21222014
     atom   41 type  2   force =    -0.06617933   -0.08765188   -0.07673455
     atom   42 type  2   force =    -0.12894758    0.02637003    0.08788481
     atom   43 type  2   force =     0.03303578   -0.11477550    0.25399283
     atom   44 type  2   force =    -0.07380962    0.12376385   -0.05676865
     atom   45 type  2   force =     0.24104943    1.15927908    0.24816056
     atom   46 type  2   force =     0.10227570    0.02518211   -0.19654015
     atom   47 type  2   force =     0.21798472   -0.11438343    0.01658284
     atom   48 type  2   force =    -0.13070799   -0.11120043    0.13807847
     atom   49 type  2   force =    -0.07464179   -0.08147539    0.00794967
     atom   50 type  2   force =    -0.23446493    0.15410975   -0.08239800
     atom   51 type  2   force =    -0.00563273    0.18244237   -0.18032063
     atom   52 type  2   force =     0.13688101   -0.17958579   -0.12060387
     atom   53 type  2   force =     0.22522659    0.01350675   -0.18206163
     atom   54 type  2   force =    -0.06426344   -0.09018486    0.13945413
     atom   55 type  2   force =     0.23971769    0.24272267    1.13194096
     atom   56 type  2   force =    -0.08880881   -0.03131216   -0.12521254
     atom   57 type  2   force =    -0.02241175   -0.03458322   -0.02013197
     atom   58 type  2   force =    -0.07563712    0.04843768    0.03976457
     atom   59 type  2   force =    -0.28465463    0.07762035    0.15393816
     atom   60 type  2   force =     0.05901657   -0.03640500    0.05839682
     atom   61 type  2   force =     0.13024187   -0.30283474    0.15881219
     atom   62 type  2   force =     0.02808097    0.03927739   -0.10028756
     atom   63 type  2   force =     0.11811796    0.07372576   -0.27361279
     The local contribution  to forces
     atom    1 type  1   force =    -2.22309377   -2.19268785   -2.23908474
     atom    2 type  2   force =    -2.21107133    1.82587249    2.05281910
     atom    3 type  2   force =    -0.55163232    0.64875018    0.78551018
     atom    4 type  2   force =     1.87663699   -2.11809030    1.95891330
     atom    5 type  2   force =     0.69929802   -0.46476256    0.75765871
     atom    6 type  2   force =     1.99651343    1.90169934   -2.26928281
     atom    7 type  2   force =     0.75393141    0.67786036   -0.60342115
     atom    8 type  2   force =    -0.24979987   -0.18037176    0.65199323
     atom    9 type  2   force =    -0.06694692   -0.02365864    0.19983903
     atom   10 type  2   force =    -0.13286683   -0.05640696   -0.54922353
     atom   11 type  2   force =     0.60302809    0.56477537   -0.72900548
     atom   12 type  2   force =    -0.01355363   -0.11494529   -0.53401988
     atom   13 type  2   force =     0.60561946    0.64286243   -0.68983624
     atom   14 type  2   force =     0.18727306    0.17919404    0.66235596
     atom   15 type  2   force =     0.15290696    0.12027914    0.06629293
     atom   16 type  2   force =    -0.18622661    0.72482950   -0.21300043
     atom   17 type  2   force =    -0.06824183    0.13509029   -0.08957640
     atom   18 type  2   force =    -0.17732838   -0.44477400    0.01513154
     atom   19 type  2   force =     0.42946450   -0.66446496    0.64659651
     atom   20 type  2   force =     0.17690626    0.67963276    0.18968021
     atom   21 type  2   force =     0.15994427    0.05693121    0.18677148
     atom   22 type  2   force =    -0.01287963   -0.45570001   -0.19310307
     atom   23 type  2   force =     0.62152104   -0.70096093    0.40250316
     atom   24 type  2   force =    -0.02978082    0.10600792    0.13978159
     atom   25 type  2   force =     0.03765988    0.06509584    0.05165813
     atom   26 type  2   force =    -0.07208727    0.12067454    0.07421086
     atom   27 type  2   force =    -1.01931848   -0.37678740   -0.38005776
     atom   28 type  2   force =     0.01124077    0.11267346   -0.09479921
     atom   29 type  2   force =     0.15257837   -0.05137639   -0.26324272
     atom   30 type  2   force =    -0.05133635   -0.11726479    0.20936400
     atom   31 type  2   force =     0.14786988   -0.17766796   -0.01196424
     atom   32 type  2   force =     0.69157174   -0.18533393   -0.25491812
     atom   33 type  2   force =     0.18003112   -0.02667301   -0.09581972
     atom   34 type  2   force =     0.66074587    0.17908182    0.19662283
     atom   35 type  2   force =     0.05742510    0.13229808    0.18393739
     atom   36 type  2   force =    -0.49580732   -0.15462761   -0.00964867
     atom   37 type  2   force =    -0.59909829    0.58197718    0.64214238
     atom   38 type  2   force =    -0.51669942   -0.05533186   -0.16673690
     atom   39 type  2   force =    -0.72700176    0.57316364    0.50397216
     atom   40 type  2   force =     0.15970520    0.00636290    0.18171101
     atom   41 type  2   force =     0.04973145    0.09817245    0.05864393
     atom   42 type  2   force =     0.10770260   -0.09785285   -0.07195704
     atom   43 type  2   force =    -0.05115234    0.11540591   -0.25905086
     atom   44 type  2   force =     0.10075436   -0.06945298    0.08332006
     atom   45 type  2   force =    -0.37337588   -1.03816993   -0.37911852
     atom   46 type  2   force =    -0.08487716   -0.09758923    0.17361574
     atom   47 type  2   force =    -0.22361466    0.11389788   -0.03533281
     atom   48 type  2   force =     0.10192914    0.08360716   -0.06199406
     atom   49 type  2   force =     0.05817193    0.06739872    0.00457826
     atom   50 type  2   force =     0.20887253   -0.13312347    0.01438417
     atom   51 type  2   force =    -0.01552028   -0.18779712    0.17749709
     atom   52 type  2   force =    -0.11651323    0.15532257    0.05264951
     atom   53 type  2   force =    -0.23166282   -0.03451304    0.18001527
     atom   54 type  2   force =     0.08984403    0.11657391   -0.08124544
     atom   55 type  2   force =    -0.37131270   -0.37507557   -1.00975250
     atom   56 type  2   force =     0.07061157    0.01189019    0.10783225
     atom   57 type  2   force =     0.01547149    0.02880314    0.01258229
     atom   58 type  2   force =     0.06086394   -0.03799391   -0.02650867
     atom   59 type  2   force =     0.27551284   -0.06616640   -0.14218430
     atom   60 type  2   force =    -0.04573031    0.01961146   -0.04505164
     atom   61 type  2   force =    -0.11934200    0.29222275   -0.14718390
     atom   62 type  2   force =    -0.01599401   -0.02904436    0.08594808
     atom   63 type  2   force =    -0.10710287   -0.06238217    0.26543885
     The core correction contribution to forces
     atom    1 type  1   force =     0.00000000    0.00000000    0.00000000
     atom    2 type  2   force =     0.00000000    0.00000000    0.00000000
     atom    3 type  2   force =     0.00000000    0.00000000    0.00000000
     atom    4 type  2   force =     0.00000000    0.00000000    0.00000000
     atom    5 type  2   force =     0.00000000    0.00000000    0.00000000
     atom    6 type  2   force =     0.00000000    0.00000000    0.00000000
     atom    7 type  2   force =     0.00000000    0.00000000    0.00000000
     atom    8 type  2   force =     0.00000000    0.00000000    0.00000000
     atom    9 type  2   force =     0.00000000    0.00000000    0.00000000
     atom   10 type  2   force =     0.00000000    0.00000000    0.00000000
     atom   11 type  2   force =     0.00000000    0.00000000    0.00000000
     atom   12 type  2   force =     0.00000000    0.00000000    0.00000000
     atom   13 type  2   force =     0.00000000    0.00000000    0.00000000
     atom   14 type  2   force =     0.00000000    0.00000000    0.00000000
     atom   15 type  2   force =     0.00000000    0.00000000    0.00000000
     atom   16 type  2   force =     0.00000000    0.00000000    0.00000000
     atom   17 type  2   force =     0.00000000    0.00000000    0.00000000
     atom   18 type  2   force =     0.00000000    0.00000000    0.00000000
     atom   19 type  2   force =     0.00000000    0.00000000    0.00000000
     atom   20 type  2   force =     0.00000000    0.00000000    0.00000000
     atom   21 type  2   force =     0.00000000    0.00000000    0.00000000
     atom   22 type  2   force =     0.00000000    0.00000000    0.00000000
     atom   23 type  2   force =     0.00000000    0.00000000    0.00000000
     atom   24 type  2   force =     0.00000000    0.00000000    0.00000000
     atom   25 type  2   force =     0.00000000    0.00000000    0.00000000
     atom   26 type  2   force =     0.00000000    0.00000000    0.00000000
     atom   27 type  2   force =     0.00000000    0.00000000    0.00000000
     atom   28 type  2   force =     0.00000000    0.00000000    0.00000000
     atom   29 type  2   force =     0.00000000    0.00000000    0.00000000
     atom   30 type  2   force =     0.00000000    0.00000000    0.00000000
     atom   31 type  2   force =     0.00000000    0.00000000    0.00000000
     atom   32 type  2   force =     0.00000000    0.00000000    0.00000000
     atom   33 type  2   force =     0.00000000    0.00000000    0.00000000
     atom   34 type  2   force =     0.00000000    0.00000000    0.00000000
     atom   35 type  2   force =     0.00000000    0.00000000    0.00000000
     atom   36 type  2   force =     0.00000000    0.00000000    0.00000000
     atom   37 type  2   force =     0.00000000    0.00000000    0.00000000
     atom   38 type  2   force =     0.00000000    0.00000000    0.00000000
     atom   39 type  2   force =     0.00000000    0.00000000    0.00000000
     atom   40 type  2   force =     0.00000000    0.00000000    0.00000000
     atom   41 type  2   force =     0.00000000    0.00000000    0.00000000
     atom   42 type  2   force =     0.00000000    0.00000000    0.00000000
     atom   43 type  2   force =     0.00000000    0.00000000    0.00000000
     atom   44 type  2   force =     0.00000000    0.00000000    0.00000000
     atom   45 type  2   force =     0.00000000    0.00000000    0.00000000
     atom   46 type  2   force =     0.00000000    0.00000000    0.00000000
     atom   47 type  2   force =     0.00000000    0.00000000    0.00000000
     atom   48 type  2   force =     0.00000000    0.00000000    0.00000000
     atom   49 type  2   force =     0.00000000    0.00000000    0.00000000
     atom   50 type  2   force =     0.00000000    0.00000000    0.00000000
     atom   51 type  2   force =     0.00000000    0.00000000    0.00000000
     atom   52 type  2   force =     0.00000000    0.00000000    0.00000000
     atom   53 type  2   force =     0.00000000    0.00000000    0.00000000
     atom   54 type  2   force =     0.00000000    0.00000000    0.00000000
     atom   55 type  2   force =     0.00000000    0.00000000    0.00000000
     atom   56 type  2   force =     0.00000000    0.00000000    0.00000000
     atom   57 type  2   force =     0.00000000    0.00000000    0.00000000
     atom   58 type  2   force =     0.00000000    0.00000000    0.00000000
     atom   59 type  2   force =     0.00000000    0.00000000    0.00000000
     atom   60 type  2   force =     0.00000000    0.00000000    0.00000000
     atom   61 type  2   force =     0.00000000    0.00000000    0.00000000
     atom   62 type  2   force =     0.00000000    0.00000000    0.00000000
     atom   63 type  2   force =     0.00000000    0.00000000    0.00000000
     The Hubbard contrib.    to forces
     atom    1 type  1   force =     0.00000000    0.00000000    0.00000000
     atom    2 type  2   force =     0.00000000    0.00000000    0.00000000
     atom    3 type  2   force =     0.00000000    0.00000000    0.00000000
     atom    4 type  2   force =     0.00000000    0.00000000    0.00000000
     atom    5 type  2   force =     0.00000000    0.00000000    0.00000000
     atom    6 type  2   force =     0.00000000    0.00000000    0.00000000
     atom    7 type  2   force =     0.00000000    0.00000000    0.00000000
     atom    8 type  2   force =     0.00000000    0.00000000    0.00000000
     atom    9 type  2   force =     0.00000000    0.00000000    0.00000000
     atom   10 type  2   force =     0.00000000    0.00000000    0.00000000
     atom   11 type  2   force =     0.00000000    0.00000000    0.00000000
     atom   12 type  2   force =     0.00000000    0.00000000    0.00000000
     atom   13 type  2   force =     0.00000000    0.00000000    0.00000000
     atom   14 type  2   force =     0.00000000    0.00000000    0.00000000
     atom   15 type  2   force =     0.00000000    0.00000000    0.00000000
     atom   16 type  2   force =     0.00000000    0.00000000    0.00000000
     atom   17 type  2   force =     0.00000000    0.00000000    0.00000000
     atom   18 type  2   force =     0.00000000    0.00000000    0.00000000
     atom   19 type  2   force =     0.00000000    0.00000000    0.00000000
     atom   20 type  2   force =     0.00000000    0.00000000    0.00000000
     atom   21 type  2   force =     0.00000000    0.00000000    0.00000000
     atom   22 type  2   force =     0.00000000    0.00000000    0.00000000
     atom   23 type  2   force =     0.00000000    0.00000000    0.00000000
     atom   24 type  2   force =     0.00000000    0.00000000    0.00000000
     atom   25 type  2   force =     0.00000000    0.00000000    0.00000000
     atom   26 type  2   force =     0.00000000    0.00000000    0.00000000
     atom   27 type  2   force =     0.00000000    0.00000000    0.00000000
     atom   28 type  2   force =     0.00000000    0.00000000    0.00000000
     atom   29 type  2   force =     0.00000000    0.00000000    0.00000000
     atom   30 type  2   force =     0.00000000    0.00000000    0.00000000
     atom   31 type  2   force =     0.00000000    0.00000000    0.00000000
     atom   32 type  2   force =     0.00000000    0.00000000    0.00000000
     atom   33 type  2   force =     0.00000000    0.00000000    0.00000000
     atom   34 type  2   force =     0.00000000    0.00000000    0.00000000
     atom   35 type  2   force =     0.00000000    0.00000000    0.00000000
     atom   36 type  2   force =     0.00000000    0.00000000    0.00000000
     atom   37 type  2   force =     0.00000000    0.00000000    0.00000000
     atom   38 type  2   force =     0.00000000    0.00000000    0.00000000
     atom   39 type  2   force =     0.00000000    0.00000000    0.00000000
     atom   40 type  2   force =     0.00000000    0.00000000    0.00000000
     atom   41 type  2   force =     0.00000000    0.00000000    0.00000000
     atom   42 type  2   force =     0.00000000    0.00000000    0.00000000
     atom   43 type  2   force =     0.00000000    0.00000000    0.00000000
     atom   44 type  2   force =     0.00000000    0.00000000    0.00000000
     atom   45 type  2   force =     0.00000000    0.00000000    0.00000000
     atom   46 type  2   force =     0.00000000    0.00000000    0.00000000
     atom   47 type  2   force =     0.00000000    0.00000000    0.00000000
     atom   48 type  2   force =     0.00000000    0.00000000    0.00000000
     atom   49 type  2   force =     0.00000000    0.00000000    0.00000000
     atom   50 type  2   force =     0.00000000    0.00000000    0.00000000
     atom   51 type  2   force =     0.00000000    0.00000000    0.00000000
     atom   52 type  2   force =     0.00000000    0.00000000    0.00000000
     atom   53 type  2   force =     0.00000000    0.00000000    0.00000000
     atom   54 type  2   force =     0.00000000    0.00000000    0.00000000
     atom   55 type  2   force =     0.00000000    0.00000000    0.00000000
     atom   56 type  2   force =     0.00000000    0.00000000    0.00000000
     atom   57 type  2   force =     0.00000000    0.00000000    0.00000000
     atom   58 type  2   force =     0.00000000    0.00000000    0.00000000
     atom   59 type  2   force =     0.00000000    0.00000000    0.00000000
     atom   60 type  2   force =     0.00000000    0.00000000    0.00000000
     atom   61 type  2   force =     0.00000000    0.00000000    0.00000000
     atom   62 type  2   force =     0.00000000    0.00000000    0.00000000
     atom   63 type  2   force =     0.00000000    0.00000000    0.00000000
     The SCF correction term to forces
     atom    1 type  1   force =    -0.00002358   -0.00003148    0.00000433
     atom    2 type  2   force =    -0.00001395   -0.00001742   -0.00000165
     atom    3 type  2   force =     0.00001714    0.00001699    0.00000780
     atom    4 type  2   force =     0.00000676   -0.00001769   -0.00000474
     atom    5 type  2   force =     0.00002020   -0.00002055   -0.00001451
     atom    6 type  2   force =     0.00000949   -0.00002003    0.00001170
     atom    7 type  2   force =     0.00002426   -0.00000264    0.00001992
     atom    8 type  2   force =    -0.00002323   -0.00003582   -0.00000333
     atom    9 type  2   force =    -0.00001664   -0.00002686    0.00000138
     atom   10 type  2   force =    -0.00002997   -0.00000989    0.00000050
     atom   11 type  2   force =    -0.00002181    0.00000268   -0.00000456
     atom   12 type  2   force =    -0.00000276   -0.00001675   -0.00000084
     atom   13 type  2   force =     0.00001580   -0.00002185    0.00000872
     atom   14 type  2   force =     0.00001894   -0.00001115   -0.00001072
     atom   15 type  2   force =     0.00002586    0.00000624   -0.00002157
     atom   16 type  2   force =    -0.00002298    0.00002627   -0.00000627
     atom   17 type  2   force =    -0.00001370    0.00003392    0.00000675
     atom   18 type  2   force =    -0.00002405    0.00001943    0.00000760
     atom   19 type  2   force =    -0.00001357   -0.00000560   -0.00000817
     atom   20 type  2   force =     0.00001851    0.00001878    0.00000673
     atom   21 type  2   force =     0.00002421    0.00001216   -0.00000174
     atom   22 type  2   force =    -0.00000658    0.00001775    0.00001403
     atom   23 type  2   force =     0.00000559    0.00000746    0.00001913
     atom   24 type  2   force =    -0.00002406    0.00003455    0.00000786
     atom   25 type  2   force =    -0.00001902    0.00002484   -0.00000688
     atom   26 type  2   force =    -0.00002017    0.00001052   -0.00000723
     atom   27 type  2   force =    -0.00001219   -0.00000694    0.00000214
     atom   28 type  2   force =    -0.00000447    0.00001951   -0.00000689
     atom   29 type  2   force =     0.00001089    0.00002271    0.00000073
     atom   30 type  2   force =    -0.00000388    0.00001483   -0.00001232
     atom   31 type  2   force =     0.00001459   -0.00000462   -0.00001025
     atom   32 type  2   force =     0.00001370   -0.00000726    0.00001668
     atom   33 type  2   force =     0.00000086   -0.00002061    0.00000799
     atom   34 type  2   force =     0.00000804   -0.00001237    0.00000523
     atom   35 type  2   force =    -0.00001106    0.00001156    0.00000525
     atom   36 type  2   force =    -0.00001095   -0.00003545    0.00001051
     atom   37 type  2   force =    -0.00003132   -0.00005174    0.00001408
     atom   38 type  2   force =    -0.00001154   -0.00001080   -0.00000987
     atom   39 type  2   force =    -0.00003171    0.00001795   -0.00001882
     atom   40 type  2   force =     0.00002387   -0.00001483   -0.00001733
     atom   41 type  2   force =     0.00001770   -0.00001446   -0.00000710
     atom   42 type  2   force =     0.00003144   -0.00001202   -0.00000576
     atom   43 type  2   force =     0.00002446   -0.00000350   -0.00000361
     atom   44 type  2   force =     0.00000414   -0.00000730   -0.00000859
     atom   45 type  2   force =    -0.00002150   -0.00001228   -0.00001124
     atom   46 type  2   force =    -0.00001704   -0.00001354    0.00001341
     atom   47 type  2   force =    -0.00002601    0.00000721    0.00001490
     atom   48 type  2   force =     0.00002244    0.00000829    0.00001639
     atom   49 type  2   force =     0.00001565    0.00002073    0.00002208
     atom   50 type  2   force =     0.00002612    0.00001378    0.00001129
     atom   51 type  2   force =     0.00002205   -0.00001034   -0.00000313
     atom   52 type  2   force =    -0.00001710    0.00003834    0.00000547
     atom   53 type  2   force =    -0.00002617    0.00004503    0.00000225
     atom   54 type  2   force =     0.00000817    0.00001139    0.00001810
     atom   55 type  2   force =    -0.00001653   -0.00001619    0.00001865
     atom   56 type  2   force =     0.00002226    0.00001323   -0.00001508
     atom   57 type  2   force =     0.00001715    0.00001419   -0.00002147
     atom   58 type  2   force =     0.00001781    0.00001144   -0.00001201
     atom   59 type  2   force =     0.00001547    0.00000285    0.00000057
     atom   60 type  2   force =     0.00000516    0.00000411   -0.00000817
     atom   61 type  2   force =    -0.00000976    0.00001395   -0.00000167
     atom   62 type  2   force =     0.00000175    0.00001356   -0.00002071
     atom   63 type  2   force =    -0.00001381   -0.00000551   -0.00001871

     Total force =     0.130586     Total SCF correction =     0.000231

     Writing all to output data dir ./pwscf.save/ :
     XML data file, charge density, pseudopotentials, collected wavefunctions
 
     init_run     :      0.58s CPU      0.60s WALL (       1 calls)
     electrons    :     12.68s CPU     13.46s WALL (       1 calls)
     forces       :      0.42s CPU      0.43s WALL (       1 calls)

     Called by init_run:
     wfcinit      :      0.09s CPU      0.10s WALL (       1 calls)
     wfcinit:wfcr :      0.09s CPU      0.10s WALL (       1 calls)
     potinit      :      0.34s CPU      0.35s WALL (       1 calls)
     hinit0       :      0.02s CPU      0.03s WALL (       1 calls)

     Called by electrons:
     c_bands      :      9.13s CPU      9.86s WALL (      14 calls)
     sum_band     :      1.71s CPU      1.74s WALL (      14 calls)
     v_of_rho     :      0.49s CPU      0.50s WALL (      15 calls)
     v_h          :      0.08s CPU      0.08s WALL (      15 calls)
     v_xc         :      0.41s CPU      0.41s WALL (      15 calls)
     mix_rho      :      0.22s CPU      0.23s WALL (      14 calls)

     Called by c_bands:
     init_us_2    :      0.02s CPU      0.03s WALL (      30 calls)
     regterg      :      7.71s CPU      8.42s WALL (      14 calls)

     Called by sum_band:
     sum_band:wei :      0.04s CPU      0.04s WALL (      14 calls)
     sum_band:loo :      0.22s CPU      0.23s WALL (      14 calls)
     sum_band:buf :      0.00s CPU      0.00s WALL (      14 calls)
     sum_band:ini :      0.01s CPU      0.01s WALL (      14 calls)

     Called by *egterg:
     rdiaghg      :      4.34s CPU      4.70s WALL (     274 calls)
     regterg:over :      0.33s CPU      0.34s WALL (     260 calls)
     regterg:upda :      0.37s CPU      0.48s WALL (     260 calls)
     regterg:last :      0.46s CPU      0.57s WALL (      52 calls)
     rdiaghg:chol :      0.14s CPU      0.14s WALL (     274 calls)
     rdiaghg:inve :      0.03s CPU      0.03s WALL (     274 calls)
     rdiaghg:para :      0.39s CPU      0.42s WALL (     548 calls)
     h_psi        :      2.14s CPU      2.24s WALL (     275 calls)
     g_psi        :      0.00s CPU      0.00s WALL (     260 calls)

     Called by h_psi:
     h_psi:calbec :      0.33s CPU      0.33s WALL (     275 calls)
     vloc_psi     :      1.70s CPU      1.79s WALL (     275 calls)
                                        0.00s GPU  (     275 calls)
     add_vuspsi   :      0.10s CPU      0.11s WALL (     275 calls)

     General routines
     calbec       :      0.34s CPU      0.35s WALL (     279 calls)
     fft          :      0.33s CPU      0.33s WALL (     196 calls)
     ffts         :      0.04s CPU      0.04s WALL (      14 calls)
     fftw         :      1.80s CPU      1.90s WALL (   10126 calls)
 
     Parallel routines
 
     PWSCF        :     16.38s CPU     17.56s WALL

 
   This run was terminated on:  16:33: 1  16Nov2025            

=------------------------------------------------------------------------------=
   JOB DONE.
=------------------------------------------------------------------------------=
