
     Program PWSCF v.7.5 starts on 16Nov2025 at 16:17: 0 

     This program is part of the open-source Quantum ESPRESSO suite
     for quantum simulation of materials; please cite
         "P. Giannozzi et al., J. Phys.:Condens. Matter 21 395502 (2009);
         "P. Giannozzi et al., J. Phys.:Condens. Matter 29 465901 (2017);
         "P. Giannozzi et al., J. Chem. Phys. 152 154105 (2020);
          URL http://www.quantum-espresso.org", 
     in publications or presentations arising from this work. More details at
     http://www.quantum-espresso.org/quote

     Parallel version (MPI), running on    96 processors

     MPI processes distributed on     2 nodes
     174666 MiB available memory on the printing compute node when the environment starts
 
     Reading input from supercell-168.in

     Current dimensions of program PWSCF are:
     Max number of different atomic species (ntypx) = 10
     Max number of k-points (npk) =  40000
     Max angular momentum in pseudopotentials (lmaxx) =  4

     gamma-point specific algorithms are used
 
     K-points division:     npool     =       2
     R & G space division:  proc/nbgrp/npool/nimage =      48
     Subspace diagonalization in iterative solution of the eigenvalue problem:
     one sub-group per band group will be used
     scalapack distributed-memory algorithm (size of sub-group:  2*  2 procs)

 
     Parallelization info
     --------------------
     sticks:   dense  smooth     PW     G-vecs:    dense   smooth      PW
     Min          59      59     14                 2432     2432     302
     Max          62      62     16                 2442     2442     316
     Sum        2885    2885    725               116921   116921   14771
 
     Using Slab Decomposition
 


     bravais-lattice index     =            0
     lattice parameter (alat)  =      13.4813  a.u.
     unit-cell volume          =    2450.1683 (a.u.)^3
     number of atoms/cell      =           63
     number of atomic types    =            2
     number of electrons       =       254.00 (up: 128.00, down: 126.00)
     number of Kohn-Sham states=          152
     kinetic-energy cutoff     =      50.0000  Ry
     charge density cutoff     =     200.0000  Ry
     scf convergence threshold =      1.0E-08
     mixing beta               =       0.7000
     number of iterations used =            8  plain     mixing
     Exchange-correlation= PBE
                           (   1   4   3   4   0   0   0)

     celldm(1)=  13.481306  celldm(2)=   0.000000  celldm(3)=   0.000000
     celldm(4)=   0.000000  celldm(5)=   0.000000  celldm(6)=   0.000000

     crystal axes: (cart. coord. in units of alat)
               a(1) = (   1.000000   0.000000   0.000000 )  
               a(2) = (   0.000000   1.000000   0.000000 )  
               a(3) = (   0.000000   0.000000   1.000000 )  

     reciprocal axes: (cart. coord. in units 2 pi/alat)
               b(1) = (  1.000000  0.000000  0.000000 )  
               b(2) = (  0.000000  1.000000  0.000000 )  
               b(3) = (  0.000000  0.000000  1.000000 )  


     PseudoPot. # 1 for N  read from file:
     ./N_ONCV_PBE-1.2.upf
     MD5 check sum: 5312fdf34e96954e02a33bdc911c617a
     Pseudo is Norm-conserving, Zval =  5.0
     Generated using ONCVPSP code by D. R. Hamann
     Using radial grid of  602 points,  4 beta functions with: 
                l(1) =   0
                l(2) =   0
                l(3) =   1
                l(4) =   1

     PseudoPot. # 2 for C  read from file:
     ./C_ONCV_PBE-1.2.upf
     MD5 check sum: d60b57d9bdca4133f5fde4b584ee909d
     Pseudo is Norm-conserving, Zval =  4.0
     Generated using ONCVPSP code by D. R. Hamann
     Using radial grid of  602 points,  4 beta functions with: 
                l(1) =   0
                l(2) =   0
                l(3) =   1
                l(4) =   1

     atomic species   valence    mass     pseudopotential
     N                 5.00    14.00670     N ( 1.00)
     C                 4.00    12.01070     C ( 1.00)

     Starting magnetic structure 
     atomic species   magnetization
     N               0.000
     C               0.000

     No symmetry found


                                    s                        frac. trans.

      isym =  1     identity                                     

 cryst.   s( 1) = (     1          0          0      )
                  (     0          1          0      )
                  (     0          0          1      )

 cart.    s( 1) = (  1.0000000  0.0000000  0.0000000 )
                  (  0.0000000  1.0000000  0.0000000 )
                  (  0.0000000  0.0000000  1.0000000 )


   Cartesian axes

     site n.     atom                  positions (alat units)
         1        N      tau(   1) = (   0.9893819   0.9897344   0.9891721  )
         2        C      tau(   2) = (   0.9870277   0.2601210   0.2640728  )
         3        C      tau(   3) = (   0.1231717   0.3731672   0.3742038  )
         4        C      tau(   4) = (   0.2603919   0.9894620   0.2619202  )
         5        C      tau(   5) = (   0.3737632   0.1246771   0.3741571  )
         6        C      tau(   6) = (   0.2640151   0.2616009   0.9853609  )
         7        C      tau(   7) = (   0.3737752   0.3731213   0.1223564  )
         8        C      tau(   8) = (   0.0000049   0.0005840   0.4991361  )
         9        C      tau(   9) = (   0.1251361   0.1251278   0.6250981  )
        10        C      tau(  10) = (   0.0020393   0.2482470   0.7515266  )
        11        C      tau(  11) = (   0.1292009   0.3733021   0.8763303  )
        12        C      tau(  12) = (   0.2487801   0.0017974   0.7514403  )
        13        C      tau(  13) = (   0.3754339   0.1292460   0.8748544  )
        14        C      tau(  14) = (   0.2491579   0.2495268   0.4995755  )
        15        C      tau(  15) = (   0.3750038   0.3749547   0.6244069  )
        16        C      tau(  16) = (   0.0016366   0.4979779   0.0013734  )
        17        C      tau(  17) = (   0.1250869   0.6243147   0.1250807  )
        18        C      tau(  18) = (   0.0014462   0.7520697   0.2483230  )
        19        C      tau(  19) = (   0.1266755   0.8769178   0.3741906  )
        20        C      tau(  20) = (   0.2488290   0.4983596   0.2486760  )
        21        C      tau(  21) = (   0.3741642   0.6242659   0.3742111  )
        22        C      tau(  22) = (   0.2480673   0.7520817   0.0015447  )
        23        C      tau(  23) = (   0.3729914   0.8777475   0.1265606  )
        24        C      tau(  24) = (   0.0000493   0.5010760   0.5011299  )
        25        C      tau(  25) = (   0.1252054   0.6262200   0.6252733  )
        26        C      tau(  26) = (   0.9993969   0.7487112   0.7492532  )
        27        C      tau(  27) = (   0.1217927   0.8768349   0.8763928  )
        28        C      tau(  28) = (   0.2492749   0.5017254   0.7467888  )
        29        C      tau(  29) = (   0.3741000   0.6263042   0.8750769  )
        30        C      tau(  30) = (   0.2487293   0.7486845   0.5007616  )
        31        C      tau(  31) = (   0.3739266   0.8750581   0.6258828  )
        32        C      tau(  32) = (   0.4987543   0.0011228   0.0002828  )
        33        C      tau(  33) = (   0.6248203   0.1251003   0.1251034  )
        34        C      tau(  34) = (   0.4991217   0.2493918   0.2488717  )
        35        C      tau(  35) = (   0.6243080   0.3746888   0.3747831  )
        36        C      tau(  36) = (   0.7516460   0.0016191   0.2487956  )
        37        C      tau(  37) = (   0.8750430   0.1283649   0.3757598  )
        38        C      tau(  38) = (   0.7517475   0.2480080   0.0019610  )
        39        C      tau(  39) = (   0.8773622   0.3724247   0.1282033  )
        40        C      tau(  40) = (   0.5008161   0.9999897   0.5008301  )
        41        C      tau(  41) = (   0.6256173   0.1249721   0.6252590  )
        42        C      tau(  42) = (   0.5022259   0.2488088   0.7478265  )
        43        C      tau(  43) = (   0.6264784   0.3739683   0.8752045  )
        44        C      tau(  44) = (   0.7487945   0.9989046   0.7489691  )
        45        C      tau(  45) = (   0.8764746   0.1216998   0.8763156  )
        46        C      tau(  46) = (   0.7479635   0.2486819   0.5018806  )
        47        C      tau(  47) = (   0.8751980   0.3739245   0.6263738  )
        48        C      tau(  48) = (   0.5012000   0.5011574   0.0001136  )
        49        C      tau(  49) = (   0.6256259   0.6262099   0.1252968  )
        50        C      tau(  50) = (   0.5005188   0.7489091   0.2490095  )
        51        C      tau(  51) = (   0.6258050   0.8750157   0.3740056  )
        52        C      tau(  52) = (   0.7486304   0.5011458   0.2494302  )
        53        C      tau(  53) = (   0.8750247   0.6261269   0.3741365  )
        54        C      tau(  54) = (   0.7492281   0.7488562   0.9996087  )
        55        C      tau(  55) = (   0.8766209   0.8769033   0.1218021  )
        56        C      tau(  56) = (   0.4990819   0.4992903   0.4990317  )
        57        C      tau(  57) = (   0.6247789   0.6244471   0.6249452  )
        58        C      tau(  58) = (   0.4991767   0.7499842   0.7500845  )
        59        C      tau(  59) = (   0.6239946   0.8751464   0.8754130  )
        60        C      tau(  60) = (   0.7505316   0.4989321   0.7505826  )
        61        C      tau(  61) = (   0.8758455   0.6234984   0.8759288  )
        62        C      tau(  62) = (   0.7498244   0.7497799   0.4993198  )
        63        C      tau(  63) = (   0.8750855   0.8749084   0.6242568  )

   Crystallographic axes

     site n.     atom                  positions (cryst. coord.)
         1        N      tau(   1) = (  0.9893819  0.9897344  0.9891721  )
         2        C      tau(   2) = (  0.9870277  0.2601210  0.2640728  )
         3        C      tau(   3) = (  0.1231717  0.3731672  0.3742038  )
         4        C      tau(   4) = (  0.2603919  0.9894620  0.2619202  )
         5        C      tau(   5) = (  0.3737632  0.1246771  0.3741571  )
         6        C      tau(   6) = (  0.2640151  0.2616009  0.9853609  )
         7        C      tau(   7) = (  0.3737752  0.3731213  0.1223564  )
         8        C      tau(   8) = (  0.0000049  0.0005840  0.4991361  )
         9        C      tau(   9) = (  0.1251361  0.1251278  0.6250981  )
        10        C      tau(  10) = (  0.0020393  0.2482470  0.7515266  )
        11        C      tau(  11) = (  0.1292009  0.3733021  0.8763303  )
        12        C      tau(  12) = (  0.2487801  0.0017974  0.7514403  )
        13        C      tau(  13) = (  0.3754339  0.1292460  0.8748544  )
        14        C      tau(  14) = (  0.2491579  0.2495268  0.4995755  )
        15        C      tau(  15) = (  0.3750038  0.3749547  0.6244069  )
        16        C      tau(  16) = (  0.0016366  0.4979779  0.0013734  )
        17        C      tau(  17) = (  0.1250869  0.6243147  0.1250807  )
        18        C      tau(  18) = (  0.0014462  0.7520697  0.2483230  )
        19        C      tau(  19) = (  0.1266755  0.8769178  0.3741906  )
        20        C      tau(  20) = (  0.2488290  0.4983596  0.2486760  )
        21        C      tau(  21) = (  0.3741642  0.6242659  0.3742111  )
        22        C      tau(  22) = (  0.2480673  0.7520817  0.0015447  )
        23        C      tau(  23) = (  0.3729914  0.8777475  0.1265606  )
        24        C      tau(  24) = (  0.0000493  0.5010760  0.5011299  )
        25        C      tau(  25) = (  0.1252054  0.6262200  0.6252733  )
        26        C      tau(  26) = (  0.9993969  0.7487112  0.7492532  )
        27        C      tau(  27) = (  0.1217927  0.8768349  0.8763928  )
        28        C      tau(  28) = (  0.2492749  0.5017254  0.7467888  )
        29        C      tau(  29) = (  0.3741000  0.6263042  0.8750769  )
        30        C      tau(  30) = (  0.2487293  0.7486845  0.5007616  )
        31        C      tau(  31) = (  0.3739266  0.8750581  0.6258828  )
        32        C      tau(  32) = (  0.4987543  0.0011228  0.0002828  )
        33        C      tau(  33) = (  0.6248203  0.1251003  0.1251034  )
        34        C      tau(  34) = (  0.4991217  0.2493918  0.2488717  )
        35        C      tau(  35) = (  0.6243080  0.3746888  0.3747831  )
        36        C      tau(  36) = (  0.7516460  0.0016191  0.2487956  )
        37        C      tau(  37) = (  0.8750430  0.1283649  0.3757598  )
        38        C      tau(  38) = (  0.7517475  0.2480080  0.0019610  )
        39        C      tau(  39) = (  0.8773622  0.3724247  0.1282033  )
        40        C      tau(  40) = (  0.5008161  0.9999897  0.5008301  )
        41        C      tau(  41) = (  0.6256173  0.1249721  0.6252590  )
        42        C      tau(  42) = (  0.5022259  0.2488088  0.7478265  )
        43        C      tau(  43) = (  0.6264784  0.3739683  0.8752045  )
        44        C      tau(  44) = (  0.7487945  0.9989046  0.7489691  )
        45        C      tau(  45) = (  0.8764746  0.1216998  0.8763156  )
        46        C      tau(  46) = (  0.7479635  0.2486819  0.5018806  )
        47        C      tau(  47) = (  0.8751980  0.3739245  0.6263738  )
        48        C      tau(  48) = (  0.5012000  0.5011574  0.0001136  )
        49        C      tau(  49) = (  0.6256259  0.6262099  0.1252968  )
        50        C      tau(  50) = (  0.5005188  0.7489091  0.2490095  )
        51        C      tau(  51) = (  0.6258050  0.8750157  0.3740056  )
        52        C      tau(  52) = (  0.7486304  0.5011458  0.2494302  )
        53        C      tau(  53) = (  0.8750247  0.6261269  0.3741365  )
        54        C      tau(  54) = (  0.7492281  0.7488562  0.9996087  )
        55        C      tau(  55) = (  0.8766209  0.8769033  0.1218021  )
        56        C      tau(  56) = (  0.4990819  0.4992903  0.4990317  )
        57        C      tau(  57) = (  0.6247789  0.6244471  0.6249452  )
        58        C      tau(  58) = (  0.4991767  0.7499842  0.7500845  )
        59        C      tau(  59) = (  0.6239946  0.8751464  0.8754130  )
        60        C      tau(  60) = (  0.7505316  0.4989321  0.7505826  )
        61        C      tau(  61) = (  0.8758455  0.6234984  0.8759288  )
        62        C      tau(  62) = (  0.7498244  0.7497799  0.4993198  )
        63        C      tau(  63) = (  0.8750855  0.8749084  0.6242568  )

     number of k points=     1
                       cart. coord. in units 2pi/alat
        k(    1) = (   0.0000000   0.0000000   0.0000000), wk =   1.0000000

                       cryst. coord.
        k(    1) = (   0.0000000   0.0000000   0.0000000), wk =   1.0000000

     Dense  grid:    58461 G-vectors     FFT dimensions: (  64,  64,  64)

     Dynamical RAM for                 wfc:       0.35 MB

     Dynamical RAM for     wfc (w. buffer):       0.35 MB

     Dynamical RAM for           str. fact:       0.04 MB

     Dynamical RAM for           local pot:       0.00 MB

     Dynamical RAM for          nlocal pot:       1.17 MB

     Dynamical RAM for                qrad:       0.65 MB

     Dynamical RAM for          rho,v,vnew:       0.49 MB

     Dynamical RAM for               rhoin:       0.16 MB

     Dynamical RAM for            rho*nmix:       0.60 MB

     Dynamical RAM for           G-vectors:       0.08 MB

     Dynamical RAM for          h,s,v(r/c):       0.53 MB

     Dynamical RAM for          <psi|beta>:       0.58 MB

     Dynamical RAM for                 psi:       0.71 MB

     Dynamical RAM for                hpsi:       0.71 MB

     Dynamical RAM for      wfcinit/wfcrot:       1.24 MB

     Estimated static dynamical RAM per process >       3.37 MB

     Estimated max dynamical RAM per process >       6.49 MB

     Estimated total dynamical RAM >     594.05 MB
     Generating pointlists ...
     new r_m :   0.0854 (alat units)  1.1518 (a.u.) for type    1
     new r_m :   0.0847 (alat units)  1.1416 (a.u.) for type    2

     Initial potential from superposition of free atoms

     starting charge     252.5655, renormalised to     254.0000
     Starting wfcs are random

     total cpu time spent up to now is        1.8 secs

     Self-consistent Calculation

     iteration #  1     ecut=    50.00 Ry     beta= 0.70
     Davidson diagonalization with overlap

---- Real-time Memory Report at c_bands before calling an iterative solver
           158 MiB given to the printing process from OS
             0 MiB allocation reported by mallinfo(arena+hblkhd)
        173700 MiB available memory on the node where the printing process lives
------------------
     ethr =  1.00E-02,  avg # of iterations = 12.0

     total cpu time spent up to now is        2.5 secs

     total energy              =    -723.26754550 Ry
     estimated scf accuracy    <       3.70827248 Ry

     total magnetization       =     2.00 Bohr mag/cell
     absolute magnetization    =     2.00 Bohr mag/cell

     iteration #  2     ecut=    50.00 Ry     beta= 0.70
     Davidson diagonalization with overlap

---- Real-time Memory Report at c_bands before calling an iterative solver
           163 MiB given to the printing process from OS
             0 MiB allocation reported by mallinfo(arena+hblkhd)
        173644 MiB available memory on the node where the printing process lives
------------------
     ethr =  1.46E-03,  avg # of iterations = 12.0

     total cpu time spent up to now is        3.3 secs

     total energy              =    -723.66119914 Ry
     estimated scf accuracy    <       0.45581986 Ry

     total magnetization       =     2.00 Bohr mag/cell
     absolute magnetization    =     2.07 Bohr mag/cell

     iteration #  3     ecut=    50.00 Ry     beta= 0.70
     Davidson diagonalization with overlap

---- Real-time Memory Report at c_bands before calling an iterative solver
           163 MiB given to the printing process from OS
             0 MiB allocation reported by mallinfo(arena+hblkhd)
        173648 MiB available memory on the node where the printing process lives
------------------
     c_bands:  2 eigenvalues not converged
     ethr =  1.79E-04,  avg # of iterations = 20.0

     total cpu time spent up to now is        5.5 secs

     total energy              =    -723.72630495 Ry
     estimated scf accuracy    <       0.86826207 Ry

     total magnetization       =     2.00 Bohr mag/cell
     absolute magnetization    =     2.12 Bohr mag/cell

     iteration #  4     ecut=    50.00 Ry     beta= 0.70
     Davidson diagonalization with overlap

---- Real-time Memory Report at c_bands before calling an iterative solver
           165 MiB given to the printing process from OS
             0 MiB allocation reported by mallinfo(arena+hblkhd)
        173649 MiB available memory on the node where the printing process lives
------------------
     c_bands:  1 eigenvalues not converged
     ethr =  1.79E-04,  avg # of iterations = 20.0

     total cpu time spent up to now is        7.8 secs

     total energy              =    -723.90101060 Ry
     estimated scf accuracy    <       0.00984071 Ry

     total magnetization       =     2.00 Bohr mag/cell
     absolute magnetization    =     2.19 Bohr mag/cell

     iteration #  5     ecut=    50.00 Ry     beta= 0.70
     Davidson diagonalization with overlap

---- Real-time Memory Report at c_bands before calling an iterative solver
           165 MiB given to the printing process from OS
             0 MiB allocation reported by mallinfo(arena+hblkhd)
        173646 MiB available memory on the node where the printing process lives
------------------
     c_bands:  4 eigenvalues not converged
     ethr =  3.87E-06,  avg # of iterations = 20.0

     total cpu time spent up to now is        8.7 secs

     total energy              =    -723.90593543 Ry
     estimated scf accuracy    <       0.00410088 Ry

     total magnetization       =     2.00 Bohr mag/cell
     absolute magnetization    =     2.23 Bohr mag/cell

     iteration #  6     ecut=    50.00 Ry     beta= 0.70
     Davidson diagonalization with overlap

---- Real-time Memory Report at c_bands before calling an iterative solver
           165 MiB given to the printing process from OS
             0 MiB allocation reported by mallinfo(arena+hblkhd)
        173642 MiB available memory on the node where the printing process lives
------------------
     c_bands:  3 eigenvalues not converged
     ethr =  1.61E-06,  avg # of iterations = 20.0

     total cpu time spent up to now is        9.1 secs

     total energy              =    -723.90669317 Ry
     estimated scf accuracy    <       0.00088223 Ry

     total magnetization       =     2.00 Bohr mag/cell
     absolute magnetization    =     2.25 Bohr mag/cell

     iteration #  7     ecut=    50.00 Ry     beta= 0.70
     Davidson diagonalization with overlap

---- Real-time Memory Report at c_bands before calling an iterative solver
           165 MiB given to the printing process from OS
             0 MiB allocation reported by mallinfo(arena+hblkhd)
        173645 MiB available memory on the node where the printing process lives
------------------
     ethr =  3.47E-07,  avg # of iterations = 18.5

     total cpu time spent up to now is        9.5 secs

     total energy              =    -723.90692064 Ry
     estimated scf accuracy    <       0.00012122 Ry

     total magnetization       =     2.00 Bohr mag/cell
     absolute magnetization    =     2.27 Bohr mag/cell

     iteration #  8     ecut=    50.00 Ry     beta= 0.70
     Davidson diagonalization with overlap

---- Real-time Memory Report at c_bands before calling an iterative solver
           165 MiB given to the printing process from OS
             0 MiB allocation reported by mallinfo(arena+hblkhd)
        173636 MiB available memory on the node where the printing process lives
------------------
     c_bands:  1 eigenvalues not converged
     ethr =  4.77E-08,  avg # of iterations = 20.0

     total cpu time spent up to now is       11.4 secs

     total energy              =    -723.90696111 Ry
     estimated scf accuracy    <       0.00002849 Ry

     total magnetization       =     2.00 Bohr mag/cell
     absolute magnetization    =     2.28 Bohr mag/cell

     iteration #  9     ecut=    50.00 Ry     beta= 0.70
     Davidson diagonalization with overlap

---- Real-time Memory Report at c_bands before calling an iterative solver
           166 MiB given to the printing process from OS
             0 MiB allocation reported by mallinfo(arena+hblkhd)
        173630 MiB available memory on the node where the printing process lives
------------------
     c_bands:  3 eigenvalues not converged
     ethr =  1.12E-08,  avg # of iterations = 20.0

     total cpu time spent up to now is       13.3 secs

     total energy              =    -723.90697147 Ry
     estimated scf accuracy    <       0.00000761 Ry

     total magnetization       =     2.00 Bohr mag/cell
     absolute magnetization    =     2.29 Bohr mag/cell

     iteration # 10     ecut=    50.00 Ry     beta= 0.70
     Davidson diagonalization with overlap

---- Real-time Memory Report at c_bands before calling an iterative solver
           166 MiB given to the printing process from OS
             0 MiB allocation reported by mallinfo(arena+hblkhd)
        173635 MiB available memory on the node where the printing process lives
------------------
     c_bands:  2 eigenvalues not converged
     ethr =  3.00E-09,  avg # of iterations = 20.0

     total cpu time spent up to now is       14.3 secs

     total energy              =    -723.90697500 Ry
     estimated scf accuracy    <       0.00000083 Ry

     total magnetization       =     2.00 Bohr mag/cell
     absolute magnetization    =     2.29 Bohr mag/cell

     iteration # 11     ecut=    50.00 Ry     beta= 0.70
     Davidson diagonalization with overlap

---- Real-time Memory Report at c_bands before calling an iterative solver
           166 MiB given to the printing process from OS
             0 MiB allocation reported by mallinfo(arena+hblkhd)
        173643 MiB available memory on the node where the printing process lives
------------------
     c_bands:  1 eigenvalues not converged
     ethr =  3.26E-10,  avg # of iterations = 20.0

     total cpu time spent up to now is       15.0 secs

     total energy              =    -723.90697563 Ry
     estimated scf accuracy    <       0.00000025 Ry

     total magnetization       =     2.00 Bohr mag/cell
     absolute magnetization    =     2.30 Bohr mag/cell

     iteration # 12     ecut=    50.00 Ry     beta= 0.70
     Davidson diagonalization with overlap

---- Real-time Memory Report at c_bands before calling an iterative solver
           166 MiB given to the printing process from OS
             0 MiB allocation reported by mallinfo(arena+hblkhd)
        173642 MiB available memory on the node where the printing process lives
------------------
     ethr =  9.83E-11,  avg # of iterations = 17.5

     total cpu time spent up to now is       16.5 secs

     total energy              =    -723.90697575 Ry
     estimated scf accuracy    <       0.00000010 Ry

     total magnetization       =     2.00 Bohr mag/cell
     absolute magnetization    =     2.30 Bohr mag/cell

     iteration # 13     ecut=    50.00 Ry     beta= 0.70
     Davidson diagonalization with overlap

---- Real-time Memory Report at c_bands before calling an iterative solver
           166 MiB given to the printing process from OS
             0 MiB allocation reported by mallinfo(arena+hblkhd)
        173640 MiB available memory on the node where the printing process lives
------------------
     ethr =  4.11E-11,  avg # of iterations = 16.5

     total cpu time spent up to now is       17.7 secs

     total energy              =    -723.90697580 Ry
     estimated scf accuracy    <       0.00000003 Ry

     total magnetization       =     2.00 Bohr mag/cell
     absolute magnetization    =     2.30 Bohr mag/cell

     iteration # 14     ecut=    50.00 Ry     beta= 0.70
     Davidson diagonalization with overlap

---- Real-time Memory Report at c_bands before calling an iterative solver
           166 MiB given to the printing process from OS
             0 MiB allocation reported by mallinfo(arena+hblkhd)
        173644 MiB available memory on the node where the printing process lives
------------------
     ethr =  1.05E-11,  avg # of iterations = 18.5
 
     Magnetic moment per site  (integrated on atomic sphere of radius R)
     atom   1 (R=0.085)  charge=  2.9143  magn=  0.0042
     atom   2 (R=0.085)  charge=  1.8170  magn=  0.2449
     atom   3 (R=0.085)  charge=  1.7930  magn= -0.0086
     atom   4 (R=0.085)  charge=  1.8051  magn=  0.2457
     atom   5 (R=0.085)  charge=  1.7932  magn= -0.0087
     atom   6 (R=0.085)  charge=  1.8231  magn=  0.2446
     atom   7 (R=0.085)  charge=  1.7933  magn= -0.0087
     atom   8 (R=0.085)  charge=  1.7860  magn=  0.0091
     atom   9 (R=0.085)  charge=  1.7963  magn= -0.0019
     atom  10 (R=0.085)  charge=  1.7834  magn=  0.0061
     atom  11 (R=0.085)  charge=  1.7950  magn= -0.0044
     atom  12 (R=0.085)  charge=  1.7823  magn=  0.0061
     atom  13 (R=0.085)  charge=  1.8040  magn= -0.0039
     atom  14 (R=0.085)  charge=  1.7894  magn=  0.0085
     atom  15 (R=0.085)  charge=  1.7891  magn= -0.0020
     atom  16 (R=0.085)  charge=  1.7819  magn=  0.0089
     atom  17 (R=0.085)  charge=  1.7956  magn= -0.0018
     atom  18 (R=0.085)  charge=  1.7822  magn=  0.0057
     atom  19 (R=0.085)  charge=  1.7953  magn= -0.0035
     atom  20 (R=0.085)  charge=  1.7834  magn=  0.0083
     atom  21 (R=0.085)  charge=  1.7847  magn= -0.0020
     atom  22 (R=0.085)  charge=  1.7828  magn=  0.0057
     atom  23 (R=0.085)  charge=  1.7905  magn= -0.0037
     atom  24 (R=0.085)  charge=  1.7826  magn=  0.0182
     atom  25 (R=0.085)  charge=  1.8087  magn=  0.0093
     atom  26 (R=0.085)  charge=  1.7934  magn=  0.0032
     atom  27 (R=0.085)  charge=  1.7589  magn=  0.0000
     atom  28 (R=0.085)  charge=  1.7901  magn=  0.0225
     atom  29 (R=0.085)  charge=  1.7806  magn= -0.0014
     atom  30 (R=0.085)  charge=  1.7902  magn=  0.0212
     atom  31 (R=0.085)  charge=  1.7823  magn= -0.0013
     atom  32 (R=0.085)  charge=  1.7844  magn=  0.0090
     atom  33 (R=0.085)  charge=  1.7960  magn= -0.0019
     atom  34 (R=0.085)  charge=  1.7869  magn=  0.0084
     atom  35 (R=0.085)  charge=  1.7865  magn= -0.0020
     atom  36 (R=0.085)  charge=  1.7818  magn=  0.0059
     atom  37 (R=0.085)  charge=  1.8033  magn= -0.0036
     atom  38 (R=0.085)  charge=  1.7836  magn=  0.0058
     atom  39 (R=0.085)  charge=  1.7913  magn= -0.0041
     atom  40 (R=0.085)  charge=  1.7835  magn=  0.0181
     atom  41 (R=0.085)  charge=  1.8109  magn=  0.0094
     atom  42 (R=0.085)  charge=  1.7947  magn=  0.0218
     atom  43 (R=0.085)  charge=  1.7819  magn= -0.0013
     atom  44 (R=0.085)  charge=  1.7936  magn=  0.0032
     atom  45 (R=0.085)  charge=  1.7590  magn= -0.0001
     atom  46 (R=0.085)  charge=  1.7948  magn=  0.0215
     atom  47 (R=0.085)  charge=  1.7819  magn= -0.0013
     atom  48 (R=0.085)  charge=  1.7818  magn=  0.0184
     atom  49 (R=0.085)  charge=  1.8042  magn=  0.0094
     atom  50 (R=0.085)  charge=  1.7873  magn=  0.0212
     atom  51 (R=0.085)  charge=  1.7825  magn= -0.0013
     atom  52 (R=0.085)  charge=  1.7869  magn=  0.0218
     atom  53 (R=0.085)  charge=  1.7826  magn= -0.0013
     atom  54 (R=0.085)  charge=  1.7935  magn=  0.0032
     atom  55 (R=0.085)  charge=  1.7588  magn=  0.0001
     atom  56 (R=0.085)  charge=  1.7915  magn=  0.0009
     atom  57 (R=0.085)  charge=  1.7832  magn=  0.0010
     atom  58 (R=0.085)  charge=  1.7914  magn=  0.0018
     atom  59 (R=0.085)  charge=  1.7879  magn= -0.0009
     atom  60 (R=0.085)  charge=  1.7911  magn=  0.0017
     atom  61 (R=0.085)  charge=  1.7854  magn= -0.0009
     atom  62 (R=0.085)  charge=  1.7913  magn=  0.0018
     atom  63 (R=0.085)  charge=  1.7891  magn= -0.0009

     total cpu time spent up to now is       18.3 secs

     End of self-consistent calculation

 ------ SPIN UP ------------


          k = 0.0000 0.0000 0.0000 (  7386 PWs)   bands (ev):

    -8.5508  -6.9236  -6.2863  -6.2720  -6.1913  -6.1567  -5.8809  -4.9131
    -4.1468  -4.1299  -4.1263  -4.0923  -4.0326  -4.0160  -4.0107  -3.9176
    -3.8718  -3.8593  -3.3636  -2.9322  -2.6768  -2.6718  -2.1593  -0.3631
    -0.3532  -0.3269  -0.2814  -0.0765   0.1741   0.1929   0.2805   0.2954
     0.3631   0.6182   0.8354   0.8406   0.9510   0.9766   0.9866   1.0553
     1.0617   1.0653   1.2688   1.2964   3.0723   3.9057   3.9268   4.0681
     4.1882   4.2089   4.2239   4.2740   4.2790   4.2852   4.4210   4.4283
     4.4932   4.4980   4.5693   4.6592   4.6856   4.6899   4.6919   4.7873
     4.7974   4.9244   4.9689   4.9719   5.0503   5.1992   5.2081   5.2972
     5.3555   5.3719   5.3952   5.4037   5.4080   6.0417   6.0467   6.1011
     6.6619   6.6663   6.7261   6.9934   7.0039   7.0403   7.5273   8.3330
     8.3384   8.4078   8.4635   8.4900   8.6890   8.7087   8.7857   8.8308
     8.8472   8.8566   8.8911   8.8989   8.9037   9.2869   9.2890   9.3248
     9.6853   9.7043   9.8972   9.9089   9.9453   9.9582   9.9612   9.9782
     9.9857  10.0277  10.0381  10.0565  10.1298  10.1411  10.2695  10.3268
    10.3322  11.0535  12.2883  12.4173  12.4286  13.9575  14.6917  14.7975
    17.3420  17.3764  17.4121  17.5201  17.5743  17.5811  17.8513  17.9254
    17.9316  18.0328  18.0694  18.3709  18.9940  19.0001  19.0262  20.6927
    20.7950  20.8291  20.8776  20.9407  20.9455  21.0243  21.0307  21.0434

     occupation numbers 
     1.0000   1.0000   1.0000   1.0000   1.0000   1.0000   1.0000   1.0000
     1.0000   1.0000   1.0000   1.0000   1.0000   1.0000   1.0000   1.0000
     1.0000   1.0000   1.0000   1.0000   1.0000   1.0000   1.0000   1.0000
     1.0000   1.0000   1.0000   1.0000   1.0000   1.0000   1.0000   1.0000
     1.0000   1.0000   1.0000   1.0000   1.0000   1.0000   1.0000   1.0000
     1.0000   1.0000   1.0000   1.0000   1.0000   1.0000   1.0000   1.0000
     1.0000   1.0000   1.0000   1.0000   1.0000   1.0000   1.0000   1.0000
     1.0000   1.0000   1.0000   1.0000   1.0000   1.0000   1.0000   1.0000
     1.0000   1.0000   1.0000   1.0000   1.0000   1.0000   1.0000   1.0000
     1.0000   1.0000   1.0000   1.0000   1.0000   1.0000   1.0000   1.0000
     1.0000   1.0000   1.0000   1.0000   1.0000   1.0000   1.0000   1.0000
     1.0000   1.0000   1.0000   1.0000   1.0000   1.0000   1.0000   1.0000
     1.0000   1.0000   1.0000   1.0000   1.0000   1.0000   1.0000   1.0000
     1.0000   1.0000   1.0000   1.0000   1.0000   1.0000   1.0000   1.0000
     1.0000   1.0000   1.0000   1.0000   1.0000   1.0000   1.0000   1.0000
     1.0000   1.0000   1.0000   1.0000   1.0000   1.0000   1.0000   1.0000
     0.0000   0.0000   0.0000   0.0000   0.0000   0.0000   0.0000   0.0000
     0.0000   0.0000   0.0000   0.0000   0.0000   0.0000   0.0000   0.0000
     0.0000   0.0000   0.0000   0.0000   0.0000   0.0000   0.0000   0.0000

 ------ SPIN DOWN ----------


          k = 0.0000 0.0000 0.0000 (  7386 PWs)   bands (ev):

    -8.5254  -6.9092  -6.2640  -6.2491  -6.1463  -6.1144  -5.8438  -4.8963
    -4.1263  -4.1083  -4.0870  -4.0605  -3.9956  -3.9765  -3.9633  -3.9055
    -3.8361  -3.8189  -3.3213  -2.9136  -2.6238  -2.6184  -2.0142  -0.3456
    -0.3350  -0.3052  -0.2644  -0.0111   0.1930   0.2103   0.3180   0.3285
     0.3881   0.6530   0.8475   0.8523   0.9846   1.0057   1.0133   1.0730
     1.0770   1.0817   1.4342   1.4664   3.1858   3.9290   3.9490   4.0942
     4.2223   4.2513   4.2670   4.2883   4.2967   4.3129   4.4676   4.4732
     4.5163   4.5205   4.5930   4.6833   4.7022   4.7083   4.7131   4.8215
     4.8343   4.9378   5.0016   5.0028   5.1315   5.2334   5.2434   5.3210
     5.3695   5.3831   5.4181   5.4539   5.4685   6.1037   6.1058   6.1390
     6.6884   6.6938   6.7604   7.0775   7.0895   7.1002   7.6976   8.3713
     8.3778   8.4448   8.4995   8.5241   8.7229   8.7398   8.8214   8.8776
     8.8859   8.8876   8.9252   8.9307   8.9322   9.3231   9.3262   9.3521
     9.7131   9.7317   9.9213   9.9420   9.9580   9.9724   9.9751   9.9970
    10.0058  10.0625  10.0725  10.0761  10.1573  10.1671  10.3273  10.3803
    10.3876  11.4338  12.5601  12.5636  12.6020  14.4392  16.0157  16.1387
    17.3671  17.3938  17.4292  17.5478  17.6307  17.6365  17.8740  17.9448
    17.9500  18.0729  18.1097  18.4903  19.0430  19.0780  19.1133  20.7431
    20.8092  20.8432  20.8924  20.9571  20.9633  21.0402  21.0578  21.0631

     occupation numbers 
     1.0000   1.0000   1.0000   1.0000   1.0000   1.0000   1.0000   1.0000
     1.0000   1.0000   1.0000   1.0000   1.0000   1.0000   1.0000   1.0000
     1.0000   1.0000   1.0000   1.0000   1.0000   1.0000   1.0000   1.0000
     1.0000   1.0000   1.0000   1.0000   1.0000   1.0000   1.0000   1.0000
     1.0000   1.0000   1.0000   1.0000   1.0000   1.0000   1.0000   1.0000
     1.0000   1.0000   1.0000   1.0000   1.0000   1.0000   1.0000   1.0000
     1.0000   1.0000   1.0000   1.0000   1.0000   1.0000   1.0000   1.0000
     1.0000   1.0000   1.0000   1.0000   1.0000   1.0000   1.0000   1.0000
     1.0000   1.0000   1.0000   1.0000   1.0000   1.0000   1.0000   1.0000
     1.0000   1.0000   1.0000   1.0000   1.0000   1.0000   1.0000   1.0000
     1.0000   1.0000   1.0000   1.0000   1.0000   1.0000   1.0000   1.0000
     1.0000   1.0000   1.0000   1.0000   1.0000   1.0000   1.0000   1.0000
     1.0000   1.0000   1.0000   1.0000   1.0000   1.0000   1.0000   1.0000
     1.0000   1.0000   1.0000   1.0000   1.0000   1.0000   1.0000   1.0000
     1.0000   1.0000   1.0000   1.0000   1.0000   1.0000   1.0000   1.0000
     1.0000   1.0000   1.0000   1.0000   1.0000   1.0000   0.0000   0.0000
     0.0000   0.0000   0.0000   0.0000   0.0000   0.0000   0.0000   0.0000
     0.0000   0.0000   0.0000   0.0000   0.0000   0.0000   0.0000   0.0000
     0.0000   0.0000   0.0000   0.0000   0.0000   0.0000   0.0000   0.0000

     highest occupied, lowest unoccupied level (ev):    14.7975   16.0157

!    total energy              =    -723.90697581 Ry
     estimated scf accuracy    <          5.3E-09 Ry

     The total energy is the sum of the following terms:
     one-electron contribution =     232.27836699 Ry
     hartree contribution      =      70.33877643 Ry
     xc contribution           =    -226.77193583 Ry
     ewald contribution        =    -799.75218341 Ry

     total magnetization       =     2.00 Bohr mag/cell
     absolute magnetization    =     2.30 Bohr mag/cell

     convergence has been achieved in  14 iterations

     Forces acting on atoms (cartesian axes, Ry/au):

     atom    1 type  1   force =    -0.00277756   -0.00391307   -0.00258589
     atom    2 type  2   force =     0.03515916    0.01587458   -0.01255589
     atom    3 type  2   force =    -0.00923647    0.00866161    0.00620926
     atom    4 type  2   force =     0.00879617    0.02478088   -0.00285472
     atom    5 type  2   force =     0.00222691   -0.02129015    0.00157781
     atom    6 type  2   force =    -0.00863883    0.00927024    0.04257863
     atom    7 type  2   force =     0.01027895    0.01194591   -0.00206883
     atom    8 type  2   force =     0.00304564    0.00431480    0.00652159
     atom    9 type  2   force =    -0.00213014   -0.00468062   -0.00289491
     atom   10 type  2   force =     0.00056615    0.00100178    0.00797205
     atom   11 type  2   force =    -0.02760208    0.00620473   -0.01199243
     atom   12 type  2   force =    -0.00006744    0.00388467    0.00334141
     atom   13 type  2   force =    -0.00281646   -0.03997417   -0.00179158
     atom   14 type  2   force =     0.00376843    0.00149728   -0.00497490
     atom   15 type  2   force =    -0.00198618   -0.00214675   -0.00960982
     atom   16 type  2   force =     0.00085585   -0.00067383   -0.00162955
     atom   17 type  2   force =    -0.00143977    0.00644660    0.00022880
     atom   18 type  2   force =     0.00291313   -0.00021780    0.00101424
     atom   19 type  2   force =    -0.00910439   -0.00312659   -0.00524136
     atom   20 type  2   force =     0.00296436   -0.00434924    0.00346244
     atom   21 type  2   force =    -0.00117739   -0.00413678   -0.00208804
     atom   22 type  2   force =     0.00113450    0.00150052    0.00072280
     atom   23 type  2   force =    -0.00052022   -0.00718899   -0.00173067
     atom   24 type  2   force =     0.00896040    0.00582472    0.00365292
     atom   25 type  2   force =    -0.01352326   -0.01292384   -0.00808910
     atom   26 type  2   force =     0.01524800    0.00578459    0.00231937
     atom   27 type  2   force =    -0.02568874   -0.00856487   -0.00638472
     atom   28 type  2   force =     0.01111438    0.00041771    0.02417579
     atom   29 type  2   force =    -0.00095913   -0.00247898   -0.00517475
     atom   30 type  2   force =     0.00741575    0.00730823    0.00343529
     atom   31 type  2   force =     0.00106353   -0.00166308   -0.00343619
     atom   32 type  2   force =     0.00322883    0.00385607    0.00139080
     atom   33 type  2   force =     0.00052349   -0.00438189   -0.00014313
     atom   34 type  2   force =    -0.00473746    0.00173568    0.00363162
     atom   35 type  2   force =    -0.00490614   -0.00081665   -0.00339292
     atom   36 type  2   force =     0.00061739    0.00434482   -0.00016244
     atom   37 type  2   force =     0.00066109   -0.03265181   -0.00713435
     atom   38 type  2   force =     0.00702638    0.00171442   -0.00033465
     atom   39 type  2   force =    -0.01001159    0.00600874   -0.01381100
     atom   40 type  2   force =     0.00535160    0.01263801    0.00494745
     atom   41 type  2   force =    -0.00749428   -0.01535353   -0.00381678
     atom   42 type  2   force =    -0.00044129    0.01774583    0.00665449
     atom   43 type  2   force =    -0.00086328    0.00077507   -0.00095551
     atom   44 type  2   force =     0.00461902    0.01712352    0.00319076
     atom   45 type  2   force =    -0.00750829   -0.02658934   -0.00679191
     atom   46 type  2   force =     0.00650038    0.01612621    0.00110038
     atom   47 type  2   force =    -0.00116843    0.00127183   -0.00177658
     atom   48 type  2   force =     0.00426325    0.00525536    0.00717000
     atom   49 type  2   force =    -0.00806518   -0.01402747   -0.01021163
     atom   50 type  2   force =     0.00428151    0.00667557    0.00350946
     atom   51 type  2   force =    -0.00392662   -0.00178843    0.00029541
     atom   52 type  2   force =     0.00642027    0.00209865    0.00490352
     atom   53 type  2   force =    -0.00173382   -0.00309985   -0.00045955
     atom   54 type  2   force =     0.00257631    0.00545208    0.01396164
     atom   55 type  2   force =    -0.00710961   -0.00853872   -0.02493021
     atom   56 type  2   force =     0.00542325    0.00429014    0.00411364
     atom   57 type  2   force =    -0.00179890   -0.00064681   -0.00218783
     atom   58 type  2   force =     0.00180989    0.00441038    0.00391571
     atom   59 type  2   force =    -0.00113698   -0.00259301   -0.00387443
     atom   60 type  2   force =     0.00262746    0.00197272    0.00227794
     atom   61 type  2   force =    -0.00343348   -0.00181927   -0.00376690
     atom   62 type  2   force =     0.00403813    0.00446035    0.00112585
     atom   63 type  2   force =    -0.00347613   -0.00303875   -0.00054791
     The non-local contrib.  to forces
     atom    1 type  1   force =    -0.76076590   -0.76455322   -0.75892504
     atom    2 type  2   force =    -0.16462435    0.22046117    0.17817769
     atom    3 type  2   force =     0.05682659    0.08119954    0.07271741
     atom    4 type  2   force =     0.21492480   -0.18834460    0.19739042
     atom    5 type  2   force =     0.07298398    0.04223711    0.06997282
     atom    6 type  2   force =     0.17936578    0.20470681   -0.14695683
     atom    7 type  2   force =     0.07744118    0.08317779    0.06460432
     atom    8 type  2   force =    -0.00452817   -0.00468818    0.05671292
     atom    9 type  2   force =    -0.00539882   -0.00786463    0.01303683
     atom   10 type  2   force =    -0.04544576   -0.01520842   -0.01218360
     atom   11 type  2   force =    -0.10415521    0.06826165   -0.08654301
     atom   12 type  2   force =    -0.01735083   -0.04102933   -0.01459423
     atom   13 type  2   force =     0.05236820   -0.11649685   -0.07359287
     atom   14 type  2   force =     0.00262403   -0.00000234    0.04492498
     atom   15 type  2   force =     0.01052836    0.00846846   -0.00723229
     atom   16 type  2   force =    -0.01180845    0.04858592   -0.01402687
     atom   17 type  2   force =    -0.00462133    0.02733238   -0.00307982
     atom   18 type  2   force =    -0.04099362   -0.02201629   -0.01556595
     atom   19 type  2   force =    -0.08106291   -0.07876556    0.05509966
     atom   20 type  2   force =     0.00448404    0.04480317    0.00522722
     atom   21 type  2   force =     0.01066786   -0.00321532    0.01137319
     atom   22 type  2   force =    -0.01452269   -0.02073550   -0.04312198
     atom   23 type  2   force =     0.06339993   -0.08474463   -0.07282599
     atom   24 type  2   force =    -0.06515827    0.03320338    0.03340492
     atom   25 type  2   force =    -0.02478940    0.00076434    0.01014905
     atom   26 type  2   force =    -0.04080193   -0.02173468   -0.02404254
     atom   27 type  2   force =    -0.14726677    0.12505783    0.12324631
     atom   28 type  2   force =     0.08042328    0.02383519    0.00875472
     atom   29 type  2   force =     0.00000624    0.01780487    0.00144994
     atom   30 type  2   force =     0.07682917   -0.01267097    0.02825461
     atom   31 type  2   force =     0.00307228    0.00332479    0.01641346
     atom   32 type  2   force =     0.05279449   -0.00658604   -0.00713658
     atom   33 type  2   force =     0.01818453   -0.00731323   -0.00373126
     atom   34 type  2   force =     0.04480762    0.00101348    0.00398774
     atom   35 type  2   force =    -0.00330869    0.00883692    0.01024013
     atom   36 type  2   force =    -0.01841595   -0.04032769   -0.01785282
     atom   37 type  2   force =    -0.07171549   -0.10862280    0.04779161
     atom   38 type  2   force =    -0.01368621   -0.01339594   -0.04519972
     atom   39 type  2   force =    -0.08655025    0.07139420   -0.08766423
     atom   40 type  2   force =     0.03512238   -0.05842017    0.03553553
     atom   41 type  2   force =     0.00855653   -0.02587579    0.01432414
     atom   42 type  2   force =     0.01977444    0.08981987   -0.01018319
     atom   43 type  2   force =     0.01706759    0.00008402    0.00371380
     atom   44 type  2   force =    -0.02265061   -0.03700816   -0.02389271
     atom   45 type  2   force =     0.12438448   -0.14810437    0.12448911
     atom   46 type  2   force =    -0.00992015    0.08700083    0.02317517
     atom   47 type  2   force =     0.00317573    0.00136568    0.01602429
     atom   48 type  2   force =     0.03296275    0.03300790   -0.06900724
     atom   49 type  2   force =     0.00813323   -0.00012900   -0.02301703
     atom   50 type  2   force =     0.02970251   -0.01460431    0.07157988
     atom   51 type  2   force =     0.01701278    0.00364926    0.00331521
     atom   52 type  2   force =    -0.01417111    0.02657048    0.07277020
     atom   53 type  2   force =     0.00449279    0.01793517    0.00143539
     atom   54 type  2   force =    -0.02255323   -0.02067672   -0.04385006
     atom   55 type  2   force =     0.12333466    0.12445048   -0.14646527
     atom   56 type  2   force =     0.02347992    0.02421325    0.02132851
     atom   57 type  2   force =     0.00525232    0.00478244    0.00519168
     atom   58 type  2   force =     0.01719600   -0.00535957   -0.01047005
     atom   59 type  2   force =     0.00839691   -0.01377067   -0.01517101
     atom   60 type  2   force =    -0.01030926    0.01830680   -0.01148028
     atom   61 type  2   force =    -0.01480590    0.00890512   -0.01559657
     atom   62 type  2   force =    -0.00825599   -0.00582119    0.01528006
     atom   63 type  2   force =    -0.01528895   -0.01554760    0.00872709
     The ionic contribution  to forces
     atom    1 type  1   force =     2.98435708    2.95385553    2.99764719
     atom    2 type  2   force =     2.41216974   -2.05980954   -2.21828937
     atom    3 type  2   force =     0.47828977   -0.73265177   -0.85997885
     atom    4 type  2   force =    -2.09008128    2.33357139   -2.15968924
     atom    5 type  2   force =    -0.77821108    0.39984899   -0.82836695
     atom    6 type  2   force =    -2.18720201   -2.08870321    2.45542363
     atom    7 type  2   force =    -0.82646501   -0.74656267    0.52954347
     atom    8 type  2   force =     0.25613388    0.21502406   -0.72718075
     atom    9 type  2   force =     0.06498851    0.02410487   -0.22201905
     atom   10 type  2   force =     0.18011464    0.07121262    0.57093187
     atom   11 type  2   force =    -0.50345955   -0.60107279    0.80093658
     atom   12 type  2   force =     0.02848518    0.16050533    0.55340257
     atom   13 type  2   force =    -0.66409667   -0.56383342    0.76334931
     atom   14 type  2   force =    -0.19425591   -0.18829611   -0.71898423
     atom   15 type  2   force =    -0.14370099   -0.15597705   -0.06843894
     atom   16 type  2   force =     0.20825719   -0.77479210    0.22086791
     atom   17 type  2   force =     0.07369986   -0.15844452    0.08610382
     atom   18 type  2   force =     0.22302281    0.46909669   -0.00074676
     atom   19 type  2   force =    -0.36242390    0.74950549   -0.70898008
     atom   20 type  2   force =    -0.18090763   -0.73042093   -0.19933222
     atom   21 type  2   force =    -0.17196285   -0.05542800   -0.20795540
     atom   22 type  2   force =     0.02766153    0.47035972    0.23284359
     atom   23 type  2   force =    -0.68902642    0.77715664   -0.33381981
     atom   24 type  2   force =     0.09757836   -0.13655027   -0.17490865
     atom   25 type  2   force =    -0.05198511   -0.05296224   -0.07088072
     atom   26 type  2   force =     0.13026885   -0.09386686   -0.04366528
     atom   27 type  2   force =     1.14161616    0.24134514    0.25227283
     atom   28 type  2   force =    -0.07921543   -0.13853550    0.18044720
     atom   29 type  2   force =    -0.17989932    0.00588584    0.25508626
     atom   30 type  2   force =    -0.01982986    0.14675321   -0.23920040
     atom   31 type  2   force =    -0.15208623    0.17533993   -0.00601827
     atom   32 type  2   force =    -0.74424360    0.19521596    0.26202956
     atom   33 type  2   force =    -0.20247938    0.03007357    0.09025644
     atom   34 type  2   force =    -0.71775062   -0.17613767   -0.20232297
     atom   35 type  2   force =    -0.06233405   -0.13445314   -0.20011289
     atom   36 type  2   force =     0.51509106    0.17501869    0.00197044
     atom   37 type  2   force =     0.73601230   -0.50053767   -0.69326847
     atom   38 type  2   force =     0.53924075    0.07185492    0.20870268
     atom   39 type  2   force =     0.80927841   -0.63732359   -0.43340856
     atom   40 type  2   force =    -0.19603494    0.06227730   -0.20991354
     atom   41 type  2   force =    -0.07001645   -0.08827387   -0.06737713
     atom   42 type  2   force =    -0.13118352    0.02690906    0.09427503
     atom   43 type  2   force =     0.03052633   -0.11311990    0.25606831
     atom   44 type  2   force =    -0.07169564    0.12274662   -0.05313721
     atom   45 type  2   force =     0.24441268    1.15980171    0.24921445
     atom   46 type  2   force =     0.09991453    0.04990417   -0.17000258
     atom   47 type  2   force =     0.22106196   -0.11534075    0.01885360
     atom   48 type  2   force =    -0.13979085   -0.11079505    0.13342914
     atom   49 type  2   force =    -0.07591838   -0.08196306    0.00507483
     atom   50 type  2   force =    -0.23658922    0.15300045   -0.08593671
     atom   51 type  2   force =    -0.00938019    0.17478072   -0.18146403
     atom   52 type  2   force =     0.13900747   -0.17707830   -0.12384000
     atom   53 type  2   force =     0.22685979    0.01404144   -0.18424800
     atom   54 type  2   force =    -0.06319877   -0.09137236    0.13877997
     atom   55 type  2   force =     0.24527536    0.24236263    1.13087180
     atom   56 type  2   force =    -0.08273046   -0.03018987   -0.12897560
     atom   57 type  2   force =    -0.02013587   -0.03359429   -0.01722869
     atom   58 type  2   force =    -0.07682014    0.04798242    0.04554456
     atom   59 type  2   force =    -0.28535007    0.07640334    0.15501546
     atom   60 type  2   force =     0.06012148   -0.03585789    0.06177394
     atom   61 type  2   force =     0.13395938   -0.30382378    0.16092017
     atom   62 type  2   force =     0.03018875    0.03759504   -0.09947074
     atom   63 type  2   force =     0.12286756    0.07423467   -0.27247452
     The local contribution  to forces
     atom    1 type  1   force =    -2.22642767   -2.19322432   -2.24136123
     atom    2 type  2   force =    -2.21245180    1.85520147    2.02750602
     atom    3 type  2   force =    -0.54444647    0.66006069    0.79341034
     atom    4 type  2   force =     1.88386693   -2.12046599    1.95939854
     atom    5 type  2   force =     0.70735096   -0.46339805    0.75993165
     atom    6 type  2   force =     1.99910716    1.89324630   -2.26594498
     atom    7 type  2   force =     0.75919522    0.67529434   -0.59628281
     atom    8 type  2   force =    -0.24861787   -0.20602488    0.67694112
     atom    9 type  2   force =    -0.06178452   -0.02093558    0.20603307
     atom   10 type  2   force =    -0.13415543   -0.05503386   -0.55082726
     atom   11 type  2   force =     0.57995189    0.53897581   -0.72642924
     atom   12 type  2   force =    -0.01128090   -0.11561423   -0.53551783
     atom   13 type  2   force =     0.60881422    0.64033655   -0.69160415
     atom   14 type  2   force =     0.19530123    0.18976600    0.66903937
     atom   15 type  2   force =     0.13107730    0.14531737    0.06602809
     atom   16 type  2   force =    -0.19565186    0.72547236   -0.20851230
     atom   17 type  2   force =    -0.07058547    0.13749114   -0.08285092
     atom   18 type  2   force =    -0.17917259   -0.44735064    0.01726747
     atom   19 type  2   force =     0.43431863   -0.67389546    0.64859463
     atom   20 type  2   force =     0.17928865    0.68121376    0.19751055
     atom   21 type  2   force =     0.16000958    0.05446167    0.19444318
     atom   22 type  2   force =    -0.01208020   -0.44817387   -0.18905968
     atom   23 type  2   force =     0.62501715   -0.69964143    0.40485020
     atom   24 type  2   force =    -0.02351452    0.10910285    0.14509616
     atom   25 type  2   force =     0.06318978    0.03921703    0.05259648
     atom   26 type  2   force =    -0.07428066    0.12134338    0.06998438
     atom   27 type  2   force =    -1.02010786   -0.37499682   -0.38195497
     atom   28 type  2   force =     0.00982809    0.11506470   -0.16507098
     atom   29 type  2   force =     0.17883958   -0.02622438   -0.26176015
     atom   30 type  2   force =    -0.04966050   -0.12682078    0.21433910
     atom   31 type  2   force =     0.14998065   -0.18035824   -0.01387572
     atom   32 type  2   force =     0.69458025   -0.18480451   -0.25356473
     atom   33 type  2   force =     0.18473012   -0.02716276   -0.08672497
     atom   34 type  2   force =     0.66811044    0.17682995    0.20191067
     atom   35 type  2   force =     0.06065914    0.12474898    0.18642084
     atom   36 type  2   force =    -0.49613379   -0.13035048    0.01565846
     atom   37 type  2   force =    -0.66368876    0.57651679    0.63827838
     atom   38 type  2   force =    -0.51860174   -0.05677486   -0.16387687
     atom   39 type  2   force =    -0.73279133    0.57188457    0.50722841
     atom   40 type  2   force =     0.16615528    0.00875673    0.17928772
     atom   41 type  2   force =     0.05386325    0.09876724    0.04919083
     atom   42 type  2   force =     0.11085287   -0.09901308   -0.07748249
     atom   43 type  2   force =    -0.04856553    0.11377541   -0.26078146
     atom   44 type  2   force =     0.09887740   -0.06864655    0.08017857
     atom   45 type  2   force =    -0.37636817   -1.03831618   -0.38053450
     atom   46 type  2   force =    -0.08356241   -0.12080833    0.14786263
     atom   47 type  2   force =    -0.22546185    0.11520086   -0.03671946
     atom   48 type  2   force =     0.11098449    0.08299834   -0.05731465
     atom   49 type  2   force =     0.05961977    0.06801162    0.00765932
     atom   50 type  2   force =     0.21105634   -0.13176533    0.01780547
     atom   51 type  2   force =    -0.01166828   -0.18024208    0.17839549
     atom   52 type  2   force =    -0.11848378    0.15253418    0.05591486
     atom   53 type  2   force =    -0.23314244   -0.03515308    0.18229756
     atom   54 type  2   force =     0.08823737    0.11745776   -0.08103475
     atom   55 type  2   force =    -0.37578691   -0.37537230   -1.00940614
     atom   56 type  2   force =     0.06456485    0.01021922    0.11172097
     atom   57 type  2   force =     0.01298181    0.02812015    0.00981813
     atom   58 type  2   force =     0.06133243   -0.03825506   -0.03119895
     atom   59 type  2   force =     0.27571775   -0.06526273   -0.14376882
     atom   60 type  2   force =    -0.04727285    0.01948505   -0.04805646
     atom   61 type  2   force =    -0.12265942    0.29305316   -0.14913621
     atom   62 type  2   force =    -0.01798189   -0.02735728    0.08528464
     atom   63 type  2   force =    -0.11112471   -0.06175409    0.26316707
     The core correction contribution to forces
     atom    1 type  1   force =     0.00000000    0.00000000    0.00000000
     atom    2 type  2   force =     0.00000000    0.00000000    0.00000000
     atom    3 type  2   force =     0.00000000    0.00000000    0.00000000
     atom    4 type  2   force =     0.00000000    0.00000000    0.00000000
     atom    5 type  2   force =     0.00000000    0.00000000    0.00000000
     atom    6 type  2   force =     0.00000000    0.00000000    0.00000000
     atom    7 type  2   force =     0.00000000    0.00000000    0.00000000
     atom    8 type  2   force =     0.00000000    0.00000000    0.00000000
     atom    9 type  2   force =     0.00000000    0.00000000    0.00000000
     atom   10 type  2   force =     0.00000000    0.00000000    0.00000000
     atom   11 type  2   force =     0.00000000    0.00000000    0.00000000
     atom   12 type  2   force =     0.00000000    0.00000000    0.00000000
     atom   13 type  2   force =     0.00000000    0.00000000    0.00000000
     atom   14 type  2   force =     0.00000000    0.00000000    0.00000000
     atom   15 type  2   force =     0.00000000    0.00000000    0.00000000
     atom   16 type  2   force =     0.00000000    0.00000000    0.00000000
     atom   17 type  2   force =     0.00000000    0.00000000    0.00000000
     atom   18 type  2   force =     0.00000000    0.00000000    0.00000000
     atom   19 type  2   force =     0.00000000    0.00000000    0.00000000
     atom   20 type  2   force =     0.00000000    0.00000000    0.00000000
     atom   21 type  2   force =     0.00000000    0.00000000    0.00000000
     atom   22 type  2   force =     0.00000000    0.00000000    0.00000000
     atom   23 type  2   force =     0.00000000    0.00000000    0.00000000
     atom   24 type  2   force =     0.00000000    0.00000000    0.00000000
     atom   25 type  2   force =     0.00000000    0.00000000    0.00000000
     atom   26 type  2   force =     0.00000000    0.00000000    0.00000000
     atom   27 type  2   force =     0.00000000    0.00000000    0.00000000
     atom   28 type  2   force =     0.00000000    0.00000000    0.00000000
     atom   29 type  2   force =     0.00000000    0.00000000    0.00000000
     atom   30 type  2   force =     0.00000000    0.00000000    0.00000000
     atom   31 type  2   force =     0.00000000    0.00000000    0.00000000
     atom   32 type  2   force =     0.00000000    0.00000000    0.00000000
     atom   33 type  2   force =     0.00000000    0.00000000    0.00000000
     atom   34 type  2   force =     0.00000000    0.00000000    0.00000000
     atom   35 type  2   force =     0.00000000    0.00000000    0.00000000
     atom   36 type  2   force =     0.00000000    0.00000000    0.00000000
     atom   37 type  2   force =     0.00000000    0.00000000    0.00000000
     atom   38 type  2   force =     0.00000000    0.00000000    0.00000000
     atom   39 type  2   force =     0.00000000    0.00000000    0.00000000
     atom   40 type  2   force =     0.00000000    0.00000000    0.00000000
     atom   41 type  2   force =     0.00000000    0.00000000    0.00000000
     atom   42 type  2   force =     0.00000000    0.00000000    0.00000000
     atom   43 type  2   force =     0.00000000    0.00000000    0.00000000
     atom   44 type  2   force =     0.00000000    0.00000000    0.00000000
     atom   45 type  2   force =     0.00000000    0.00000000    0.00000000
     atom   46 type  2   force =     0.00000000    0.00000000    0.00000000
     atom   47 type  2   force =     0.00000000    0.00000000    0.00000000
     atom   48 type  2   force =     0.00000000    0.00000000    0.00000000
     atom   49 type  2   force =     0.00000000    0.00000000    0.00000000
     atom   50 type  2   force =     0.00000000    0.00000000    0.00000000
     atom   51 type  2   force =     0.00000000    0.00000000    0.00000000
     atom   52 type  2   force =     0.00000000    0.00000000    0.00000000
     atom   53 type  2   force =     0.00000000    0.00000000    0.00000000
     atom   54 type  2   force =     0.00000000    0.00000000    0.00000000
     atom   55 type  2   force =     0.00000000    0.00000000    0.00000000
     atom   56 type  2   force =     0.00000000    0.00000000    0.00000000
     atom   57 type  2   force =     0.00000000    0.00000000    0.00000000
     atom   58 type  2   force =     0.00000000    0.00000000    0.00000000
     atom   59 type  2   force =     0.00000000    0.00000000    0.00000000
     atom   60 type  2   force =     0.00000000    0.00000000    0.00000000
     atom   61 type  2   force =     0.00000000    0.00000000    0.00000000
     atom   62 type  2   force =     0.00000000    0.00000000    0.00000000
     atom   63 type  2   force =     0.00000000    0.00000000    0.00000000
     The Hubbard contrib.    to forces
     atom    1 type  1   force =     0.00000000    0.00000000    0.00000000
     atom    2 type  2   force =     0.00000000    0.00000000    0.00000000
     atom    3 type  2   force =     0.00000000    0.00000000    0.00000000
     atom    4 type  2   force =     0.00000000    0.00000000    0.00000000
     atom    5 type  2   force =     0.00000000    0.00000000    0.00000000
     atom    6 type  2   force =     0.00000000    0.00000000    0.00000000
     atom    7 type  2   force =     0.00000000    0.00000000    0.00000000
     atom    8 type  2   force =     0.00000000    0.00000000    0.00000000
     atom    9 type  2   force =     0.00000000    0.00000000    0.00000000
     atom   10 type  2   force =     0.00000000    0.00000000    0.00000000
     atom   11 type  2   force =     0.00000000    0.00000000    0.00000000
     atom   12 type  2   force =     0.00000000    0.00000000    0.00000000
     atom   13 type  2   force =     0.00000000    0.00000000    0.00000000
     atom   14 type  2   force =     0.00000000    0.00000000    0.00000000
     atom   15 type  2   force =     0.00000000    0.00000000    0.00000000
     atom   16 type  2   force =     0.00000000    0.00000000    0.00000000
     atom   17 type  2   force =     0.00000000    0.00000000    0.00000000
     atom   18 type  2   force =     0.00000000    0.00000000    0.00000000
     atom   19 type  2   force =     0.00000000    0.00000000    0.00000000
     atom   20 type  2   force =     0.00000000    0.00000000    0.00000000
     atom   21 type  2   force =     0.00000000    0.00000000    0.00000000
     atom   22 type  2   force =     0.00000000    0.00000000    0.00000000
     atom   23 type  2   force =     0.00000000    0.00000000    0.00000000
     atom   24 type  2   force =     0.00000000    0.00000000    0.00000000
     atom   25 type  2   force =     0.00000000    0.00000000    0.00000000
     atom   26 type  2   force =     0.00000000    0.00000000    0.00000000
     atom   27 type  2   force =     0.00000000    0.00000000    0.00000000
     atom   28 type  2   force =     0.00000000    0.00000000    0.00000000
     atom   29 type  2   force =     0.00000000    0.00000000    0.00000000
     atom   30 type  2   force =     0.00000000    0.00000000    0.00000000
     atom   31 type  2   force =     0.00000000    0.00000000    0.00000000
     atom   32 type  2   force =     0.00000000    0.00000000    0.00000000
     atom   33 type  2   force =     0.00000000    0.00000000    0.00000000
     atom   34 type  2   force =     0.00000000    0.00000000    0.00000000
     atom   35 type  2   force =     0.00000000    0.00000000    0.00000000
     atom   36 type  2   force =     0.00000000    0.00000000    0.00000000
     atom   37 type  2   force =     0.00000000    0.00000000    0.00000000
     atom   38 type  2   force =     0.00000000    0.00000000    0.00000000
     atom   39 type  2   force =     0.00000000    0.00000000    0.00000000
     atom   40 type  2   force =     0.00000000    0.00000000    0.00000000
     atom   41 type  2   force =     0.00000000    0.00000000    0.00000000
     atom   42 type  2   force =     0.00000000    0.00000000    0.00000000
     atom   43 type  2   force =     0.00000000    0.00000000    0.00000000
     atom   44 type  2   force =     0.00000000    0.00000000    0.00000000
     atom   45 type  2   force =     0.00000000    0.00000000    0.00000000
     atom   46 type  2   force =     0.00000000    0.00000000    0.00000000
     atom   47 type  2   force =     0.00000000    0.00000000    0.00000000
     atom   48 type  2   force =     0.00000000    0.00000000    0.00000000
     atom   49 type  2   force =     0.00000000    0.00000000    0.00000000
     atom   50 type  2   force =     0.00000000    0.00000000    0.00000000
     atom   51 type  2   force =     0.00000000    0.00000000    0.00000000
     atom   52 type  2   force =     0.00000000    0.00000000    0.00000000
     atom   53 type  2   force =     0.00000000    0.00000000    0.00000000
     atom   54 type  2   force =     0.00000000    0.00000000    0.00000000
     atom   55 type  2   force =     0.00000000    0.00000000    0.00000000
     atom   56 type  2   force =     0.00000000    0.00000000    0.00000000
     atom   57 type  2   force =     0.00000000    0.00000000    0.00000000
     atom   58 type  2   force =     0.00000000    0.00000000    0.00000000
     atom   59 type  2   force =     0.00000000    0.00000000    0.00000000
     atom   60 type  2   force =     0.00000000    0.00000000    0.00000000
     atom   61 type  2   force =     0.00000000    0.00000000    0.00000000
     atom   62 type  2   force =     0.00000000    0.00000000    0.00000000
     atom   63 type  2   force =     0.00000000    0.00000000    0.00000000
     The SCF correction term to forces
     atom    1 type  1   force =    -0.00002399   -0.00002775    0.00000252
     atom    2 type  2   force =    -0.00001734   -0.00001522   -0.00000091
     atom    3 type  2   force =     0.00001072    0.00001645    0.00000969
     atom    4 type  2   force =     0.00000279   -0.00001662   -0.00000512
     atom    5 type  2   force =     0.00002012   -0.00001490   -0.00001039
     atom    6 type  2   force =     0.00000731   -0.00001636    0.00000613
     atom    7 type  2   force =     0.00002465   -0.00000024    0.00001551
     atom    8 type  2   force =    -0.00002512   -0.00003290   -0.00000238
     atom    9 type  2   force =    -0.00001823   -0.00002198    0.00000356
     atom   10 type  2   force =    -0.00003023   -0.00000525    0.00000035
     atom   11 type  2   force =    -0.00002213    0.00000337   -0.00000744
     atom   12 type  2   force =    -0.00000381   -0.00001380    0.00000023
     atom   13 type  2   force =     0.00001487   -0.00001715    0.00000545
     atom   14 type  2   force =     0.00001616   -0.00000697   -0.00000571
     atom   15 type  2   force =     0.00002624    0.00000778   -0.00001736
     atom   16 type  2   force =    -0.00002396    0.00002329   -0.00000897
     atom   17 type  2   force =    -0.00001575    0.00003091    0.00000505
     atom   18 type  2   force =    -0.00002639    0.00001574    0.00000880
     atom   19 type  2   force =    -0.00001914   -0.00000776   -0.00000625
     atom   20 type  2   force =     0.00001638    0.00001806    0.00000621
     atom   21 type  2   force =     0.00002510    0.00000817    0.00000031
     atom   22 type  2   force =    -0.00000706    0.00001347    0.00001019
     atom   23 type  2   force =     0.00000621    0.00000373    0.00001425
     atom   24 type  2   force =    -0.00002809    0.00003205    0.00000981
     atom   25 type  2   force =    -0.00002146    0.00002032   -0.00000459
     atom   26 type  2   force =    -0.00002117    0.00000605   -0.00000786
     atom   27 type  2   force =    -0.00001319   -0.00000772    0.00000043
     atom   28 type  2   force =    -0.00000448    0.00001662   -0.00000584
     atom   29 type  2   force =     0.00001144    0.00001799   -0.00000146
     atom   30 type  2   force =    -0.00000599    0.00001007   -0.00000869
     atom   31 type  2   force =     0.00001391   -0.00000627   -0.00000633
     atom   32 type  2   force =     0.00001477   -0.00000603    0.00001187
     atom   33 type  2   force =     0.00000530   -0.00001617    0.00000599
     atom   34 type  2   force =     0.00001217   -0.00000678    0.00000550
     atom   35 type  2   force =    -0.00000547    0.00001391    0.00000833
     atom   36 type  2   force =    -0.00000684   -0.00003240    0.00001081
     atom   37 type  2   force =    -0.00002988   -0.00004483    0.00001345
     atom   38 type  2   force =    -0.00000934   -0.00000640   -0.00001141
     atom   39 type  2   force =    -0.00003134    0.00001686   -0.00001730
     atom   40 type  2   force =     0.00002596   -0.00001255   -0.00001294
     atom   41 type  2   force =     0.00001947   -0.00000781   -0.00000529
     atom   42 type  2   force =     0.00003200   -0.00000673   -0.00000553
     atom   43 type  2   force =     0.00002539   -0.00000117   -0.00000682
     atom   44 type  2   force =     0.00000495   -0.00000509   -0.00000856
     atom   45 type  2   force =    -0.00002021   -0.00000720   -0.00001164
     atom   46 type  2   force =    -0.00001451   -0.00000716    0.00001448
     atom   47 type  2   force =    -0.00002719    0.00000934    0.00001432
     atom   48 type  2   force =     0.00002394    0.00000747    0.00001207
     atom   49 type  2   force =     0.00001728    0.00001627    0.00002057
     atom   50 type  2   force =     0.00002896    0.00000807    0.00001014
     atom   51 type  2   force =     0.00002615   -0.00001303   -0.00000194
     atom   52 type  2   force =    -0.00001523    0.00003559    0.00000778
     atom   53 type  2   force =    -0.00002689    0.00003993    0.00000484
     atom   54 type  2   force =     0.00000802    0.00000670    0.00001581
     atom   55 type  2   force =    -0.00001565   -0.00001623    0.00001872
     atom   56 type  2   force =     0.00002602    0.00001084   -0.00001091
     atom   57 type  2   force =     0.00001992    0.00000819   -0.00001964
     atom   58 type  2   force =     0.00001868    0.00000589   -0.00001053
     atom   59 type  2   force =     0.00001550    0.00000035   -0.00000075
     atom   60 type  2   force =     0.00000517    0.00000206   -0.00000994
     atom   61 type  2   force =    -0.00001046    0.00000953   -0.00000496
     atom   62 type  2   force =     0.00000433    0.00000708   -0.00001879
     atom   63 type  2   force =    -0.00001296   -0.00000843   -0.00001822

     Total force =     0.129364     Total SCF correction =     0.000217

     Writing all to output data dir ./pwscf.save/ :
     XML data file, charge density, pseudopotentials, collected wavefunctions
 
     init_run     :      0.38s CPU      0.68s WALL (       1 calls)
     electrons    :     15.60s CPU     16.65s WALL (       1 calls)
     forces       :      0.09s CPU      0.09s WALL (       1 calls)

     Called by init_run:
     wfcinit      :      0.08s CPU      0.10s WALL (       1 calls)
     wfcinit:wfcr :      0.08s CPU      0.09s WALL (       1 calls)
     potinit      :      0.15s CPU      0.23s WALL (       1 calls)
     hinit0       :      0.02s CPU      0.23s WALL (       1 calls)

     Called by electrons:
     c_bands      :     10.15s CPU     11.02s WALL (      14 calls)
     sum_band     :      3.00s CPU      3.11s WALL (      14 calls)
     v_of_rho     :      0.71s CPU      0.73s WALL (      15 calls)
     v_h          :      0.01s CPU      0.01s WALL (      15 calls)
     v_xc         :      0.70s CPU      0.73s WALL (      15 calls)
     mix_rho      :      0.29s CPU      0.30s WALL (      14 calls)

     Called by c_bands:
     init_us_2    :      0.02s CPU      0.02s WALL (      30 calls)
     regterg      :      9.18s CPU      9.84s WALL (      14 calls)

     Called by sum_band:
     sum_band:wei :      0.07s CPU      0.08s WALL (      14 calls)
     sum_band:loo :      0.94s CPU      1.01s WALL (      14 calls)
     sum_band:buf :      0.00s CPU      0.00s WALL (      14 calls)
     sum_band:ini :      0.01s CPU      0.01s WALL (      14 calls)

     Called by *egterg:
     rdiaghg      :      4.34s CPU      4.57s WALL (     266 calls)
     regterg:over :      0.45s CPU      0.48s WALL (     252 calls)
     regterg:upda :      0.26s CPU      0.27s WALL (     252 calls)
     regterg:last :      0.45s CPU      0.52s WALL (      52 calls)
     rdiaghg:chol :      0.14s CPU      0.15s WALL (     266 calls)
     rdiaghg:inve :      0.03s CPU      0.03s WALL (     266 calls)
     rdiaghg:para :      0.38s CPU      0.41s WALL (     532 calls)
     h_psi        :      3.59s CPU      3.93s WALL (     267 calls)
     g_psi        :      0.00s CPU      0.00s WALL (     252 calls)

     Called by h_psi:
     h_psi:calbec :      0.60s CPU      0.61s WALL (     267 calls)
     vloc_psi     :      2.88s CPU      3.20s WALL (     267 calls)
                                        0.00s GPU  (     267 calls)
     add_vuspsi   :      0.11s CPU      0.11s WALL (     267 calls)

     General routines
     calbec       :      0.62s CPU      0.64s WALL (     271 calls)
     fft          :      0.45s CPU      0.61s WALL (     196 calls)
     ffts         :      0.02s CPU      0.02s WALL (      14 calls)
     fftw         :      3.71s CPU      4.09s WALL (   10108 calls)
 
     Parallel routines
 
     PWSCF        :     17.43s CPU     19.03s WALL

 
   This run was terminated on:  16:17:19  16Nov2025            

=------------------------------------------------------------------------------=
   JOB DONE.
=------------------------------------------------------------------------------=
