
     Program PWSCF v.7.5 starts on 16Nov2025 at 17: 0:47 

     This program is part of the open-source Quantum ESPRESSO suite
     for quantum simulation of materials; please cite
         "P. Giannozzi et al., J. Phys.:Condens. Matter 21 395502 (2009);
         "P. Giannozzi et al., J. Phys.:Condens. Matter 29 465901 (2017);
         "P. Giannozzi et al., J. Chem. Phys. 152 154105 (2020);
          URL http://www.quantum-espresso.org", 
     in publications or presentations arising from this work. More details at
     http://www.quantum-espresso.org/quote

     Parallel version (MPI), running on    96 processors

     MPI processes distributed on     2 nodes
     174294 MiB available memory on the printing compute node when the environment starts
 
     Reading input from supercell-308.in

     Current dimensions of program PWSCF are:
     Max number of different atomic species (ntypx) = 10
     Max number of k-points (npk) =  40000
     Max angular momentum in pseudopotentials (lmaxx) =  4

     gamma-point specific algorithms are used
 
     K-points division:     npool     =       2
     R & G space division:  proc/nbgrp/npool/nimage =      48
     Subspace diagonalization in iterative solution of the eigenvalue problem:
     one sub-group per band group will be used
     scalapack distributed-memory algorithm (size of sub-group:  2*  2 procs)

 
     Parallelization info
     --------------------
     sticks:   dense  smooth     PW     G-vecs:    dense   smooth      PW
     Min          59      59     14                 2432     2432     302
     Max          62      62     16                 2442     2442     316
     Sum        2885    2885    725               116921   116921   14771
 
     Using Slab Decomposition
 


     bravais-lattice index     =            0
     lattice parameter (alat)  =      13.4813  a.u.
     unit-cell volume          =    2450.1683 (a.u.)^3
     number of atoms/cell      =           63
     number of atomic types    =            2
     number of electrons       =       254.00 (up: 128.00, down: 126.00)
     number of Kohn-Sham states=          152
     kinetic-energy cutoff     =      50.0000  Ry
     charge density cutoff     =     200.0000  Ry
     scf convergence threshold =      1.0E-08
     mixing beta               =       0.7000
     number of iterations used =            8  plain     mixing
     Exchange-correlation= PBE
                           (   1   4   3   4   0   0   0)

     celldm(1)=  13.481306  celldm(2)=   0.000000  celldm(3)=   0.000000
     celldm(4)=   0.000000  celldm(5)=   0.000000  celldm(6)=   0.000000

     crystal axes: (cart. coord. in units of alat)
               a(1) = (   1.000000   0.000000   0.000000 )  
               a(2) = (   0.000000   1.000000   0.000000 )  
               a(3) = (   0.000000   0.000000   1.000000 )  

     reciprocal axes: (cart. coord. in units 2 pi/alat)
               b(1) = (  1.000000  0.000000  0.000000 )  
               b(2) = (  0.000000  1.000000  0.000000 )  
               b(3) = (  0.000000  0.000000  1.000000 )  


     PseudoPot. # 1 for N  read from file:
     ./N_ONCV_PBE-1.2.upf
     MD5 check sum: 5312fdf34e96954e02a33bdc911c617a
     Pseudo is Norm-conserving, Zval =  5.0
     Generated using ONCVPSP code by D. R. Hamann
     Using radial grid of  602 points,  4 beta functions with: 
                l(1) =   0
                l(2) =   0
                l(3) =   1
                l(4) =   1

     PseudoPot. # 2 for C  read from file:
     ./C_ONCV_PBE-1.2.upf
     MD5 check sum: d60b57d9bdca4133f5fde4b584ee909d
     Pseudo is Norm-conserving, Zval =  4.0
     Generated using ONCVPSP code by D. R. Hamann
     Using radial grid of  602 points,  4 beta functions with: 
                l(1) =   0
                l(2) =   0
                l(3) =   1
                l(4) =   1

     atomic species   valence    mass     pseudopotential
     N                 5.00    14.00670     N ( 1.00)
     C                 4.00    12.01070     C ( 1.00)

     Starting magnetic structure 
     atomic species   magnetization
     N               0.000
     C               0.000

     No symmetry found


                                    s                        frac. trans.

      isym =  1     identity                                     

 cryst.   s( 1) = (     1          0          0      )
                  (     0          1          0      )
                  (     0          0          1      )

 cart.    s( 1) = (  1.0000000  0.0000000  0.0000000 )
                  (  0.0000000  1.0000000  0.0000000 )
                  (  0.0000000  0.0000000  1.0000000 )


   Cartesian axes

     site n.     atom                  positions (alat units)
         1        N      tau(   1) = (   0.9893819   0.9897344   0.9891721  )
         2        C      tau(   2) = (   0.9870277   0.2601210   0.2640728  )
         3        C      tau(   3) = (   0.1231717   0.3731672   0.3742038  )
         4        C      tau(   4) = (   0.2603919   0.9894620   0.2619202  )
         5        C      tau(   5) = (   0.3737632   0.1246771   0.3741571  )
         6        C      tau(   6) = (   0.2640151   0.2616009   0.9853609  )
         7        C      tau(   7) = (   0.3737752   0.3731213   0.1223564  )
         8        C      tau(   8) = (   0.0000049   0.0005840   0.4991361  )
         9        C      tau(   9) = (   0.1251361   0.1251278   0.6250981  )
        10        C      tau(  10) = (   0.0020393   0.2482470   0.7515266  )
        11        C      tau(  11) = (   0.1292009   0.3733021   0.8763303  )
        12        C      tau(  12) = (   0.2487801   0.0017974   0.7514403  )
        13        C      tau(  13) = (   0.3754339   0.1292460   0.8748544  )
        14        C      tau(  14) = (   0.2491579   0.2495268   0.4995755  )
        15        C      tau(  15) = (   0.3750038   0.3749547   0.6244069  )
        16        C      tau(  16) = (   0.0016366   0.4979779   0.0013734  )
        17        C      tau(  17) = (   0.1250869   0.6243147   0.1250807  )
        18        C      tau(  18) = (   0.0014462   0.7520697   0.2483230  )
        19        C      tau(  19) = (   0.1266755   0.8769178   0.3741906  )
        20        C      tau(  20) = (   0.2488290   0.4983596   0.2486760  )
        21        C      tau(  21) = (   0.3741642   0.6242659   0.3742111  )
        22        C      tau(  22) = (   0.2480673   0.7520817   0.0015447  )
        23        C      tau(  23) = (   0.3729914   0.8777475   0.1265606  )
        24        C      tau(  24) = (   0.0000493   0.5010760   0.5011299  )
        25        C      tau(  25) = (   0.1252054   0.6262200   0.6252733  )
        26        C      tau(  26) = (   0.9993969   0.7487112   0.7492532  )
        27        C      tau(  27) = (   0.1217927   0.8768349   0.8763928  )
        28        C      tau(  28) = (   0.2492749   0.5017254   0.7482724  )
        29        C      tau(  29) = (   0.3741000   0.6263042   0.8750769  )
        30        C      tau(  30) = (   0.2487293   0.7486845   0.5007616  )
        31        C      tau(  31) = (   0.3739266   0.8750581   0.6258828  )
        32        C      tau(  32) = (   0.4987543   0.0011228   0.0002828  )
        33        C      tau(  33) = (   0.6248203   0.1251003   0.1251034  )
        34        C      tau(  34) = (   0.4991217   0.2493918   0.2488717  )
        35        C      tau(  35) = (   0.6243080   0.3746888   0.3747831  )
        36        C      tau(  36) = (   0.7516460   0.0016191   0.2487956  )
        37        C      tau(  37) = (   0.8750430   0.1283649   0.3757598  )
        38        C      tau(  38) = (   0.7517475   0.2480080   0.0019610  )
        39        C      tau(  39) = (   0.8773622   0.3724247   0.1282033  )
        40        C      tau(  40) = (   0.5008161   0.9999897   0.5008301  )
        41        C      tau(  41) = (   0.6256173   0.1249721   0.6252590  )
        42        C      tau(  42) = (   0.5022259   0.2488088   0.7478265  )
        43        C      tau(  43) = (   0.6264784   0.3739683   0.8752045  )
        44        C      tau(  44) = (   0.7487945   0.9989046   0.7489691  )
        45        C      tau(  45) = (   0.8764746   0.1216998   0.8763156  )
        46        C      tau(  46) = (   0.7479635   0.2486819   0.5018806  )
        47        C      tau(  47) = (   0.8751980   0.3739245   0.6263738  )
        48        C      tau(  48) = (   0.5012000   0.5011574   0.0001136  )
        49        C      tau(  49) = (   0.6256259   0.6262099   0.1252968  )
        50        C      tau(  50) = (   0.5005188   0.7489091   0.2490095  )
        51        C      tau(  51) = (   0.6258050   0.8750157   0.3740056  )
        52        C      tau(  52) = (   0.7471468   0.5011458   0.2494302  )
        53        C      tau(  53) = (   0.8750247   0.6261269   0.3741365  )
        54        C      tau(  54) = (   0.7492281   0.7488562   0.9996087  )
        55        C      tau(  55) = (   0.8766209   0.8769033   0.1218021  )
        56        C      tau(  56) = (   0.4990819   0.4992903   0.4990317  )
        57        C      tau(  57) = (   0.6247789   0.6244471   0.6249452  )
        58        C      tau(  58) = (   0.4991767   0.7499842   0.7500845  )
        59        C      tau(  59) = (   0.6239946   0.8751464   0.8754130  )
        60        C      tau(  60) = (   0.7505316   0.4989321   0.7505826  )
        61        C      tau(  61) = (   0.8758455   0.6234984   0.8759288  )
        62        C      tau(  62) = (   0.7498244   0.7497799   0.4993198  )
        63        C      tau(  63) = (   0.8750855   0.8749084   0.6242568  )

   Crystallographic axes

     site n.     atom                  positions (cryst. coord.)
         1        N      tau(   1) = (  0.9893819  0.9897344  0.9891721  )
         2        C      tau(   2) = (  0.9870277  0.2601210  0.2640728  )
         3        C      tau(   3) = (  0.1231717  0.3731672  0.3742038  )
         4        C      tau(   4) = (  0.2603919  0.9894620  0.2619202  )
         5        C      tau(   5) = (  0.3737632  0.1246771  0.3741571  )
         6        C      tau(   6) = (  0.2640151  0.2616009  0.9853609  )
         7        C      tau(   7) = (  0.3737752  0.3731213  0.1223564  )
         8        C      tau(   8) = (  0.0000049  0.0005840  0.4991361  )
         9        C      tau(   9) = (  0.1251361  0.1251278  0.6250981  )
        10        C      tau(  10) = (  0.0020393  0.2482470  0.7515266  )
        11        C      tau(  11) = (  0.1292009  0.3733021  0.8763303  )
        12        C      tau(  12) = (  0.2487801  0.0017974  0.7514403  )
        13        C      tau(  13) = (  0.3754339  0.1292460  0.8748544  )
        14        C      tau(  14) = (  0.2491579  0.2495268  0.4995755  )
        15        C      tau(  15) = (  0.3750038  0.3749547  0.6244069  )
        16        C      tau(  16) = (  0.0016366  0.4979779  0.0013734  )
        17        C      tau(  17) = (  0.1250869  0.6243147  0.1250807  )
        18        C      tau(  18) = (  0.0014462  0.7520697  0.2483230  )
        19        C      tau(  19) = (  0.1266755  0.8769178  0.3741906  )
        20        C      tau(  20) = (  0.2488290  0.4983596  0.2486760  )
        21        C      tau(  21) = (  0.3741642  0.6242659  0.3742111  )
        22        C      tau(  22) = (  0.2480673  0.7520817  0.0015447  )
        23        C      tau(  23) = (  0.3729914  0.8777475  0.1265606  )
        24        C      tau(  24) = (  0.0000493  0.5010760  0.5011299  )
        25        C      tau(  25) = (  0.1252054  0.6262200  0.6252733  )
        26        C      tau(  26) = (  0.9993969  0.7487112  0.7492532  )
        27        C      tau(  27) = (  0.1217927  0.8768349  0.8763928  )
        28        C      tau(  28) = (  0.2492749  0.5017254  0.7482724  )
        29        C      tau(  29) = (  0.3741000  0.6263042  0.8750769  )
        30        C      tau(  30) = (  0.2487293  0.7486845  0.5007616  )
        31        C      tau(  31) = (  0.3739266  0.8750581  0.6258828  )
        32        C      tau(  32) = (  0.4987543  0.0011228  0.0002828  )
        33        C      tau(  33) = (  0.6248203  0.1251003  0.1251034  )
        34        C      tau(  34) = (  0.4991217  0.2493918  0.2488717  )
        35        C      tau(  35) = (  0.6243080  0.3746888  0.3747831  )
        36        C      tau(  36) = (  0.7516460  0.0016191  0.2487956  )
        37        C      tau(  37) = (  0.8750430  0.1283649  0.3757598  )
        38        C      tau(  38) = (  0.7517475  0.2480080  0.0019610  )
        39        C      tau(  39) = (  0.8773622  0.3724247  0.1282033  )
        40        C      tau(  40) = (  0.5008161  0.9999897  0.5008301  )
        41        C      tau(  41) = (  0.6256173  0.1249721  0.6252590  )
        42        C      tau(  42) = (  0.5022259  0.2488088  0.7478265  )
        43        C      tau(  43) = (  0.6264784  0.3739683  0.8752045  )
        44        C      tau(  44) = (  0.7487945  0.9989046  0.7489691  )
        45        C      tau(  45) = (  0.8764746  0.1216998  0.8763156  )
        46        C      tau(  46) = (  0.7479635  0.2486819  0.5018806  )
        47        C      tau(  47) = (  0.8751980  0.3739245  0.6263738  )
        48        C      tau(  48) = (  0.5012000  0.5011574  0.0001136  )
        49        C      tau(  49) = (  0.6256259  0.6262099  0.1252968  )
        50        C      tau(  50) = (  0.5005188  0.7489091  0.2490095  )
        51        C      tau(  51) = (  0.6258050  0.8750157  0.3740056  )
        52        C      tau(  52) = (  0.7471468  0.5011458  0.2494302  )
        53        C      tau(  53) = (  0.8750247  0.6261269  0.3741365  )
        54        C      tau(  54) = (  0.7492281  0.7488562  0.9996087  )
        55        C      tau(  55) = (  0.8766209  0.8769033  0.1218021  )
        56        C      tau(  56) = (  0.4990819  0.4992903  0.4990317  )
        57        C      tau(  57) = (  0.6247789  0.6244471  0.6249452  )
        58        C      tau(  58) = (  0.4991767  0.7499842  0.7500845  )
        59        C      tau(  59) = (  0.6239946  0.8751464  0.8754130  )
        60        C      tau(  60) = (  0.7505316  0.4989321  0.7505826  )
        61        C      tau(  61) = (  0.8758455  0.6234984  0.8759288  )
        62        C      tau(  62) = (  0.7498244  0.7497799  0.4993198  )
        63        C      tau(  63) = (  0.8750855  0.8749084  0.6242568  )

     number of k points=     1
                       cart. coord. in units 2pi/alat
        k(    1) = (   0.0000000   0.0000000   0.0000000), wk =   1.0000000

                       cryst. coord.
        k(    1) = (   0.0000000   0.0000000   0.0000000), wk =   1.0000000

     Dense  grid:    58461 G-vectors     FFT dimensions: (  64,  64,  64)

     Dynamical RAM for                 wfc:       0.35 MB

     Dynamical RAM for     wfc (w. buffer):       0.35 MB

     Dynamical RAM for           str. fact:       0.04 MB

     Dynamical RAM for           local pot:       0.00 MB

     Dynamical RAM for          nlocal pot:       1.17 MB

     Dynamical RAM for                qrad:       0.65 MB

     Dynamical RAM for          rho,v,vnew:       0.49 MB

     Dynamical RAM for               rhoin:       0.16 MB

     Dynamical RAM for            rho*nmix:       0.60 MB

     Dynamical RAM for           G-vectors:       0.08 MB

     Dynamical RAM for          h,s,v(r/c):       0.53 MB

     Dynamical RAM for          <psi|beta>:       0.58 MB

     Dynamical RAM for                 psi:       0.71 MB

     Dynamical RAM for                hpsi:       0.71 MB

     Dynamical RAM for      wfcinit/wfcrot:       1.24 MB

     Estimated static dynamical RAM per process >       3.37 MB

     Estimated max dynamical RAM per process >       6.49 MB

     Estimated total dynamical RAM >     594.05 MB
     Generating pointlists ...
     new r_m :   0.0854 (alat units)  1.1518 (a.u.) for type    1
     new r_m :   0.0847 (alat units)  1.1416 (a.u.) for type    2

     Initial potential from superposition of free atoms

     starting charge     252.5655, renormalised to     254.0000
     Starting wfcs are random

     total cpu time spent up to now is        1.2 secs

     Self-consistent Calculation

     iteration #  1     ecut=    50.00 Ry     beta= 0.70
     Davidson diagonalization with overlap

---- Real-time Memory Report at c_bands before calling an iterative solver
           158 MiB given to the printing process from OS
             0 MiB allocation reported by mallinfo(arena+hblkhd)
        173319 MiB available memory on the node where the printing process lives
------------------
     ethr =  1.00E-02,  avg # of iterations = 12.0

     total cpu time spent up to now is        1.9 secs

     total energy              =    -723.26528234 Ry
     estimated scf accuracy    <       3.70585435 Ry

     total magnetization       =     2.00 Bohr mag/cell
     absolute magnetization    =     2.00 Bohr mag/cell

     iteration #  2     ecut=    50.00 Ry     beta= 0.70
     Davidson diagonalization with overlap

---- Real-time Memory Report at c_bands before calling an iterative solver
           163 MiB given to the printing process from OS
             0 MiB allocation reported by mallinfo(arena+hblkhd)
        173261 MiB available memory on the node where the printing process lives
------------------
     ethr =  1.46E-03,  avg # of iterations = 12.5

     total cpu time spent up to now is        2.6 secs

     total energy              =    -723.66027533 Ry
     estimated scf accuracy    <       0.45735924 Ry

     total magnetization       =     2.00 Bohr mag/cell
     absolute magnetization    =     2.07 Bohr mag/cell

     iteration #  3     ecut=    50.00 Ry     beta= 0.70
     Davidson diagonalization with overlap

---- Real-time Memory Report at c_bands before calling an iterative solver
           164 MiB given to the printing process from OS
             0 MiB allocation reported by mallinfo(arena+hblkhd)
        173258 MiB available memory on the node where the printing process lives
------------------
     c_bands:  2 eigenvalues not converged
     ethr =  1.80E-04,  avg # of iterations = 20.0

     total cpu time spent up to now is        3.2 secs

     total energy              =    -723.72626898 Ry
     estimated scf accuracy    <       0.86829619 Ry

     total magnetization       =     2.00 Bohr mag/cell
     absolute magnetization    =     2.12 Bohr mag/cell

     iteration #  4     ecut=    50.00 Ry     beta= 0.70
     Davidson diagonalization with overlap

---- Real-time Memory Report at c_bands before calling an iterative solver
           165 MiB given to the printing process from OS
             0 MiB allocation reported by mallinfo(arena+hblkhd)
        173263 MiB available memory on the node where the printing process lives
------------------
     c_bands:  1 eigenvalues not converged
     ethr =  1.80E-04,  avg # of iterations = 20.0

     total cpu time spent up to now is        3.8 secs

     total energy              =    -723.90105047 Ry
     estimated scf accuracy    <       0.00969053 Ry

     total magnetization       =     2.00 Bohr mag/cell
     absolute magnetization    =     2.19 Bohr mag/cell

     iteration #  5     ecut=    50.00 Ry     beta= 0.70
     Davidson diagonalization with overlap

---- Real-time Memory Report at c_bands before calling an iterative solver
           165 MiB given to the printing process from OS
             0 MiB allocation reported by mallinfo(arena+hblkhd)
        173258 MiB available memory on the node where the printing process lives
------------------
     c_bands:  3 eigenvalues not converged
     ethr =  3.82E-06,  avg # of iterations = 20.0

     total cpu time spent up to now is        4.5 secs

     total energy              =    -723.90595112 Ry
     estimated scf accuracy    <       0.00400634 Ry

     total magnetization       =     2.00 Bohr mag/cell
     absolute magnetization    =     2.23 Bohr mag/cell

     iteration #  6     ecut=    50.00 Ry     beta= 0.70
     Davidson diagonalization with overlap

---- Real-time Memory Report at c_bands before calling an iterative solver
           165 MiB given to the printing process from OS
             0 MiB allocation reported by mallinfo(arena+hblkhd)
        173263 MiB available memory on the node where the printing process lives
------------------
     c_bands:  3 eigenvalues not converged
     ethr =  1.58E-06,  avg # of iterations = 20.0

     total cpu time spent up to now is        5.7 secs

     total energy              =    -723.90669626 Ry
     estimated scf accuracy    <       0.00083279 Ry

     total magnetization       =     2.00 Bohr mag/cell
     absolute magnetization    =     2.25 Bohr mag/cell

     iteration #  7     ecut=    50.00 Ry     beta= 0.70
     Davidson diagonalization with overlap

---- Real-time Memory Report at c_bands before calling an iterative solver
           165 MiB given to the printing process from OS
             0 MiB allocation reported by mallinfo(arena+hblkhd)
        173262 MiB available memory on the node where the printing process lives
------------------
     ethr =  3.28E-07,  avg # of iterations = 19.0

     total cpu time spent up to now is        6.2 secs

     total energy              =    -723.90691416 Ry
     estimated scf accuracy    <       0.00011133 Ry

     total magnetization       =     2.00 Bohr mag/cell
     absolute magnetization    =     2.27 Bohr mag/cell

     iteration #  8     ecut=    50.00 Ry     beta= 0.70
     Davidson diagonalization with overlap

---- Real-time Memory Report at c_bands before calling an iterative solver
           165 MiB given to the printing process from OS
             0 MiB allocation reported by mallinfo(arena+hblkhd)
        173253 MiB available memory on the node where the printing process lives
------------------
     c_bands:  1 eigenvalues not converged
     ethr =  4.38E-08,  avg # of iterations = 20.0

     total cpu time spent up to now is        6.8 secs

     total energy              =    -723.90695196 Ry
     estimated scf accuracy    <       0.00002859 Ry

     total magnetization       =     2.00 Bohr mag/cell
     absolute magnetization    =     2.28 Bohr mag/cell

     iteration #  9     ecut=    50.00 Ry     beta= 0.70
     Davidson diagonalization with overlap

---- Real-time Memory Report at c_bands before calling an iterative solver
           166 MiB given to the printing process from OS
             0 MiB allocation reported by mallinfo(arena+hblkhd)
        173261 MiB available memory on the node where the printing process lives
------------------
     c_bands:  1 eigenvalues not converged
     ethr =  1.13E-08,  avg # of iterations = 20.0

     total cpu time spent up to now is        7.3 secs

     total energy              =    -723.90696212 Ry
     estimated scf accuracy    <       0.00000777 Ry

     total magnetization       =     2.00 Bohr mag/cell
     absolute magnetization    =     2.29 Bohr mag/cell

     iteration # 10     ecut=    50.00 Ry     beta= 0.70
     Davidson diagonalization with overlap

---- Real-time Memory Report at c_bands before calling an iterative solver
           166 MiB given to the printing process from OS
             0 MiB allocation reported by mallinfo(arena+hblkhd)
        173249 MiB available memory on the node where the printing process lives
------------------
     c_bands:  2 eigenvalues not converged
     ethr =  3.06E-09,  avg # of iterations = 20.0

     total cpu time spent up to now is        7.9 secs

     total energy              =    -723.90696559 Ry
     estimated scf accuracy    <       0.00000083 Ry

     total magnetization       =     2.00 Bohr mag/cell
     absolute magnetization    =     2.30 Bohr mag/cell

     iteration # 11     ecut=    50.00 Ry     beta= 0.70
     Davidson diagonalization with overlap

---- Real-time Memory Report at c_bands before calling an iterative solver
           166 MiB given to the printing process from OS
             0 MiB allocation reported by mallinfo(arena+hblkhd)
        173261 MiB available memory on the node where the printing process lives
------------------
     c_bands:  1 eigenvalues not converged
     ethr =  3.26E-10,  avg # of iterations = 20.0

     total cpu time spent up to now is        8.6 secs

     total energy              =    -723.90696622 Ry
     estimated scf accuracy    <       0.00000024 Ry

     total magnetization       =     2.00 Bohr mag/cell
     absolute magnetization    =     2.30 Bohr mag/cell

     iteration # 12     ecut=    50.00 Ry     beta= 0.70
     Davidson diagonalization with overlap

---- Real-time Memory Report at c_bands before calling an iterative solver
           166 MiB given to the printing process from OS
             0 MiB allocation reported by mallinfo(arena+hblkhd)
        173258 MiB available memory on the node where the printing process lives
------------------
     ethr =  9.45E-11,  avg # of iterations = 17.5

     total cpu time spent up to now is       11.4 secs

     total energy              =    -723.90696633 Ry
     estimated scf accuracy    <       0.00000010 Ry

     total magnetization       =     2.00 Bohr mag/cell
     absolute magnetization    =     2.30 Bohr mag/cell

     iteration # 13     ecut=    50.00 Ry     beta= 0.70
     Davidson diagonalization with overlap

---- Real-time Memory Report at c_bands before calling an iterative solver
           166 MiB given to the printing process from OS
             0 MiB allocation reported by mallinfo(arena+hblkhd)
        173258 MiB available memory on the node where the printing process lives
------------------
     ethr =  3.83E-11,  avg # of iterations = 18.0

     total cpu time spent up to now is       11.9 secs

     total energy              =    -723.90696638 Ry
     estimated scf accuracy    <       0.00000003 Ry

     total magnetization       =     2.00 Bohr mag/cell
     absolute magnetization    =     2.30 Bohr mag/cell

     iteration # 14     ecut=    50.00 Ry     beta= 0.70
     Davidson diagonalization with overlap

---- Real-time Memory Report at c_bands before calling an iterative solver
           166 MiB given to the printing process from OS
             0 MiB allocation reported by mallinfo(arena+hblkhd)
        173263 MiB available memory on the node where the printing process lives
------------------
     ethr =  1.02E-11,  avg # of iterations = 18.0
 
     Magnetic moment per site  (integrated on atomic sphere of radius R)
     atom   1 (R=0.085)  charge=  2.9143  magn=  0.0042
     atom   2 (R=0.085)  charge=  1.8169  magn=  0.2446
     atom   3 (R=0.085)  charge=  1.7930  magn= -0.0086
     atom   4 (R=0.085)  charge=  1.8051  magn=  0.2457
     atom   5 (R=0.085)  charge=  1.7932  magn= -0.0087
     atom   6 (R=0.085)  charge=  1.8232  magn=  0.2450
     atom   7 (R=0.085)  charge=  1.7934  magn= -0.0087
     atom   8 (R=0.085)  charge=  1.7860  magn=  0.0091
     atom   9 (R=0.085)  charge=  1.7963  magn= -0.0019
     atom  10 (R=0.085)  charge=  1.7834  magn=  0.0060
     atom  11 (R=0.085)  charge=  1.7969  magn= -0.0042
     atom  12 (R=0.085)  charge=  1.7823  magn=  0.0061
     atom  13 (R=0.085)  charge=  1.8040  magn= -0.0039
     atom  14 (R=0.085)  charge=  1.7893  magn=  0.0085
     atom  15 (R=0.085)  charge=  1.7873  magn= -0.0020
     atom  16 (R=0.085)  charge=  1.7819  magn=  0.0089
     atom  17 (R=0.085)  charge=  1.7956  magn= -0.0018
     atom  18 (R=0.085)  charge=  1.7821  magn=  0.0057
     atom  19 (R=0.085)  charge=  1.7952  magn= -0.0035
     atom  20 (R=0.085)  charge=  1.7834  magn=  0.0083
     atom  21 (R=0.085)  charge=  1.7847  magn= -0.0020
     atom  22 (R=0.085)  charge=  1.7829  magn=  0.0057
     atom  23 (R=0.085)  charge=  1.7905  magn= -0.0037
     atom  24 (R=0.085)  charge=  1.7824  magn=  0.0182
     atom  25 (R=0.085)  charge=  1.8067  magn=  0.0094
     atom  26 (R=0.085)  charge=  1.7935  magn=  0.0032
     atom  27 (R=0.085)  charge=  1.7589  magn=  0.0001
     atom  28 (R=0.085)  charge=  1.7896  magn=  0.0221
     atom  29 (R=0.085)  charge=  1.7825  magn= -0.0014
     atom  30 (R=0.085)  charge=  1.7901  magn=  0.0212
     atom  31 (R=0.085)  charge=  1.7823  magn= -0.0013
     atom  32 (R=0.085)  charge=  1.7844  magn=  0.0090
     atom  33 (R=0.085)  charge=  1.7960  magn= -0.0019
     atom  34 (R=0.085)  charge=  1.7869  magn=  0.0085
     atom  35 (R=0.085)  charge=  1.7883  magn= -0.0020
     atom  36 (R=0.085)  charge=  1.7818  magn=  0.0059
     atom  37 (R=0.085)  charge=  1.8033  magn= -0.0036
     atom  38 (R=0.085)  charge=  1.7836  magn=  0.0059
     atom  39 (R=0.085)  charge=  1.7895  magn= -0.0043
     atom  40 (R=0.085)  charge=  1.7835  magn=  0.0181
     atom  41 (R=0.085)  charge=  1.8109  magn=  0.0094
     atom  42 (R=0.085)  charge=  1.7948  magn=  0.0219
     atom  43 (R=0.085)  charge=  1.7820  magn= -0.0013
     atom  44 (R=0.085)  charge=  1.7936  magn=  0.0032
     atom  45 (R=0.085)  charge=  1.7590  magn= -0.0001
     atom  46 (R=0.085)  charge=  1.7947  magn=  0.0214
     atom  47 (R=0.085)  charge=  1.7819  magn= -0.0013
     atom  48 (R=0.085)  charge=  1.7820  magn=  0.0184
     atom  49 (R=0.085)  charge=  1.8062  magn=  0.0093
     atom  50 (R=0.085)  charge=  1.7874  magn=  0.0213
     atom  51 (R=0.085)  charge=  1.7825  magn= -0.0013
     atom  52 (R=0.085)  charge=  1.7866  magn=  0.0222
     atom  53 (R=0.085)  charge=  1.7808  magn= -0.0013
     atom  54 (R=0.085)  charge=  1.7934  magn=  0.0032
     atom  55 (R=0.085)  charge=  1.7588  magn=  0.0001
     atom  56 (R=0.085)  charge=  1.7915  magn=  0.0009
     atom  57 (R=0.085)  charge=  1.7832  magn=  0.0010
     atom  58 (R=0.085)  charge=  1.7914  magn=  0.0018
     atom  59 (R=0.085)  charge=  1.7879  magn= -0.0009
     atom  60 (R=0.085)  charge=  1.7911  magn=  0.0017
     atom  61 (R=0.085)  charge=  1.7854  magn= -0.0009
     atom  62 (R=0.085)  charge=  1.7913  magn=  0.0019
     atom  63 (R=0.085)  charge=  1.7891  magn= -0.0009

     total cpu time spent up to now is       12.5 secs

     End of self-consistent calculation

 ------ SPIN UP ------------


          k = 0.0000 0.0000 0.0000 (  7386 PWs)   bands (ev):

    -8.5508  -6.9236  -6.2861  -6.2722  -6.1930  -6.1552  -5.8809  -4.9131
    -4.1444  -4.1310  -4.1274  -4.0935  -4.0328  -4.0172  -4.0089  -3.9176
    -3.8721  -3.8585  -3.3637  -2.9322  -2.6760  -2.6728  -2.1591  -0.3627
    -0.3537  -0.3269  -0.2813  -0.0765   0.1724   0.1945   0.2795   0.2967
     0.3631   0.6181   0.8350   0.8405   0.9513   0.9750   0.9882   1.0554
     1.0625   1.0644   1.2691   1.2962   3.0722   3.9065   3.9261   4.0681
     4.1881   4.2063   4.2263   4.2749   4.2808   4.2826   4.4212   4.4278
     4.4939   4.4973   4.5692   4.6592   4.6847   4.6893   4.6932   4.7872
     4.7973   4.9245   4.9692   4.9717   5.0503   5.1989   5.2084   5.2977
     5.3562   5.3713   5.3973   5.4020   5.4074   6.0407   6.0475   6.1010
     6.6617   6.6664   6.7261   6.9921   7.0051   7.0403   7.5274   8.3339
     8.3373   8.4081   8.4643   8.4890   8.6878   8.7094   8.7861   8.8301
     8.8466   8.8572   8.8912   8.8994   8.9035   9.2870   9.2891   9.3247
     9.6849   9.7047   9.8979   9.9102   9.9453   9.9567   9.9619   9.9759
     9.9871  10.0266  10.0366  10.0580  10.1281  10.1438  10.2681  10.3221
    10.3381  11.0536  12.2880  12.4162  12.4300  13.9576  14.6910  14.7982
    17.3416  17.3768  17.4118  17.5211  17.5768  17.5777  17.8518  17.9215
    17.9348  18.0321  18.0701  18.3709  18.9938  19.0011  19.0255  20.6926
    20.7956  20.8283  20.8774  20.9422  20.9440  21.0243  21.0301  21.0445

     occupation numbers 
     1.0000   1.0000   1.0000   1.0000   1.0000   1.0000   1.0000   1.0000
     1.0000   1.0000   1.0000   1.0000   1.0000   1.0000   1.0000   1.0000
     1.0000   1.0000   1.0000   1.0000   1.0000   1.0000   1.0000   1.0000
     1.0000   1.0000   1.0000   1.0000   1.0000   1.0000   1.0000   1.0000
     1.0000   1.0000   1.0000   1.0000   1.0000   1.0000   1.0000   1.0000
     1.0000   1.0000   1.0000   1.0000   1.0000   1.0000   1.0000   1.0000
     1.0000   1.0000   1.0000   1.0000   1.0000   1.0000   1.0000   1.0000
     1.0000   1.0000   1.0000   1.0000   1.0000   1.0000   1.0000   1.0000
     1.0000   1.0000   1.0000   1.0000   1.0000   1.0000   1.0000   1.0000
     1.0000   1.0000   1.0000   1.0000   1.0000   1.0000   1.0000   1.0000
     1.0000   1.0000   1.0000   1.0000   1.0000   1.0000   1.0000   1.0000
     1.0000   1.0000   1.0000   1.0000   1.0000   1.0000   1.0000   1.0000
     1.0000   1.0000   1.0000   1.0000   1.0000   1.0000   1.0000   1.0000
     1.0000   1.0000   1.0000   1.0000   1.0000   1.0000   1.0000   1.0000
     1.0000   1.0000   1.0000   1.0000   1.0000   1.0000   1.0000   1.0000
     1.0000   1.0000   1.0000   1.0000   1.0000   1.0000   1.0000   1.0000
     0.0000   0.0000   0.0000   0.0000   0.0000   0.0000   0.0000   0.0000
     0.0000   0.0000   0.0000   0.0000   0.0000   0.0000   0.0000   0.0000
     0.0000   0.0000   0.0000   0.0000   0.0000   0.0000   0.0000   0.0000

 ------ SPIN DOWN ----------


          k = 0.0000 0.0000 0.0000 (  7386 PWs)   bands (ev):

    -8.5254  -6.9092  -6.2638  -6.2492  -6.1479  -6.1131  -5.8438  -4.8963
    -4.1239  -4.1105  -4.0868  -4.0615  -3.9956  -3.9784  -3.9616  -3.9054
    -3.8366  -3.8178  -3.3215  -2.9136  -2.6230  -2.6194  -2.0141  -0.3452
    -0.3356  -0.3052  -0.2643  -0.0111   0.1913   0.2118   0.3171   0.3299
     0.3880   0.6529   0.8472   0.8522   0.9847   1.0040   1.0149   1.0733
     1.0777   1.0810   1.4344   1.4662   3.1858   3.9298   3.9482   4.0942
     4.2222   4.2493   4.2689   4.2893   4.2964   4.3124   4.4681   4.4724
     4.5166   4.5202   4.5930   4.6834   4.7022   4.7071   4.7141   4.8214
     4.8342   4.9380   5.0014   5.0031   5.1315   5.2331   5.2437   5.3214
     5.3702   5.3824   5.4179   5.4554   5.4671   6.1028   6.1066   6.1390
     6.6882   6.6939   6.7604   7.0768   7.0901   7.1002   7.6976   8.3722
     8.3766   8.4450   8.5003   8.5231   8.7218   8.7405   8.8218   8.8750
     8.8860   8.8895   8.9259   8.9301   8.9325   9.3235   9.3262   9.3518
     9.7126   9.7321   9.9230   9.9424   9.9580   9.9708   9.9757   9.9953
    10.0066  10.0622  10.0666  10.0812  10.1556  10.1698  10.3260  10.3766
    10.3925  11.4338  12.5548  12.5693  12.6017  14.4392  16.0156  16.1388
    17.3665  17.3944  17.4290  17.5485  17.6322  17.6344  17.8745  17.9410
    17.9531  18.0721  18.1104  18.4904  19.0428  19.0788  19.1127  20.7431
    20.8098  20.8424  20.8922  20.9591  20.9613  21.0399  21.0578  21.0637

     occupation numbers 
     1.0000   1.0000   1.0000   1.0000   1.0000   1.0000   1.0000   1.0000
     1.0000   1.0000   1.0000   1.0000   1.0000   1.0000   1.0000   1.0000
     1.0000   1.0000   1.0000   1.0000   1.0000   1.0000   1.0000   1.0000
     1.0000   1.0000   1.0000   1.0000   1.0000   1.0000   1.0000   1.0000
     1.0000   1.0000   1.0000   1.0000   1.0000   1.0000   1.0000   1.0000
     1.0000   1.0000   1.0000   1.0000   1.0000   1.0000   1.0000   1.0000
     1.0000   1.0000   1.0000   1.0000   1.0000   1.0000   1.0000   1.0000
     1.0000   1.0000   1.0000   1.0000   1.0000   1.0000   1.0000   1.0000
     1.0000   1.0000   1.0000   1.0000   1.0000   1.0000   1.0000   1.0000
     1.0000   1.0000   1.0000   1.0000   1.0000   1.0000   1.0000   1.0000
     1.0000   1.0000   1.0000   1.0000   1.0000   1.0000   1.0000   1.0000
     1.0000   1.0000   1.0000   1.0000   1.0000   1.0000   1.0000   1.0000
     1.0000   1.0000   1.0000   1.0000   1.0000   1.0000   1.0000   1.0000
     1.0000   1.0000   1.0000   1.0000   1.0000   1.0000   1.0000   1.0000
     1.0000   1.0000   1.0000   1.0000   1.0000   1.0000   1.0000   1.0000
     1.0000   1.0000   1.0000   1.0000   1.0000   1.0000   0.0000   0.0000
     0.0000   0.0000   0.0000   0.0000   0.0000   0.0000   0.0000   0.0000
     0.0000   0.0000   0.0000   0.0000   0.0000   0.0000   0.0000   0.0000
     0.0000   0.0000   0.0000   0.0000   0.0000   0.0000   0.0000   0.0000

     highest occupied, lowest unoccupied level (ev):    14.7982   16.0156

!    total energy              =    -723.90696639 Ry
     estimated scf accuracy    <          5.2E-09 Ry

     The total energy is the sum of the following terms:
     one-electron contribution =     232.27760380 Ry
     hartree contribution      =      70.33909588 Ry
     xc contribution           =    -226.77200371 Ry
     ewald contribution        =    -799.75166236 Ry

     total magnetization       =     2.00 Bohr mag/cell
     absolute magnetization    =     2.30 Bohr mag/cell

     convergence has been achieved in  14 iterations

     Forces acting on atoms (cartesian axes, Ry/au):

     atom    1 type  1   force =    -0.00278868   -0.00391197   -0.00257637
     atom    2 type  2   force =     0.03438955    0.01685870   -0.01286726
     atom    3 type  2   force =    -0.00923491    0.00856890    0.00622961
     atom    4 type  2   force =     0.00873209    0.02478107   -0.00279252
     atom    5 type  2   force =     0.00225615   -0.02128693    0.00154548
     atom    6 type  2   force =    -0.00833355    0.00827891    0.04335700
     atom    7 type  2   force =     0.01025544    0.01204109   -0.00207390
     atom    8 type  2   force =     0.00299037    0.00428926    0.00657892
     atom    9 type  2   force =    -0.00210432   -0.00471867   -0.00300171
     atom   10 type  2   force =     0.00083341    0.00131720    0.00745829
     atom   11 type  2   force =    -0.02873075    0.00583760   -0.00873722
     atom   12 type  2   force =    -0.00008897    0.00388583    0.00337492
     atom   13 type  2   force =    -0.00282859   -0.03992655   -0.00186054
     atom   14 type  2   force =     0.00348277    0.00217453   -0.00439508
     atom   15 type  2   force =    -0.00286734   -0.00125737   -0.00559887
     atom   16 type  2   force =    -0.00045936   -0.00067421   -0.00031583
     atom   17 type  2   force =    -0.00138736    0.00644751    0.00017315
     atom   18 type  2   force =     0.00235120   -0.00082695    0.00064733
     atom   19 type  2   force =    -0.00922677   -0.00320655   -0.00515173
     atom   20 type  2   force =     0.00288681   -0.00434776    0.00353713
     atom   21 type  2   force =    -0.00110876   -0.00413482   -0.00215958
     atom   22 type  2   force =     0.00149822    0.00211455    0.00128171
     atom   23 type  2   force =    -0.00060985   -0.00710896   -0.00161356
     atom   24 type  2   force =     0.00901998    0.00510634    0.00367719
     atom   25 type  2   force =    -0.01239125   -0.01375259   -0.00410976
     atom   26 type  2   force =     0.01486734    0.00614990    0.00166658
     atom   27 type  2   force =    -0.02568068   -0.00863933   -0.00643153
     atom   28 type  2   force =     0.01047782    0.00069590    0.00585390
     atom   29 type  2   force =    -0.00020828   -0.00173532   -0.00134857
     atom   30 type  2   force =     0.00775004    0.00655148    0.00414730
     atom   31 type  2   force =     0.00106336   -0.00157533   -0.00348732
     atom   32 type  2   force =     0.00316786    0.00388586    0.00144378
     atom   33 type  2   force =     0.00062696   -0.00434107   -0.00017210
     atom   34 type  2   force =    -0.00531879    0.00106485    0.00391445
     atom   35 type  2   force =    -0.00893617   -0.00172780   -0.00249034
     atom   36 type  2   force =     0.00058188    0.00434731   -0.00014324
     atom   37 type  2   force =     0.00072769   -0.03269619   -0.00712635
     atom   38 type  2   force =     0.00753608    0.00140767   -0.00060439
     atom   39 type  2   force =    -0.01313491    0.00622849   -0.01280961
     atom   40 type  2   force =     0.00535243    0.01263986    0.00494397
     atom   41 type  2   force =    -0.00753513   -0.01535194   -0.00377980
     atom   42 type  2   force =    -0.00014313    0.01746143    0.00605420
     atom   43 type  2   force =    -0.00083268    0.00075077   -0.00098580
     atom   44 type  2   force =     0.00480091    0.01712394    0.00300603
     atom   45 type  2   force =    -0.00757540   -0.02658831   -0.00672706
     atom   46 type  2   force =     0.00709781    0.01641655    0.00079897
     atom   47 type  2   force =    -0.00114256    0.00129944   -0.00181096
     atom   48 type  2   force =     0.00423467    0.00597692    0.00710449
     atom   49 type  2   force =    -0.01200009   -0.01323853   -0.01129495
     atom   50 type  2   force =     0.00357316    0.00742612    0.00317538
     atom   51 type  2   force =    -0.00387831   -0.00187183    0.00029261
     atom   52 type  2   force =     0.02466261    0.00196694    0.00567594
     atom   53 type  2   force =    -0.00556901   -0.00385770   -0.00122003
     atom   54 type  2   force =     0.00322466    0.00509162    0.01433848
     atom   55 type  2   force =    -0.00706472   -0.00845980   -0.02494077
     atom   56 type  2   force =     0.00416080    0.00429350    0.00537207
     atom   57 type  2   force =    -0.00166757   -0.00064573   -0.00232195
     atom   58 type  2   force =     0.00144638    0.00403559    0.00330524
     atom   59 type  2   force =    -0.00137598   -0.00276990   -0.00363248
     atom   60 type  2   force =     0.00257612    0.00197481    0.00232657
     atom   61 type  2   force =    -0.00332692   -0.00181850   -0.00387473
     atom   62 type  2   force =     0.00464774    0.00483970    0.00148637
     atom   63 type  2   force =    -0.00372154   -0.00285953   -0.00031120
     The non-local contrib.  to forces
     atom    1 type  1   force =    -0.76081757   -0.76455604   -0.75887148
     atom    2 type  2   force =    -0.16522074    0.22088170    0.17798215
     atom    3 type  2   force =     0.05704305    0.08116311    0.07262890
     atom    4 type  2   force =     0.21463845   -0.18834627    0.19767662
     atom    5 type  2   force =     0.07275694    0.04223759    0.07020010
     atom    6 type  2   force =     0.17956567    0.20427331   -0.14635024
     atom    7 type  2   force =     0.07753065    0.08320906    0.06438184
     atom    8 type  2   force =    -0.00434866   -0.00456085    0.05664979
     atom    9 type  2   force =    -0.00556967   -0.00779612    0.01319045
     atom   10 type  2   force =    -0.04436147   -0.01404412   -0.01168108
     atom   11 type  2   force =    -0.10406490    0.06766272   -0.08292460
     atom   12 type  2   force =    -0.01729070   -0.04103687   -0.01461320
     atom   13 type  2   force =     0.05210891   -0.11649515   -0.07334115
     atom   14 type  2   force =     0.00284249    0.00042281    0.04564585
     atom   15 type  2   force =     0.00993887    0.00901179   -0.00351544
     atom   16 type  2   force =    -0.01325942    0.04858960   -0.01257277
     atom   17 type  2   force =    -0.00444454    0.02733452   -0.00325993
     atom   18 type  2   force =    -0.04157377   -0.02257108   -0.01575749
     atom   19 type  2   force =    -0.08120077   -0.07922032    0.05517270
     atom   20 type  2   force =     0.00465289    0.04480057    0.00505638
     atom   21 type  2   force =     0.01092093   -0.00321646    0.01112228
     atom   22 type  2   force =    -0.01433265   -0.02017950   -0.04254183
     atom   23 type  2   force =     0.06332743   -0.08428883   -0.07268635
     atom   24 type  2   force =    -0.06532018    0.03314738    0.03355951
     atom   25 type  2   force =    -0.02456506    0.00014818    0.01352542
     atom   26 type  2   force =    -0.04179746   -0.02080298   -0.02349628
     atom   27 type  2   force =    -0.14708580    0.12515341    0.12340863
     atom   28 type  2   force =     0.07975058    0.02351819   -0.01263526
     atom   29 type  2   force =     0.00046284    0.01846112    0.00467828
     atom   30 type  2   force =     0.07682650   -0.01322174    0.02892291
     atom   31 type  2   force =     0.00327646    0.00325498    0.01662083
     atom   32 type  2   force =     0.05285693   -0.00670906   -0.00731457
     atom   33 type  2   force =     0.01803054   -0.00738593   -0.00356134
     atom   34 type  2   force =     0.04408611    0.00058822    0.00376663
     atom   35 type  2   force =    -0.00706385    0.00824525    0.01087605
     atom   36 type  2   force =    -0.01839550   -0.04031710   -0.01791304
     atom   37 type  2   force =    -0.07196381   -0.10861906    0.04804722
     atom   38 type  2   force =    -0.01418337   -0.01454609   -0.04626845
     atom   39 type  2   force =    -0.09003064    0.07184723   -0.08787763
     atom   40 type  2   force =     0.03505107   -0.05841793    0.03560704
     atom   41 type  2   force =     0.00917339   -0.02587441    0.01370868
     atom   42 type  2   force =     0.02097896    0.08875573   -0.00980614
     atom   43 type  2   force =     0.01698213    0.00041271    0.00376822
     atom   44 type  2   force =    -0.02306659   -0.03700985   -0.02348012
     atom   45 type  2   force =     0.12514341   -0.14810527    0.12373001
     atom   46 type  2   force =    -0.01029255    0.08805124    0.02197311
     atom   47 type  2   force =     0.00311846    0.00103656    0.01610811
     atom   48 type  2   force =     0.03280651    0.03306535   -0.06884422
     atom   49 type  2   force =     0.00481869    0.00043461   -0.02321048
     atom   50 type  2   force =     0.02902932   -0.01404476    0.07157847
     atom   51 type  2   force =     0.01680937    0.00372112    0.00311279
     atom   52 type  2   force =     0.00720615    0.02694842    0.07363179
     atom   53 type  2   force =     0.00126181    0.01727487    0.00097177
     atom   54 type  2   force =    -0.02309968   -0.02161285   -0.04285132
     atom   55 type  2   force =     0.12317235    0.12435627   -0.14664465
     atom   56 type  2   force =     0.02209780    0.02421348    0.02271267
     atom   57 type  2   force =     0.00500186    0.00478232    0.00544362
     atom   58 type  2   force =     0.01619520   -0.00631421   -0.00993140
     atom   59 type  2   force =     0.00813897   -0.01476066   -0.01498052
     atom   60 type  2   force =    -0.01030105    0.01830634   -0.01148695
     atom   61 type  2   force =    -0.01508580    0.00890484   -0.01531384
     atom   62 type  2   force =    -0.00879692   -0.00485856    0.01628076
     atom   63 type  2   force =    -0.01547990   -0.01455627    0.00898620
     The ionic contribution  to forces
     atom    1 type  1   force =     2.98345889    2.95386280    2.99854694
     atom    2 type  2   force =     2.40777442   -2.05027114   -2.21590851
     atom    3 type  2   force =     0.47322310   -0.72768394   -0.85487003
     atom    4 type  2   force =    -2.09231070    2.33356883   -2.15746041
     atom    5 type  2   force =    -0.78090471    0.39985131   -0.82568400
     atom    6 type  2   force =    -2.18956943   -2.09837930    2.45984566
     atom    7 type  2   force =    -0.83154451   -0.75151481    0.53461572
     atom    8 type  2   force =     0.25665383    0.21500684   -0.72773745
     atom    9 type  2   force =     0.06483050    0.02685551   -0.22460132
     atom   10 type  2   force =     0.17980275    0.07175074    0.56563420
     atom   11 type  2   force =    -0.53020287   -0.62676631    0.80436844
     atom   12 type  2   force =     0.02739094    0.16050526    0.55056908
     atom   13 type  2   force =    -0.66417319   -0.56675020    0.76082865
     atom   14 type  2   force =    -0.19724140   -0.18008629   -0.71482427
     atom   15 type  2   force =    -0.17100652   -0.13117033   -0.06700795
     atom   16 type  2   force =     0.19561194   -0.77481192    0.23352184
     atom   17 type  2   force =     0.06367942   -0.15845801    0.09614330
     atom   18 type  2   force =     0.21869128    0.46110145    0.00231480
     atom   19 type  2   force =    -0.36410550    0.74717435   -0.70730362
     atom   20 type  2   force =    -0.18985868   -0.73042069   -0.19038144
     atom   21 type  2   force =    -0.18216357   -0.05543247   -0.19775218
     atom   22 type  2   force =     0.02460317    0.47835388    0.23722159
     atom   23 type  2   force =    -0.69070366    0.77945580   -0.33212431
     atom   24 type  2   force =     0.10178977   -0.13652546   -0.17865411
     atom   25 type  2   force =    -0.02789813   -0.07984925   -0.07151646
     atom   26 type  2   force =     0.13005300   -0.09448726   -0.04911996
     atom   27 type  2   force =     1.13952734    0.24340533    0.25060011
     atom   28 type  2   force =    -0.08420011   -0.13591103    0.11288390
     atom   29 type  2   force =    -0.15668342    0.03177108    0.25575981
     atom   30 type  2   force =    -0.02282895    0.13817097   -0.23477664
     atom   31 type  2   force =    -0.15414855    0.17326721   -0.00789632
     atom   32 type  2   force =    -0.74369543    0.19522224    0.26151721
     atom   33 type  2   force =    -0.19990902    0.02730592    0.09040613
     atom   34 type  2   force =    -0.72195422   -0.18432746   -0.19935637
     atom   35 type  2   force =    -0.06398008   -0.15937127   -0.17271240
     atom   36 type  2   force =     0.51792468    0.17501904    0.00306470
     atom   37 type  2   force =     0.73853376   -0.49763423   -0.69319584
     atom   38 type  2   force =     0.54453885    0.07131309    0.20901258
     atom   39 type  2   force =     0.80587028   -0.61216708   -0.40698218
     atom   40 type  2   force =    -0.19681987    0.06227148   -0.20913294
     atom   41 type  2   force =    -0.06941369   -0.08827791   -0.06797287
     atom   42 type  2   force =    -0.13126274    0.02621935    0.08913661
     atom   43 type  2   force =     0.03514773   -0.11506750    0.25159420
     atom   44 type  2   force =    -0.07052565    0.12274667   -0.05430720
     atom   45 type  2   force =     0.24493933    1.15980270    0.24869024
     atom   46 type  2   force =     0.10508656    0.05058621   -0.16991693
     atom   47 type  2   force =     0.22554402   -0.11339130    0.01421834
     atom   48 type  2   force =    -0.13608203   -0.11081305    0.12923604
     atom   49 type  2   force =    -0.07520498   -0.05518932   -0.01879805
     atom   50 type  2   force =    -0.24098665    0.16149472   -0.08292858
     atom   51 type  2   force =    -0.00751967    0.17684089   -0.17940653
     atom   52 type  2   force =     0.20642898   -0.17865847   -0.11883963
     atom   53 type  2   force =     0.22634358   -0.01188914   -0.20740215
     atom   54 type  2   force =    -0.05776801   -0.09073878    0.13898877
     atom   55 type  2   force =     0.24694412    0.24032393    1.13295870
     atom   56 type  2   force =    -0.09536740   -0.03017017   -0.11636259
     atom   57 type  2   force =    -0.02035181   -0.03358987   -0.01702849
     atom   58 type  2   force =    -0.07685717    0.04875021    0.04013018
     atom   59 type  2   force =    -0.28370070    0.07747672    0.15341047
     atom   60 type  2   force =     0.06295486   -0.03585800    0.05894063
     atom   61 type  2   force =     0.13352798   -0.30382390    0.16134758
     atom   62 type  2   force =     0.03559038    0.03684746   -0.09941718
     atom   63 type  2   force =     0.12447749    0.07316387   -0.27412750
     The local contribution  to forces
     atom    1 type  1   force =    -2.22548454   -2.19322882   -2.24230636
     atom    2 type  2   force =    -2.20822938    1.84622479    2.02500758
     atom    3 type  2   force =    -0.53959308    0.65503429    0.78840915
     atom    4 type  2   force =     1.88632355   -2.12046384    1.95694235
     atom    5 type  2   force =     0.71030881   -0.46339824    0.75698818
     atom    6 type  2   force =     2.00158595    1.90236299   -2.27019877
     atom    7 type  2   force =     0.76417008    0.68030936   -0.60114113
     atom    8 type  2   force =    -0.24937076   -0.20616216    0.67761646
     atom    9 type  2   force =    -0.06142548   -0.02379402    0.20835444
     atom   10 type  2   force =    -0.13465688   -0.05642149   -0.54654766
     atom   11 type  2   force =     0.60548123    0.56489942   -0.73022670
     atom   12 type  2   force =    -0.01026202   -0.11560719   -0.53263212
     atom   13 type  2   force =     0.60914359    0.64329725   -0.68940635
     atom   14 type  2   force =     0.19778760    0.18180701    0.66473853
     atom   15 type  2   force =     0.15809772    0.12085503    0.06489079
     atom   16 type  2   force =    -0.18286784    0.72548539   -0.22130882
     atom   17 type  2   force =    -0.06068516    0.13750152   -0.09276842
     atom   18 type  2   force =    -0.17482136   -0.43941203    0.01402994
     atom   19 type  2   force =     0.43601755   -0.67119188    0.64693310
     atom   20 type  2   force =     0.18799945    0.68121606    0.18880286
     atom   21 type  2   force =     0.17003386    0.05446636    0.18441734
     atom   22 type  2   force =    -0.00884130   -0.45611185   -0.19346236
     atom   23 type  2   force =     0.62668389   -0.70231925    0.40312800
     atom   24 type  2   force =    -0.02750327    0.10841363    0.14870983
     atom   25 type  2   force =     0.04001430    0.06588907    0.05383492
     atom   26 type  2   force =    -0.07344572    0.12139451    0.07423783
     atom   27 type  2   force =    -1.01818550   -0.37722933   -0.38049384
     atom   28 type  2   force =     0.01485446    0.11303392   -0.09444005
     atom   29 type  2   force =     0.15592454   -0.05202426   -0.26183733
     atom   30 type  2   force =    -0.04631949   -0.11844729    0.20995911
     atom   31 type  2   force =     0.15184502   -0.17812969   -0.01225537
     atom   32 type  2   force =     0.69391376   -0.18465985   -0.25282414
     atom   33 type  2   force =     0.18242242   -0.02428175   -0.08707444
     atom   34 type  2   force =     0.67246304    0.18477375    0.19944566
     atom   35 type  2   force =     0.06203668    0.14934591    0.15928526
     atom   36 type  2   force =    -0.49901980   -0.13035977    0.01464297
     atom   37 type  2   force =    -0.66589331    0.57356526    0.63795567
     atom   38 type  2   force =    -0.52289016   -0.05538989   -0.16338763
     atom   39 type  2   force =    -0.72902445    0.54649196    0.48201695
     atom   40 type  2   force =     0.16701984    0.00876089    0.17843170
     atom   41 type  2   force =     0.05260751    0.09877093    0.05043648
     atom   42 type  2   force =     0.11003140   -0.09754518   -0.07332271
     atom   43 type  2   force =    -0.05306685    0.11536935   -0.25639326
     atom   44 type  2   force =     0.09830756   -0.06864591    0.08074870
     atom   45 type  2   force =    -0.37771767   -1.03831532   -0.37918823
     atom   46 type  2   force =    -0.08776125   -0.12225097    0.14867505
     atom   47 type  2   force =    -0.22985887    0.11360668   -0.03220506
     atom   48 type  2   force =     0.10740989    0.08367921   -0.05335150
     atom   49 type  2   force =     0.05829005    0.04146010    0.03064060
     atom   50 type  2   force =     0.21542642   -0.14007241    0.01446147
     atom   51 type  2   force =    -0.01327074   -0.18245966    0.17653567
     atom   52 type  2   force =    -0.18903785    0.15360233    0.05082394
     atom   53 type  2   force =    -0.23322865   -0.00932236    0.20515351
     atom   54 type  2   force =     0.08400287    0.11739615   -0.08186639
     atom   55 type  2   force =    -0.37724627   -0.37316283   -1.01132390
     atom   56 type  2   force =     0.07732922    0.01020005    0.09898011
     atom   57 type  2   force =     0.01358459    0.02811375    0.00923021
     atom   58 type  2   force =     0.06201164   -0.03844515   -0.02693361
     atom   59 type  2   force =     0.27409005   -0.06552601   -0.14211395
     atom   60 type  2   force =    -0.05016254    0.01948523   -0.04516989
     atom   61 type  2   force =    -0.12183927    0.29305137   -0.14995645
     atom   62 type  2   force =    -0.02222856   -0.02719589    0.08458780
     atom   63 type  2   force =    -0.11278590   -0.06149792    0.26479462
     The core correction contribution to forces
     atom    1 type  1   force =     0.00000000    0.00000000    0.00000000
     atom    2 type  2   force =     0.00000000    0.00000000    0.00000000
     atom    3 type  2   force =     0.00000000    0.00000000    0.00000000
     atom    4 type  2   force =     0.00000000    0.00000000    0.00000000
     atom    5 type  2   force =     0.00000000    0.00000000    0.00000000
     atom    6 type  2   force =     0.00000000    0.00000000    0.00000000
     atom    7 type  2   force =     0.00000000    0.00000000    0.00000000
     atom    8 type  2   force =     0.00000000    0.00000000    0.00000000
     atom    9 type  2   force =     0.00000000    0.00000000    0.00000000
     atom   10 type  2   force =     0.00000000    0.00000000    0.00000000
     atom   11 type  2   force =     0.00000000    0.00000000    0.00000000
     atom   12 type  2   force =     0.00000000    0.00000000    0.00000000
     atom   13 type  2   force =     0.00000000    0.00000000    0.00000000
     atom   14 type  2   force =     0.00000000    0.00000000    0.00000000
     atom   15 type  2   force =     0.00000000    0.00000000    0.00000000
     atom   16 type  2   force =     0.00000000    0.00000000    0.00000000
     atom   17 type  2   force =     0.00000000    0.00000000    0.00000000
     atom   18 type  2   force =     0.00000000    0.00000000    0.00000000
     atom   19 type  2   force =     0.00000000    0.00000000    0.00000000
     atom   20 type  2   force =     0.00000000    0.00000000    0.00000000
     atom   21 type  2   force =     0.00000000    0.00000000    0.00000000
     atom   22 type  2   force =     0.00000000    0.00000000    0.00000000
     atom   23 type  2   force =     0.00000000    0.00000000    0.00000000
     atom   24 type  2   force =     0.00000000    0.00000000    0.00000000
     atom   25 type  2   force =     0.00000000    0.00000000    0.00000000
     atom   26 type  2   force =     0.00000000    0.00000000    0.00000000
     atom   27 type  2   force =     0.00000000    0.00000000    0.00000000
     atom   28 type  2   force =     0.00000000    0.00000000    0.00000000
     atom   29 type  2   force =     0.00000000    0.00000000    0.00000000
     atom   30 type  2   force =     0.00000000    0.00000000    0.00000000
     atom   31 type  2   force =     0.00000000    0.00000000    0.00000000
     atom   32 type  2   force =     0.00000000    0.00000000    0.00000000
     atom   33 type  2   force =     0.00000000    0.00000000    0.00000000
     atom   34 type  2   force =     0.00000000    0.00000000    0.00000000
     atom   35 type  2   force =     0.00000000    0.00000000    0.00000000
     atom   36 type  2   force =     0.00000000    0.00000000    0.00000000
     atom   37 type  2   force =     0.00000000    0.00000000    0.00000000
     atom   38 type  2   force =     0.00000000    0.00000000    0.00000000
     atom   39 type  2   force =     0.00000000    0.00000000    0.00000000
     atom   40 type  2   force =     0.00000000    0.00000000    0.00000000
     atom   41 type  2   force =     0.00000000    0.00000000    0.00000000
     atom   42 type  2   force =     0.00000000    0.00000000    0.00000000
     atom   43 type  2   force =     0.00000000    0.00000000    0.00000000
     atom   44 type  2   force =     0.00000000    0.00000000    0.00000000
     atom   45 type  2   force =     0.00000000    0.00000000    0.00000000
     atom   46 type  2   force =     0.00000000    0.00000000    0.00000000
     atom   47 type  2   force =     0.00000000    0.00000000    0.00000000
     atom   48 type  2   force =     0.00000000    0.00000000    0.00000000
     atom   49 type  2   force =     0.00000000    0.00000000    0.00000000
     atom   50 type  2   force =     0.00000000    0.00000000    0.00000000
     atom   51 type  2   force =     0.00000000    0.00000000    0.00000000
     atom   52 type  2   force =     0.00000000    0.00000000    0.00000000
     atom   53 type  2   force =     0.00000000    0.00000000    0.00000000
     atom   54 type  2   force =     0.00000000    0.00000000    0.00000000
     atom   55 type  2   force =     0.00000000    0.00000000    0.00000000
     atom   56 type  2   force =     0.00000000    0.00000000    0.00000000
     atom   57 type  2   force =     0.00000000    0.00000000    0.00000000
     atom   58 type  2   force =     0.00000000    0.00000000    0.00000000
     atom   59 type  2   force =     0.00000000    0.00000000    0.00000000
     atom   60 type  2   force =     0.00000000    0.00000000    0.00000000
     atom   61 type  2   force =     0.00000000    0.00000000    0.00000000
     atom   62 type  2   force =     0.00000000    0.00000000    0.00000000
     atom   63 type  2   force =     0.00000000    0.00000000    0.00000000
     The Hubbard contrib.    to forces
     atom    1 type  1   force =     0.00000000    0.00000000    0.00000000
     atom    2 type  2   force =     0.00000000    0.00000000    0.00000000
     atom    3 type  2   force =     0.00000000    0.00000000    0.00000000
     atom    4 type  2   force =     0.00000000    0.00000000    0.00000000
     atom    5 type  2   force =     0.00000000    0.00000000    0.00000000
     atom    6 type  2   force =     0.00000000    0.00000000    0.00000000
     atom    7 type  2   force =     0.00000000    0.00000000    0.00000000
     atom    8 type  2   force =     0.00000000    0.00000000    0.00000000
     atom    9 type  2   force =     0.00000000    0.00000000    0.00000000
     atom   10 type  2   force =     0.00000000    0.00000000    0.00000000
     atom   11 type  2   force =     0.00000000    0.00000000    0.00000000
     atom   12 type  2   force =     0.00000000    0.00000000    0.00000000
     atom   13 type  2   force =     0.00000000    0.00000000    0.00000000
     atom   14 type  2   force =     0.00000000    0.00000000    0.00000000
     atom   15 type  2   force =     0.00000000    0.00000000    0.00000000
     atom   16 type  2   force =     0.00000000    0.00000000    0.00000000
     atom   17 type  2   force =     0.00000000    0.00000000    0.00000000
     atom   18 type  2   force =     0.00000000    0.00000000    0.00000000
     atom   19 type  2   force =     0.00000000    0.00000000    0.00000000
     atom   20 type  2   force =     0.00000000    0.00000000    0.00000000
     atom   21 type  2   force =     0.00000000    0.00000000    0.00000000
     atom   22 type  2   force =     0.00000000    0.00000000    0.00000000
     atom   23 type  2   force =     0.00000000    0.00000000    0.00000000
     atom   24 type  2   force =     0.00000000    0.00000000    0.00000000
     atom   25 type  2   force =     0.00000000    0.00000000    0.00000000
     atom   26 type  2   force =     0.00000000    0.00000000    0.00000000
     atom   27 type  2   force =     0.00000000    0.00000000    0.00000000
     atom   28 type  2   force =     0.00000000    0.00000000    0.00000000
     atom   29 type  2   force =     0.00000000    0.00000000    0.00000000
     atom   30 type  2   force =     0.00000000    0.00000000    0.00000000
     atom   31 type  2   force =     0.00000000    0.00000000    0.00000000
     atom   32 type  2   force =     0.00000000    0.00000000    0.00000000
     atom   33 type  2   force =     0.00000000    0.00000000    0.00000000
     atom   34 type  2   force =     0.00000000    0.00000000    0.00000000
     atom   35 type  2   force =     0.00000000    0.00000000    0.00000000
     atom   36 type  2   force =     0.00000000    0.00000000    0.00000000
     atom   37 type  2   force =     0.00000000    0.00000000    0.00000000
     atom   38 type  2   force =     0.00000000    0.00000000    0.00000000
     atom   39 type  2   force =     0.00000000    0.00000000    0.00000000
     atom   40 type  2   force =     0.00000000    0.00000000    0.00000000
     atom   41 type  2   force =     0.00000000    0.00000000    0.00000000
     atom   42 type  2   force =     0.00000000    0.00000000    0.00000000
     atom   43 type  2   force =     0.00000000    0.00000000    0.00000000
     atom   44 type  2   force =     0.00000000    0.00000000    0.00000000
     atom   45 type  2   force =     0.00000000    0.00000000    0.00000000
     atom   46 type  2   force =     0.00000000    0.00000000    0.00000000
     atom   47 type  2   force =     0.00000000    0.00000000    0.00000000
     atom   48 type  2   force =     0.00000000    0.00000000    0.00000000
     atom   49 type  2   force =     0.00000000    0.00000000    0.00000000
     atom   50 type  2   force =     0.00000000    0.00000000    0.00000000
     atom   51 type  2   force =     0.00000000    0.00000000    0.00000000
     atom   52 type  2   force =     0.00000000    0.00000000    0.00000000
     atom   53 type  2   force =     0.00000000    0.00000000    0.00000000
     atom   54 type  2   force =     0.00000000    0.00000000    0.00000000
     atom   55 type  2   force =     0.00000000    0.00000000    0.00000000
     atom   56 type  2   force =     0.00000000    0.00000000    0.00000000
     atom   57 type  2   force =     0.00000000    0.00000000    0.00000000
     atom   58 type  2   force =     0.00000000    0.00000000    0.00000000
     atom   59 type  2   force =     0.00000000    0.00000000    0.00000000
     atom   60 type  2   force =     0.00000000    0.00000000    0.00000000
     atom   61 type  2   force =     0.00000000    0.00000000    0.00000000
     atom   62 type  2   force =     0.00000000    0.00000000    0.00000000
     atom   63 type  2   force =     0.00000000    0.00000000    0.00000000
     The SCF correction term to forces
     atom    1 type  1   force =    -0.00002388   -0.00002844    0.00000221
     atom    2 type  2   force =    -0.00001317   -0.00001518   -0.00000082
     atom    3 type  2   force =     0.00001360    0.00001690    0.00000927
     atom    4 type  2   force =     0.00000238   -0.00001618   -0.00000340
     atom    5 type  2   force =     0.00001668   -0.00001613   -0.00001113
     atom    6 type  2   force =     0.00000584   -0.00001663    0.00000803
     atom    7 type  2   force =     0.00002080   -0.00000104    0.00001734
     atom    8 type  2   force =    -0.00002246   -0.00003309   -0.00000221
     atom    9 type  2   force =    -0.00001809   -0.00002257    0.00000240
     atom   10 type  2   force =    -0.00002941   -0.00000645    0.00000050
     atom   11 type  2   force =    -0.00002264    0.00000324   -0.00000668
     atom   12 type  2   force =    -0.00000561   -0.00001391   -0.00000116
     atom   13 type  2   force =     0.00001368   -0.00001698    0.00000598
     atom   14 type  2   force =     0.00001567   -0.00000754   -0.00000752
     atom   15 type  2   force =     0.00002416    0.00000761   -0.00001860
     atom   16 type  2   force =    -0.00002246    0.00002419   -0.00000840
     atom   17 type  2   force =    -0.00001551    0.00003094    0.00000587
     atom   18 type  2   force =    -0.00002338    0.00001618    0.00000775
     atom   19 type  2   force =    -0.00001647   -0.00000723   -0.00000623
     atom   20 type  2   force =     0.00001471    0.00001776    0.00000700
     atom   21 type  2   force =     0.00002158    0.00000921    0.00000066
     atom   22 type  2   force =    -0.00000942    0.00001349    0.00001199
     atom   23 type  2   force =     0.00000407    0.00000479    0.00001677
     atom   24 type  2   force =    -0.00002476    0.00003226    0.00000964
     atom   25 type  2   force =    -0.00002078    0.00002088   -0.00000596
     atom   26 type  2   force =    -0.00002091    0.00000710   -0.00000735
     atom   27 type  2   force =    -0.00001515   -0.00000726    0.00000123
     atom   28 type  2   force =    -0.00000553    0.00001630   -0.00000702
     atom   29 type  2   force =     0.00000933    0.00001821   -0.00000166
     atom   30 type  2   force =    -0.00000645    0.00001101   -0.00001040
     atom   31 type  2   force =     0.00001200   -0.00000636   -0.00000879
     atom   32 type  2   force =     0.00001417   -0.00000601    0.00001295
     atom   33 type  2   force =     0.00000460   -0.00001784    0.00000522
     atom   34 type  2   force =     0.00000786   -0.00000819    0.00000620
     atom   35 type  2   force =    -0.00000734    0.00001378    0.00000842
     atom   36 type  2   force =    -0.00000593   -0.00003339    0.00000980
     atom   37 type  2   force =    -0.00002738   -0.00004670    0.00001428
     atom   38 type  2   force =    -0.00000766   -0.00000796   -0.00001321
     atom   39 type  2   force =    -0.00002852    0.00001785   -0.00001908
     atom   40 type  2   force =     0.00002297   -0.00001311   -0.00001416
     atom   41 type  2   force =     0.00001924   -0.00000909   -0.00000442
     atom   42 type  2   force =     0.00003083   -0.00000700   -0.00000589
     atom   43 type  2   force =     0.00002589   -0.00000233   -0.00000729
     atom   44 type  2   force =     0.00000716   -0.00000549   -0.00000767
     atom   45 type  2   force =    -0.00001889   -0.00000895   -0.00001141
     atom   46 type  2   force =    -0.00001338   -0.00000845    0.00001542
     atom   47 type  2   force =    -0.00002460    0.00000898    0.00001532
     atom   48 type  2   force =     0.00002187    0.00000689    0.00001184
     atom   49 type  2   force =     0.00001772    0.00001756    0.00002066
     atom   50 type  2   force =     0.00002565    0.00001005    0.00001170
     atom   51 type  2   force =     0.00002431   -0.00001271   -0.00000164
     atom   52 type  2   force =    -0.00001309    0.00003613    0.00000752
     atom   53 type  2   force =    -0.00002417    0.00004041    0.00000452
     atom   54 type  2   force =     0.00001105    0.00000857    0.00001509
     atom   55 type  2   force =    -0.00001334   -0.00001570    0.00001675
     atom   56 type  2   force =     0.00002276    0.00001161   -0.00001044
     atom   57 type  2   force =     0.00001937    0.00000955   -0.00001963
     atom   58 type  2   force =     0.00001829    0.00000621   -0.00001225
     atom   59 type  2   force =     0.00001728    0.00000152   -0.00000081
     atom   60 type  2   force =     0.00000643    0.00000270   -0.00000955
     atom   61 type  2   force =    -0.00000826    0.00001065   -0.00000435
     atom   62 type  2   force =     0.00000442    0.00000815   -0.00001733
     atom   63 type  2   force =    -0.00001166   -0.00000773   -0.00001685

     Total force =     0.129789     Total SCF correction =     0.000213

     Writing all to output data dir ./pwscf.save/ :
     XML data file, charge density, pseudopotentials, collected wavefunctions
 
     init_run     :      0.65s CPU      0.75s WALL (       1 calls)
     electrons    :     12.68s CPU     13.03s WALL (       1 calls)
     forces       :      0.05s CPU      0.05s WALL (       1 calls)

     Called by init_run:
     wfcinit      :      0.05s CPU      0.06s WALL (       1 calls)
     wfcinit:wfcr :      0.05s CPU      0.05s WALL (       1 calls)
     potinit      :      0.46s CPU      0.53s WALL (       1 calls)
     hinit0       :      0.04s CPU      0.06s WALL (       1 calls)

     Called by electrons:
     c_bands      :      9.93s CPU     10.08s WALL (      14 calls)
     sum_band     :      0.21s CPU      0.22s WALL (      14 calls)
     v_of_rho     :      0.58s CPU      0.65s WALL (      15 calls)
     v_h          :      0.00s CPU      0.00s WALL (      15 calls)
     v_xc         :      0.57s CPU      0.64s WALL (      15 calls)
     mix_rho      :      0.17s CPU      0.17s WALL (      14 calls)

     Called by c_bands:
     init_us_2    :      0.02s CPU      0.02s WALL (      30 calls)
     regterg      :      6.60s CPU      6.74s WALL (      14 calls)

     Called by sum_band:
     sum_band:wei :      0.01s CPU      0.02s WALL (      14 calls)
     sum_band:loo :      0.17s CPU      0.17s WALL (      14 calls)
     sum_band:buf :      0.00s CPU      0.00s WALL (      14 calls)
     sum_band:ini :      0.01s CPU      0.01s WALL (      14 calls)

     Called by *egterg:
     rdiaghg      :      4.08s CPU      4.19s WALL (     272 calls)
     regterg:over :      0.21s CPU      0.22s WALL (     258 calls)
     regterg:upda :      0.11s CPU      0.11s WALL (     258 calls)
     regterg:last :      0.35s CPU      0.36s WALL (      52 calls)
     rdiaghg:chol :      0.14s CPU      0.14s WALL (     272 calls)
     rdiaghg:inve :      0.03s CPU      0.03s WALL (     272 calls)
     rdiaghg:para :      0.37s CPU      0.39s WALL (     544 calls)
     h_psi        :      1.82s CPU      1.85s WALL (     273 calls)
     g_psi        :      0.00s CPU      0.00s WALL (     258 calls)

     Called by h_psi:
     h_psi:calbec :      0.29s CPU      0.30s WALL (     273 calls)
     vloc_psi     :      1.41s CPU      1.44s WALL (     273 calls)
                                        0.00s GPU  (     273 calls)
     add_vuspsi   :      0.11s CPU      0.11s WALL (     273 calls)

     General routines
     calbec       :      0.31s CPU      0.31s WALL (     277 calls)
     fft          :      0.43s CPU      0.51s WALL (     196 calls)
     ffts         :      0.00s CPU      0.00s WALL (      14 calls)
     fftw         :      1.47s CPU      1.50s WALL (   10096 calls)
 
     Parallel routines
 
     PWSCF        :     15.97s CPU     16.67s WALL

 
   This run was terminated on:  17: 1: 4  16Nov2025            

=------------------------------------------------------------------------------=
   JOB DONE.
=------------------------------------------------------------------------------=
