
     Program PWSCF v.7.5 starts on 16Nov2025 at 15:41:41 

     This program is part of the open-source Quantum ESPRESSO suite
     for quantum simulation of materials; please cite
         "P. Giannozzi et al., J. Phys.:Condens. Matter 21 395502 (2009);
         "P. Giannozzi et al., J. Phys.:Condens. Matter 29 465901 (2017);
         "P. Giannozzi et al., J. Chem. Phys. 152 154105 (2020);
          URL http://www.quantum-espresso.org", 
     in publications or presentations arising from this work. More details at
     http://www.quantum-espresso.org/quote

     Parallel version (MPI), running on    96 processors

     MPI processes distributed on     2 nodes
     174997 MiB available memory on the printing compute node when the environment starts
 
     Reading input from supercell-057.in

     Current dimensions of program PWSCF are:
     Max number of different atomic species (ntypx) = 10
     Max number of k-points (npk) =  40000
     Max angular momentum in pseudopotentials (lmaxx) =  4

     gamma-point specific algorithms are used
 
     K-points division:     npool     =       2
     R & G space division:  proc/nbgrp/npool/nimage =      48
     Subspace diagonalization in iterative solution of the eigenvalue problem:
     one sub-group per band group will be used
     scalapack distributed-memory algorithm (size of sub-group:  2*  2 procs)

 
     Parallelization info
     --------------------
     sticks:   dense  smooth     PW     G-vecs:    dense   smooth      PW
     Min          59      59     14                 2432     2432     302
     Max          62      62     16                 2442     2442     316
     Sum        2885    2885    725               116921   116921   14771
 
     Using Slab Decomposition
 


     bravais-lattice index     =            0
     lattice parameter (alat)  =      13.4813  a.u.
     unit-cell volume          =    2450.1683 (a.u.)^3
     number of atoms/cell      =           63
     number of atomic types    =            2
     number of electrons       =       254.00 (up: 128.00, down: 126.00)
     number of Kohn-Sham states=          152
     kinetic-energy cutoff     =      50.0000  Ry
     charge density cutoff     =     200.0000  Ry
     scf convergence threshold =      1.0E-08
     mixing beta               =       0.7000
     number of iterations used =            8  plain     mixing
     Exchange-correlation= PBE
                           (   1   4   3   4   0   0   0)

     celldm(1)=  13.481306  celldm(2)=   0.000000  celldm(3)=   0.000000
     celldm(4)=   0.000000  celldm(5)=   0.000000  celldm(6)=   0.000000

     crystal axes: (cart. coord. in units of alat)
               a(1) = (   1.000000   0.000000   0.000000 )  
               a(2) = (   0.000000   1.000000   0.000000 )  
               a(3) = (   0.000000   0.000000   1.000000 )  

     reciprocal axes: (cart. coord. in units 2 pi/alat)
               b(1) = (  1.000000  0.000000  0.000000 )  
               b(2) = (  0.000000  1.000000  0.000000 )  
               b(3) = (  0.000000  0.000000  1.000000 )  


     PseudoPot. # 1 for N  read from file:
     ./N_ONCV_PBE-1.2.upf
     MD5 check sum: 5312fdf34e96954e02a33bdc911c617a
     Pseudo is Norm-conserving, Zval =  5.0
     Generated using ONCVPSP code by D. R. Hamann
     Using radial grid of  602 points,  4 beta functions with: 
                l(1) =   0
                l(2) =   0
                l(3) =   1
                l(4) =   1

     PseudoPot. # 2 for C  read from file:
     ./C_ONCV_PBE-1.2.upf
     MD5 check sum: d60b57d9bdca4133f5fde4b584ee909d
     Pseudo is Norm-conserving, Zval =  4.0
     Generated using ONCVPSP code by D. R. Hamann
     Using radial grid of  602 points,  4 beta functions with: 
                l(1) =   0
                l(2) =   0
                l(3) =   1
                l(4) =   1

     atomic species   valence    mass     pseudopotential
     N                 5.00    14.00670     N ( 1.00)
     C                 4.00    12.01070     C ( 1.00)

     Starting magnetic structure 
     atomic species   magnetization
     N               0.000
     C               0.000

     No symmetry found


                                    s                        frac. trans.

      isym =  1     identity                                     

 cryst.   s( 1) = (     1          0          0      )
                  (     0          1          0      )
                  (     0          0          1      )

 cart.    s( 1) = (  1.0000000  0.0000000  0.0000000 )
                  (  0.0000000  1.0000000  0.0000000 )
                  (  0.0000000  0.0000000  1.0000000 )


   Cartesian axes

     site n.     atom                  positions (alat units)
         1        N      tau(   1) = (   0.9893819   0.9897344   0.9891721  )
         2        C      tau(   2) = (   0.9870277   0.2601210   0.2640728  )
         3        C      tau(   3) = (   0.1231717   0.3731672   0.3742038  )
         4        C      tau(   4) = (   0.2603919   0.9894620   0.2619202  )
         5        C      tau(   5) = (   0.3737632   0.1246771   0.3741571  )
         6        C      tau(   6) = (   0.2640151   0.2616009   0.9853609  )
         7        C      tau(   7) = (   0.3737752   0.3731213   0.1223564  )
         8        C      tau(   8) = (   0.0000049   0.0005840   0.4991361  )
         9        C      tau(   9) = (   0.1251361   0.1251278   0.6250981  )
        10        C      tau(  10) = (   0.0020393   0.2497305   0.7515266  )
        11        C      tau(  11) = (   0.1292009   0.3733021   0.8763303  )
        12        C      tau(  12) = (   0.2487801   0.0017974   0.7514403  )
        13        C      tau(  13) = (   0.3754339   0.1292460   0.8748544  )
        14        C      tau(  14) = (   0.2491579   0.2495268   0.4995755  )
        15        C      tau(  15) = (   0.3750038   0.3749547   0.6244069  )
        16        C      tau(  16) = (   0.0016366   0.4979779   0.0013734  )
        17        C      tau(  17) = (   0.1250869   0.6243147   0.1250807  )
        18        C      tau(  18) = (   0.0014462   0.7520697   0.2483230  )
        19        C      tau(  19) = (   0.1266755   0.8769178   0.3741906  )
        20        C      tau(  20) = (   0.2488290   0.4983596   0.2486760  )
        21        C      tau(  21) = (   0.3741642   0.6242659   0.3742111  )
        22        C      tau(  22) = (   0.2480673   0.7520817   0.0015447  )
        23        C      tau(  23) = (   0.3729914   0.8777475   0.1265606  )
        24        C      tau(  24) = (   0.0000493   0.5010760   0.5011299  )
        25        C      tau(  25) = (   0.1252054   0.6262200   0.6252733  )
        26        C      tau(  26) = (   0.9993969   0.7487112   0.7492532  )
        27        C      tau(  27) = (   0.1217927   0.8768349   0.8763928  )
        28        C      tau(  28) = (   0.2492749   0.5017254   0.7482724  )
        29        C      tau(  29) = (   0.3741000   0.6263042   0.8750769  )
        30        C      tau(  30) = (   0.2487293   0.7486845   0.5007616  )
        31        C      tau(  31) = (   0.3739266   0.8750581   0.6258828  )
        32        C      tau(  32) = (   0.4987543   0.0011228   0.0002828  )
        33        C      tau(  33) = (   0.6248203   0.1251003   0.1251034  )
        34        C      tau(  34) = (   0.4991217   0.2493918   0.2488717  )
        35        C      tau(  35) = (   0.6243080   0.3746888   0.3747831  )
        36        C      tau(  36) = (   0.7516460   0.0016191   0.2487956  )
        37        C      tau(  37) = (   0.8750430   0.1283649   0.3757598  )
        38        C      tau(  38) = (   0.7517475   0.2480080   0.0019610  )
        39        C      tau(  39) = (   0.8773622   0.3724247   0.1282033  )
        40        C      tau(  40) = (   0.5008161   0.9999897   0.5008301  )
        41        C      tau(  41) = (   0.6256173   0.1249721   0.6252590  )
        42        C      tau(  42) = (   0.5022259   0.2488088   0.7478265  )
        43        C      tau(  43) = (   0.6264784   0.3739683   0.8752045  )
        44        C      tau(  44) = (   0.7487945   0.9989046   0.7489691  )
        45        C      tau(  45) = (   0.8764746   0.1216998   0.8763156  )
        46        C      tau(  46) = (   0.7479635   0.2486819   0.5018806  )
        47        C      tau(  47) = (   0.8751980   0.3739245   0.6263738  )
        48        C      tau(  48) = (   0.5012000   0.5011574   0.0001136  )
        49        C      tau(  49) = (   0.6256259   0.6262099   0.1252968  )
        50        C      tau(  50) = (   0.5005188   0.7489091   0.2490095  )
        51        C      tau(  51) = (   0.6258050   0.8750157   0.3740056  )
        52        C      tau(  52) = (   0.7486304   0.5011458   0.2494302  )
        53        C      tau(  53) = (   0.8750247   0.6261269   0.3741365  )
        54        C      tau(  54) = (   0.7492281   0.7488562   0.9996087  )
        55        C      tau(  55) = (   0.8766209   0.8769033   0.1218021  )
        56        C      tau(  56) = (   0.4990819   0.4992903   0.4990317  )
        57        C      tau(  57) = (   0.6247789   0.6244471   0.6249452  )
        58        C      tau(  58) = (   0.4991767   0.7499842   0.7500845  )
        59        C      tau(  59) = (   0.6239946   0.8751464   0.8754130  )
        60        C      tau(  60) = (   0.7505316   0.4989321   0.7505826  )
        61        C      tau(  61) = (   0.8758455   0.6234984   0.8759288  )
        62        C      tau(  62) = (   0.7498244   0.7497799   0.4993198  )
        63        C      tau(  63) = (   0.8750855   0.8749084   0.6242568  )

   Crystallographic axes

     site n.     atom                  positions (cryst. coord.)
         1        N      tau(   1) = (  0.9893819  0.9897344  0.9891721  )
         2        C      tau(   2) = (  0.9870277  0.2601210  0.2640728  )
         3        C      tau(   3) = (  0.1231717  0.3731672  0.3742038  )
         4        C      tau(   4) = (  0.2603919  0.9894620  0.2619202  )
         5        C      tau(   5) = (  0.3737632  0.1246771  0.3741571  )
         6        C      tau(   6) = (  0.2640151  0.2616009  0.9853609  )
         7        C      tau(   7) = (  0.3737752  0.3731213  0.1223564  )
         8        C      tau(   8) = (  0.0000049  0.0005840  0.4991361  )
         9        C      tau(   9) = (  0.1251361  0.1251278  0.6250981  )
        10        C      tau(  10) = (  0.0020393  0.2497305  0.7515266  )
        11        C      tau(  11) = (  0.1292009  0.3733021  0.8763303  )
        12        C      tau(  12) = (  0.2487801  0.0017974  0.7514403  )
        13        C      tau(  13) = (  0.3754339  0.1292460  0.8748544  )
        14        C      tau(  14) = (  0.2491579  0.2495268  0.4995755  )
        15        C      tau(  15) = (  0.3750038  0.3749547  0.6244069  )
        16        C      tau(  16) = (  0.0016366  0.4979779  0.0013734  )
        17        C      tau(  17) = (  0.1250869  0.6243147  0.1250807  )
        18        C      tau(  18) = (  0.0014462  0.7520697  0.2483230  )
        19        C      tau(  19) = (  0.1266755  0.8769178  0.3741906  )
        20        C      tau(  20) = (  0.2488290  0.4983596  0.2486760  )
        21        C      tau(  21) = (  0.3741642  0.6242659  0.3742111  )
        22        C      tau(  22) = (  0.2480673  0.7520817  0.0015447  )
        23        C      tau(  23) = (  0.3729914  0.8777475  0.1265606  )
        24        C      tau(  24) = (  0.0000493  0.5010760  0.5011299  )
        25        C      tau(  25) = (  0.1252054  0.6262200  0.6252733  )
        26        C      tau(  26) = (  0.9993969  0.7487112  0.7492532  )
        27        C      tau(  27) = (  0.1217927  0.8768349  0.8763928  )
        28        C      tau(  28) = (  0.2492749  0.5017254  0.7482724  )
        29        C      tau(  29) = (  0.3741000  0.6263042  0.8750769  )
        30        C      tau(  30) = (  0.2487293  0.7486845  0.5007616  )
        31        C      tau(  31) = (  0.3739266  0.8750581  0.6258828  )
        32        C      tau(  32) = (  0.4987543  0.0011228  0.0002828  )
        33        C      tau(  33) = (  0.6248203  0.1251003  0.1251034  )
        34        C      tau(  34) = (  0.4991217  0.2493918  0.2488717  )
        35        C      tau(  35) = (  0.6243080  0.3746888  0.3747831  )
        36        C      tau(  36) = (  0.7516460  0.0016191  0.2487956  )
        37        C      tau(  37) = (  0.8750430  0.1283649  0.3757598  )
        38        C      tau(  38) = (  0.7517475  0.2480080  0.0019610  )
        39        C      tau(  39) = (  0.8773622  0.3724247  0.1282033  )
        40        C      tau(  40) = (  0.5008161  0.9999897  0.5008301  )
        41        C      tau(  41) = (  0.6256173  0.1249721  0.6252590  )
        42        C      tau(  42) = (  0.5022259  0.2488088  0.7478265  )
        43        C      tau(  43) = (  0.6264784  0.3739683  0.8752045  )
        44        C      tau(  44) = (  0.7487945  0.9989046  0.7489691  )
        45        C      tau(  45) = (  0.8764746  0.1216998  0.8763156  )
        46        C      tau(  46) = (  0.7479635  0.2486819  0.5018806  )
        47        C      tau(  47) = (  0.8751980  0.3739245  0.6263738  )
        48        C      tau(  48) = (  0.5012000  0.5011574  0.0001136  )
        49        C      tau(  49) = (  0.6256259  0.6262099  0.1252968  )
        50        C      tau(  50) = (  0.5005188  0.7489091  0.2490095  )
        51        C      tau(  51) = (  0.6258050  0.8750157  0.3740056  )
        52        C      tau(  52) = (  0.7486304  0.5011458  0.2494302  )
        53        C      tau(  53) = (  0.8750247  0.6261269  0.3741365  )
        54        C      tau(  54) = (  0.7492281  0.7488562  0.9996087  )
        55        C      tau(  55) = (  0.8766209  0.8769033  0.1218021  )
        56        C      tau(  56) = (  0.4990819  0.4992903  0.4990317  )
        57        C      tau(  57) = (  0.6247789  0.6244471  0.6249452  )
        58        C      tau(  58) = (  0.4991767  0.7499842  0.7500845  )
        59        C      tau(  59) = (  0.6239946  0.8751464  0.8754130  )
        60        C      tau(  60) = (  0.7505316  0.4989321  0.7505826  )
        61        C      tau(  61) = (  0.8758455  0.6234984  0.8759288  )
        62        C      tau(  62) = (  0.7498244  0.7497799  0.4993198  )
        63        C      tau(  63) = (  0.8750855  0.8749084  0.6242568  )

     number of k points=     1
                       cart. coord. in units 2pi/alat
        k(    1) = (   0.0000000   0.0000000   0.0000000), wk =   1.0000000

                       cryst. coord.
        k(    1) = (   0.0000000   0.0000000   0.0000000), wk =   1.0000000

     Dense  grid:    58461 G-vectors     FFT dimensions: (  64,  64,  64)

     Dynamical RAM for                 wfc:       0.35 MB

     Dynamical RAM for     wfc (w. buffer):       0.35 MB

     Dynamical RAM for           str. fact:       0.04 MB

     Dynamical RAM for           local pot:       0.00 MB

     Dynamical RAM for          nlocal pot:       1.17 MB

     Dynamical RAM for                qrad:       0.65 MB

     Dynamical RAM for          rho,v,vnew:       0.49 MB

     Dynamical RAM for               rhoin:       0.16 MB

     Dynamical RAM for            rho*nmix:       0.60 MB

     Dynamical RAM for           G-vectors:       0.08 MB

     Dynamical RAM for          h,s,v(r/c):       0.53 MB

     Dynamical RAM for          <psi|beta>:       0.58 MB

     Dynamical RAM for                 psi:       0.71 MB

     Dynamical RAM for                hpsi:       0.71 MB

     Dynamical RAM for      wfcinit/wfcrot:       1.24 MB

     Estimated static dynamical RAM per process >       3.37 MB

     Estimated max dynamical RAM per process >       6.49 MB

     Estimated total dynamical RAM >     594.05 MB
     Generating pointlists ...
     new r_m :   0.0854 (alat units)  1.1518 (a.u.) for type    1
     new r_m :   0.0847 (alat units)  1.1416 (a.u.) for type    2

     Initial potential from superposition of free atoms

     starting charge     252.5655, renormalised to     254.0000
     Starting wfcs are random

     total cpu time spent up to now is        1.5 secs

     Self-consistent Calculation

     iteration #  1     ecut=    50.00 Ry     beta= 0.70
     Davidson diagonalization with overlap

---- Real-time Memory Report at c_bands before calling an iterative solver
           160 MiB given to the printing process from OS
             0 MiB allocation reported by mallinfo(arena+hblkhd)
        173981 MiB available memory on the node where the printing process lives
------------------
     ethr =  1.00E-02,  avg # of iterations = 12.0

     total cpu time spent up to now is        3.0 secs

     total energy              =    -723.26710805 Ry
     estimated scf accuracy    <       3.70839361 Ry

     total magnetization       =     2.00 Bohr mag/cell
     absolute magnetization    =     2.00 Bohr mag/cell

     iteration #  2     ecut=    50.00 Ry     beta= 0.70
     Davidson diagonalization with overlap

---- Real-time Memory Report at c_bands before calling an iterative solver
           167 MiB given to the printing process from OS
             0 MiB allocation reported by mallinfo(arena+hblkhd)
        173929 MiB available memory on the node where the printing process lives
------------------
     ethr =  1.46E-03,  avg # of iterations = 12.5

     total cpu time spent up to now is        8.3 secs

     total energy              =    -723.66029360 Ry
     estimated scf accuracy    <       0.45784944 Ry

     total magnetization       =     2.00 Bohr mag/cell
     absolute magnetization    =     2.08 Bohr mag/cell

     iteration #  3     ecut=    50.00 Ry     beta= 0.70
     Davidson diagonalization with overlap

---- Real-time Memory Report at c_bands before calling an iterative solver
           167 MiB given to the printing process from OS
             0 MiB allocation reported by mallinfo(arena+hblkhd)
        173925 MiB available memory on the node where the printing process lives
------------------
     c_bands:  2 eigenvalues not converged
     ethr =  1.80E-04,  avg # of iterations = 20.0

     total cpu time spent up to now is       10.9 secs

     total energy              =    -723.72677776 Ry
     estimated scf accuracy    <       0.86694546 Ry

     total magnetization       =     2.00 Bohr mag/cell
     absolute magnetization    =     2.12 Bohr mag/cell

     iteration #  4     ecut=    50.00 Ry     beta= 0.70
     Davidson diagonalization with overlap

---- Real-time Memory Report at c_bands before calling an iterative solver
           168 MiB given to the printing process from OS
             0 MiB allocation reported by mallinfo(arena+hblkhd)
        173934 MiB available memory on the node where the printing process lives
------------------
     c_bands:  1 eigenvalues not converged
     ethr =  1.80E-04,  avg # of iterations = 20.0

     total cpu time spent up to now is       11.9 secs

     total energy              =    -723.90109881 Ry
     estimated scf accuracy    <       0.00952108 Ry

     total magnetization       =     2.00 Bohr mag/cell
     absolute magnetization    =     2.19 Bohr mag/cell

     iteration #  5     ecut=    50.00 Ry     beta= 0.70
     Davidson diagonalization with overlap

---- Real-time Memory Report at c_bands before calling an iterative solver
           168 MiB given to the printing process from OS
             0 MiB allocation reported by mallinfo(arena+hblkhd)
        173929 MiB available memory on the node where the printing process lives
------------------
     c_bands:  3 eigenvalues not converged
     ethr =  3.75E-06,  avg # of iterations = 20.0

     total cpu time spent up to now is       13.7 secs

     total energy              =    -723.90609816 Ry
     estimated scf accuracy    <       0.00413601 Ry

     total magnetization       =     2.00 Bohr mag/cell
     absolute magnetization    =     2.23 Bohr mag/cell

     iteration #  6     ecut=    50.00 Ry     beta= 0.70
     Davidson diagonalization with overlap

---- Real-time Memory Report at c_bands before calling an iterative solver
           168 MiB given to the printing process from OS
             0 MiB allocation reported by mallinfo(arena+hblkhd)
        173924 MiB available memory on the node where the printing process lives
------------------
     c_bands:  3 eigenvalues not converged
     ethr =  1.63E-06,  avg # of iterations = 20.0

     total cpu time spent up to now is       15.0 secs

     total energy              =    -723.90684505 Ry
     estimated scf accuracy    <       0.00084697 Ry

     total magnetization       =     2.00 Bohr mag/cell
     absolute magnetization    =     2.25 Bohr mag/cell

     iteration #  7     ecut=    50.00 Ry     beta= 0.70
     Davidson diagonalization with overlap

---- Real-time Memory Report at c_bands before calling an iterative solver
           169 MiB given to the printing process from OS
             0 MiB allocation reported by mallinfo(arena+hblkhd)
        173922 MiB available memory on the node where the printing process lives
------------------
     c_bands:  1 eigenvalues not converged
     ethr =  3.33E-07,  avg # of iterations = 20.0

     total cpu time spent up to now is       15.5 secs

     total energy              =    -723.90706649 Ry
     estimated scf accuracy    <       0.00011666 Ry

     total magnetization       =     2.00 Bohr mag/cell
     absolute magnetization    =     2.27 Bohr mag/cell

     iteration #  8     ecut=    50.00 Ry     beta= 0.70
     Davidson diagonalization with overlap

---- Real-time Memory Report at c_bands before calling an iterative solver
           169 MiB given to the printing process from OS
             0 MiB allocation reported by mallinfo(arena+hblkhd)
        173915 MiB available memory on the node where the printing process lives
------------------
     ethr =  4.59E-08,  avg # of iterations = 17.5

     total cpu time spent up to now is       16.0 secs

     total energy              =    -723.90710487 Ry
     estimated scf accuracy    <       0.00002853 Ry

     total magnetization       =     2.00 Bohr mag/cell
     absolute magnetization    =     2.28 Bohr mag/cell

     iteration #  9     ecut=    50.00 Ry     beta= 0.70
     Davidson diagonalization with overlap

---- Real-time Memory Report at c_bands before calling an iterative solver
           169 MiB given to the printing process from OS
             0 MiB allocation reported by mallinfo(arena+hblkhd)
        173922 MiB available memory on the node where the printing process lives
------------------
     c_bands:  2 eigenvalues not converged
     ethr =  1.12E-08,  avg # of iterations = 20.0

     total cpu time spent up to now is       16.6 secs

     total energy              =    -723.90711501 Ry
     estimated scf accuracy    <       0.00000810 Ry

     total magnetization       =     2.00 Bohr mag/cell
     absolute magnetization    =     2.29 Bohr mag/cell

     iteration # 10     ecut=    50.00 Ry     beta= 0.70
     Davidson diagonalization with overlap

---- Real-time Memory Report at c_bands before calling an iterative solver
           169 MiB given to the printing process from OS
             0 MiB allocation reported by mallinfo(arena+hblkhd)
        173909 MiB available memory on the node where the printing process lives
------------------
     c_bands:  3 eigenvalues not converged
     ethr =  3.19E-09,  avg # of iterations = 20.0

     total cpu time spent up to now is       17.2 secs

     total energy              =    -723.90711856 Ry
     estimated scf accuracy    <       0.00000084 Ry

     total magnetization       =     2.00 Bohr mag/cell
     absolute magnetization    =     2.29 Bohr mag/cell

     iteration # 11     ecut=    50.00 Ry     beta= 0.70
     Davidson diagonalization with overlap

---- Real-time Memory Report at c_bands before calling an iterative solver
           169 MiB given to the printing process from OS
             0 MiB allocation reported by mallinfo(arena+hblkhd)
        173926 MiB available memory on the node where the printing process lives
------------------
     c_bands:  1 eigenvalues not converged
     ethr =  3.30E-10,  avg # of iterations = 20.0

     total cpu time spent up to now is       17.8 secs

     total energy              =    -723.90711921 Ry
     estimated scf accuracy    <       0.00000025 Ry

     total magnetization       =     2.00 Bohr mag/cell
     absolute magnetization    =     2.30 Bohr mag/cell

     iteration # 12     ecut=    50.00 Ry     beta= 0.70
     Davidson diagonalization with overlap

---- Real-time Memory Report at c_bands before calling an iterative solver
           169 MiB given to the printing process from OS
             0 MiB allocation reported by mallinfo(arena+hblkhd)
        173924 MiB available memory on the node where the printing process lives
------------------
     c_bands:  1 eigenvalues not converged
     ethr =  9.67E-11,  avg # of iterations = 18.5

     total cpu time spent up to now is       19.5 secs

     total energy              =    -723.90711934 Ry
     estimated scf accuracy    <       0.00000010 Ry

     total magnetization       =     2.00 Bohr mag/cell
     absolute magnetization    =     2.30 Bohr mag/cell

     iteration # 13     ecut=    50.00 Ry     beta= 0.70
     Davidson diagonalization with overlap

---- Real-time Memory Report at c_bands before calling an iterative solver
           169 MiB given to the printing process from OS
             0 MiB allocation reported by mallinfo(arena+hblkhd)
        173921 MiB available memory on the node where the printing process lives
------------------
     ethr =  3.85E-11,  avg # of iterations = 17.5

     total cpu time spent up to now is       21.1 secs

     total energy              =    -723.90711938 Ry
     estimated scf accuracy    <       0.00000003 Ry

     total magnetization       =     2.00 Bohr mag/cell
     absolute magnetization    =     2.30 Bohr mag/cell

     iteration # 14     ecut=    50.00 Ry     beta= 0.70
     Davidson diagonalization with overlap

---- Real-time Memory Report at c_bands before calling an iterative solver
           169 MiB given to the printing process from OS
             0 MiB allocation reported by mallinfo(arena+hblkhd)
        173924 MiB available memory on the node where the printing process lives
------------------
     ethr =  1.04E-11,  avg # of iterations = 18.5
 
     Magnetic moment per site  (integrated on atomic sphere of radius R)
     atom   1 (R=0.085)  charge=  2.9141  magn=  0.0042
     atom   2 (R=0.085)  charge=  1.8170  magn=  0.2450
     atom   3 (R=0.085)  charge=  1.7930  magn= -0.0087
     atom   4 (R=0.085)  charge=  1.8051  magn=  0.2455
     atom   5 (R=0.085)  charge=  1.7932  magn= -0.0087
     atom   6 (R=0.085)  charge=  1.8232  magn=  0.2449
     atom   7 (R=0.085)  charge=  1.7933  magn= -0.0087
     atom   8 (R=0.085)  charge=  1.7859  magn=  0.0090
     atom   9 (R=0.085)  charge=  1.7943  magn= -0.0019
     atom  10 (R=0.085)  charge=  1.7836  magn=  0.0060
     atom  11 (R=0.085)  charge=  1.7988  magn= -0.0042
     atom  12 (R=0.085)  charge=  1.7822  magn=  0.0060
     atom  13 (R=0.085)  charge=  1.8039  magn= -0.0039
     atom  14 (R=0.085)  charge=  1.7893  magn=  0.0085
     atom  15 (R=0.085)  charge=  1.7873  magn= -0.0020
     atom  16 (R=0.085)  charge=  1.7821  magn=  0.0089
     atom  17 (R=0.085)  charge=  1.7956  magn= -0.0018
     atom  18 (R=0.085)  charge=  1.7822  magn=  0.0057
     atom  19 (R=0.085)  charge=  1.7952  magn= -0.0035
     atom  20 (R=0.085)  charge=  1.7834  magn=  0.0083
     atom  21 (R=0.085)  charge=  1.7847  magn= -0.0020
     atom  22 (R=0.085)  charge=  1.7829  magn=  0.0057
     atom  23 (R=0.085)  charge=  1.7905  magn= -0.0037
     atom  24 (R=0.085)  charge=  1.7826  magn=  0.0182
     atom  25 (R=0.085)  charge=  1.8068  magn=  0.0094
     atom  26 (R=0.085)  charge=  1.7935  magn=  0.0032
     atom  27 (R=0.085)  charge=  1.7589  magn=  0.0001
     atom  28 (R=0.085)  charge=  1.7897  magn=  0.0222
     atom  29 (R=0.085)  charge=  1.7825  magn= -0.0014
     atom  30 (R=0.085)  charge=  1.7901  magn=  0.0211
     atom  31 (R=0.085)  charge=  1.7823  magn= -0.0013
     atom  32 (R=0.085)  charge=  1.7844  magn=  0.0090
     atom  33 (R=0.085)  charge=  1.7960  magn= -0.0019
     atom  34 (R=0.085)  charge=  1.7868  magn=  0.0085
     atom  35 (R=0.085)  charge=  1.7864  magn= -0.0020
     atom  36 (R=0.085)  charge=  1.7818  magn=  0.0059
     atom  37 (R=0.085)  charge=  1.8033  magn= -0.0036
     atom  38 (R=0.085)  charge=  1.7836  magn=  0.0058
     atom  39 (R=0.085)  charge=  1.7914  magn= -0.0041
     atom  40 (R=0.085)  charge=  1.7835  magn=  0.0181
     atom  41 (R=0.085)  charge=  1.8109  magn=  0.0094
     atom  42 (R=0.085)  charge=  1.7948  magn=  0.0219
     atom  43 (R=0.085)  charge=  1.7820  magn= -0.0013
     atom  44 (R=0.085)  charge=  1.7935  magn=  0.0032
     atom  45 (R=0.085)  charge=  1.7571  magn= -0.0000
     atom  46 (R=0.085)  charge=  1.7947  magn=  0.0215
     atom  47 (R=0.085)  charge=  1.7838  magn= -0.0013
     atom  48 (R=0.085)  charge=  1.7819  magn=  0.0184
     atom  49 (R=0.085)  charge=  1.8043  magn=  0.0094
     atom  50 (R=0.085)  charge=  1.7873  magn=  0.0212
     atom  51 (R=0.085)  charge=  1.7825  magn= -0.0013
     atom  52 (R=0.085)  charge=  1.7869  magn=  0.0218
     atom  53 (R=0.085)  charge=  1.7826  magn= -0.0013
     atom  54 (R=0.085)  charge=  1.7935  magn=  0.0032
     atom  55 (R=0.085)  charge=  1.7587  magn=  0.0001
     atom  56 (R=0.085)  charge=  1.7914  magn=  0.0009
     atom  57 (R=0.085)  charge=  1.7832  magn=  0.0010
     atom  58 (R=0.085)  charge=  1.7914  magn=  0.0018
     atom  59 (R=0.085)  charge=  1.7879  magn= -0.0009
     atom  60 (R=0.085)  charge=  1.7912  magn=  0.0017
     atom  61 (R=0.085)  charge=  1.7855  magn= -0.0009
     atom  62 (R=0.085)  charge=  1.7913  magn=  0.0019
     atom  63 (R=0.085)  charge=  1.7891  magn= -0.0009

     total cpu time spent up to now is       22.2 secs

     End of self-consistent calculation

 ------ SPIN UP ------------


          k = 0.0000 0.0000 0.0000 (  7386 PWs)   bands (ev):

    -8.5502  -6.9206  -6.2849  -6.2694  -6.1941  -6.1615  -5.8806  -4.9118
    -4.1432  -4.1293  -4.1190  -4.0926  -4.0319  -4.0215  -4.0133  -3.9187
    -3.8744  -3.8623  -3.3599  -2.9320  -2.6785  -2.6736  -2.1588  -0.3630
    -0.3485  -0.3259  -0.2836  -0.0758   0.1739   0.1909   0.2805   0.2955
     0.3665   0.6189   0.8369   0.8468   0.9505   0.9744   0.9849   1.0533
     1.0614   1.0659   1.2654   1.2956   3.0734   3.9083   3.9259   4.0702
     4.1908   4.2093   4.2212   4.2751   4.2790   4.2886   4.4187   4.4247
     4.4941   4.5016   4.5651   4.6603   4.6826   4.6892   4.6949   4.7872
     4.7975   4.9217   4.9667   4.9682   5.0477   5.1979   5.2089   5.3019
     5.3586   5.3748   5.3953   5.4042   5.4084   6.0409   6.0490   6.1004
     6.6612   6.6660   6.7267   6.9910   7.0028   7.0401   7.5242   8.3296
     8.3379   8.4125   8.4680   8.4942   8.6883   8.7063   8.7919   8.8304
     8.8395   8.8534   8.8924   8.8990   8.9023   9.2869   9.2957   9.3260
     9.6845   9.7049   9.8972   9.9106   9.9453   9.9624   9.9628   9.9778
     9.9877  10.0265  10.0349  10.0564  10.1238  10.1392  10.2713  10.3233
    10.3304  11.0528  12.2849  12.4246  12.4305  13.9550  14.6905  14.7988
    17.3435  17.3736  17.4096  17.5229  17.5748  17.5838  17.8517  17.9281
    17.9348  18.0333  18.0668  18.3673  18.9905  19.0061  19.0269  20.6941
    20.7911  20.8234  20.8782  20.9466  20.9481  21.0258  21.0323  21.0455

     occupation numbers 
     1.0000   1.0000   1.0000   1.0000   1.0000   1.0000   1.0000   1.0000
     1.0000   1.0000   1.0000   1.0000   1.0000   1.0000   1.0000   1.0000
     1.0000   1.0000   1.0000   1.0000   1.0000   1.0000   1.0000   1.0000
     1.0000   1.0000   1.0000   1.0000   1.0000   1.0000   1.0000   1.0000
     1.0000   1.0000   1.0000   1.0000   1.0000   1.0000   1.0000   1.0000
     1.0000   1.0000   1.0000   1.0000   1.0000   1.0000   1.0000   1.0000
     1.0000   1.0000   1.0000   1.0000   1.0000   1.0000   1.0000   1.0000
     1.0000   1.0000   1.0000   1.0000   1.0000   1.0000   1.0000   1.0000
     1.0000   1.0000   1.0000   1.0000   1.0000   1.0000   1.0000   1.0000
     1.0000   1.0000   1.0000   1.0000   1.0000   1.0000   1.0000   1.0000
     1.0000   1.0000   1.0000   1.0000   1.0000   1.0000   1.0000   1.0000
     1.0000   1.0000   1.0000   1.0000   1.0000   1.0000   1.0000   1.0000
     1.0000   1.0000   1.0000   1.0000   1.0000   1.0000   1.0000   1.0000
     1.0000   1.0000   1.0000   1.0000   1.0000   1.0000   1.0000   1.0000
     1.0000   1.0000   1.0000   1.0000   1.0000   1.0000   1.0000   1.0000
     1.0000   1.0000   1.0000   1.0000   1.0000   1.0000   1.0000   1.0000
     0.0000   0.0000   0.0000   0.0000   0.0000   0.0000   0.0000   0.0000
     0.0000   0.0000   0.0000   0.0000   0.0000   0.0000   0.0000   0.0000
     0.0000   0.0000   0.0000   0.0000   0.0000   0.0000   0.0000   0.0000

 ------ SPIN DOWN ----------


          k = 0.0000 0.0000 0.0000 (  7386 PWs)   bands (ev):

    -8.5248  -6.9062  -6.2627  -6.2458  -6.1496  -6.1193  -5.8434  -4.8951
    -4.1226  -4.1008  -4.0846  -4.0587  -3.9999  -3.9811  -3.9658  -3.9066
    -3.8387  -3.8221  -3.3176  -2.9134  -2.6260  -2.6198  -2.0138  -0.3455
    -0.3303  -0.3045  -0.2663  -0.0105   0.1924   0.2084   0.3180   0.3288
     0.3916   0.6537   0.8491   0.8584   0.9850   1.0044   1.0099   1.0685
     1.0778   1.0830   1.4313   1.4657   3.1873   3.9315   3.9480   4.0963
     4.2263   4.2514   4.2635   4.2897   4.2978   4.3146   4.4679   4.4715
     4.5150   4.5226   4.5889   4.6845   4.7013   4.7054   4.7162   4.8214
     4.8343   4.9350   4.9986   4.9994   5.1289   5.2319   5.2439   5.3259
     5.3734   5.3858   5.4182   5.4532   5.4699   6.1029   6.1085   6.1384
     6.6877   6.6933   6.7610   7.0762   7.0890   7.0982   7.6943   8.3684
     8.3777   8.4496   8.5033   8.5282   8.7222   8.7377   8.8279   8.8734
     8.8815   8.8847   8.9214   8.9323   8.9334   9.3228   9.3323   9.3539
     9.7120   9.7322   9.9294   9.9372   9.9568   9.9762   9.9764   9.9971
    10.0080  10.0607  10.0698  10.0755  10.1516  10.1649  10.3290  10.3779
    10.3849  11.4327  12.5596  12.5728  12.5986  14.4379  16.0161  16.1391
    17.3681  17.3910  17.4265  17.5508  17.6301  17.6410  17.8743  17.9475
    17.9530  18.0734  18.1069  18.4872  19.0495  19.0740  19.1139  20.7444
    20.8051  20.8375  20.8929  20.9645  20.9653  21.0413  21.0607  21.0633

     occupation numbers 
     1.0000   1.0000   1.0000   1.0000   1.0000   1.0000   1.0000   1.0000
     1.0000   1.0000   1.0000   1.0000   1.0000   1.0000   1.0000   1.0000
     1.0000   1.0000   1.0000   1.0000   1.0000   1.0000   1.0000   1.0000
     1.0000   1.0000   1.0000   1.0000   1.0000   1.0000   1.0000   1.0000
     1.0000   1.0000   1.0000   1.0000   1.0000   1.0000   1.0000   1.0000
     1.0000   1.0000   1.0000   1.0000   1.0000   1.0000   1.0000   1.0000
     1.0000   1.0000   1.0000   1.0000   1.0000   1.0000   1.0000   1.0000
     1.0000   1.0000   1.0000   1.0000   1.0000   1.0000   1.0000   1.0000
     1.0000   1.0000   1.0000   1.0000   1.0000   1.0000   1.0000   1.0000
     1.0000   1.0000   1.0000   1.0000   1.0000   1.0000   1.0000   1.0000
     1.0000   1.0000   1.0000   1.0000   1.0000   1.0000   1.0000   1.0000
     1.0000   1.0000   1.0000   1.0000   1.0000   1.0000   1.0000   1.0000
     1.0000   1.0000   1.0000   1.0000   1.0000   1.0000   1.0000   1.0000
     1.0000   1.0000   1.0000   1.0000   1.0000   1.0000   1.0000   1.0000
     1.0000   1.0000   1.0000   1.0000   1.0000   1.0000   1.0000   1.0000
     1.0000   1.0000   1.0000   1.0000   1.0000   1.0000   0.0000   0.0000
     0.0000   0.0000   0.0000   0.0000   0.0000   0.0000   0.0000   0.0000
     0.0000   0.0000   0.0000   0.0000   0.0000   0.0000   0.0000   0.0000
     0.0000   0.0000   0.0000   0.0000   0.0000   0.0000   0.0000   0.0000

     highest occupied, lowest unoccupied level (ev):    14.7988   16.0161

!    total energy              =    -723.90711939 Ry
     estimated scf accuracy    <          5.7E-09 Ry

     The total energy is the sum of the following terms:
     one-electron contribution =     232.28446913 Ry
     hartree contribution      =      70.33606600 Ry
     xc contribution           =    -226.77184253 Ry
     ewald contribution        =    -799.75581199 Ry

     total magnetization       =     2.00 Bohr mag/cell
     absolute magnetization    =     2.30 Bohr mag/cell

     convergence has been achieved in  14 iterations

     Forces acting on atoms (cartesian axes, Ry/au):

     atom    1 type  1   force =    -0.00252629   -0.00340082   -0.00323678
     atom    2 type  2   force =     0.03517149    0.01590410   -0.01260230
     atom    3 type  2   force =    -0.00926618    0.00858133    0.00625372
     atom    4 type  2   force =     0.00879749    0.02479774   -0.00279888
     atom    5 type  2   force =     0.00239331   -0.02109556    0.00153301
     atom    6 type  2   force =    -0.00864283    0.00764603    0.04303762
     atom    7 type  2   force =     0.01012803    0.01212748   -0.00221140
     atom    8 type  2   force =     0.00267321    0.00488477    0.00720988
     atom    9 type  2   force =    -0.00307053   -0.00067263   -0.00196597
     atom   10 type  2   force =     0.00128685   -0.01681576    0.00721925
     atom   11 type  2   force =    -0.02786394    0.00983621   -0.00795700
     atom   12 type  2   force =    -0.00073339    0.00449298    0.00371155
     atom   13 type  2   force =    -0.00280213   -0.03998162   -0.00183564
     atom   14 type  2   force =     0.00378545    0.00150299   -0.00470870
     atom   15 type  2   force =    -0.00284090   -0.00141782   -0.00568020
     atom   16 type  2   force =     0.00048252   -0.00047531   -0.00039719
     atom   17 type  2   force =    -0.00148173    0.00645886    0.00030230
     atom   18 type  2   force =     0.00289323   -0.00020341    0.00097714
     atom   19 type  2   force =    -0.00906525   -0.00308231   -0.00516670
     atom   20 type  2   force =     0.00294358   -0.00433190    0.00354849
     atom   21 type  2   force =    -0.00111837   -0.00409800   -0.00214254
     atom   22 type  2   force =     0.00141891    0.00206935    0.00125135
     atom   23 type  2   force =    -0.00062235   -0.00714657   -0.00169134
     atom   24 type  2   force =     0.00930488    0.00598630    0.00367502
     atom   25 type  2   force =    -0.01237029   -0.01386630   -0.00397222
     atom   26 type  2   force =     0.01487774    0.00617986    0.00168570
     atom   27 type  2   force =    -0.02564231   -0.00861565   -0.00641906
     atom   28 type  2   force =     0.01119109    0.00136136    0.00622501
     atom   29 type  2   force =    -0.00006310   -0.00159346   -0.00138313
     atom   30 type  2   force =     0.00772045    0.00647252    0.00410636
     atom   31 type  2   force =     0.00095899   -0.00153834   -0.00360617
     atom   32 type  2   force =     0.00322505    0.00387571    0.00143852
     atom   33 type  2   force =     0.00045857   -0.00427227   -0.00007085
     atom   34 type  2   force =    -0.00471365    0.00152855    0.00358441
     atom   35 type  2   force =    -0.00490177   -0.00075710   -0.00322199
     atom   36 type  2   force =     0.00058769    0.00434386   -0.00017112
     atom   37 type  2   force =     0.00066665   -0.03270800   -0.00716908
     atom   38 type  2   force =     0.00667778    0.00115180   -0.00001000
     atom   39 type  2   force =    -0.01009408    0.00602357   -0.01380822
     atom   40 type  2   force =     0.00536760    0.01264797    0.00495749
     atom   41 type  2   force =    -0.00743416   -0.01552386   -0.00366865
     atom   42 type  2   force =    -0.00010595    0.01745779    0.00603534
     atom   43 type  2   force =    -0.00085823    0.00068243   -0.00102462
     atom   44 type  2   force =     0.00529625    0.01763118    0.00268887
     atom   45 type  2   force =    -0.00668016   -0.02281744   -0.00723718
     atom   46 type  2   force =     0.00680280    0.01546228    0.00144279
     atom   47 type  2   force =    -0.00197735    0.00517534   -0.00262702
     atom   48 type  2   force =     0.00488488    0.00559583    0.00777016
     atom   49 type  2   force =    -0.00801070   -0.01412750   -0.01012217
     atom   50 type  2   force =     0.00425277    0.00666954    0.00345431
     atom   51 type  2   force =    -0.00393520   -0.00182239    0.00030209
     atom   52 type  2   force =     0.00647079    0.00211653    0.00492877
     atom   53 type  2   force =    -0.00158588   -0.00296067   -0.00046069
     atom   54 type  2   force =     0.00258181    0.00537686    0.01397144
     atom   55 type  2   force =    -0.00720497   -0.00839944   -0.02497113
     atom   56 type  2   force =     0.00475211    0.00463865    0.00475033
     atom   57 type  2   force =    -0.00182601   -0.00060768   -0.00216858
     atom   58 type  2   force =     0.00147582    0.00411150    0.00331912
     atom   59 type  2   force =    -0.00115713   -0.00262625   -0.00364944
     atom   60 type  2   force =     0.00199458    0.00255396    0.00195937
     atom   61 type  2   force =    -0.00334646   -0.00184229   -0.00387867
     atom   62 type  2   force =     0.00406012    0.00443126    0.00115609
     atom   63 type  2   force =    -0.00364118   -0.00297613   -0.00046090
     The non-local contrib.  to forces
     atom    1 type  1   force =    -0.76058601   -0.76290773   -0.75929612
     atom    2 type  2   force =    -0.16471610    0.22048520    0.17811047
     atom    3 type  2   force =     0.05656301    0.08123910    0.07240619
     atom    4 type  2   force =     0.21492435   -0.18843146    0.19771590
     atom    5 type  2   force =     0.07340235    0.04228736    0.06970308
     atom    6 type  2   force =     0.17808672    0.20448557   -0.14725974
     atom    7 type  2   force =     0.07694846    0.08292744    0.06386188
     atom    8 type  2   force =    -0.00440549   -0.00384320    0.05728746
     atom    9 type  2   force =    -0.00644132   -0.00394385    0.01395340
     atom   10 type  2   force =    -0.04353783   -0.03601356   -0.01179709
     atom   11 type  2   force =    -0.10318767    0.07172059   -0.08237323
     atom   12 type  2   force =    -0.01787553   -0.04034976   -0.01461854
     atom   13 type  2   force =     0.05206071   -0.11638245   -0.07324084
     atom   14 type  2   force =     0.00369771    0.00084712    0.04452220
     atom   15 type  2   force =     0.01019560    0.00918063   -0.00362437
     atom   16 type  2   force =    -0.01246706    0.04931121   -0.01274796
     atom   17 type  2   force =    -0.00456743    0.02745898   -0.00294272
     atom   18 type  2   force =    -0.04093099   -0.02181041   -0.01568586
     atom   19 type  2   force =    -0.08116126   -0.07883273    0.05548641
     atom   20 type  2   force =     0.00455540    0.04480686    0.00502867
     atom   21 type  2   force =     0.01074572   -0.00320445    0.01120688
     atom   22 type  2   force =    -0.01452805   -0.02034421   -0.04252208
     atom   23 type  2   force =     0.06344989   -0.08455964   -0.07271976
     atom   24 type  2   force =    -0.06464416    0.03399082    0.03368661
     atom   25 type  2   force =    -0.02449651    0.00006142    0.01383449
     atom   26 type  2   force =    -0.04185183   -0.02083830   -0.02351089
     atom   27 type  2   force =    -0.14707666    0.12499171    0.12343168
     atom   28 type  2   force =     0.08069725    0.02427195   -0.01266404
     atom   29 type  2   force =     0.00091366    0.01857464    0.00497442
     atom   30 type  2   force =     0.07665205   -0.01335691    0.02896329
     atom   31 type  2   force =     0.00300156    0.00340766    0.01663902
     atom   32 type  2   force =     0.05283786   -0.00667292   -0.00725364
     atom   33 type  2   force =     0.01771264   -0.00751641   -0.00326599
     atom   34 type  2   force =     0.04482181    0.00146424    0.00381182
     atom   35 type  2   force =    -0.00308672    0.00864650    0.01086255
     atom   36 type  2   force =    -0.01831843   -0.04037573   -0.01785263
     atom   37 type  2   force =    -0.07190218   -0.10846517    0.04789870
     atom   38 type  2   force =    -0.01462547   -0.01312333   -0.04428009
     atom   39 type  2   force =    -0.08662909    0.07149566   -0.08743822
     atom   40 type  2   force =     0.03510302   -0.05853183    0.03559583
     atom   41 type  2   force =     0.00905520   -0.02614380    0.01391737
     atom   42 type  2   force =     0.02101306    0.08885968   -0.00980514
     atom   43 type  2   force =     0.01709685    0.00036329    0.00372736
     atom   44 type  2   force =    -0.02199023   -0.03628320   -0.02334978
     atom   45 type  2   force =     0.12637077   -0.14448465    0.12418108
     atom   46 type  2   force =    -0.00879082    0.08743567    0.02418079
     atom   47 type  2   force =     0.00257731    0.00487606    0.01543314
     atom   48 type  2   force =     0.03353470    0.03306024   -0.06830349
     atom   49 type  2   force =     0.00851121    0.00001519   -0.02288225
     atom   50 type  2   force =     0.02969940   -0.01460908    0.07141109
     atom   51 type  2   force =     0.01702365    0.00367439    0.00331948
     atom   52 type  2   force =    -0.01423221    0.02647149    0.07308805
     atom   53 type  2   force =     0.00471399    0.01805019    0.00137079
     atom   54 type  2   force =    -0.02265102   -0.02082129   -0.04396314
     atom   55 type  2   force =     0.12344090    0.12472761   -0.14677307
     atom   56 type  2   force =     0.02290446    0.02404226    0.02198702
     atom   57 type  2   force =     0.00485563    0.00516264    0.00528022
     atom   58 type  2   force =     0.01616338   -0.00607262   -0.01000341
     atom   59 type  2   force =     0.00814420   -0.01412754   -0.01548014
     atom   60 type  2   force =    -0.01087841    0.01901394   -0.01145282
     atom   61 type  2   force =    -0.01484105    0.00856353   -0.01547237
     atom   62 type  2   force =    -0.00836164   -0.00607639    0.01517897
     atom   63 type  2   force =    -0.01584257   -0.01524085    0.00843341
     The ionic contribution  to forces
     atom    1 type  1   force =     2.98407181    2.96049290    2.98729934
     atom    2 type  2   force =     2.41233211   -2.06248656   -2.21535710
     atom    3 type  2   force =     0.48168099   -0.73232052   -0.85487577
     atom    4 type  2   force =    -2.09075080    2.33378927   -2.15736601
     atom    5 type  2   force =    -0.77926703    0.39992079   -0.82568322
     atom    6 type  2   force =    -2.18615110   -2.10365355    2.46042294
     atom    7 type  2   force =    -0.82350904   -0.75016636    0.53762117
     atom    8 type  2   force =     0.25688209    0.21915932   -0.71887348
     atom    9 type  2   force =     0.04041744    0.02732179   -0.19802563
     atom   10 type  2   force =     0.17865187   -0.00157460    0.56388086
     atom   11 type  2   force =    -0.50251598   -0.62664245    0.82822309
     atom   12 type  2   force =     0.01990627    0.16494291    0.55057217
     atom   13 type  2   force =    -0.66553240   -0.56866286    0.76026296
     atom   14 type  2   force =    -0.19423395   -0.18545112   -0.71485534
     atom   15 type  2   force =    -0.16635537   -0.13278133   -0.06920802
     atom   16 type  2   force =     0.20009926   -0.77061713    0.23369215
     atom   17 type  2   force =     0.07183896   -0.15387638    0.09494609
     atom   18 type  2   force =     0.22303086    0.47131495    0.00227796
     atom   19 type  2   force =    -0.36242781    0.75045178   -0.70561313
     atom   20 type  2   force =    -0.18022546   -0.73028678   -0.19035208
     atom   21 type  2   force =    -0.17408955   -0.05679450   -0.20062321
     atom   22 type  2   force =     0.02759077    0.48139901    0.23719160
     atom   23 type  2   force =    -0.68892609    0.77937157   -0.33200724
     atom   24 type  2   force =     0.10599230   -0.13219038   -0.17872789
     atom   25 type  2   force =    -0.02335310   -0.07175274   -0.07277906
     atom   26 type  2   force =     0.13020891   -0.08485710   -0.04911828
     atom   27 type  2   force =     1.13815096    0.25160341    0.24763974
     atom   28 type  2   force =    -0.07374466   -0.13138406    0.11277327
     atom   29 type  2   force =    -0.15331169    0.03347663    0.25747669
     atom   30 type  2   force =    -0.01980745    0.14119529   -0.23478831
     atom   31 type  2   force =    -0.15427712    0.17509183   -0.00773441
     atom   32 type  2   force =    -0.74359999    0.19533741    0.26151565
     atom   33 type  2   force =    -0.20159105    0.02860464    0.09083641
     atom   34 type  2   force =    -0.71776394   -0.17729432   -0.19933775
     atom   35 type  2   force =    -0.06403696   -0.13498679   -0.19846269
     atom   36 type  2   force =     0.51577193    0.17512742    0.00303701
     atom   37 type  2   force =     0.73736271   -0.50239090   -0.68982910
     atom   38 type  2   force =     0.53924929    0.06586033    0.20885217
     atom   39 type  2   force =     0.80719384   -0.64003236   -0.42878695
     atom   40 type  2   force =    -0.19672746    0.06238606   -0.20913379
     atom   41 type  2   force =    -0.06814535   -0.08993378   -0.06752434
     atom   42 type  2   force =    -0.13117404    0.02406522    0.08912055
     atom   43 type  2   force =     0.03046518   -0.11625603    0.25496099
     atom   44 type  2   force =    -0.06364746    0.12688559   -0.05422410
     atom   45 type  2   force =     0.26915156    1.16094303    0.22304813
     atom   46 type  2   force =     0.09991149    0.04536059   -0.16990460
     atom   47 type  2   force =     0.19816734   -0.11355782   -0.00835447
     atom   48 type  2   force =    -0.13179570   -0.11065108    0.13837240
     atom   49 type  2   force =    -0.07515388   -0.08034790    0.00764667
     atom   50 type  2   force =    -0.23660429    0.15407979   -0.08291384
     atom   51 type  2   force =    -0.00938827    0.17547197   -0.18000313
     atom   52 type  2   force =     0.13833297   -0.17692010   -0.12159325
     atom   53 type  2   force =     0.22754628    0.01567833   -0.18318724
     atom   54 type  2   force =    -0.06319963   -0.08769499    0.13894392
     atom   55 type  2   force =     0.24544294    0.24496228    1.13071596
     atom   56 type  2   force =    -0.09102800   -0.02996805   -0.12536117
     atom   57 type  2   force =    -0.02370552   -0.03238125   -0.01997449
     atom   58 type  2   force =    -0.07673291    0.05029581    0.04013686
     atom   59 type  2   force =    -0.28364800    0.07909996    0.15342310
     atom   60 type  2   force =     0.05196811   -0.03162804    0.05890876
     atom   61 type  2   force =     0.12894185   -0.29523444    0.16124775
     atom   62 type  2   force =     0.03020221    0.03987615   -0.09934328
     atom   63 type  2   force =     0.12585876    0.08121022   -0.27112401
     The local contribution  to forces
     atom    1 type  1   force =    -2.22606708   -2.20098723   -2.23129161
     atom    2 type  2   force =    -2.21251111    1.85789264    2.02458983
     atom    3 type  2   force =    -0.54760722    0.65961891    0.78866162
     atom    4 type  2   force =     1.88453513   -2.12057606    1.95680000
     atom    5 type  2   force =     0.70815765   -0.46331458    0.75747179
     atom    6 type  2   force =     1.99932878    1.90680361   -2.27018672
     atom    7 type  2   force =     0.75658284    0.67934008   -0.60376494
     atom    8 type  2   force =    -0.24986045   -0.21042862    0.66874418
     atom    9 type  2   force =    -0.03711105   -0.02405368    0.18205447
     atom   10 type  2   force =    -0.13387684    0.02075318   -0.54491350
     atom   11 type  2   force =     0.57777922    0.56472670   -0.75385192
     atom   12 type  2   force =    -0.00284376   -0.12011507   -0.53228977
     atom   13 type  2   force =     0.61057065    0.64505434   -0.68891498
     atom   14 type  2   force =     0.19422251    0.18608985    0.66558167
     atom   15 type  2   force =     0.15321148    0.12214918    0.06712027
     atom   16 type  2   force =    -0.18720652    0.72077600   -0.22138612
     atom   17 type  2   force =    -0.06882098    0.13281446   -0.09175985
     atom   18 type  2   force =    -0.17926190   -0.44975641    0.01432255
     atom   19 type  2   force =     0.43445749   -0.67472817    0.64491129
     atom   20 type  2   force =     0.17851449    0.68110181    0.18881191
     atom   21 type  2   force =     0.16212004    0.05585973    0.18722173
     atom   22 type  2   force =    -0.01172108   -0.45903218   -0.19348089
     atom   23 type  2   force =     0.62476418   -0.70199637    0.40296672
     atom   24 type  2   force =    -0.03209886    0.10412406    0.14865601
     atom   25 type  2   force =     0.03541724    0.05776968    0.05492672
     atom   26 type  2   force =    -0.07353877    0.11183309    0.07427279
     atom   27 type  2   force =    -1.01678653   -0.38523463   -0.37753922
     atom   28 type  2   force =     0.00415985    0.10842569   -0.09392834
     atom   29 type  2   force =     0.15224108   -0.05369705   -0.26388529
     atom   30 type  2   force =    -0.04920150   -0.12141209    0.20988822
     atom   31 type  2   force =     0.15213934   -0.18006584   -0.01255407
     atom   32 type  2   force =     0.69389176   -0.18481259   -0.25288850
     atom   33 type  2   force =     0.18425688   -0.02537043   -0.08770003
     atom   34 type  2   force =     0.66814010    0.17734114    0.19905188
     atom   35 type  2   force =     0.06215179    0.12554380    0.18431878
     atom   36 type  2   force =    -0.49693445   -0.13040454    0.01457992
     atom   37 type  2   force =    -0.66484341    0.57816737    0.63469145
     atom   38 type  2   force =    -0.51801306   -0.05160479   -0.16462158
     atom   39 type  2   force =    -0.73070712    0.57451338    0.50238256
     atom   40 type  2   force =     0.16688821    0.00877575    0.17845721
     atom   41 type  2   force =     0.05155826    0.10053727    0.04989197
     atom   42 type  2   force =     0.10994270   -0.09548419   -0.07332539
     atom   43 type  2   force =    -0.04852359    0.11654973   -0.25975855
     atom   44 type  2   force =     0.09085068   -0.07299540    0.08022141
     atom   45 type  2   force =    -0.40225910   -1.03929438   -0.35450269
     atom   46 type  2   force =    -0.08438189   -0.11734931    0.14709915
     atom   47 type  2   force =    -0.20277512    0.11382231   -0.00977208
     atom   48 type  2   force =     0.10304253    0.08314913   -0.06236434
     atom   49 type  2   force =     0.05853693    0.06615464    0.00504158
     atom   50 type  2   force =     0.21105005   -0.13284480    0.01489433
     atom   51 type  2   force =    -0.01167316   -0.18099011    0.17693452
     atom   52 type  2   force =    -0.11769334    0.15249855    0.05337525
     atom   53 type  2   force =    -0.23389994   -0.03676310    0.18129920
     atom   54 type  2   force =     0.08834706    0.11385166   -0.08107659
     atom   55 type  2   force =    -0.37614959   -0.37810353   -1.00898457
     atom   56 type  2   force =     0.07277256    0.01052306    0.10808449
     atom   57 type  2   force =     0.01692609    0.02656731    0.01249323
     atom   58 type  2   force =     0.06194661   -0.04015389   -0.02685455
     atom   59 type  2   force =     0.27425181   -0.06763263   -0.14164300
     atom   60 type  2   force =    -0.03917894    0.01513532   -0.04553912
     atom   61 type  2   force =    -0.11751532    0.28478492   -0.14970156
     atom   62 type  2   force =    -0.01786295   -0.02941267    0.08528612
     atom   63 type  2   force =    -0.11372367   -0.06897234    0.26219577
     The core correction contribution to forces
     atom    1 type  1   force =     0.00000000    0.00000000    0.00000000
     atom    2 type  2   force =     0.00000000    0.00000000    0.00000000
     atom    3 type  2   force =     0.00000000    0.00000000    0.00000000
     atom    4 type  2   force =     0.00000000    0.00000000    0.00000000
     atom    5 type  2   force =     0.00000000    0.00000000    0.00000000
     atom    6 type  2   force =     0.00000000    0.00000000    0.00000000
     atom    7 type  2   force =     0.00000000    0.00000000    0.00000000
     atom    8 type  2   force =     0.00000000    0.00000000    0.00000000
     atom    9 type  2   force =     0.00000000    0.00000000    0.00000000
     atom   10 type  2   force =     0.00000000    0.00000000    0.00000000
     atom   11 type  2   force =     0.00000000    0.00000000    0.00000000
     atom   12 type  2   force =     0.00000000    0.00000000    0.00000000
     atom   13 type  2   force =     0.00000000    0.00000000    0.00000000
     atom   14 type  2   force =     0.00000000    0.00000000    0.00000000
     atom   15 type  2   force =     0.00000000    0.00000000    0.00000000
     atom   16 type  2   force =     0.00000000    0.00000000    0.00000000
     atom   17 type  2   force =     0.00000000    0.00000000    0.00000000
     atom   18 type  2   force =     0.00000000    0.00000000    0.00000000
     atom   19 type  2   force =     0.00000000    0.00000000    0.00000000
     atom   20 type  2   force =     0.00000000    0.00000000    0.00000000
     atom   21 type  2   force =     0.00000000    0.00000000    0.00000000
     atom   22 type  2   force =     0.00000000    0.00000000    0.00000000
     atom   23 type  2   force =     0.00000000    0.00000000    0.00000000
     atom   24 type  2   force =     0.00000000    0.00000000    0.00000000
     atom   25 type  2   force =     0.00000000    0.00000000    0.00000000
     atom   26 type  2   force =     0.00000000    0.00000000    0.00000000
     atom   27 type  2   force =     0.00000000    0.00000000    0.00000000
     atom   28 type  2   force =     0.00000000    0.00000000    0.00000000
     atom   29 type  2   force =     0.00000000    0.00000000    0.00000000
     atom   30 type  2   force =     0.00000000    0.00000000    0.00000000
     atom   31 type  2   force =     0.00000000    0.00000000    0.00000000
     atom   32 type  2   force =     0.00000000    0.00000000    0.00000000
     atom   33 type  2   force =     0.00000000    0.00000000    0.00000000
     atom   34 type  2   force =     0.00000000    0.00000000    0.00000000
     atom   35 type  2   force =     0.00000000    0.00000000    0.00000000
     atom   36 type  2   force =     0.00000000    0.00000000    0.00000000
     atom   37 type  2   force =     0.00000000    0.00000000    0.00000000
     atom   38 type  2   force =     0.00000000    0.00000000    0.00000000
     atom   39 type  2   force =     0.00000000    0.00000000    0.00000000
     atom   40 type  2   force =     0.00000000    0.00000000    0.00000000
     atom   41 type  2   force =     0.00000000    0.00000000    0.00000000
     atom   42 type  2   force =     0.00000000    0.00000000    0.00000000
     atom   43 type  2   force =     0.00000000    0.00000000    0.00000000
     atom   44 type  2   force =     0.00000000    0.00000000    0.00000000
     atom   45 type  2   force =     0.00000000    0.00000000    0.00000000
     atom   46 type  2   force =     0.00000000    0.00000000    0.00000000
     atom   47 type  2   force =     0.00000000    0.00000000    0.00000000
     atom   48 type  2   force =     0.00000000    0.00000000    0.00000000
     atom   49 type  2   force =     0.00000000    0.00000000    0.00000000
     atom   50 type  2   force =     0.00000000    0.00000000    0.00000000
     atom   51 type  2   force =     0.00000000    0.00000000    0.00000000
     atom   52 type  2   force =     0.00000000    0.00000000    0.00000000
     atom   53 type  2   force =     0.00000000    0.00000000    0.00000000
     atom   54 type  2   force =     0.00000000    0.00000000    0.00000000
     atom   55 type  2   force =     0.00000000    0.00000000    0.00000000
     atom   56 type  2   force =     0.00000000    0.00000000    0.00000000
     atom   57 type  2   force =     0.00000000    0.00000000    0.00000000
     atom   58 type  2   force =     0.00000000    0.00000000    0.00000000
     atom   59 type  2   force =     0.00000000    0.00000000    0.00000000
     atom   60 type  2   force =     0.00000000    0.00000000    0.00000000
     atom   61 type  2   force =     0.00000000    0.00000000    0.00000000
     atom   62 type  2   force =     0.00000000    0.00000000    0.00000000
     atom   63 type  2   force =     0.00000000    0.00000000    0.00000000
     The Hubbard contrib.    to forces
     atom    1 type  1   force =     0.00000000    0.00000000    0.00000000
     atom    2 type  2   force =     0.00000000    0.00000000    0.00000000
     atom    3 type  2   force =     0.00000000    0.00000000    0.00000000
     atom    4 type  2   force =     0.00000000    0.00000000    0.00000000
     atom    5 type  2   force =     0.00000000    0.00000000    0.00000000
     atom    6 type  2   force =     0.00000000    0.00000000    0.00000000
     atom    7 type  2   force =     0.00000000    0.00000000    0.00000000
     atom    8 type  2   force =     0.00000000    0.00000000    0.00000000
     atom    9 type  2   force =     0.00000000    0.00000000    0.00000000
     atom   10 type  2   force =     0.00000000    0.00000000    0.00000000
     atom   11 type  2   force =     0.00000000    0.00000000    0.00000000
     atom   12 type  2   force =     0.00000000    0.00000000    0.00000000
     atom   13 type  2   force =     0.00000000    0.00000000    0.00000000
     atom   14 type  2   force =     0.00000000    0.00000000    0.00000000
     atom   15 type  2   force =     0.00000000    0.00000000    0.00000000
     atom   16 type  2   force =     0.00000000    0.00000000    0.00000000
     atom   17 type  2   force =     0.00000000    0.00000000    0.00000000
     atom   18 type  2   force =     0.00000000    0.00000000    0.00000000
     atom   19 type  2   force =     0.00000000    0.00000000    0.00000000
     atom   20 type  2   force =     0.00000000    0.00000000    0.00000000
     atom   21 type  2   force =     0.00000000    0.00000000    0.00000000
     atom   22 type  2   force =     0.00000000    0.00000000    0.00000000
     atom   23 type  2   force =     0.00000000    0.00000000    0.00000000
     atom   24 type  2   force =     0.00000000    0.00000000    0.00000000
     atom   25 type  2   force =     0.00000000    0.00000000    0.00000000
     atom   26 type  2   force =     0.00000000    0.00000000    0.00000000
     atom   27 type  2   force =     0.00000000    0.00000000    0.00000000
     atom   28 type  2   force =     0.00000000    0.00000000    0.00000000
     atom   29 type  2   force =     0.00000000    0.00000000    0.00000000
     atom   30 type  2   force =     0.00000000    0.00000000    0.00000000
     atom   31 type  2   force =     0.00000000    0.00000000    0.00000000
     atom   32 type  2   force =     0.00000000    0.00000000    0.00000000
     atom   33 type  2   force =     0.00000000    0.00000000    0.00000000
     atom   34 type  2   force =     0.00000000    0.00000000    0.00000000
     atom   35 type  2   force =     0.00000000    0.00000000    0.00000000
     atom   36 type  2   force =     0.00000000    0.00000000    0.00000000
     atom   37 type  2   force =     0.00000000    0.00000000    0.00000000
     atom   38 type  2   force =     0.00000000    0.00000000    0.00000000
     atom   39 type  2   force =     0.00000000    0.00000000    0.00000000
     atom   40 type  2   force =     0.00000000    0.00000000    0.00000000
     atom   41 type  2   force =     0.00000000    0.00000000    0.00000000
     atom   42 type  2   force =     0.00000000    0.00000000    0.00000000
     atom   43 type  2   force =     0.00000000    0.00000000    0.00000000
     atom   44 type  2   force =     0.00000000    0.00000000    0.00000000
     atom   45 type  2   force =     0.00000000    0.00000000    0.00000000
     atom   46 type  2   force =     0.00000000    0.00000000    0.00000000
     atom   47 type  2   force =     0.00000000    0.00000000    0.00000000
     atom   48 type  2   force =     0.00000000    0.00000000    0.00000000
     atom   49 type  2   force =     0.00000000    0.00000000    0.00000000
     atom   50 type  2   force =     0.00000000    0.00000000    0.00000000
     atom   51 type  2   force =     0.00000000    0.00000000    0.00000000
     atom   52 type  2   force =     0.00000000    0.00000000    0.00000000
     atom   53 type  2   force =     0.00000000    0.00000000    0.00000000
     atom   54 type  2   force =     0.00000000    0.00000000    0.00000000
     atom   55 type  2   force =     0.00000000    0.00000000    0.00000000
     atom   56 type  2   force =     0.00000000    0.00000000    0.00000000
     atom   57 type  2   force =     0.00000000    0.00000000    0.00000000
     atom   58 type  2   force =     0.00000000    0.00000000    0.00000000
     atom   59 type  2   force =     0.00000000    0.00000000    0.00000000
     atom   60 type  2   force =     0.00000000    0.00000000    0.00000000
     atom   61 type  2   force =     0.00000000    0.00000000    0.00000000
     atom   62 type  2   force =     0.00000000    0.00000000    0.00000000
     atom   63 type  2   force =     0.00000000    0.00000000    0.00000000
     The SCF correction term to forces
     atom    1 type  1   force =    -0.00002554   -0.00002884   -0.00000037
     atom    2 type  2   force =    -0.00001395   -0.00001725    0.00000252
     atom    3 type  2   force =     0.00001651    0.00001376    0.00000970
     atom    4 type  2   force =     0.00000827   -0.00001409   -0.00000076
     atom    5 type  2   force =     0.00001980   -0.00001921   -0.00001062
     atom    6 type  2   force =     0.00001224   -0.00001968    0.00000916
     atom    7 type  2   force =     0.00002523   -0.00000376    0.00001851
     atom    8 type  2   force =    -0.00002349   -0.00003281   -0.00000026
     atom    9 type  2   force =    -0.00001614   -0.00002697   -0.00000019
     atom   10 type  2   force =    -0.00003089   -0.00001086   -0.00000300
     atom   11 type  2   force =    -0.00002005    0.00000130   -0.00000692
     atom   12 type  2   force =    -0.00000091   -0.00001517   -0.00000429
     atom   13 type  2   force =     0.00001836   -0.00002073    0.00000523
     atom   14 type  2   force =     0.00001864   -0.00001293   -0.00000921
     atom   15 type  2   force =     0.00002686    0.00000363   -0.00002005
     atom   16 type  2   force =    -0.00002369    0.00002453   -0.00000725
     atom   17 type  2   force =    -0.00001282    0.00003173    0.00000679
     atom   18 type  2   force =    -0.00002527    0.00001838    0.00001051
     atom   19 type  2   force =    -0.00001421   -0.00000328   -0.00000324
     atom   20 type  2   force =     0.00001861    0.00001613    0.00000802
     atom   21 type  2   force =     0.00002488    0.00001114    0.00000008
     atom   22 type  2   force =    -0.00000326    0.00001665    0.00001075
     atom   23 type  2   force =     0.00000913    0.00000780    0.00001695
     atom   24 type  2   force =    -0.00002494    0.00003173    0.00000831
     atom   25 type  2   force =    -0.00001846    0.00002527   -0.00000635
     atom   26 type  2   force =    -0.00002112    0.00001209   -0.00000990
     atom   27 type  2   force =    -0.00001062   -0.00000622   -0.00000325
     atom   28 type  2   force =    -0.00000188    0.00001769   -0.00000786
     atom   29 type  2   force =     0.00001332    0.00002224   -0.00000093
     atom   30 type  2   force =    -0.00000320    0.00001615   -0.00000883
     atom   31 type  2   force =     0.00001468   -0.00000207   -0.00000870
     atom   32 type  2   force =     0.00001489   -0.00000627    0.00001303
     atom   33 type  2   force =    -0.00000043   -0.00002015    0.00000678
     atom   34 type  2   force =     0.00000785   -0.00001259    0.00000648
     atom   35 type  2   force =    -0.00001042    0.00000931    0.00000738
     atom   36 type  2   force =    -0.00001189   -0.00003337    0.00001260
     atom   37 type  2   force =    -0.00003101   -0.00004938    0.00001789
     atom   38 type  2   force =    -0.00001351   -0.00001050   -0.00001248
     atom   39 type  2   force =    -0.00003223    0.00001682   -0.00001759
     atom   40 type  2   force =     0.00002329   -0.00001209   -0.00001375
     atom   41 type  2   force =     0.00001720   -0.00001363   -0.00000563
     atom   42 type  2   force =     0.00003179   -0.00001301   -0.00000665
     atom   43 type  2   force =     0.00002278   -0.00000464   -0.00000640
     atom   44 type  2   force =     0.00000273   -0.00000589   -0.00001064
     atom   45 type  2   force =    -0.00002392   -0.00001152   -0.00001568
     atom   46 type  2   force =    -0.00001652   -0.00001475    0.00001548
     atom   47 type  2   force =    -0.00002742    0.00000471    0.00001440
     atom   48 type  2   force =     0.00002281    0.00000746    0.00001361
     atom   49 type  2   force =     0.00001451    0.00002050    0.00001984
     atom   50 type  2   force =     0.00002708    0.00001355    0.00001076
     atom   51 type  2   force =     0.00002204   -0.00000872   -0.00000077
     atom   52 type  2   force =    -0.00001717    0.00003652    0.00000675
     atom   53 type  2   force =    -0.00002675    0.00004382    0.00000458
     atom   54 type  2   force =     0.00000487    0.00001141    0.00001526
     atom   55 type  2   force =    -0.00001976   -0.00001588    0.00001858
     atom   56 type  2   force =     0.00002256    0.00001129   -0.00001199
     atom   57 type  2   force =     0.00001726    0.00001354   -0.00001951
     atom   58 type  2   force =     0.00001820    0.00001213   -0.00001176
     atom   59 type  2   force =     0.00001432    0.00000387   -0.00000138
     atom   60 type  2   force =     0.00000328    0.00000267   -0.00000943
     atom   61 type  2   force =    -0.00001249    0.00001362   -0.00000446
     atom   62 type  2   force =     0.00000197    0.00001408   -0.00001771
     atom   63 type  2   force =    -0.00001424   -0.00000324   -0.00001805

     Total force =     0.127093     Total SCF correction =     0.000226

     Writing all to output data dir ./pwscf.save/ :
     XML data file, charge density, pseudopotentials, collected wavefunctions
 
     init_run     :      0.55s CPU      0.60s WALL (       1 calls)
     electrons    :     19.91s CPU     21.36s WALL (       1 calls)
     forces       :      0.16s CPU      0.16s WALL (       1 calls)

     Called by init_run:
     wfcinit      :      0.05s CPU      0.06s WALL (       1 calls)
     wfcinit:wfcr :      0.05s CPU      0.06s WALL (       1 calls)
     potinit      :      0.38s CPU      0.39s WALL (       1 calls)
     hinit0       :      0.06s CPU      0.07s WALL (       1 calls)

     Called by electrons:
     c_bands      :     13.26s CPU     14.53s WALL (      14 calls)
     sum_band     :      3.97s CPU      4.13s WALL (      14 calls)
     v_of_rho     :      0.71s CPU      0.71s WALL (      15 calls)
     v_h          :      0.09s CPU      0.09s WALL (      15 calls)
     v_xc         :      0.62s CPU      0.63s WALL (      15 calls)
     mix_rho      :      0.22s CPU      0.22s WALL (      14 calls)

     Called by c_bands:
     init_us_2    :      0.02s CPU      0.02s WALL (      30 calls)
     regterg      :     10.50s CPU     11.76s WALL (      14 calls)

     Called by sum_band:
     sum_band:wei :      0.08s CPU      0.08s WALL (      14 calls)
     sum_band:loo :      1.43s CPU      1.44s WALL (      14 calls)
     sum_band:buf :      0.00s CPU      0.00s WALL (      14 calls)
     sum_band:ini :      0.01s CPU      0.01s WALL (      14 calls)

     Called by *egterg:
     rdiaghg      :      3.63s CPU      3.74s WALL (     271 calls)
     regterg:over :      0.37s CPU      0.38s WALL (     257 calls)
     regterg:upda :      0.18s CPU      0.18s WALL (     257 calls)
     regterg:last :      0.25s CPU      0.26s WALL (      51 calls)
     rdiaghg:chol :      0.14s CPU      0.14s WALL (     271 calls)
     rdiaghg:inve :      0.03s CPU      0.03s WALL (     271 calls)
     rdiaghg:para :      0.34s CPU      0.37s WALL (     542 calls)
     h_psi        :      6.02s CPU      7.15s WALL (     272 calls)
     g_psi        :      0.00s CPU      0.00s WALL (     257 calls)

     Called by h_psi:
     h_psi:calbec :      0.90s CPU      0.90s WALL (     272 calls)
     vloc_psi     :      5.00s CPU      6.12s WALL (     272 calls)
                                        0.00s GPU  (     272 calls)
     add_vuspsi   :      0.11s CPU      0.11s WALL (     272 calls)

     General routines
     calbec       :      1.04s CPU      1.05s WALL (     276 calls)
     fft          :      0.46s CPU      0.48s WALL (     196 calls)
     ffts         :      0.03s CPU      0.03s WALL (      14 calls)
     fftw         :      6.32s CPU      7.45s WALL (   10104 calls)
 
     Parallel routines
 
     PWSCF        :     21.69s CPU     23.32s WALL

 
   This run was terminated on:  15:42: 4  16Nov2025            

=------------------------------------------------------------------------------=
   JOB DONE.
=------------------------------------------------------------------------------=
