
     Program PWSCF v.7.5 starts on 16Nov2025 at 16:26:11 

     This program is part of the open-source Quantum ESPRESSO suite
     for quantum simulation of materials; please cite
         "P. Giannozzi et al., J. Phys.:Condens. Matter 21 395502 (2009);
         "P. Giannozzi et al., J. Phys.:Condens. Matter 29 465901 (2017);
         "P. Giannozzi et al., J. Chem. Phys. 152 154105 (2020);
          URL http://www.quantum-espresso.org", 
     in publications or presentations arising from this work. More details at
     http://www.quantum-espresso.org/quote

     Parallel version (MPI), running on    96 processors

     MPI processes distributed on     2 nodes
     174605 MiB available memory on the printing compute node when the environment starts
 
     Reading input from supercell-196.in

     Current dimensions of program PWSCF are:
     Max number of different atomic species (ntypx) = 10
     Max number of k-points (npk) =  40000
     Max angular momentum in pseudopotentials (lmaxx) =  4

     gamma-point specific algorithms are used
 
     K-points division:     npool     =       2
     R & G space division:  proc/nbgrp/npool/nimage =      48
     Subspace diagonalization in iterative solution of the eigenvalue problem:
     one sub-group per band group will be used
     scalapack distributed-memory algorithm (size of sub-group:  2*  2 procs)

 
     Parallelization info
     --------------------
     sticks:   dense  smooth     PW     G-vecs:    dense   smooth      PW
     Min          59      59     14                 2432     2432     302
     Max          62      62     16                 2442     2442     316
     Sum        2885    2885    725               116921   116921   14771
 
     Using Slab Decomposition
 


     bravais-lattice index     =            0
     lattice parameter (alat)  =      13.4813  a.u.
     unit-cell volume          =    2450.1683 (a.u.)^3
     number of atoms/cell      =           63
     number of atomic types    =            2
     number of electrons       =       254.00 (up: 128.00, down: 126.00)
     number of Kohn-Sham states=          152
     kinetic-energy cutoff     =      50.0000  Ry
     charge density cutoff     =     200.0000  Ry
     scf convergence threshold =      1.0E-08
     mixing beta               =       0.7000
     number of iterations used =            8  plain     mixing
     Exchange-correlation= PBE
                           (   1   4   3   4   0   0   0)

     celldm(1)=  13.481306  celldm(2)=   0.000000  celldm(3)=   0.000000
     celldm(4)=   0.000000  celldm(5)=   0.000000  celldm(6)=   0.000000

     crystal axes: (cart. coord. in units of alat)
               a(1) = (   1.000000   0.000000   0.000000 )  
               a(2) = (   0.000000   1.000000   0.000000 )  
               a(3) = (   0.000000   0.000000   1.000000 )  

     reciprocal axes: (cart. coord. in units 2 pi/alat)
               b(1) = (  1.000000  0.000000  0.000000 )  
               b(2) = (  0.000000  1.000000  0.000000 )  
               b(3) = (  0.000000  0.000000  1.000000 )  


     PseudoPot. # 1 for N  read from file:
     ./N_ONCV_PBE-1.2.upf
     MD5 check sum: 5312fdf34e96954e02a33bdc911c617a
     Pseudo is Norm-conserving, Zval =  5.0
     Generated using ONCVPSP code by D. R. Hamann
     Using radial grid of  602 points,  4 beta functions with: 
                l(1) =   0
                l(2) =   0
                l(3) =   1
                l(4) =   1

     PseudoPot. # 2 for C  read from file:
     ./C_ONCV_PBE-1.2.upf
     MD5 check sum: d60b57d9bdca4133f5fde4b584ee909d
     Pseudo is Norm-conserving, Zval =  4.0
     Generated using ONCVPSP code by D. R. Hamann
     Using radial grid of  602 points,  4 beta functions with: 
                l(1) =   0
                l(2) =   0
                l(3) =   1
                l(4) =   1

     atomic species   valence    mass     pseudopotential
     N                 5.00    14.00670     N ( 1.00)
     C                 4.00    12.01070     C ( 1.00)

     Starting magnetic structure 
     atomic species   magnetization
     N               0.000
     C               0.000

     No symmetry found


                                    s                        frac. trans.

      isym =  1     identity                                     

 cryst.   s( 1) = (     1          0          0      )
                  (     0          1          0      )
                  (     0          0          1      )

 cart.    s( 1) = (  1.0000000  0.0000000  0.0000000 )
                  (  0.0000000  1.0000000  0.0000000 )
                  (  0.0000000  0.0000000  1.0000000 )


   Cartesian axes

     site n.     atom                  positions (alat units)
         1        N      tau(   1) = (   0.9893819   0.9897344   0.9891721  )
         2        C      tau(   2) = (   0.9870277   0.2601210   0.2640728  )
         3        C      tau(   3) = (   0.1231717   0.3731672   0.3742038  )
         4        C      tau(   4) = (   0.2603919   0.9894620   0.2619202  )
         5        C      tau(   5) = (   0.3737632   0.1246771   0.3741571  )
         6        C      tau(   6) = (   0.2640151   0.2616009   0.9853609  )
         7        C      tau(   7) = (   0.3737752   0.3731213   0.1223564  )
         8        C      tau(   8) = (   0.0000049   0.0005840   0.4991361  )
         9        C      tau(   9) = (   0.1251361   0.1251278   0.6250981  )
        10        C      tau(  10) = (   0.0020393   0.2482470   0.7515266  )
        11        C      tau(  11) = (   0.1292009   0.3733021   0.8763303  )
        12        C      tau(  12) = (   0.2487801   0.0017974   0.7514403  )
        13        C      tau(  13) = (   0.3754339   0.1292460   0.8748544  )
        14        C      tau(  14) = (   0.2491579   0.2495268   0.4995755  )
        15        C      tau(  15) = (   0.3750038   0.3749547   0.6244069  )
        16        C      tau(  16) = (   0.0016366   0.4979779   0.0013734  )
        17        C      tau(  17) = (   0.1250869   0.6243147   0.1250807  )
        18        C      tau(  18) = (   0.0014462   0.7520697   0.2483230  )
        19        C      tau(  19) = (   0.1266755   0.8769178   0.3741906  )
        20        C      tau(  20) = (   0.2488290   0.4983596   0.2486760  )
        21        C      tau(  21) = (   0.3741642   0.6242659   0.3742111  )
        22        C      tau(  22) = (   0.2480673   0.7520817   0.0015447  )
        23        C      tau(  23) = (   0.3729914   0.8777475   0.1265606  )
        24        C      tau(  24) = (   0.0000493   0.5010760   0.5011299  )
        25        C      tau(  25) = (   0.1252054   0.6262200   0.6252733  )
        26        C      tau(  26) = (   0.9993969   0.7487112   0.7492532  )
        27        C      tau(  27) = (   0.1217927   0.8768349   0.8763928  )
        28        C      tau(  28) = (   0.2492749   0.5017254   0.7482724  )
        29        C      tau(  29) = (   0.3741000   0.6263042   0.8750769  )
        30        C      tau(  30) = (   0.2487293   0.7486845   0.5007616  )
        31        C      tau(  31) = (   0.3739266   0.8750581   0.6258828  )
        32        C      tau(  32) = (   0.4987543   0.0011228   0.0002828  )
        33        C      tau(  33) = (   0.6248203   0.1236167   0.1251034  )
        34        C      tau(  34) = (   0.4991217   0.2493918   0.2488717  )
        35        C      tau(  35) = (   0.6243080   0.3746888   0.3747831  )
        36        C      tau(  36) = (   0.7516460   0.0016191   0.2487956  )
        37        C      tau(  37) = (   0.8750430   0.1283649   0.3757598  )
        38        C      tau(  38) = (   0.7517475   0.2480080   0.0019610  )
        39        C      tau(  39) = (   0.8773622   0.3724247   0.1282033  )
        40        C      tau(  40) = (   0.5008161   0.9999897   0.5008301  )
        41        C      tau(  41) = (   0.6256173   0.1249721   0.6252590  )
        42        C      tau(  42) = (   0.5022259   0.2488088   0.7478265  )
        43        C      tau(  43) = (   0.6264784   0.3739683   0.8752045  )
        44        C      tau(  44) = (   0.7487945   0.9989046   0.7489691  )
        45        C      tau(  45) = (   0.8764746   0.1216998   0.8763156  )
        46        C      tau(  46) = (   0.7479635   0.2486819   0.5018806  )
        47        C      tau(  47) = (   0.8751980   0.3739245   0.6263738  )
        48        C      tau(  48) = (   0.5012000   0.5011574   0.0001136  )
        49        C      tau(  49) = (   0.6256259   0.6262099   0.1252968  )
        50        C      tau(  50) = (   0.5005188   0.7489091   0.2490095  )
        51        C      tau(  51) = (   0.6258050   0.8750157   0.3740056  )
        52        C      tau(  52) = (   0.7486304   0.5011458   0.2494302  )
        53        C      tau(  53) = (   0.8750247   0.6261269   0.3741365  )
        54        C      tau(  54) = (   0.7492281   0.7488562   0.9996087  )
        55        C      tau(  55) = (   0.8766209   0.8769033   0.1218021  )
        56        C      tau(  56) = (   0.4990819   0.4992903   0.4990317  )
        57        C      tau(  57) = (   0.6247789   0.6244471   0.6249452  )
        58        C      tau(  58) = (   0.4991767   0.7499842   0.7500845  )
        59        C      tau(  59) = (   0.6239946   0.8751464   0.8754130  )
        60        C      tau(  60) = (   0.7505316   0.4989321   0.7505826  )
        61        C      tau(  61) = (   0.8758455   0.6234984   0.8759288  )
        62        C      tau(  62) = (   0.7498244   0.7497799   0.4993198  )
        63        C      tau(  63) = (   0.8750855   0.8749084   0.6242568  )

   Crystallographic axes

     site n.     atom                  positions (cryst. coord.)
         1        N      tau(   1) = (  0.9893819  0.9897344  0.9891721  )
         2        C      tau(   2) = (  0.9870277  0.2601210  0.2640728  )
         3        C      tau(   3) = (  0.1231717  0.3731672  0.3742038  )
         4        C      tau(   4) = (  0.2603919  0.9894620  0.2619202  )
         5        C      tau(   5) = (  0.3737632  0.1246771  0.3741571  )
         6        C      tau(   6) = (  0.2640151  0.2616009  0.9853609  )
         7        C      tau(   7) = (  0.3737752  0.3731213  0.1223564  )
         8        C      tau(   8) = (  0.0000049  0.0005840  0.4991361  )
         9        C      tau(   9) = (  0.1251361  0.1251278  0.6250981  )
        10        C      tau(  10) = (  0.0020393  0.2482470  0.7515266  )
        11        C      tau(  11) = (  0.1292009  0.3733021  0.8763303  )
        12        C      tau(  12) = (  0.2487801  0.0017974  0.7514403  )
        13        C      tau(  13) = (  0.3754339  0.1292460  0.8748544  )
        14        C      tau(  14) = (  0.2491579  0.2495268  0.4995755  )
        15        C      tau(  15) = (  0.3750038  0.3749547  0.6244069  )
        16        C      tau(  16) = (  0.0016366  0.4979779  0.0013734  )
        17        C      tau(  17) = (  0.1250869  0.6243147  0.1250807  )
        18        C      tau(  18) = (  0.0014462  0.7520697  0.2483230  )
        19        C      tau(  19) = (  0.1266755  0.8769178  0.3741906  )
        20        C      tau(  20) = (  0.2488290  0.4983596  0.2486760  )
        21        C      tau(  21) = (  0.3741642  0.6242659  0.3742111  )
        22        C      tau(  22) = (  0.2480673  0.7520817  0.0015447  )
        23        C      tau(  23) = (  0.3729914  0.8777475  0.1265606  )
        24        C      tau(  24) = (  0.0000493  0.5010760  0.5011299  )
        25        C      tau(  25) = (  0.1252054  0.6262200  0.6252733  )
        26        C      tau(  26) = (  0.9993969  0.7487112  0.7492532  )
        27        C      tau(  27) = (  0.1217927  0.8768349  0.8763928  )
        28        C      tau(  28) = (  0.2492749  0.5017254  0.7482724  )
        29        C      tau(  29) = (  0.3741000  0.6263042  0.8750769  )
        30        C      tau(  30) = (  0.2487293  0.7486845  0.5007616  )
        31        C      tau(  31) = (  0.3739266  0.8750581  0.6258828  )
        32        C      tau(  32) = (  0.4987543  0.0011228  0.0002828  )
        33        C      tau(  33) = (  0.6248203  0.1236167  0.1251034  )
        34        C      tau(  34) = (  0.4991217  0.2493918  0.2488717  )
        35        C      tau(  35) = (  0.6243080  0.3746888  0.3747831  )
        36        C      tau(  36) = (  0.7516460  0.0016191  0.2487956  )
        37        C      tau(  37) = (  0.8750430  0.1283649  0.3757598  )
        38        C      tau(  38) = (  0.7517475  0.2480080  0.0019610  )
        39        C      tau(  39) = (  0.8773622  0.3724247  0.1282033  )
        40        C      tau(  40) = (  0.5008161  0.9999897  0.5008301  )
        41        C      tau(  41) = (  0.6256173  0.1249721  0.6252590  )
        42        C      tau(  42) = (  0.5022259  0.2488088  0.7478265  )
        43        C      tau(  43) = (  0.6264784  0.3739683  0.8752045  )
        44        C      tau(  44) = (  0.7487945  0.9989046  0.7489691  )
        45        C      tau(  45) = (  0.8764746  0.1216998  0.8763156  )
        46        C      tau(  46) = (  0.7479635  0.2486819  0.5018806  )
        47        C      tau(  47) = (  0.8751980  0.3739245  0.6263738  )
        48        C      tau(  48) = (  0.5012000  0.5011574  0.0001136  )
        49        C      tau(  49) = (  0.6256259  0.6262099  0.1252968  )
        50        C      tau(  50) = (  0.5005188  0.7489091  0.2490095  )
        51        C      tau(  51) = (  0.6258050  0.8750157  0.3740056  )
        52        C      tau(  52) = (  0.7486304  0.5011458  0.2494302  )
        53        C      tau(  53) = (  0.8750247  0.6261269  0.3741365  )
        54        C      tau(  54) = (  0.7492281  0.7488562  0.9996087  )
        55        C      tau(  55) = (  0.8766209  0.8769033  0.1218021  )
        56        C      tau(  56) = (  0.4990819  0.4992903  0.4990317  )
        57        C      tau(  57) = (  0.6247789  0.6244471  0.6249452  )
        58        C      tau(  58) = (  0.4991767  0.7499842  0.7500845  )
        59        C      tau(  59) = (  0.6239946  0.8751464  0.8754130  )
        60        C      tau(  60) = (  0.7505316  0.4989321  0.7505826  )
        61        C      tau(  61) = (  0.8758455  0.6234984  0.8759288  )
        62        C      tau(  62) = (  0.7498244  0.7497799  0.4993198  )
        63        C      tau(  63) = (  0.8750855  0.8749084  0.6242568  )

     number of k points=     1
                       cart. coord. in units 2pi/alat
        k(    1) = (   0.0000000   0.0000000   0.0000000), wk =   1.0000000

                       cryst. coord.
        k(    1) = (   0.0000000   0.0000000   0.0000000), wk =   1.0000000

     Dense  grid:    58461 G-vectors     FFT dimensions: (  64,  64,  64)

     Dynamical RAM for                 wfc:       0.35 MB

     Dynamical RAM for     wfc (w. buffer):       0.35 MB

     Dynamical RAM for           str. fact:       0.04 MB

     Dynamical RAM for           local pot:       0.00 MB

     Dynamical RAM for          nlocal pot:       1.17 MB

     Dynamical RAM for                qrad:       0.65 MB

     Dynamical RAM for          rho,v,vnew:       0.49 MB

     Dynamical RAM for               rhoin:       0.16 MB

     Dynamical RAM for            rho*nmix:       0.60 MB

     Dynamical RAM for           G-vectors:       0.08 MB

     Dynamical RAM for          h,s,v(r/c):       0.53 MB

     Dynamical RAM for          <psi|beta>:       0.58 MB

     Dynamical RAM for                 psi:       0.71 MB

     Dynamical RAM for                hpsi:       0.71 MB

     Dynamical RAM for      wfcinit/wfcrot:       1.24 MB

     Estimated static dynamical RAM per process >       3.37 MB

     Estimated max dynamical RAM per process >       6.49 MB

     Estimated total dynamical RAM >     594.05 MB
     Generating pointlists ...
     new r_m :   0.0854 (alat units)  1.1518 (a.u.) for type    1
     new r_m :   0.0847 (alat units)  1.1416 (a.u.) for type    2

     Initial potential from superposition of free atoms

     starting charge     252.5655, renormalised to     254.0000
     Starting wfcs are random

     total cpu time spent up to now is        1.2 secs

     Self-consistent Calculation

     iteration #  1     ecut=    50.00 Ry     beta= 0.70
     Davidson diagonalization with overlap

---- Real-time Memory Report at c_bands before calling an iterative solver
           158 MiB given to the printing process from OS
             0 MiB allocation reported by mallinfo(arena+hblkhd)
        173623 MiB available memory on the node where the printing process lives
------------------
     ethr =  1.00E-02,  avg # of iterations = 12.0

     total cpu time spent up to now is        2.0 secs

     total energy              =    -723.26884297 Ry
     estimated scf accuracy    <       3.70873389 Ry

     total magnetization       =     2.00 Bohr mag/cell
     absolute magnetization    =     2.00 Bohr mag/cell

     iteration #  2     ecut=    50.00 Ry     beta= 0.70
     Davidson diagonalization with overlap

---- Real-time Memory Report at c_bands before calling an iterative solver
           164 MiB given to the printing process from OS
             0 MiB allocation reported by mallinfo(arena+hblkhd)
        173566 MiB available memory on the node where the printing process lives
------------------
     ethr =  1.46E-03,  avg # of iterations = 12.5

     total cpu time spent up to now is        2.7 secs

     total energy              =    -723.66034657 Ry
     estimated scf accuracy    <       0.45801768 Ry

     total magnetization       =     2.00 Bohr mag/cell
     absolute magnetization    =     2.08 Bohr mag/cell

     iteration #  3     ecut=    50.00 Ry     beta= 0.70
     Davidson diagonalization with overlap

---- Real-time Memory Report at c_bands before calling an iterative solver
           164 MiB given to the printing process from OS
             0 MiB allocation reported by mallinfo(arena+hblkhd)
        173569 MiB available memory on the node where the printing process lives
------------------
     c_bands:  2 eigenvalues not converged
     ethr =  1.80E-04,  avg # of iterations = 20.0

     total cpu time spent up to now is        4.4 secs

     total energy              =    -723.72636256 Ry
     estimated scf accuracy    <       0.86792592 Ry

     total magnetization       =     2.00 Bohr mag/cell
     absolute magnetization    =     2.12 Bohr mag/cell

     iteration #  4     ecut=    50.00 Ry     beta= 0.70
     Davidson diagonalization with overlap

---- Real-time Memory Report at c_bands before calling an iterative solver
           165 MiB given to the printing process from OS
             0 MiB allocation reported by mallinfo(arena+hblkhd)
        173579 MiB available memory on the node where the printing process lives
------------------
     c_bands:  1 eigenvalues not converged
     ethr =  1.80E-04,  avg # of iterations = 20.0

     total cpu time spent up to now is        5.1 secs

     total energy              =    -723.90120252 Ry
     estimated scf accuracy    <       0.00969184 Ry

     total magnetization       =     2.00 Bohr mag/cell
     absolute magnetization    =     2.19 Bohr mag/cell

     iteration #  5     ecut=    50.00 Ry     beta= 0.70
     Davidson diagonalization with overlap

---- Real-time Memory Report at c_bands before calling an iterative solver
           165 MiB given to the printing process from OS
             0 MiB allocation reported by mallinfo(arena+hblkhd)
        173573 MiB available memory on the node where the printing process lives
------------------
     c_bands:  3 eigenvalues not converged
     ethr =  3.82E-06,  avg # of iterations = 20.0

     total cpu time spent up to now is        6.0 secs

     total energy              =    -723.90615587 Ry
     estimated scf accuracy    <       0.00411598 Ry

     total magnetization       =     2.00 Bohr mag/cell
     absolute magnetization    =     2.23 Bohr mag/cell

     iteration #  6     ecut=    50.00 Ry     beta= 0.70
     Davidson diagonalization with overlap

---- Real-time Memory Report at c_bands before calling an iterative solver
           165 MiB given to the printing process from OS
             0 MiB allocation reported by mallinfo(arena+hblkhd)
        173575 MiB available memory on the node where the printing process lives
------------------
     c_bands:  3 eigenvalues not converged
     ethr =  1.62E-06,  avg # of iterations = 20.0

     total cpu time spent up to now is        8.1 secs

     total energy              =    -723.90690521 Ry
     estimated scf accuracy    <       0.00085822 Ry

     total magnetization       =     2.00 Bohr mag/cell
     absolute magnetization    =     2.25 Bohr mag/cell

     iteration #  7     ecut=    50.00 Ry     beta= 0.70
     Davidson diagonalization with overlap

---- Real-time Memory Report at c_bands before calling an iterative solver
           165 MiB given to the printing process from OS
             0 MiB allocation reported by mallinfo(arena+hblkhd)
        173568 MiB available memory on the node where the printing process lives
------------------
     c_bands:  1 eigenvalues not converged
     ethr =  3.38E-07,  avg # of iterations = 20.0

     total cpu time spent up to now is        9.1 secs

     total energy              =    -723.90712943 Ry
     estimated scf accuracy    <       0.00011954 Ry

     total magnetization       =     2.00 Bohr mag/cell
     absolute magnetization    =     2.27 Bohr mag/cell

     iteration #  8     ecut=    50.00 Ry     beta= 0.70
     Davidson diagonalization with overlap

---- Real-time Memory Report at c_bands before calling an iterative solver
           166 MiB given to the printing process from OS
             0 MiB allocation reported by mallinfo(arena+hblkhd)
        173566 MiB available memory on the node where the printing process lives
------------------
     c_bands:  1 eigenvalues not converged
     ethr =  4.71E-08,  avg # of iterations = 20.0

     total cpu time spent up to now is        9.9 secs

     total energy              =    -723.90716852 Ry
     estimated scf accuracy    <       0.00002818 Ry

     total magnetization       =     2.00 Bohr mag/cell
     absolute magnetization    =     2.28 Bohr mag/cell

     iteration #  9     ecut=    50.00 Ry     beta= 0.70
     Davidson diagonalization with overlap

---- Real-time Memory Report at c_bands before calling an iterative solver
           166 MiB given to the printing process from OS
             0 MiB allocation reported by mallinfo(arena+hblkhd)
        173566 MiB available memory on the node where the printing process lives
------------------
     c_bands:  2 eigenvalues not converged
     ethr =  1.11E-08,  avg # of iterations = 20.0

     total cpu time spent up to now is       10.4 secs

     total energy              =    -723.90717870 Ry
     estimated scf accuracy    <       0.00000780 Ry

     total magnetization       =     2.00 Bohr mag/cell
     absolute magnetization    =     2.29 Bohr mag/cell

     iteration # 10     ecut=    50.00 Ry     beta= 0.70
     Davidson diagonalization with overlap

---- Real-time Memory Report at c_bands before calling an iterative solver
           166 MiB given to the printing process from OS
             0 MiB allocation reported by mallinfo(arena+hblkhd)
        173556 MiB available memory on the node where the printing process lives
------------------
     c_bands:  2 eigenvalues not converged
     ethr =  3.07E-09,  avg # of iterations = 20.0

     total cpu time spent up to now is       11.0 secs

     total energy              =    -723.90718224 Ry
     estimated scf accuracy    <       0.00000085 Ry

     total magnetization       =     2.00 Bohr mag/cell
     absolute magnetization    =     2.29 Bohr mag/cell

     iteration # 11     ecut=    50.00 Ry     beta= 0.70
     Davidson diagonalization with overlap

---- Real-time Memory Report at c_bands before calling an iterative solver
           166 MiB given to the printing process from OS
             0 MiB allocation reported by mallinfo(arena+hblkhd)
        173569 MiB available memory on the node where the printing process lives
------------------
     c_bands:  2 eigenvalues not converged
     ethr =  3.35E-10,  avg # of iterations = 20.0

     total cpu time spent up to now is       11.7 secs

     total energy              =    -723.90718289 Ry
     estimated scf accuracy    <       0.00000023 Ry

     total magnetization       =     2.00 Bohr mag/cell
     absolute magnetization    =     2.30 Bohr mag/cell

     iteration # 12     ecut=    50.00 Ry     beta= 0.70
     Davidson diagonalization with overlap

---- Real-time Memory Report at c_bands before calling an iterative solver
           166 MiB given to the printing process from OS
             0 MiB allocation reported by mallinfo(arena+hblkhd)
        173566 MiB available memory on the node where the printing process lives
------------------
     c_bands:  1 eigenvalues not converged
     ethr =  8.95E-11,  avg # of iterations = 19.5

     total cpu time spent up to now is       12.2 secs

     total energy              =    -723.90718300 Ry
     estimated scf accuracy    <       0.00000009 Ry

     total magnetization       =     2.00 Bohr mag/cell
     absolute magnetization    =     2.30 Bohr mag/cell

     iteration # 13     ecut=    50.00 Ry     beta= 0.70
     Davidson diagonalization with overlap

---- Real-time Memory Report at c_bands before calling an iterative solver
           166 MiB given to the printing process from OS
             0 MiB allocation reported by mallinfo(arena+hblkhd)
        173566 MiB available memory on the node where the printing process lives
------------------
     ethr =  3.58E-11,  avg # of iterations = 17.0

     total cpu time spent up to now is       12.8 secs

     total energy              =    -723.90718305 Ry
     estimated scf accuracy    <       0.00000003 Ry

     total magnetization       =     2.00 Bohr mag/cell
     absolute magnetization    =     2.30 Bohr mag/cell

     iteration # 14     ecut=    50.00 Ry     beta= 0.70
     Davidson diagonalization with overlap

---- Real-time Memory Report at c_bands before calling an iterative solver
           166 MiB given to the printing process from OS
             0 MiB allocation reported by mallinfo(arena+hblkhd)
        173570 MiB available memory on the node where the printing process lives
------------------
     ethr =  1.05E-11,  avg # of iterations = 19.5
 
     Magnetic moment per site  (integrated on atomic sphere of radius R)
     atom   1 (R=0.085)  charge=  2.9143  magn=  0.0042
     atom   2 (R=0.085)  charge=  1.8170  magn=  0.2450
     atom   3 (R=0.085)  charge=  1.7930  magn= -0.0087
     atom   4 (R=0.085)  charge=  1.8051  magn=  0.2455
     atom   5 (R=0.085)  charge=  1.7933  magn= -0.0087
     atom   6 (R=0.085)  charge=  1.8232  magn=  0.2450
     atom   7 (R=0.085)  charge=  1.7933  magn= -0.0087
     atom   8 (R=0.085)  charge=  1.7860  magn=  0.0091
     atom   9 (R=0.085)  charge=  1.7963  magn= -0.0019
     atom  10 (R=0.085)  charge=  1.7834  magn=  0.0060
     atom  11 (R=0.085)  charge=  1.7969  magn= -0.0042
     atom  12 (R=0.085)  charge=  1.7823  magn=  0.0061
     atom  13 (R=0.085)  charge=  1.8039  magn= -0.0039
     atom  14 (R=0.085)  charge=  1.7893  magn=  0.0085
     atom  15 (R=0.085)  charge=  1.7873  magn= -0.0020
     atom  16 (R=0.085)  charge=  1.7820  magn=  0.0089
     atom  17 (R=0.085)  charge=  1.7956  magn= -0.0018
     atom  18 (R=0.085)  charge=  1.7822  magn=  0.0057
     atom  19 (R=0.085)  charge=  1.7953  magn= -0.0035
     atom  20 (R=0.085)  charge=  1.7834  magn=  0.0083
     atom  21 (R=0.085)  charge=  1.7846  magn= -0.0020
     atom  22 (R=0.085)  charge=  1.7829  magn=  0.0057
     atom  23 (R=0.085)  charge=  1.7906  magn= -0.0037
     atom  24 (R=0.085)  charge=  1.7825  magn=  0.0182
     atom  25 (R=0.085)  charge=  1.8068  magn=  0.0094
     atom  26 (R=0.085)  charge=  1.7935  magn=  0.0032
     atom  27 (R=0.085)  charge=  1.7589  magn=  0.0000
     atom  28 (R=0.085)  charge=  1.7896  magn=  0.0221
     atom  29 (R=0.085)  charge=  1.7824  magn= -0.0014
     atom  30 (R=0.085)  charge=  1.7901  magn=  0.0211
     atom  31 (R=0.085)  charge=  1.7823  magn= -0.0013
     atom  32 (R=0.085)  charge=  1.7863  magn=  0.0090
     atom  33 (R=0.085)  charge=  1.7955  magn= -0.0018
     atom  34 (R=0.085)  charge=  1.7849  magn=  0.0084
     atom  35 (R=0.085)  charge=  1.7864  magn= -0.0020
     atom  36 (R=0.085)  charge=  1.7837  magn=  0.0059
     atom  37 (R=0.085)  charge=  1.8032  magn= -0.0036
     atom  38 (R=0.085)  charge=  1.7817  magn=  0.0059
     atom  39 (R=0.085)  charge=  1.7913  magn= -0.0041
     atom  40 (R=0.085)  charge=  1.7835  magn=  0.0181
     atom  41 (R=0.085)  charge=  1.8109  magn=  0.0094
     atom  42 (R=0.085)  charge=  1.7948  magn=  0.0219
     atom  43 (R=0.085)  charge=  1.7818  magn= -0.0013
     atom  44 (R=0.085)  charge=  1.7937  magn=  0.0032
     atom  45 (R=0.085)  charge=  1.7590  magn= -0.0000
     atom  46 (R=0.085)  charge=  1.7948  magn=  0.0215
     atom  47 (R=0.085)  charge=  1.7819  magn= -0.0013
     atom  48 (R=0.085)  charge=  1.7819  magn=  0.0184
     atom  49 (R=0.085)  charge=  1.8043  magn=  0.0094
     atom  50 (R=0.085)  charge=  1.7873  magn=  0.0212
     atom  51 (R=0.085)  charge=  1.7826  magn= -0.0013
     atom  52 (R=0.085)  charge=  1.7869  magn=  0.0218
     atom  53 (R=0.085)  charge=  1.7826  magn= -0.0013
     atom  54 (R=0.085)  charge=  1.7935  magn=  0.0032
     atom  55 (R=0.085)  charge=  1.7589  magn=  0.0001
     atom  56 (R=0.085)  charge=  1.7914  magn=  0.0009
     atom  57 (R=0.085)  charge=  1.7832  magn=  0.0010
     atom  58 (R=0.085)  charge=  1.7914  magn=  0.0018
     atom  59 (R=0.085)  charge=  1.7880  magn= -0.0009
     atom  60 (R=0.085)  charge=  1.7911  magn=  0.0017
     atom  61 (R=0.085)  charge=  1.7854  magn= -0.0009
     atom  62 (R=0.085)  charge=  1.7913  magn=  0.0019
     atom  63 (R=0.085)  charge=  1.7891  magn= -0.0009

     total cpu time spent up to now is       13.4 secs

     End of self-consistent calculation

 ------ SPIN UP ------------


          k = 0.0000 0.0000 0.0000 (  7386 PWs)   bands (ev):

    -8.5510  -6.9225  -6.2849  -6.2710  -6.1942  -6.1587  -5.8799  -4.9126
    -4.1435  -4.1266  -4.1256  -4.0934  -4.0304  -4.0199  -4.0127  -3.9172
    -3.8746  -3.8615  -3.3597  -2.9329  -2.6752  -2.6734  -2.1608  -0.3620
    -0.3526  -0.3250  -0.2852  -0.0791   0.1716   0.1926   0.2821   0.2962
     0.3671   0.6196   0.8359   0.8438   0.9512   0.9742   0.9888   1.0546
     1.0619   1.0640   1.2674   1.2956   3.0724   3.9078   3.9276   4.0686
     4.1870   4.2073   4.2221   4.2745   4.2822   4.2854   4.4207   4.4257
     4.4960   4.5018   4.5670   4.6602   4.6821   4.6904   4.6922   4.7871
     4.7959   4.9216   4.9663   4.9713   5.0487   5.1986   5.2094   5.3030
     5.3588   5.3736   5.3957   5.4028   5.4067   6.0401   6.0475   6.1023
     6.6615   6.6658   6.7266   6.9912   7.0036   7.0387   7.5262   8.3331
     8.3369   8.4154   8.4676   8.4888   8.6867   8.7053   8.7894   8.8301
     8.8472   8.8516   8.8942   8.8989   8.9027   9.2856   9.2954   9.3182
     9.6846   9.7030   9.8998   9.9129   9.9448   9.9604   9.9615   9.9781
     9.9872  10.0277  10.0368  10.0562  10.1242  10.1399  10.2693  10.3241
    10.3351  11.0531  12.2832  12.4249  12.4291  13.9554  14.6914  14.7991
    17.3415  17.3768  17.4095  17.5223  17.5758  17.5828  17.8495  17.9247
    17.9369  18.0334  18.0666  18.3704  18.9878  19.0060  19.0264  20.6931
    20.7972  20.8241  20.8782  20.9434  20.9473  21.0251  21.0324  21.0442

     occupation numbers 
     1.0000   1.0000   1.0000   1.0000   1.0000   1.0000   1.0000   1.0000
     1.0000   1.0000   1.0000   1.0000   1.0000   1.0000   1.0000   1.0000
     1.0000   1.0000   1.0000   1.0000   1.0000   1.0000   1.0000   1.0000
     1.0000   1.0000   1.0000   1.0000   1.0000   1.0000   1.0000   1.0000
     1.0000   1.0000   1.0000   1.0000   1.0000   1.0000   1.0000   1.0000
     1.0000   1.0000   1.0000   1.0000   1.0000   1.0000   1.0000   1.0000
     1.0000   1.0000   1.0000   1.0000   1.0000   1.0000   1.0000   1.0000
     1.0000   1.0000   1.0000   1.0000   1.0000   1.0000   1.0000   1.0000
     1.0000   1.0000   1.0000   1.0000   1.0000   1.0000   1.0000   1.0000
     1.0000   1.0000   1.0000   1.0000   1.0000   1.0000   1.0000   1.0000
     1.0000   1.0000   1.0000   1.0000   1.0000   1.0000   1.0000   1.0000
     1.0000   1.0000   1.0000   1.0000   1.0000   1.0000   1.0000   1.0000
     1.0000   1.0000   1.0000   1.0000   1.0000   1.0000   1.0000   1.0000
     1.0000   1.0000   1.0000   1.0000   1.0000   1.0000   1.0000   1.0000
     1.0000   1.0000   1.0000   1.0000   1.0000   1.0000   1.0000   1.0000
     1.0000   1.0000   1.0000   1.0000   1.0000   1.0000   1.0000   1.0000
     0.0000   0.0000   0.0000   0.0000   0.0000   0.0000   0.0000   0.0000
     0.0000   0.0000   0.0000   0.0000   0.0000   0.0000   0.0000   0.0000
     0.0000   0.0000   0.0000   0.0000   0.0000   0.0000   0.0000   0.0000

 ------ SPIN DOWN ----------


          k = 0.0000 0.0000 0.0000 (  7386 PWs)   bands (ev):

    -8.5256  -6.9080  -6.2628  -6.2476  -6.1497  -6.1163  -5.8427  -4.8959
    -4.1227  -4.1053  -4.0838  -4.0608  -3.9960  -3.9819  -3.9645  -3.9050
    -3.8387  -3.8212  -3.3173  -2.9143  -2.6218  -2.6203  -2.0160  -0.3445
    -0.3344  -0.3039  -0.2675  -0.0137   0.1904   0.2100   0.3193   0.3294
     0.3921   0.6544   0.8480   0.8556   0.9859   1.0029   1.0145   1.0708
     1.0773   1.0814   1.4334   1.4658   3.1862   3.9309   3.9498   4.0948
     4.2221   4.2493   4.2646   4.2890   4.2981   4.3145   4.4682   4.4726
     4.5179   4.5229   4.5909   4.6846   4.7014   4.7066   4.7133   4.8212
     4.8326   4.9352   4.9982   5.0024   5.1299   5.2325   5.2444   5.3270
     5.3729   5.3843   5.4183   5.4545   5.4670   6.1027   6.1066   6.1402
     6.6880   6.6931   6.7609   7.0755   7.0886   7.0987   7.6965   8.3716
     8.3766   8.4525   8.5033   8.5227   8.7204   8.7368   8.8251   8.8754
     8.8820   8.8878   8.9240   8.9298   8.9363   9.3223   9.3319   9.3453
     9.7123   9.7304   9.9320   9.9397   9.9556   9.9747   9.9752   9.9974
    10.0080  10.0622  10.0688  10.0768  10.1519  10.1658  10.3269  10.3784
    10.3899  11.4323  12.5601  12.5726  12.5962  14.4383  16.0175  16.1394
    17.3665  17.3942  17.4264  17.5501  17.6310  17.6391  17.8722  17.9442
    17.9550  18.0735  18.1071  18.4899  19.0489  19.0713  19.1139  20.7436
    20.8114  20.8381  20.8930  20.9604  20.9653  21.0410  21.0585  21.0639

     occupation numbers 
     1.0000   1.0000   1.0000   1.0000   1.0000   1.0000   1.0000   1.0000
     1.0000   1.0000   1.0000   1.0000   1.0000   1.0000   1.0000   1.0000
     1.0000   1.0000   1.0000   1.0000   1.0000   1.0000   1.0000   1.0000
     1.0000   1.0000   1.0000   1.0000   1.0000   1.0000   1.0000   1.0000
     1.0000   1.0000   1.0000   1.0000   1.0000   1.0000   1.0000   1.0000
     1.0000   1.0000   1.0000   1.0000   1.0000   1.0000   1.0000   1.0000
     1.0000   1.0000   1.0000   1.0000   1.0000   1.0000   1.0000   1.0000
     1.0000   1.0000   1.0000   1.0000   1.0000   1.0000   1.0000   1.0000
     1.0000   1.0000   1.0000   1.0000   1.0000   1.0000   1.0000   1.0000
     1.0000   1.0000   1.0000   1.0000   1.0000   1.0000   1.0000   1.0000
     1.0000   1.0000   1.0000   1.0000   1.0000   1.0000   1.0000   1.0000
     1.0000   1.0000   1.0000   1.0000   1.0000   1.0000   1.0000   1.0000
     1.0000   1.0000   1.0000   1.0000   1.0000   1.0000   1.0000   1.0000
     1.0000   1.0000   1.0000   1.0000   1.0000   1.0000   1.0000   1.0000
     1.0000   1.0000   1.0000   1.0000   1.0000   1.0000   1.0000   1.0000
     1.0000   1.0000   1.0000   1.0000   1.0000   1.0000   0.0000   0.0000
     0.0000   0.0000   0.0000   0.0000   0.0000   0.0000   0.0000   0.0000
     0.0000   0.0000   0.0000   0.0000   0.0000   0.0000   0.0000   0.0000
     0.0000   0.0000   0.0000   0.0000   0.0000   0.0000   0.0000   0.0000

     highest occupied, lowest unoccupied level (ev):    14.7991   16.0175

!    total energy              =    -723.90718306 Ry
     estimated scf accuracy    <          5.5E-09 Ry

     The total energy is the sum of the following terms:
     one-electron contribution =     232.28100613 Ry
     hartree contribution      =      70.33759269 Ry
     xc contribution           =    -226.77195760 Ry
     ewald contribution        =    -799.75382427 Ry

     total magnetization       =     2.00 Bohr mag/cell
     absolute magnetization    =     2.30 Bohr mag/cell

     convergence has been achieved in  14 iterations

     Forces acting on atoms (cartesian axes, Ry/au):

     atom    1 type  1   force =    -0.00283861   -0.00386554   -0.00251011
     atom    2 type  2   force =     0.03524131    0.01592979   -0.01255985
     atom    3 type  2   force =    -0.00926776    0.00863279    0.00623055
     atom    4 type  2   force =     0.00886804    0.02485683   -0.00282549
     atom    5 type  2   force =     0.00199185   -0.02060757    0.00196306
     atom    6 type  2   force =    -0.00843223    0.00834074    0.04332498
     atom    7 type  2   force =     0.01090412    0.01144008   -0.00241292
     atom    8 type  2   force =     0.00293614    0.00416847    0.00647777
     atom    9 type  2   force =    -0.00211121   -0.00454704   -0.00297014
     atom   10 type  2   force =     0.00095107    0.00121121    0.00735809
     atom   11 type  2   force =    -0.02866395    0.00591106   -0.00882657
     atom   12 type  2   force =     0.00002179    0.00375256    0.00345663
     atom   13 type  2   force =    -0.00249790   -0.03926485   -0.00149004
     atom   14 type  2   force =     0.00337083    0.00201356   -0.00431052
     atom   15 type  2   force =    -0.00280908   -0.00134169   -0.00569147
     atom   16 type  2   force =     0.00008604   -0.00107669   -0.00109035
     atom   17 type  2   force =    -0.00139178    0.00637484    0.00021583
     atom   18 type  2   force =     0.00297287   -0.00027717    0.00088072
     atom   19 type  2   force =    -0.00914883   -0.00315265   -0.00526214
     atom   20 type  2   force =     0.00305923   -0.00441810    0.00362707
     atom   21 type  2   force =    -0.00114300   -0.00402264   -0.00209849
     atom   22 type  2   force =     0.00136908    0.00204836    0.00134685
     atom   23 type  2   force =    -0.00126275   -0.00769681   -0.00196479
     atom   24 type  2   force =     0.00962343    0.00546000    0.00426958
     atom   25 type  2   force =    -0.01232228   -0.01383332   -0.00402045
     atom   26 type  2   force =     0.01491117    0.00614302    0.00166291
     atom   27 type  2   force =    -0.02569855   -0.00861145   -0.00641529
     atom   28 type  2   force =     0.01054755    0.00073284    0.00590660
     atom   29 type  2   force =    -0.00012345   -0.00159687   -0.00126901
     atom   30 type  2   force =     0.00767758    0.00655591    0.00414139
     atom   31 type  2   force =     0.00107766   -0.00160790   -0.00352911
     atom   32 type  2   force =     0.00228627   -0.00015565    0.00048222
     atom   33 type  2   force =     0.00039679    0.01353119   -0.00016573
     atom   34 type  2   force =    -0.00381538   -0.00230040    0.00270028
     atom   35 type  2   force =    -0.00464987   -0.00147012   -0.00394265
     atom   36 type  2   force =     0.00164003    0.00024779    0.00080963
     atom   37 type  2   force =     0.00036285   -0.03198452   -0.00747740
     atom   38 type  2   force =     0.00602382   -0.00231539    0.00062422
     atom   39 type  2   force =    -0.01072964    0.00553455   -0.01344875
     atom   40 type  2   force =     0.00537178    0.01272647    0.00493857
     atom   41 type  2   force =    -0.00738800   -0.01546708   -0.00367564
     atom   42 type  2   force =    -0.00009178    0.01749042    0.00599147
     atom   43 type  2   force =    -0.00125136    0.00018076   -0.00039280
     atom   44 type  2   force =     0.00463593    0.01719049    0.00303899
     atom   45 type  2   force =    -0.00711330   -0.02584823   -0.00698895
     atom   46 type  2   force =     0.00646840    0.01615709    0.00117344
     atom   47 type  2   force =    -0.00118545    0.00127026   -0.00183748
     atom   48 type  2   force =     0.00481484    0.00561095    0.00773104
     atom   49 type  2   force =    -0.00797551   -0.01414942   -0.01014488
     atom   50 type  2   force =     0.00431468    0.00668004    0.00340620
     atom   51 type  2   force =    -0.00360812   -0.00239616    0.00093227
     atom   52 type  2   force =     0.00651460    0.00213576    0.00499012
     atom   53 type  2   force =    -0.00167798   -0.00295952   -0.00040478
     atom   54 type  2   force =     0.00254383    0.00545716    0.01401802
     atom   55 type  2   force =    -0.00644114   -0.00908708   -0.02462623
     atom   56 type  2   force =     0.00468877    0.00457795    0.00465283
     atom   57 type  2   force =    -0.00173561   -0.00069484   -0.00225996
     atom   58 type  2   force =     0.00156481    0.00401353    0.00324708
     atom   59 type  2   force =    -0.00157876   -0.00326562   -0.00437478
     atom   60 type  2   force =     0.00271896    0.00192136    0.00239481
     atom   61 type  2   force =    -0.00336551   -0.00176421   -0.00383627
     atom   62 type  2   force =     0.00396516    0.00443829    0.00121940
     atom   63 type  2   force =    -0.00360245   -0.00295765   -0.00038958
     The non-local contrib.  to forces
     atom    1 type  1   force =    -0.76067742   -0.76445486   -0.75853968
     atom    2 type  2   force =    -0.16483014    0.22036707    0.17833879
     atom    3 type  2   force =     0.05669438    0.08118433    0.07246491
     atom    4 type  2   force =     0.21487604   -0.18850042    0.19751801
     atom    5 type  2   force =     0.07190248    0.04213055    0.07124632
     atom    6 type  2   force =     0.17956434    0.20413345   -0.14663861
     atom    7 type  2   force =     0.07789625    0.08258296    0.06426630
     atom    8 type  2   force =    -0.00486903   -0.00436912    0.05629421
     atom    9 type  2   force =    -0.00558617   -0.00816544    0.01318328
     atom   10 type  2   force =    -0.04395936   -0.01387804   -0.01208056
     atom   11 type  2   force =    -0.10389519    0.06769356   -0.08311303
     atom   12 type  2   force =    -0.01688826   -0.04080490   -0.01417001
     atom   13 type  2   force =     0.05315702   -0.11690524   -0.07233294
     atom   14 type  2   force =     0.00220978    0.00076284    0.04603270
     atom   15 type  2   force =     0.01016240    0.00908025   -0.00370926
     atom   16 type  2   force =    -0.01275504    0.04858508   -0.01314774
     atom   17 type  2   force =    -0.00459891    0.02697447   -0.00324689
     atom   18 type  2   force =    -0.04069394   -0.02224928   -0.01570746
     atom   19 type  2   force =    -0.08116296   -0.07898245    0.05527854
     atom   20 type  2   force =     0.00481546    0.04465424    0.00501073
     atom   21 type  2   force =     0.01077512   -0.00308447    0.01116873
     atom   22 type  2   force =    -0.01483068   -0.02043106   -0.04258714
     atom   23 type  2   force =     0.06290321   -0.08513612   -0.07276391
     atom   24 type  2   force =    -0.06468297    0.03323527    0.03417538
     atom   25 type  2   force =    -0.02444462    0.00029652    0.01386684
     atom   26 type  2   force =    -0.04183117   -0.02072433   -0.02355828
     atom   27 type  2   force =    -0.14704657    0.12522560    0.12334740
     atom   28 type  2   force =     0.08004917    0.02349779   -0.01264754
     atom   29 type  2   force =     0.00063167    0.01854585    0.00491556
     atom   30 type  2   force =     0.07665700   -0.01318998    0.02890593
     atom   31 type  2   force =     0.00319710    0.00329354    0.01668806
     atom   32 type  2   force =     0.05210342   -0.01044597   -0.00784632
     atom   33 type  2   force =     0.01799318    0.01408179   -0.00371299
     atom   34 type  2   force =     0.04558467   -0.00276548    0.00312928
     atom   35 type  2   force =    -0.00353680    0.00819437    0.00985699
     atom   36 type  2   force =    -0.01758188   -0.04418953   -0.01720523
     atom   37 type  2   force =    -0.07280869   -0.10901662    0.04674117
     atom   38 type  2   force =    -0.01448273   -0.01719722   -0.04458216
     atom   39 type  2   force =    -0.08736523    0.07078355   -0.08752312
     atom   40 type  2   force =     0.03518552   -0.05867013    0.03561533
     atom   41 type  2   force =     0.00896843   -0.02626846    0.01411504
     atom   42 type  2   force =     0.02079784    0.08869876   -0.00967745
     atom   43 type  2   force =     0.01716174   -0.00046071    0.00442058
     atom   44 type  2   force =    -0.02279365   -0.03714831   -0.02357751
     atom   45 type  2   force =     0.12597076   -0.14808686    0.12322954
     atom   46 type  2   force =    -0.00971428    0.08692971    0.02304258
     atom   47 type  2   force =     0.00319864    0.00122786    0.01614847
     atom   48 type  2   force =     0.03345292    0.03320327   -0.06835348
     atom   49 type  2   force =     0.00847922    0.00011033   -0.02289365
     atom   50 type  2   force =     0.02979976   -0.01448177    0.07141604
     atom   51 type  2   force =     0.01701932    0.00294596    0.00386070
     atom   52 type  2   force =    -0.01406744    0.02664105    0.07306445
     atom   53 type  2   force =     0.00477904    0.01801606    0.00166780
     atom   54 type  2   force =    -0.02270883   -0.02048049   -0.04387886
     atom   55 type  2   force =     0.12394807    0.12393268   -0.14648701
     atom   56 type  2   force =     0.02285220    0.02395864    0.02184953
     atom   57 type  2   force =     0.00517174    0.00466115    0.00536224
     atom   58 type  2   force =     0.01612678   -0.00656764   -0.01025739
     atom   59 type  2   force =     0.00788685   -0.01498762   -0.01601363
     atom   60 type  2   force =    -0.01033764    0.01812588   -0.01125826
     atom   61 type  2   force =    -0.01494136    0.00885483   -0.01540010
     atom   62 type  2   force =    -0.00832605   -0.00606356    0.01545751
     atom   63 type  2   force =    -0.01569564   -0.01503780    0.00840799
     The ionic contribution  to forces
     atom    1 type  1   force =     2.98687862    2.95646895    2.99623907
     atom    2 type  2   force =     2.40960372   -2.05769857   -2.21654125
     atom    3 type  2   force =     0.48073271   -0.73027016   -0.85315077
     atom    4 type  2   force =    -2.09277682    2.33552169   -2.15629068
     atom    5 type  2   force =    -0.77872568    0.40636567   -0.82621945
     atom    6 type  2   force =    -2.18383090   -2.09630365    2.46124943
     atom    7 type  2   force =    -0.81581947   -0.75327273    0.53716005
     atom    8 type  2   force =     0.25734040    0.21611839   -0.72653328
     atom    9 type  2   force =     0.06593232    0.02765472   -0.22423028
     atom   10 type  2   force =     0.17946382    0.07217820    0.56613584
     atom   11 type  2   force =    -0.52792009   -0.62740700    0.80392703
     atom   12 type  2   force =     0.02796518    0.16162000    0.55004707
     atom   13 type  2   force =    -0.66291900   -0.56099884    0.76138866
     atom   14 type  2   force =    -0.19372589   -0.17898194   -0.71536416
     atom   15 type  2   force =    -0.16816012   -0.13077555   -0.06820850
     atom   16 type  2   force =     0.19893691   -0.77708321    0.22591686
     atom   17 type  2   force =     0.07131429   -0.15831551    0.09375216
     atom   18 type  2   force =     0.22422349    0.46692903    0.00280646
     atom   19 type  2   force =    -0.36191647    0.74819616   -0.70611430
     atom   20 type  2   force =    -0.17972647   -0.73259706   -0.19090496
     atom   21 type  2   force =    -0.17447241   -0.06090128   -0.20024523
     atom   22 type  2   force =     0.02643177    0.47619520    0.23669513
     atom   23 type  2   force =    -0.69684024    0.77415179   -0.33155918
     atom   24 type  2   force =     0.10568433   -0.13762784   -0.17100537
     atom   25 type  2   force =    -0.02570247   -0.08042891   -0.07037147
     atom   26 type  2   force =     0.13058779   -0.09490424   -0.04949568
     atom   27 type  2   force =     1.14064976    0.24367929    0.24952991
     atom   28 type  2   force =    -0.08160434   -0.13701161    0.11325214
     atom   29 type  2   force =    -0.15451804    0.02823707    0.25693460
     atom   30 type  2   force =    -0.02018537    0.13706949   -0.23440993
     atom   31 type  2   force =    -0.15373995    0.17275375   -0.00828585
     atom   32 type  2   force =    -0.76931131    0.19474373    0.23670676
     atom   33 type  2   force =    -0.20306735    0.09953422    0.09189379
     atom   34 type  2   force =    -0.69184895   -0.17730033   -0.22485527
     atom   35 type  2   force =    -0.06350825   -0.13825112   -0.20618293
     atom   36 type  2   force =     0.54118119    0.17463565    0.02851075
     atom   37 type  2   force =     0.73627386   -0.49482777   -0.69231954
     atom   38 type  2   force =     0.51307412    0.07048099    0.23424869
     atom   39 type  2   force =     0.79994768   -0.64197757   -0.43127188
     atom   40 type  2   force =    -0.19767484    0.06443467   -0.20738942
     atom   41 type  2   force =    -0.07052434   -0.08493177   -0.06848469
     atom   42 type  2   force =    -0.13023491    0.02906366    0.09151594
     atom   43 type  2   force =     0.03284629   -0.11840412    0.26225879
     atom   44 type  2   force =    -0.07073577    0.12489238   -0.05672984
     atom   45 type  2   force =     0.24397265    1.16460959    0.24807208
     atom   46 type  2   force =     0.09895570    0.05275329   -0.17231716
     atom   47 type  2   force =     0.22278253   -0.11449587    0.01661619
     atom   48 type  2   force =    -0.12942661   -0.11842599    0.14009778
     atom   49 type  2   force =    -0.07478053   -0.09040616    0.00727120
     atom   50 type  2   force =    -0.23903587    0.14533660   -0.08048992
     atom   51 type  2   force =    -0.00973039    0.17003219   -0.17204617
     atom   52 type  2   force =     0.13662125   -0.18470403   -0.12400988
     atom   53 type  2   force =     0.22807954    0.01049232   -0.18204385
     atom   54 type  2   force =    -0.06078294   -0.09829418    0.13650638
     atom   55 type  2   force =     0.25315684    0.23859325    1.13185719
     atom   56 type  2   force =    -0.09052478   -0.03230197   -0.12586953
     atom   57 type  2   force =    -0.02256112   -0.03676984   -0.01945283
     atom   58 type  2   force =    -0.07726374    0.04588885    0.03895660
     atom   59 type  2   force =    -0.28483697    0.07263118    0.14564708
     atom   60 type  2   force =     0.05958864   -0.03804483    0.06012299
     atom   61 type  2   force =     0.13140341   -0.30583985    0.15882082
     atom   62 type  2   force =     0.03072548    0.03472055   -0.09816280
     atom   63 type  2   force =     0.12407810    0.07357099   -0.27358136
     The local contribution  to forces
     atom    1 type  1   force =    -2.22910642   -2.19589722   -2.24026485
     atom    2 type  2   force =    -2.20960669    1.85323377    2.02558531
     atom    3 type  2   force =    -0.54679725    0.65765897    0.78684986
     atom    4 type  2   force =     1.88667711   -2.12219499    1.95589370
     atom    5 type  2   force =     0.70871192   -0.46913004    0.75689106
     atom    6 type  2   force =     1.99573723    1.90048554   -2.27134631
     atom    7 type  2   force =     0.74871657    0.68208649   -0.60391037
     atom    8 type  2   force =    -0.24960141   -0.20759344    0.67666478
     atom    9 type  2   force =    -0.06252949   -0.02405718    0.20802334
     atom   10 type  2   force =    -0.13461261   -0.05712591   -0.54674712
     atom   11 type  2   force =     0.60308393    0.56557654   -0.72968435
     atom   12 type  2   force =    -0.01114075   -0.11709428   -0.53247026
     atom   13 type  2   force =     0.60716195    0.63861408   -0.69060334
     atom   14 type  2   force =     0.19478300    0.18019892    0.66497346
     atom   15 type  2   force =     0.15507660    0.12030162    0.06619090
     atom   16 type  2   force =    -0.18615976    0.72735020   -0.21390366
     atom   17 type  2   force =    -0.06818159    0.13763490   -0.09035004
     atom   18 type  2   force =    -0.18062013   -0.44502499    0.01371498
     atom   19 type  2   force =     0.43385789   -0.67241022    0.64552305
     atom   20 type  2   force =     0.17786549    0.68346031    0.18945743
     atom   21 type  2   force =     0.16244329    0.05990370    0.18692096
     atom   22 type  2   force =    -0.01031537   -0.45378137   -0.19282490
     atom   23 type  2   force =     0.63258196   -0.69676676    0.40228774
     atom   24 type  2   force =    -0.03144038    0.10977298    0.14103473
     atom   25 type  2   force =     0.03775634    0.06622781    0.05243633
     atom   26 type  2   force =    -0.07391262    0.12171461    0.07467451
     atom   27 type  2   force =    -1.01937928   -0.37755733   -0.37934410
     atom   28 type  2   force =     0.01201774    0.11418217   -0.09474225
     atom   29 type  2   force =     0.15366354   -0.04844871   -0.26316922
     atom   30 type  2   force =    -0.04887672   -0.11738680    0.20959983
     atom   31 type  2   force =     0.15152027   -0.17769838   -0.01197672
     atom   32 type  2   force =     0.71939585   -0.18449201   -0.22844330
     atom   33 type  2   force =     0.18538338   -0.10011130   -0.08840713
     atom   34 type  2   force =     0.64235478    0.17773097    0.22436423
     atom   35 type  2   force =     0.06231758    0.12852848    0.19231883
     atom   36 type  2   force =    -0.52203734   -0.13021066   -0.01056392
     atom   37 type  2   force =    -0.66316113    0.57186317    0.63802927
     atom   38 type  2   force =    -0.49264241   -0.05563630   -0.18908330
     atom   39 type  2   force =    -0.72336795    0.57666576    0.50530964
     atom   40 type  2   force =     0.16775267    0.00692899    0.17667105
     atom   41 type  2   force =     0.05406460    0.09569934    0.05064583
     atom   42 type  2   force =     0.10922922   -0.10030757   -0.07589276
     atom   43 type  2   force =    -0.05136844    0.11900142   -0.26711759
     atom   44 type  2   force =     0.09807611   -0.07059295    0.08330436
     atom   45 type  2   force =    -0.37712291   -1.04240663   -0.37832907
     atom   46 type  2   force =    -0.08284395   -0.12355987    0.15037782
     atom   47 type  2   force =    -0.22722794    0.11448477   -0.03466985
     atom   48 type  2   force =     0.10067928    0.09077800   -0.06407774
     atom   49 type  2   force =     0.05822463    0.07607951    0.00540397
     atom   50 type  2   force =     0.21343883   -0.12423522    0.01241373
     atom   51 type  2   force =    -0.01100650   -0.17541057    0.16906245
     atom   52 type  2   force =    -0.11610929    0.16011500    0.05587257
     atom   53 type  2   force =    -0.23459743   -0.03155920    0.17990938
     atom   54 type  2   force =     0.08594345    0.12417474   -0.07867700
     atom   55 type  2   force =    -0.38361710   -0.37164491   -1.01007049
     atom   56 type  2   force =     0.07225194    0.01286182    0.10862783
     atom   57 type  2   force =     0.01555004    0.03135385    0.01179635
     atom   58 type  2   force =     0.06259754   -0.03536503   -0.02549296
     atom   59 type  2   force =     0.27527208   -0.06095806   -0.13405854
     atom   60 type  2   force =    -0.04662207    0.02178899   -0.04651251
     atom   61 type  2   force =    -0.11990301    0.29516080   -0.14730364
     atom   62 type  2   force =    -0.01852386   -0.02427780    0.08388692
     atom   63 type  2   force =    -0.11205858   -0.06153151    0.26474946
     The core correction contribution to forces
     atom    1 type  1   force =     0.00000000    0.00000000    0.00000000
     atom    2 type  2   force =     0.00000000    0.00000000    0.00000000
     atom    3 type  2   force =     0.00000000    0.00000000    0.00000000
     atom    4 type  2   force =     0.00000000    0.00000000    0.00000000
     atom    5 type  2   force =     0.00000000    0.00000000    0.00000000
     atom    6 type  2   force =     0.00000000    0.00000000    0.00000000
     atom    7 type  2   force =     0.00000000    0.00000000    0.00000000
     atom    8 type  2   force =     0.00000000    0.00000000    0.00000000
     atom    9 type  2   force =     0.00000000    0.00000000    0.00000000
     atom   10 type  2   force =     0.00000000    0.00000000    0.00000000
     atom   11 type  2   force =     0.00000000    0.00000000    0.00000000
     atom   12 type  2   force =     0.00000000    0.00000000    0.00000000
     atom   13 type  2   force =     0.00000000    0.00000000    0.00000000
     atom   14 type  2   force =     0.00000000    0.00000000    0.00000000
     atom   15 type  2   force =     0.00000000    0.00000000    0.00000000
     atom   16 type  2   force =     0.00000000    0.00000000    0.00000000
     atom   17 type  2   force =     0.00000000    0.00000000    0.00000000
     atom   18 type  2   force =     0.00000000    0.00000000    0.00000000
     atom   19 type  2   force =     0.00000000    0.00000000    0.00000000
     atom   20 type  2   force =     0.00000000    0.00000000    0.00000000
     atom   21 type  2   force =     0.00000000    0.00000000    0.00000000
     atom   22 type  2   force =     0.00000000    0.00000000    0.00000000
     atom   23 type  2   force =     0.00000000    0.00000000    0.00000000
     atom   24 type  2   force =     0.00000000    0.00000000    0.00000000
     atom   25 type  2   force =     0.00000000    0.00000000    0.00000000
     atom   26 type  2   force =     0.00000000    0.00000000    0.00000000
     atom   27 type  2   force =     0.00000000    0.00000000    0.00000000
     atom   28 type  2   force =     0.00000000    0.00000000    0.00000000
     atom   29 type  2   force =     0.00000000    0.00000000    0.00000000
     atom   30 type  2   force =     0.00000000    0.00000000    0.00000000
     atom   31 type  2   force =     0.00000000    0.00000000    0.00000000
     atom   32 type  2   force =     0.00000000    0.00000000    0.00000000
     atom   33 type  2   force =     0.00000000    0.00000000    0.00000000
     atom   34 type  2   force =     0.00000000    0.00000000    0.00000000
     atom   35 type  2   force =     0.00000000    0.00000000    0.00000000
     atom   36 type  2   force =     0.00000000    0.00000000    0.00000000
     atom   37 type  2   force =     0.00000000    0.00000000    0.00000000
     atom   38 type  2   force =     0.00000000    0.00000000    0.00000000
     atom   39 type  2   force =     0.00000000    0.00000000    0.00000000
     atom   40 type  2   force =     0.00000000    0.00000000    0.00000000
     atom   41 type  2   force =     0.00000000    0.00000000    0.00000000
     atom   42 type  2   force =     0.00000000    0.00000000    0.00000000
     atom   43 type  2   force =     0.00000000    0.00000000    0.00000000
     atom   44 type  2   force =     0.00000000    0.00000000    0.00000000
     atom   45 type  2   force =     0.00000000    0.00000000    0.00000000
     atom   46 type  2   force =     0.00000000    0.00000000    0.00000000
     atom   47 type  2   force =     0.00000000    0.00000000    0.00000000
     atom   48 type  2   force =     0.00000000    0.00000000    0.00000000
     atom   49 type  2   force =     0.00000000    0.00000000    0.00000000
     atom   50 type  2   force =     0.00000000    0.00000000    0.00000000
     atom   51 type  2   force =     0.00000000    0.00000000    0.00000000
     atom   52 type  2   force =     0.00000000    0.00000000    0.00000000
     atom   53 type  2   force =     0.00000000    0.00000000    0.00000000
     atom   54 type  2   force =     0.00000000    0.00000000    0.00000000
     atom   55 type  2   force =     0.00000000    0.00000000    0.00000000
     atom   56 type  2   force =     0.00000000    0.00000000    0.00000000
     atom   57 type  2   force =     0.00000000    0.00000000    0.00000000
     atom   58 type  2   force =     0.00000000    0.00000000    0.00000000
     atom   59 type  2   force =     0.00000000    0.00000000    0.00000000
     atom   60 type  2   force =     0.00000000    0.00000000    0.00000000
     atom   61 type  2   force =     0.00000000    0.00000000    0.00000000
     atom   62 type  2   force =     0.00000000    0.00000000    0.00000000
     atom   63 type  2   force =     0.00000000    0.00000000    0.00000000
     The Hubbard contrib.    to forces
     atom    1 type  1   force =     0.00000000    0.00000000    0.00000000
     atom    2 type  2   force =     0.00000000    0.00000000    0.00000000
     atom    3 type  2   force =     0.00000000    0.00000000    0.00000000
     atom    4 type  2   force =     0.00000000    0.00000000    0.00000000
     atom    5 type  2   force =     0.00000000    0.00000000    0.00000000
     atom    6 type  2   force =     0.00000000    0.00000000    0.00000000
     atom    7 type  2   force =     0.00000000    0.00000000    0.00000000
     atom    8 type  2   force =     0.00000000    0.00000000    0.00000000
     atom    9 type  2   force =     0.00000000    0.00000000    0.00000000
     atom   10 type  2   force =     0.00000000    0.00000000    0.00000000
     atom   11 type  2   force =     0.00000000    0.00000000    0.00000000
     atom   12 type  2   force =     0.00000000    0.00000000    0.00000000
     atom   13 type  2   force =     0.00000000    0.00000000    0.00000000
     atom   14 type  2   force =     0.00000000    0.00000000    0.00000000
     atom   15 type  2   force =     0.00000000    0.00000000    0.00000000
     atom   16 type  2   force =     0.00000000    0.00000000    0.00000000
     atom   17 type  2   force =     0.00000000    0.00000000    0.00000000
     atom   18 type  2   force =     0.00000000    0.00000000    0.00000000
     atom   19 type  2   force =     0.00000000    0.00000000    0.00000000
     atom   20 type  2   force =     0.00000000    0.00000000    0.00000000
     atom   21 type  2   force =     0.00000000    0.00000000    0.00000000
     atom   22 type  2   force =     0.00000000    0.00000000    0.00000000
     atom   23 type  2   force =     0.00000000    0.00000000    0.00000000
     atom   24 type  2   force =     0.00000000    0.00000000    0.00000000
     atom   25 type  2   force =     0.00000000    0.00000000    0.00000000
     atom   26 type  2   force =     0.00000000    0.00000000    0.00000000
     atom   27 type  2   force =     0.00000000    0.00000000    0.00000000
     atom   28 type  2   force =     0.00000000    0.00000000    0.00000000
     atom   29 type  2   force =     0.00000000    0.00000000    0.00000000
     atom   30 type  2   force =     0.00000000    0.00000000    0.00000000
     atom   31 type  2   force =     0.00000000    0.00000000    0.00000000
     atom   32 type  2   force =     0.00000000    0.00000000    0.00000000
     atom   33 type  2   force =     0.00000000    0.00000000    0.00000000
     atom   34 type  2   force =     0.00000000    0.00000000    0.00000000
     atom   35 type  2   force =     0.00000000    0.00000000    0.00000000
     atom   36 type  2   force =     0.00000000    0.00000000    0.00000000
     atom   37 type  2   force =     0.00000000    0.00000000    0.00000000
     atom   38 type  2   force =     0.00000000    0.00000000    0.00000000
     atom   39 type  2   force =     0.00000000    0.00000000    0.00000000
     atom   40 type  2   force =     0.00000000    0.00000000    0.00000000
     atom   41 type  2   force =     0.00000000    0.00000000    0.00000000
     atom   42 type  2   force =     0.00000000    0.00000000    0.00000000
     atom   43 type  2   force =     0.00000000    0.00000000    0.00000000
     atom   44 type  2   force =     0.00000000    0.00000000    0.00000000
     atom   45 type  2   force =     0.00000000    0.00000000    0.00000000
     atom   46 type  2   force =     0.00000000    0.00000000    0.00000000
     atom   47 type  2   force =     0.00000000    0.00000000    0.00000000
     atom   48 type  2   force =     0.00000000    0.00000000    0.00000000
     atom   49 type  2   force =     0.00000000    0.00000000    0.00000000
     atom   50 type  2   force =     0.00000000    0.00000000    0.00000000
     atom   51 type  2   force =     0.00000000    0.00000000    0.00000000
     atom   52 type  2   force =     0.00000000    0.00000000    0.00000000
     atom   53 type  2   force =     0.00000000    0.00000000    0.00000000
     atom   54 type  2   force =     0.00000000    0.00000000    0.00000000
     atom   55 type  2   force =     0.00000000    0.00000000    0.00000000
     atom   56 type  2   force =     0.00000000    0.00000000    0.00000000
     atom   57 type  2   force =     0.00000000    0.00000000    0.00000000
     atom   58 type  2   force =     0.00000000    0.00000000    0.00000000
     atom   59 type  2   force =     0.00000000    0.00000000    0.00000000
     atom   60 type  2   force =     0.00000000    0.00000000    0.00000000
     atom   61 type  2   force =     0.00000000    0.00000000    0.00000000
     atom   62 type  2   force =     0.00000000    0.00000000    0.00000000
     atom   63 type  2   force =     0.00000000    0.00000000    0.00000000
     The SCF correction term to forces
     atom    1 type  1   force =    -0.00002028   -0.00002919    0.00000138
     atom    2 type  2   force =    -0.00001246   -0.00001924    0.00000332
     atom    3 type  2   force =     0.00001552    0.00001289    0.00001257
     atom    4 type  2   force =     0.00000483   -0.00001621   -0.00000050
     atom    5 type  2   force =     0.00001625   -0.00002052   -0.00000885
     atom    6 type  2   force =     0.00001021   -0.00002137    0.00000648
     atom    7 type  2   force =     0.00002388   -0.00000341    0.00001712
     atom    8 type  2   force =    -0.00002070   -0.00003412   -0.00000193
     atom    9 type  2   force =    -0.00001476   -0.00002591   -0.00000044
     atom   10 type  2   force =    -0.00002766   -0.00000980   -0.00000405
     atom   11 type  2   force =    -0.00001949    0.00000119   -0.00001020
     atom   12 type  2   force =    -0.00000125   -0.00001502   -0.00000415
     atom   13 type  2   force =     0.00001524   -0.00002161    0.00000360
     atom   14 type  2   force =     0.00001706   -0.00001302   -0.00000650
     atom   15 type  2   force =     0.00002515    0.00000523   -0.00001859
     atom   16 type  2   force =    -0.00002295    0.00002448   -0.00000980
     atom   17 type  2   force =    -0.00001245    0.00003421    0.00000661
     atom   18 type  2   force =    -0.00002343    0.00002131    0.00001276
     atom   19 type  2   force =    -0.00001417   -0.00000291   -0.00000339
     atom   20 type  2   force =     0.00001786    0.00001765    0.00000989
     atom   21 type  2   force =     0.00002411    0.00001266    0.00000307
     atom   22 type  2   force =    -0.00000352    0.00001882    0.00000979
     atom   23 type  2   force =     0.00000544    0.00000752    0.00001658
     atom   24 type  2   force =    -0.00002443    0.00003283    0.00001086
     atom   25 type  2   force =    -0.00001841    0.00002449   -0.00000614
     atom   26 type  2   force =    -0.00001972    0.00001021   -0.00001162
     atom   27 type  2   force =    -0.00000934   -0.00000578   -0.00000249
     atom   28 type  2   force =    -0.00000190    0.00001774   -0.00000973
     atom   29 type  2   force =     0.00001250    0.00002216   -0.00000393
     atom   30 type  2   force =    -0.00000422    0.00001644   -0.00000841
     atom   31 type  2   force =     0.00001335   -0.00000358   -0.00000858
     atom   32 type  2   force =     0.00001143   -0.00000817    0.00001111
     atom   33 type  2   force =     0.00000070   -0.00002029    0.00000661
     atom   34 type  2   force =     0.00000724   -0.00001231    0.00000806
     atom   35 type  2   force =    -0.00000928    0.00001139    0.00001049
     atom   36 type  2   force =    -0.00000882   -0.00003443    0.00001404
     atom   37 type  2   force =    -0.00002808   -0.00005006    0.00001772
     atom   38 type  2   force =    -0.00001203   -0.00000963   -0.00001298
     atom   39 type  2   force =    -0.00003102    0.00001605   -0.00001736
     atom   40 type  2   force =     0.00002154   -0.00001383   -0.00001238
     atom   41 type  2   force =     0.00001643   -0.00001296   -0.00000579
     atom   42 type  2   force =     0.00002919   -0.00001120   -0.00000824
     atom   43 type  2   force =     0.00002216   -0.00000259   -0.00000856
     atom   44 type  2   force =     0.00000235   -0.00000739   -0.00001199
     atom   45 type  2   force =    -0.00002069   -0.00001110   -0.00001548
     atom   46 type  2   force =    -0.00001596   -0.00001281    0.00001622
     atom   47 type  2   force =    -0.00002557    0.00000674    0.00001373
     atom   48 type  2   force =     0.00002237    0.00000890    0.00001050
     atom   49 type  2   force =     0.00001428    0.00002014    0.00001962
     atom   50 type  2   force =     0.00002508    0.00001366    0.00001237
     atom   51 type  2   force =     0.00002256   -0.00001051    0.00000131
     atom   52 type  2   force =    -0.00001680    0.00003697    0.00000901
     atom   53 type  2   force =    -0.00002601    0.00004454    0.00000791
     atom   54 type  2   force =     0.00000526    0.00001033    0.00001352
     atom   55 type  2   force =    -0.00001582   -0.00001487    0.00002011
     atom   56 type  2   force =     0.00002254    0.00001271   -0.00000898
     atom   57 type  2   force =     0.00001685    0.00001324   -0.00001970
     atom   58 type  2   force =     0.00001735    0.00001060   -0.00001315
     atom   59 type  2   force =     0.00001240    0.00000213   -0.00000368
     atom   60 type  2   force =     0.00000314    0.00000456   -0.00001139
     atom   61 type  2   force =    -0.00001143    0.00001325   -0.00000733
     atom   62 type  2   force =     0.00000270    0.00001234   -0.00001619
     atom   63 type  2   force =    -0.00001322   -0.00000610   -0.00001964

     Total force =     0.126545     Total SCF correction =     0.000222

     Writing all to output data dir ./pwscf.save/ :
     XML data file, charge density, pseudopotentials, collected wavefunctions
 
     init_run     :      0.39s CPU      0.66s WALL (       1 calls)
     electrons    :     12.13s CPU     12.30s WALL (       1 calls)
     forces       :      0.17s CPU      0.17s WALL (       1 calls)

     Called by init_run:
     wfcinit      :      0.04s CPU      0.05s WALL (       1 calls)
     wfcinit:wfcr :      0.04s CPU      0.05s WALL (       1 calls)
     potinit      :      0.19s CPU      0.35s WALL (       1 calls)
     hinit0       :      0.04s CPU      0.13s WALL (       1 calls)

     Called by electrons:
     c_bands      :      9.71s CPU      9.85s WALL (      14 calls)
     sum_band     :      0.69s CPU      0.70s WALL (      14 calls)
     v_of_rho     :      0.92s CPU      0.93s WALL (      15 calls)
     v_h          :      0.07s CPU      0.07s WALL (      15 calls)
     v_xc         :      0.86s CPU      0.86s WALL (      15 calls)
     mix_rho      :      0.49s CPU      0.49s WALL (      14 calls)

     Called by c_bands:
     init_us_2    :      0.02s CPU      0.02s WALL (      30 calls)
     regterg      :      9.53s CPU      9.67s WALL (      14 calls)

     Called by sum_band:
     sum_band:wei :      0.03s CPU      0.03s WALL (      14 calls)
     sum_band:loo :      0.63s CPU      0.64s WALL (      14 calls)
     sum_band:buf :      0.00s CPU      0.00s WALL (      14 calls)
     sum_band:ini :      0.01s CPU      0.01s WALL (      14 calls)

     Called by *egterg:
     rdiaghg      :      4.37s CPU      4.47s WALL (     274 calls)
     regterg:over :      0.52s CPU      0.53s WALL (     260 calls)
     regterg:upda :      0.34s CPU      0.34s WALL (     260 calls)
     regterg:last :      0.40s CPU      0.40s WALL (      51 calls)
     rdiaghg:chol :      0.15s CPU      0.15s WALL (     274 calls)
     rdiaghg:inve :      0.03s CPU      0.03s WALL (     274 calls)
     rdiaghg:para :      0.41s CPU      0.44s WALL (     548 calls)
     h_psi        :      3.72s CPU      3.75s WALL (     275 calls)
     g_psi        :      0.00s CPU      0.00s WALL (     260 calls)

     Called by h_psi:
     h_psi:calbec :      0.53s CPU      0.54s WALL (     275 calls)
     vloc_psi     :      3.07s CPU      3.10s WALL (     275 calls)
                                        0.00s GPU  (     275 calls)
     add_vuspsi   :      0.10s CPU      0.11s WALL (     275 calls)

     General routines
     calbec       :      0.55s CPU      0.55s WALL (     279 calls)
     fft          :      0.61s CPU      0.68s WALL (     196 calls)
     ffts         :      0.01s CPU      0.01s WALL (      14 calls)
     fftw         :      3.60s CPU      3.62s WALL (   10104 calls)
 
     Parallel routines
 
     PWSCF        :     13.79s CPU     14.71s WALL

 
   This run was terminated on:  16:26:26  16Nov2025            

=------------------------------------------------------------------------------=
   JOB DONE.
=------------------------------------------------------------------------------=
