
     Program PWSCF v.7.5 starts on 16Nov2025 at 15:44:26 

     This program is part of the open-source Quantum ESPRESSO suite
     for quantum simulation of materials; please cite
         "P. Giannozzi et al., J. Phys.:Condens. Matter 21 395502 (2009);
         "P. Giannozzi et al., J. Phys.:Condens. Matter 29 465901 (2017);
         "P. Giannozzi et al., J. Chem. Phys. 152 154105 (2020);
          URL http://www.quantum-espresso.org", 
     in publications or presentations arising from this work. More details at
     http://www.quantum-espresso.org/quote

     Parallel version (MPI), running on    96 processors

     MPI processes distributed on     2 nodes
     174967 MiB available memory on the printing compute node when the environment starts
 
     Reading input from supercell-065.in

     Current dimensions of program PWSCF are:
     Max number of different atomic species (ntypx) = 10
     Max number of k-points (npk) =  40000
     Max angular momentum in pseudopotentials (lmaxx) =  4

     gamma-point specific algorithms are used
 
     K-points division:     npool     =       2
     R & G space division:  proc/nbgrp/npool/nimage =      48
     Subspace diagonalization in iterative solution of the eigenvalue problem:
     one sub-group per band group will be used
     scalapack distributed-memory algorithm (size of sub-group:  2*  2 procs)

 
     Parallelization info
     --------------------
     sticks:   dense  smooth     PW     G-vecs:    dense   smooth      PW
     Min          59      59     14                 2432     2432     302
     Max          62      62     16                 2442     2442     316
     Sum        2885    2885    725               116921   116921   14771
 
     Using Slab Decomposition
 


     bravais-lattice index     =            0
     lattice parameter (alat)  =      13.4813  a.u.
     unit-cell volume          =    2450.1683 (a.u.)^3
     number of atoms/cell      =           63
     number of atomic types    =            2
     number of electrons       =       254.00 (up: 128.00, down: 126.00)
     number of Kohn-Sham states=          152
     kinetic-energy cutoff     =      50.0000  Ry
     charge density cutoff     =     200.0000  Ry
     scf convergence threshold =      1.0E-08
     mixing beta               =       0.7000
     number of iterations used =            8  plain     mixing
     Exchange-correlation= PBE
                           (   1   4   3   4   0   0   0)

     celldm(1)=  13.481306  celldm(2)=   0.000000  celldm(3)=   0.000000
     celldm(4)=   0.000000  celldm(5)=   0.000000  celldm(6)=   0.000000

     crystal axes: (cart. coord. in units of alat)
               a(1) = (   1.000000   0.000000   0.000000 )  
               a(2) = (   0.000000   1.000000   0.000000 )  
               a(3) = (   0.000000   0.000000   1.000000 )  

     reciprocal axes: (cart. coord. in units 2 pi/alat)
               b(1) = (  1.000000  0.000000  0.000000 )  
               b(2) = (  0.000000  1.000000  0.000000 )  
               b(3) = (  0.000000  0.000000  1.000000 )  


     PseudoPot. # 1 for N  read from file:
     ./N_ONCV_PBE-1.2.upf
     MD5 check sum: 5312fdf34e96954e02a33bdc911c617a
     Pseudo is Norm-conserving, Zval =  5.0
     Generated using ONCVPSP code by D. R. Hamann
     Using radial grid of  602 points,  4 beta functions with: 
                l(1) =   0
                l(2) =   0
                l(3) =   1
                l(4) =   1

     PseudoPot. # 2 for C  read from file:
     ./C_ONCV_PBE-1.2.upf
     MD5 check sum: d60b57d9bdca4133f5fde4b584ee909d
     Pseudo is Norm-conserving, Zval =  4.0
     Generated using ONCVPSP code by D. R. Hamann
     Using radial grid of  602 points,  4 beta functions with: 
                l(1) =   0
                l(2) =   0
                l(3) =   1
                l(4) =   1

     atomic species   valence    mass     pseudopotential
     N                 5.00    14.00670     N ( 1.00)
     C                 4.00    12.01070     C ( 1.00)

     Starting magnetic structure 
     atomic species   magnetization
     N               0.000
     C               0.000

     No symmetry found


                                    s                        frac. trans.

      isym =  1     identity                                     

 cryst.   s( 1) = (     1          0          0      )
                  (     0          1          0      )
                  (     0          0          1      )

 cart.    s( 1) = (  1.0000000  0.0000000  0.0000000 )
                  (  0.0000000  1.0000000  0.0000000 )
                  (  0.0000000  0.0000000  1.0000000 )


   Cartesian axes

     site n.     atom                  positions (alat units)
         1        N      tau(   1) = (   0.9893819   0.9897344   0.9891721  )
         2        C      tau(   2) = (   0.9870277   0.2601210   0.2640728  )
         3        C      tau(   3) = (   0.1231717   0.3731672   0.3742038  )
         4        C      tau(   4) = (   0.2603919   0.9894620   0.2619202  )
         5        C      tau(   5) = (   0.3737632   0.1246771   0.3741571  )
         6        C      tau(   6) = (   0.2640151   0.2616009   0.9853609  )
         7        C      tau(   7) = (   0.3737752   0.3731213   0.1223564  )
         8        C      tau(   8) = (   0.0000049   0.0005840   0.4991361  )
         9        C      tau(   9) = (   0.1251361   0.1251278   0.6250981  )
        10        C      tau(  10) = (   0.0020393   0.2482470   0.7515266  )
        11        C      tau(  11) = (   0.1292009   0.3733021   0.8778139  )
        12        C      tau(  12) = (   0.2487801   0.0017974   0.7514403  )
        13        C      tau(  13) = (   0.3754339   0.1292460   0.8748544  )
        14        C      tau(  14) = (   0.2491579   0.2495268   0.4995755  )
        15        C      tau(  15) = (   0.3750038   0.3749547   0.6244069  )
        16        C      tau(  16) = (   0.0016366   0.4979779   0.0013734  )
        17        C      tau(  17) = (   0.1250869   0.6243147   0.1250807  )
        18        C      tau(  18) = (   0.0014462   0.7520697   0.2483230  )
        19        C      tau(  19) = (   0.1266755   0.8769178   0.3741906  )
        20        C      tau(  20) = (   0.2488290   0.4983596   0.2486760  )
        21        C      tau(  21) = (   0.3741642   0.6242659   0.3742111  )
        22        C      tau(  22) = (   0.2480673   0.7520817   0.0015447  )
        23        C      tau(  23) = (   0.3729914   0.8777475   0.1265606  )
        24        C      tau(  24) = (   0.0000493   0.5010760   0.5011299  )
        25        C      tau(  25) = (   0.1252054   0.6262200   0.6252733  )
        26        C      tau(  26) = (   0.9993969   0.7487112   0.7492532  )
        27        C      tau(  27) = (   0.1217927   0.8768349   0.8763928  )
        28        C      tau(  28) = (   0.2492749   0.5017254   0.7482724  )
        29        C      tau(  29) = (   0.3741000   0.6263042   0.8750769  )
        30        C      tau(  30) = (   0.2487293   0.7486845   0.5007616  )
        31        C      tau(  31) = (   0.3739266   0.8750581   0.6258828  )
        32        C      tau(  32) = (   0.4987543   0.0011228   0.0002828  )
        33        C      tau(  33) = (   0.6248203   0.1251003   0.1251034  )
        34        C      tau(  34) = (   0.4991217   0.2493918   0.2488717  )
        35        C      tau(  35) = (   0.6243080   0.3746888   0.3747831  )
        36        C      tau(  36) = (   0.7516460   0.0016191   0.2487956  )
        37        C      tau(  37) = (   0.8750430   0.1283649   0.3757598  )
        38        C      tau(  38) = (   0.7517475   0.2480080   0.0019610  )
        39        C      tau(  39) = (   0.8773622   0.3724247   0.1282033  )
        40        C      tau(  40) = (   0.5008161   0.9999897   0.5008301  )
        41        C      tau(  41) = (   0.6256173   0.1249721   0.6252590  )
        42        C      tau(  42) = (   0.5022259   0.2488088   0.7478265  )
        43        C      tau(  43) = (   0.6264784   0.3739683   0.8752045  )
        44        C      tau(  44) = (   0.7487945   0.9989046   0.7489691  )
        45        C      tau(  45) = (   0.8764746   0.1216998   0.8763156  )
        46        C      tau(  46) = (   0.7479635   0.2486819   0.5018806  )
        47        C      tau(  47) = (   0.8751980   0.3739245   0.6263738  )
        48        C      tau(  48) = (   0.5012000   0.5011574   0.0001136  )
        49        C      tau(  49) = (   0.6256259   0.6262099   0.1252968  )
        50        C      tau(  50) = (   0.5005188   0.7489091   0.2490095  )
        51        C      tau(  51) = (   0.6258050   0.8750157   0.3740056  )
        52        C      tau(  52) = (   0.7486304   0.5011458   0.2494302  )
        53        C      tau(  53) = (   0.8750247   0.6261269   0.3741365  )
        54        C      tau(  54) = (   0.7492281   0.7488562   0.9996087  )
        55        C      tau(  55) = (   0.8766209   0.8769033   0.1218021  )
        56        C      tau(  56) = (   0.4990819   0.4992903   0.4990317  )
        57        C      tau(  57) = (   0.6247789   0.6244471   0.6249452  )
        58        C      tau(  58) = (   0.4991767   0.7499842   0.7500845  )
        59        C      tau(  59) = (   0.6239946   0.8751464   0.8754130  )
        60        C      tau(  60) = (   0.7505316   0.4989321   0.7505826  )
        61        C      tau(  61) = (   0.8758455   0.6234984   0.8759288  )
        62        C      tau(  62) = (   0.7498244   0.7497799   0.4993198  )
        63        C      tau(  63) = (   0.8750855   0.8749084   0.6242568  )

   Crystallographic axes

     site n.     atom                  positions (cryst. coord.)
         1        N      tau(   1) = (  0.9893819  0.9897344  0.9891721  )
         2        C      tau(   2) = (  0.9870277  0.2601210  0.2640728  )
         3        C      tau(   3) = (  0.1231717  0.3731672  0.3742038  )
         4        C      tau(   4) = (  0.2603919  0.9894620  0.2619202  )
         5        C      tau(   5) = (  0.3737632  0.1246771  0.3741571  )
         6        C      tau(   6) = (  0.2640151  0.2616009  0.9853609  )
         7        C      tau(   7) = (  0.3737752  0.3731213  0.1223564  )
         8        C      tau(   8) = (  0.0000049  0.0005840  0.4991361  )
         9        C      tau(   9) = (  0.1251361  0.1251278  0.6250981  )
        10        C      tau(  10) = (  0.0020393  0.2482470  0.7515266  )
        11        C      tau(  11) = (  0.1292009  0.3733021  0.8778139  )
        12        C      tau(  12) = (  0.2487801  0.0017974  0.7514403  )
        13        C      tau(  13) = (  0.3754339  0.1292460  0.8748544  )
        14        C      tau(  14) = (  0.2491579  0.2495268  0.4995755  )
        15        C      tau(  15) = (  0.3750038  0.3749547  0.6244069  )
        16        C      tau(  16) = (  0.0016366  0.4979779  0.0013734  )
        17        C      tau(  17) = (  0.1250869  0.6243147  0.1250807  )
        18        C      tau(  18) = (  0.0014462  0.7520697  0.2483230  )
        19        C      tau(  19) = (  0.1266755  0.8769178  0.3741906  )
        20        C      tau(  20) = (  0.2488290  0.4983596  0.2486760  )
        21        C      tau(  21) = (  0.3741642  0.6242659  0.3742111  )
        22        C      tau(  22) = (  0.2480673  0.7520817  0.0015447  )
        23        C      tau(  23) = (  0.3729914  0.8777475  0.1265606  )
        24        C      tau(  24) = (  0.0000493  0.5010760  0.5011299  )
        25        C      tau(  25) = (  0.1252054  0.6262200  0.6252733  )
        26        C      tau(  26) = (  0.9993969  0.7487112  0.7492532  )
        27        C      tau(  27) = (  0.1217927  0.8768349  0.8763928  )
        28        C      tau(  28) = (  0.2492749  0.5017254  0.7482724  )
        29        C      tau(  29) = (  0.3741000  0.6263042  0.8750769  )
        30        C      tau(  30) = (  0.2487293  0.7486845  0.5007616  )
        31        C      tau(  31) = (  0.3739266  0.8750581  0.6258828  )
        32        C      tau(  32) = (  0.4987543  0.0011228  0.0002828  )
        33        C      tau(  33) = (  0.6248203  0.1251003  0.1251034  )
        34        C      tau(  34) = (  0.4991217  0.2493918  0.2488717  )
        35        C      tau(  35) = (  0.6243080  0.3746888  0.3747831  )
        36        C      tau(  36) = (  0.7516460  0.0016191  0.2487956  )
        37        C      tau(  37) = (  0.8750430  0.1283649  0.3757598  )
        38        C      tau(  38) = (  0.7517475  0.2480080  0.0019610  )
        39        C      tau(  39) = (  0.8773622  0.3724247  0.1282033  )
        40        C      tau(  40) = (  0.5008161  0.9999897  0.5008301  )
        41        C      tau(  41) = (  0.6256173  0.1249721  0.6252590  )
        42        C      tau(  42) = (  0.5022259  0.2488088  0.7478265  )
        43        C      tau(  43) = (  0.6264784  0.3739683  0.8752045  )
        44        C      tau(  44) = (  0.7487945  0.9989046  0.7489691  )
        45        C      tau(  45) = (  0.8764746  0.1216998  0.8763156  )
        46        C      tau(  46) = (  0.7479635  0.2486819  0.5018806  )
        47        C      tau(  47) = (  0.8751980  0.3739245  0.6263738  )
        48        C      tau(  48) = (  0.5012000  0.5011574  0.0001136  )
        49        C      tau(  49) = (  0.6256259  0.6262099  0.1252968  )
        50        C      tau(  50) = (  0.5005188  0.7489091  0.2490095  )
        51        C      tau(  51) = (  0.6258050  0.8750157  0.3740056  )
        52        C      tau(  52) = (  0.7486304  0.5011458  0.2494302  )
        53        C      tau(  53) = (  0.8750247  0.6261269  0.3741365  )
        54        C      tau(  54) = (  0.7492281  0.7488562  0.9996087  )
        55        C      tau(  55) = (  0.8766209  0.8769033  0.1218021  )
        56        C      tau(  56) = (  0.4990819  0.4992903  0.4990317  )
        57        C      tau(  57) = (  0.6247789  0.6244471  0.6249452  )
        58        C      tau(  58) = (  0.4991767  0.7499842  0.7500845  )
        59        C      tau(  59) = (  0.6239946  0.8751464  0.8754130  )
        60        C      tau(  60) = (  0.7505316  0.4989321  0.7505826  )
        61        C      tau(  61) = (  0.8758455  0.6234984  0.8759288  )
        62        C      tau(  62) = (  0.7498244  0.7497799  0.4993198  )
        63        C      tau(  63) = (  0.8750855  0.8749084  0.6242568  )

     number of k points=     1
                       cart. coord. in units 2pi/alat
        k(    1) = (   0.0000000   0.0000000   0.0000000), wk =   1.0000000

                       cryst. coord.
        k(    1) = (   0.0000000   0.0000000   0.0000000), wk =   1.0000000

     Dense  grid:    58461 G-vectors     FFT dimensions: (  64,  64,  64)

     Dynamical RAM for                 wfc:       0.35 MB

     Dynamical RAM for     wfc (w. buffer):       0.35 MB

     Dynamical RAM for           str. fact:       0.04 MB

     Dynamical RAM for           local pot:       0.00 MB

     Dynamical RAM for          nlocal pot:       1.17 MB

     Dynamical RAM for                qrad:       0.65 MB

     Dynamical RAM for          rho,v,vnew:       0.49 MB

     Dynamical RAM for               rhoin:       0.16 MB

     Dynamical RAM for            rho*nmix:       0.60 MB

     Dynamical RAM for           G-vectors:       0.08 MB

     Dynamical RAM for          h,s,v(r/c):       0.53 MB

     Dynamical RAM for          <psi|beta>:       0.58 MB

     Dynamical RAM for                 psi:       0.71 MB

     Dynamical RAM for                hpsi:       0.71 MB

     Dynamical RAM for      wfcinit/wfcrot:       1.24 MB

     Estimated static dynamical RAM per process >       3.37 MB

     Estimated max dynamical RAM per process >       6.49 MB

     Estimated total dynamical RAM >     594.05 MB
     Generating pointlists ...
     new r_m :   0.0854 (alat units)  1.1518 (a.u.) for type    1
     new r_m :   0.0847 (alat units)  1.1416 (a.u.) for type    2

     Initial potential from superposition of free atoms

     starting charge     252.5655, renormalised to     254.0000
     Starting wfcs are random

     total cpu time spent up to now is        1.7 secs

     Self-consistent Calculation

     iteration #  1     ecut=    50.00 Ry     beta= 0.70
     Davidson diagonalization with overlap

---- Real-time Memory Report at c_bands before calling an iterative solver
           159 MiB given to the printing process from OS
             0 MiB allocation reported by mallinfo(arena+hblkhd)
        174005 MiB available memory on the node where the printing process lives
------------------
     ethr =  1.00E-02,  avg # of iterations = 12.0

     total cpu time spent up to now is        2.4 secs

     total energy              =    -723.26458268 Ry
     estimated scf accuracy    <       3.70810946 Ry

     total magnetization       =     2.00 Bohr mag/cell
     absolute magnetization    =     2.00 Bohr mag/cell

     iteration #  2     ecut=    50.00 Ry     beta= 0.70
     Davidson diagonalization with overlap

---- Real-time Memory Report at c_bands before calling an iterative solver
           165 MiB given to the printing process from OS
             0 MiB allocation reported by mallinfo(arena+hblkhd)
        173913 MiB available memory on the node where the printing process lives
------------------
     ethr =  1.46E-03,  avg # of iterations = 13.0

     total cpu time spent up to now is        2.7 secs

     total energy              =    -723.65922780 Ry
     estimated scf accuracy    <       0.45959927 Ry

     total magnetization       =     2.00 Bohr mag/cell
     absolute magnetization    =     2.07 Bohr mag/cell

     iteration #  3     ecut=    50.00 Ry     beta= 0.70
     Davidson diagonalization with overlap

---- Real-time Memory Report at c_bands before calling an iterative solver
           165 MiB given to the printing process from OS
             0 MiB allocation reported by mallinfo(arena+hblkhd)
        173918 MiB available memory on the node where the printing process lives
------------------
     c_bands:  2 eigenvalues not converged
     ethr =  1.81E-04,  avg # of iterations = 20.0

     total cpu time spent up to now is        3.4 secs

     total energy              =    -723.72513899 Ry
     estimated scf accuracy    <       0.87495071 Ry

     total magnetization       =     2.00 Bohr mag/cell
     absolute magnetization    =     2.12 Bohr mag/cell

     iteration #  4     ecut=    50.00 Ry     beta= 0.70
     Davidson diagonalization with overlap

---- Real-time Memory Report at c_bands before calling an iterative solver
           166 MiB given to the printing process from OS
             0 MiB allocation reported by mallinfo(arena+hblkhd)
        173912 MiB available memory on the node where the printing process lives
------------------
     c_bands:  1 eigenvalues not converged
     ethr =  1.81E-04,  avg # of iterations = 20.0

     total cpu time spent up to now is        7.2 secs

     total energy              =    -723.90092878 Ry
     estimated scf accuracy    <       0.00992227 Ry

     total magnetization       =     2.00 Bohr mag/cell
     absolute magnetization    =     2.19 Bohr mag/cell

     iteration #  5     ecut=    50.00 Ry     beta= 0.70
     Davidson diagonalization with overlap

---- Real-time Memory Report at c_bands before calling an iterative solver
           166 MiB given to the printing process from OS
             0 MiB allocation reported by mallinfo(arena+hblkhd)
        173910 MiB available memory on the node where the printing process lives
------------------
     c_bands:  4 eigenvalues not converged
     ethr =  3.91E-06,  avg # of iterations = 20.0

     total cpu time spent up to now is       10.1 secs

     total energy              =    -723.90589107 Ry
     estimated scf accuracy    <       0.00401532 Ry

     total magnetization       =     2.00 Bohr mag/cell
     absolute magnetization    =     2.23 Bohr mag/cell

     iteration #  6     ecut=    50.00 Ry     beta= 0.70
     Davidson diagonalization with overlap

---- Real-time Memory Report at c_bands before calling an iterative solver
           166 MiB given to the printing process from OS
             0 MiB allocation reported by mallinfo(arena+hblkhd)
        173913 MiB available memory on the node where the printing process lives
------------------
     c_bands:  3 eigenvalues not converged
     ethr =  1.58E-06,  avg # of iterations = 20.0

     total cpu time spent up to now is       11.3 secs

     total energy              =    -723.90664187 Ry
     estimated scf accuracy    <       0.00086135 Ry

     total magnetization       =     2.00 Bohr mag/cell
     absolute magnetization    =     2.25 Bohr mag/cell

     iteration #  7     ecut=    50.00 Ry     beta= 0.70
     Davidson diagonalization with overlap

---- Real-time Memory Report at c_bands before calling an iterative solver
           166 MiB given to the printing process from OS
             0 MiB allocation reported by mallinfo(arena+hblkhd)
        173911 MiB available memory on the node where the printing process lives
------------------
     c_bands:  1 eigenvalues not converged
     ethr =  3.39E-07,  avg # of iterations = 19.0

     total cpu time spent up to now is       11.7 secs

     total energy              =    -723.90686545 Ry
     estimated scf accuracy    <       0.00011607 Ry

     total magnetization       =     2.00 Bohr mag/cell
     absolute magnetization    =     2.27 Bohr mag/cell

     iteration #  8     ecut=    50.00 Ry     beta= 0.70
     Davidson diagonalization with overlap

---- Real-time Memory Report at c_bands before calling an iterative solver
           167 MiB given to the printing process from OS
             0 MiB allocation reported by mallinfo(arena+hblkhd)
        173905 MiB available memory on the node where the printing process lives
------------------
     c_bands:  2 eigenvalues not converged
     ethr =  4.57E-08,  avg # of iterations = 20.0

     total cpu time spent up to now is       12.3 secs

     total energy              =    -723.90690491 Ry
     estimated scf accuracy    <       0.00002832 Ry

     total magnetization       =     2.00 Bohr mag/cell
     absolute magnetization    =     2.28 Bohr mag/cell

     iteration #  9     ecut=    50.00 Ry     beta= 0.70
     Davidson diagonalization with overlap

---- Real-time Memory Report at c_bands before calling an iterative solver
           167 MiB given to the printing process from OS
             0 MiB allocation reported by mallinfo(arena+hblkhd)
        173903 MiB available memory on the node where the printing process lives
------------------
     c_bands:  3 eigenvalues not converged
     ethr =  1.11E-08,  avg # of iterations = 20.0

     total cpu time spent up to now is       13.0 secs

     total energy              =    -723.90691527 Ry
     estimated scf accuracy    <       0.00000784 Ry

     total magnetization       =     2.00 Bohr mag/cell
     absolute magnetization    =     2.29 Bohr mag/cell

     iteration # 10     ecut=    50.00 Ry     beta= 0.70
     Davidson diagonalization with overlap

---- Real-time Memory Report at c_bands before calling an iterative solver
           167 MiB given to the printing process from OS
             0 MiB allocation reported by mallinfo(arena+hblkhd)
        173903 MiB available memory on the node where the printing process lives
------------------
     c_bands:  2 eigenvalues not converged
     ethr =  3.09E-09,  avg # of iterations = 20.0

     total cpu time spent up to now is       13.8 secs

     total energy              =    -723.90691880 Ry
     estimated scf accuracy    <       0.00000085 Ry

     total magnetization       =     2.00 Bohr mag/cell
     absolute magnetization    =     2.30 Bohr mag/cell

     iteration # 11     ecut=    50.00 Ry     beta= 0.70
     Davidson diagonalization with overlap

---- Real-time Memory Report at c_bands before calling an iterative solver
           167 MiB given to the printing process from OS
             0 MiB allocation reported by mallinfo(arena+hblkhd)
        173910 MiB available memory on the node where the printing process lives
------------------
     c_bands:  2 eigenvalues not converged
     ethr =  3.34E-10,  avg # of iterations = 20.0

     total cpu time spent up to now is       16.6 secs

     total energy              =    -723.90691943 Ry
     estimated scf accuracy    <       0.00000024 Ry

     total magnetization       =     2.00 Bohr mag/cell
     absolute magnetization    =     2.30 Bohr mag/cell

     iteration # 12     ecut=    50.00 Ry     beta= 0.70
     Davidson diagonalization with overlap

---- Real-time Memory Report at c_bands before calling an iterative solver
           167 MiB given to the printing process from OS
             0 MiB allocation reported by mallinfo(arena+hblkhd)
        173908 MiB available memory on the node where the printing process lives
------------------
     ethr =  9.47E-11,  avg # of iterations = 18.5

     total cpu time spent up to now is       17.1 secs

     total energy              =    -723.90691955 Ry
     estimated scf accuracy    <       0.00000010 Ry

     total magnetization       =     2.00 Bohr mag/cell
     absolute magnetization    =     2.30 Bohr mag/cell

     iteration # 13     ecut=    50.00 Ry     beta= 0.70
     Davidson diagonalization with overlap

---- Real-time Memory Report at c_bands before calling an iterative solver
           167 MiB given to the printing process from OS
             0 MiB allocation reported by mallinfo(arena+hblkhd)
        173912 MiB available memory on the node where the printing process lives
------------------
     ethr =  3.86E-11,  avg # of iterations = 17.0

     total cpu time spent up to now is       17.6 secs

     total energy              =    -723.90691960 Ry
     estimated scf accuracy    <       0.00000003 Ry

     total magnetization       =     2.00 Bohr mag/cell
     absolute magnetization    =     2.30 Bohr mag/cell

     iteration # 14     ecut=    50.00 Ry     beta= 0.70
     Davidson diagonalization with overlap

---- Real-time Memory Report at c_bands before calling an iterative solver
           167 MiB given to the printing process from OS
             0 MiB allocation reported by mallinfo(arena+hblkhd)
        173914 MiB available memory on the node where the printing process lives
------------------
     ethr =  1.02E-11,  avg # of iterations = 18.5
 
     Magnetic moment per site  (integrated on atomic sphere of radius R)
     atom   1 (R=0.085)  charge=  2.9143  magn=  0.0042
     atom   2 (R=0.085)  charge=  1.8170  magn=  0.2450
     atom   3 (R=0.085)  charge=  1.7930  magn= -0.0086
     atom   4 (R=0.085)  charge=  1.8051  magn=  0.2455
     atom   5 (R=0.085)  charge=  1.7932  magn= -0.0087
     atom   6 (R=0.085)  charge=  1.8257  magn=  0.2443
     atom   7 (R=0.085)  charge=  1.7934  magn= -0.0087
     atom   8 (R=0.085)  charge=  1.7860  magn=  0.0091
     atom   9 (R=0.085)  charge=  1.7962  magn= -0.0019
     atom  10 (R=0.085)  charge=  1.7816  magn=  0.0062
     atom  11 (R=0.085)  charge=  1.7976  magn= -0.0045
     atom  12 (R=0.085)  charge=  1.7823  magn=  0.0060
     atom  13 (R=0.085)  charge=  1.8039  magn= -0.0040
     atom  14 (R=0.085)  charge=  1.7892  magn=  0.0085
     atom  15 (R=0.085)  charge=  1.7872  magn= -0.0020
     atom  16 (R=0.085)  charge=  1.7838  magn=  0.0089
     atom  17 (R=0.085)  charge=  1.7957  magn= -0.0018
     atom  18 (R=0.085)  charge=  1.7822  magn=  0.0057
     atom  19 (R=0.085)  charge=  1.7952  magn= -0.0035
     atom  20 (R=0.085)  charge=  1.7834  magn=  0.0083
     atom  21 (R=0.085)  charge=  1.7846  magn= -0.0020
     atom  22 (R=0.085)  charge=  1.7829  magn=  0.0057
     atom  23 (R=0.085)  charge=  1.7905  magn= -0.0037
     atom  24 (R=0.085)  charge=  1.7825  magn=  0.0182
     atom  25 (R=0.085)  charge=  1.8066  magn=  0.0094
     atom  26 (R=0.085)  charge=  1.7935  magn=  0.0032
     atom  27 (R=0.085)  charge=  1.7589  magn=  0.0001
     atom  28 (R=0.085)  charge=  1.7879  magn=  0.0229
     atom  29 (R=0.085)  charge=  1.7825  magn= -0.0014
     atom  30 (R=0.085)  charge=  1.7901  magn=  0.0212
     atom  31 (R=0.085)  charge=  1.7823  magn= -0.0013
     atom  32 (R=0.085)  charge=  1.7844  magn=  0.0091
     atom  33 (R=0.085)  charge=  1.7960  magn= -0.0019
     atom  34 (R=0.085)  charge=  1.7869  magn=  0.0085
     atom  35 (R=0.085)  charge=  1.7865  magn= -0.0020
     atom  36 (R=0.085)  charge=  1.7818  magn=  0.0059
     atom  37 (R=0.085)  charge=  1.8033  magn= -0.0036
     atom  38 (R=0.085)  charge=  1.7836  magn=  0.0059
     atom  39 (R=0.085)  charge=  1.7915  magn= -0.0041
     atom  40 (R=0.085)  charge=  1.7835  magn=  0.0181
     atom  41 (R=0.085)  charge=  1.8109  magn=  0.0094
     atom  42 (R=0.085)  charge=  1.7948  magn=  0.0218
     atom  43 (R=0.085)  charge=  1.7819  magn= -0.0013
     atom  44 (R=0.085)  charge=  1.7937  magn=  0.0032
     atom  45 (R=0.085)  charge=  1.7590  magn= -0.0001
     atom  46 (R=0.085)  charge=  1.7948  magn=  0.0215
     atom  47 (R=0.085)  charge=  1.7818  magn= -0.0013
     atom  48 (R=0.085)  charge=  1.7820  magn=  0.0184
     atom  49 (R=0.085)  charge=  1.8043  magn=  0.0094
     atom  50 (R=0.085)  charge=  1.7873  magn=  0.0212
     atom  51 (R=0.085)  charge=  1.7825  magn= -0.0013
     atom  52 (R=0.085)  charge=  1.7869  magn=  0.0218
     atom  53 (R=0.085)  charge=  1.7826  magn= -0.0013
     atom  54 (R=0.085)  charge=  1.7934  magn=  0.0032
     atom  55 (R=0.085)  charge=  1.7588  magn=  0.0001
     atom  56 (R=0.085)  charge=  1.7914  magn=  0.0009
     atom  57 (R=0.085)  charge=  1.7832  magn=  0.0010
     atom  58 (R=0.085)  charge=  1.7914  magn=  0.0018
     atom  59 (R=0.085)  charge=  1.7879  magn= -0.0009
     atom  60 (R=0.085)  charge=  1.7911  magn=  0.0017
     atom  61 (R=0.085)  charge=  1.7854  magn= -0.0009
     atom  62 (R=0.085)  charge=  1.7913  magn=  0.0019
     atom  63 (R=0.085)  charge=  1.7891  magn= -0.0009

     total cpu time spent up to now is       18.2 secs

     End of self-consistent calculation

 ------ SPIN UP ------------


          k = 0.0000 0.0000 0.0000 (  7386 PWs)   bands (ev):

    -8.5503  -6.9222  -6.2862  -6.2665  -6.1948  -6.1578  -5.8817  -4.9127
    -4.1431  -4.1277  -4.1233  -4.0923  -4.0314  -4.0176  -4.0112  -3.9174
    -3.8728  -3.8651  -3.3598  -2.9325  -2.6770  -2.6719  -2.1634  -0.3633
    -0.3530  -0.3272  -0.2807  -0.0798   0.1726   0.1924   0.2817   0.2977
     0.3675   0.6192   0.8364   0.8446   0.9542   0.9746   0.9868   1.0541
     1.0590   1.0676   1.2645   1.2947   3.0712   3.9092   3.9279   4.0712
     4.1869   4.2059   4.2219   4.2748   4.2824   4.2876   4.4228   4.4242
     4.4954   4.5000   4.5674   4.6590   4.6852   4.6906   4.6922   4.7841
     4.7989   4.9220   4.9688   4.9705   5.0470   5.2007   5.2112   5.3003
     5.3569   5.3746   5.3934   5.4022   5.4078   6.0412   6.0464   6.1025
     6.6602   6.6660   6.7262   6.9937   7.0009   7.0400   7.5259   8.3343
     8.3364   8.4094   8.4644   8.4910   8.6882   8.7090   8.7844   8.8307
     8.8482   8.8547   8.8916   8.8991   8.9047   9.2865   9.2887   9.3232
     9.6753   9.7039   9.8954   9.9149   9.9451   9.9614   9.9644   9.9778
     9.9884  10.0271  10.0364  10.0565  10.1279  10.1425  10.2699  10.3261
    10.3344  11.0542  12.2875  12.4160  12.4279  13.9574  14.6937  14.7988
    17.3400  17.3798  17.4092  17.5243  17.5766  17.5819  17.8541  17.9245
    17.9338  18.0280  18.0667  18.3716  18.9937  18.9987  19.0269  20.6912
    20.7944  20.8262  20.8776  20.9449  20.9466  21.0248  21.0319  21.0452

     occupation numbers 
     1.0000   1.0000   1.0000   1.0000   1.0000   1.0000   1.0000   1.0000
     1.0000   1.0000   1.0000   1.0000   1.0000   1.0000   1.0000   1.0000
     1.0000   1.0000   1.0000   1.0000   1.0000   1.0000   1.0000   1.0000
     1.0000   1.0000   1.0000   1.0000   1.0000   1.0000   1.0000   1.0000
     1.0000   1.0000   1.0000   1.0000   1.0000   1.0000   1.0000   1.0000
     1.0000   1.0000   1.0000   1.0000   1.0000   1.0000   1.0000   1.0000
     1.0000   1.0000   1.0000   1.0000   1.0000   1.0000   1.0000   1.0000
     1.0000   1.0000   1.0000   1.0000   1.0000   1.0000   1.0000   1.0000
     1.0000   1.0000   1.0000   1.0000   1.0000   1.0000   1.0000   1.0000
     1.0000   1.0000   1.0000   1.0000   1.0000   1.0000   1.0000   1.0000
     1.0000   1.0000   1.0000   1.0000   1.0000   1.0000   1.0000   1.0000
     1.0000   1.0000   1.0000   1.0000   1.0000   1.0000   1.0000   1.0000
     1.0000   1.0000   1.0000   1.0000   1.0000   1.0000   1.0000   1.0000
     1.0000   1.0000   1.0000   1.0000   1.0000   1.0000   1.0000   1.0000
     1.0000   1.0000   1.0000   1.0000   1.0000   1.0000   1.0000   1.0000
     1.0000   1.0000   1.0000   1.0000   1.0000   1.0000   1.0000   1.0000
     0.0000   0.0000   0.0000   0.0000   0.0000   0.0000   0.0000   0.0000
     0.0000   0.0000   0.0000   0.0000   0.0000   0.0000   0.0000   0.0000
     0.0000   0.0000   0.0000   0.0000   0.0000   0.0000   0.0000   0.0000

 ------ SPIN DOWN ----------


          k = 0.0000 0.0000 0.0000 (  7386 PWs)   bands (ev):

    -8.5248  -6.9077  -6.2640  -6.2433  -6.1498  -6.1153  -5.8445  -4.8958
    -4.1224  -4.1046  -4.0830  -4.0600  -3.9920  -3.9821  -3.9650  -3.9051
    -3.8372  -3.8243  -3.3173  -2.9139  -2.6241  -2.6183  -2.0187  -0.3457
    -0.3349  -0.3056  -0.2635  -0.0142   0.1911   0.2101   0.3189   0.3313
     0.3927   0.6539   0.8485   0.8563   0.9872   1.0051   1.0127   1.0705
     1.0767   1.0831   1.4297   1.4648   3.1848   3.9324   3.9500   4.0972
     4.2214   4.2499   4.2642   4.2896   4.3013   4.3137   4.4692   4.4717
     4.5171   4.5215   4.5909   4.6830   4.7050   4.7074   4.7122   4.8184
     4.8360   4.9354   5.0003   5.0024   5.1284   5.2346   5.2464   5.3241
     5.3718   5.3857   5.4182   5.4516   5.4670   6.1031   6.1063   6.1404
     6.6868   6.6933   6.7607   7.0773   7.0898   7.0970   7.6963   8.3728
     8.3758   8.4462   8.5005   8.5256   8.7227   8.7402   8.8202   8.8779
     8.8843   8.8889   8.9259   8.9291   8.9333   9.3230   9.3254   9.3504
     9.7029   9.7313   9.9292   9.9393   9.9571   9.9753   9.9784   9.9972
    10.0085  10.0626  10.0695  10.0760  10.1553  10.1689  10.3273  10.3800
    10.3896  11.4337  12.5570  12.5632  12.6030  14.4382  16.0147  16.1393
    17.3650  17.3973  17.4262  17.5520  17.6319  17.6389  17.8767  17.9441
    17.9519  18.0683  18.1068  18.4909  19.0395  19.0799  19.1142  20.7416
    20.8087  20.8404  20.8924  20.9624  20.9643  21.0416  21.0581  21.0634

     occupation numbers 
     1.0000   1.0000   1.0000   1.0000   1.0000   1.0000   1.0000   1.0000
     1.0000   1.0000   1.0000   1.0000   1.0000   1.0000   1.0000   1.0000
     1.0000   1.0000   1.0000   1.0000   1.0000   1.0000   1.0000   1.0000
     1.0000   1.0000   1.0000   1.0000   1.0000   1.0000   1.0000   1.0000
     1.0000   1.0000   1.0000   1.0000   1.0000   1.0000   1.0000   1.0000
     1.0000   1.0000   1.0000   1.0000   1.0000   1.0000   1.0000   1.0000
     1.0000   1.0000   1.0000   1.0000   1.0000   1.0000   1.0000   1.0000
     1.0000   1.0000   1.0000   1.0000   1.0000   1.0000   1.0000   1.0000
     1.0000   1.0000   1.0000   1.0000   1.0000   1.0000   1.0000   1.0000
     1.0000   1.0000   1.0000   1.0000   1.0000   1.0000   1.0000   1.0000
     1.0000   1.0000   1.0000   1.0000   1.0000   1.0000   1.0000   1.0000
     1.0000   1.0000   1.0000   1.0000   1.0000   1.0000   1.0000   1.0000
     1.0000   1.0000   1.0000   1.0000   1.0000   1.0000   1.0000   1.0000
     1.0000   1.0000   1.0000   1.0000   1.0000   1.0000   1.0000   1.0000
     1.0000   1.0000   1.0000   1.0000   1.0000   1.0000   1.0000   1.0000
     1.0000   1.0000   1.0000   1.0000   1.0000   1.0000   0.0000   0.0000
     0.0000   0.0000   0.0000   0.0000   0.0000   0.0000   0.0000   0.0000
     0.0000   0.0000   0.0000   0.0000   0.0000   0.0000   0.0000   0.0000
     0.0000   0.0000   0.0000   0.0000   0.0000   0.0000   0.0000   0.0000

     highest occupied, lowest unoccupied level (ev):    14.7988   16.0147

!    total energy              =    -723.90691961 Ry
     estimated scf accuracy    <          5.3E-09 Ry

     The total energy is the sum of the following terms:
     one-electron contribution =     232.31396447 Ry
     hartree contribution      =      70.32167570 Ry
     xc contribution           =    -226.77197007 Ry
     ewald contribution        =    -799.77058970 Ry

     total magnetization       =     2.00 Bohr mag/cell
     absolute magnetization    =     2.30 Bohr mag/cell

     convergence has been achieved in  14 iterations

     Forces acting on atoms (cartesian axes, Ry/au):

     atom    1 type  1   force =    -0.00272731   -0.00383405   -0.00255766
     atom    2 type  2   force =     0.03512438    0.01591508   -0.01258063
     atom    3 type  2   force =    -0.00926097    0.00864498    0.00625939
     atom    4 type  2   force =     0.00879619    0.02473933   -0.00274999
     atom    5 type  2   force =     0.00231048   -0.02122732    0.00159682
     atom    6 type  2   force =    -0.00558890    0.00703990    0.04794775
     atom    7 type  2   force =     0.01089361    0.01155090   -0.00149768
     atom    8 type  2   force =     0.00293284    0.00435884    0.00660824
     atom    9 type  2   force =    -0.00178623   -0.00408015   -0.00236741
     atom   10 type  2   force =     0.00153606    0.00208264    0.01111632
     atom   11 type  2   force =    -0.03036205    0.00548679   -0.02664892
     atom   12 type  2   force =    -0.00006079    0.00383992    0.00333588
     atom   13 type  2   force =    -0.00333806   -0.03960249   -0.00232645
     atom   14 type  2   force =     0.00347575    0.00207988   -0.00442461
     atom   15 type  2   force =    -0.00348677   -0.00166290   -0.00500958
     atom   16 type  2   force =    -0.00059007   -0.00008283    0.00288611
     atom   17 type  2   force =    -0.00173640    0.00701878    0.00080866
     atom   18 type  2   force =     0.00298431   -0.00014599    0.00103506
     atom   19 type  2   force =    -0.00921163   -0.00312571   -0.00521238
     atom   20 type  2   force =     0.00294732   -0.00442921    0.00348903
     atom   21 type  2   force =    -0.00112331   -0.00408894   -0.00214492
     atom   22 type  2   force =     0.00143832    0.00207882    0.00120967
     atom   23 type  2   force =    -0.00062620   -0.00715769   -0.00164197
     atom   24 type  2   force =     0.00960267    0.00548732    0.00427562
     atom   25 type  2   force =    -0.01260961   -0.01451269   -0.00344449
     atom   26 type  2   force =     0.01489547    0.00616951    0.00162426
     atom   27 type  2   force =    -0.02567355   -0.00862747   -0.00642781
     atom   28 type  2   force =     0.00992204    0.00042309    0.00908034
     atom   29 type  2   force =     0.00013258   -0.00144403   -0.00185781
     atom   30 type  2   force =     0.00781322    0.00651225    0.00414575
     atom   31 type  2   force =     0.00108644   -0.00162080   -0.00347494
     atom   32 type  2   force =     0.00318663    0.00391536    0.00152680
     atom   33 type  2   force =     0.00054514   -0.00437793   -0.00013167
     atom   34 type  2   force =    -0.00458154    0.00180777    0.00372465
     atom   35 type  2   force =    -0.00498814   -0.00094316   -0.00327186
     atom   36 type  2   force =     0.00060028    0.00431395   -0.00015190
     atom   37 type  2   force =     0.00066185   -0.03268318   -0.00716096
     atom   38 type  2   force =     0.00708077    0.00171217   -0.00037272
     atom   39 type  2   force =    -0.01071450    0.00637159   -0.01313211
     atom   40 type  2   force =     0.00537067    0.01267042    0.00497772
     atom   41 type  2   force =    -0.00740413   -0.01548554   -0.00363353
     atom   42 type  2   force =    -0.00004136    0.01743086    0.00599427
     atom   43 type  2   force =    -0.00091275    0.00076418   -0.00099383
     atom   44 type  2   force =     0.00452842    0.01703766    0.00316155
     atom   45 type  2   force =    -0.00779326   -0.02684259   -0.00727305
     atom   46 type  2   force =     0.00654727    0.01601726    0.00116759
     atom   47 type  2   force =    -0.00061174    0.00158571   -0.00130589
     atom   48 type  2   force =     0.00484858    0.00556374    0.00770204
     atom   49 type  2   force =    -0.00800475   -0.01414734   -0.01012582
     atom   50 type  2   force =     0.00428624    0.00667351    0.00345139
     atom   51 type  2   force =    -0.00395834   -0.00181701    0.00030580
     atom   52 type  2   force =     0.00639235    0.00202859    0.00500469
     atom   53 type  2   force =    -0.00165466   -0.00303782   -0.00042941
     atom   54 type  2   force =     0.00268906    0.00532907    0.01412384
     atom   55 type  2   force =    -0.00710494   -0.00850460   -0.02492145
     atom   56 type  2   force =     0.00472185    0.00472191    0.00478775
     atom   57 type  2   force =    -0.00176232   -0.00064765   -0.00223155
     atom   58 type  2   force =     0.00158074    0.00415883    0.00344780
     atom   59 type  2   force =    -0.00124044   -0.00269328   -0.00388553
     atom   60 type  2   force =     0.00258122    0.00195891    0.00224418
     atom   61 type  2   force =    -0.00303331   -0.00218757   -0.00441678
     atom   62 type  2   force =     0.00407926    0.00446534    0.00113882
     atom   63 type  2   force =    -0.00360399   -0.00294492   -0.00037249
     The non-local contrib.  to forces
     atom    1 type  1   force =    -0.76052988   -0.76427092   -0.75855370
     atom    2 type  2   force =    -0.16467946    0.22043479    0.17789933
     atom    3 type  2   force =     0.05670701    0.08110817    0.07231766
     atom    4 type  2   force =     0.21504635   -0.18853172    0.19784969
     atom    5 type  2   force =     0.07296478    0.04243935    0.07004354
     atom    6 type  2   force =     0.18030829    0.20134906   -0.14075536
     atom    7 type  2   force =     0.07812967    0.08333007    0.06511987
     atom    8 type  2   force =    -0.00445085   -0.00440934    0.05682291
     atom    9 type  2   force =    -0.00552594   -0.00726736    0.01384406
     atom   10 type  2   force =    -0.04423925   -0.01385776   -0.00862109
     atom   11 type  2   force =    -0.10626151    0.06800794   -0.10551391
     atom   12 type  2   force =    -0.01706857   -0.04084003   -0.01436471
     atom   13 type  2   force =     0.05091111   -0.11519172   -0.07269790
     atom   14 type  2   force =     0.00263888    0.00045987    0.04536104
     atom   15 type  2   force =     0.00953425    0.00894365   -0.00306613
     atom   16 type  2   force =    -0.01303037    0.04943294   -0.00974267
     atom   17 type  2   force =    -0.00464348    0.02780059   -0.00257054
     atom   18 type  2   force =    -0.04102592   -0.02181742   -0.01556925
     atom   19 type  2   force =    -0.08109945   -0.07892496    0.05542195
     atom   20 type  2   force =     0.00447918    0.04469869    0.00490329
     atom   21 type  2   force =     0.01068259   -0.00326213    0.01106336
     atom   22 type  2   force =    -0.01473921   -0.02012701   -0.04234949
     atom   23 type  2   force =     0.06348505   -0.08449069   -0.07272637
     atom   24 type  2   force =    -0.06467421    0.03323210    0.03388475
     atom   25 type  2   force =    -0.02447808   -0.00017889    0.01443604
     atom   26 type  2   force =    -0.04205894   -0.02080087   -0.02341296
     atom   27 type  2   force =    -0.14709906    0.12517624    0.12337477
     atom   28 type  2   force =     0.08081259    0.02409008   -0.01058088
     atom   29 type  2   force =     0.00146171    0.01926976    0.00543771
     atom   30 type  2   force =     0.07681279   -0.01338324    0.02899942
     atom   31 type  2   force =     0.00317606    0.00332875    0.01659919
     atom   32 type  2   force =     0.05257039   -0.00627534   -0.00732308
     atom   33 type  2   force =     0.01816179   -0.00736323   -0.00379516
     atom   34 type  2   force =     0.04521804    0.00088795    0.00410200
     atom   35 type  2   force =    -0.00351383    0.00893374    0.01073134
     atom   36 type  2   force =    -0.01838634   -0.04034745   -0.01785230
     atom   37 type  2   force =    -0.07167867   -0.10854932    0.04763370
     atom   38 type  2   force =    -0.01368192   -0.01326031   -0.04505496
     atom   39 type  2   force =    -0.08731920    0.07141607   -0.08688779
     atom   40 type  2   force =     0.03505252   -0.05848940    0.03549037
     atom   41 type  2   force =     0.00888824   -0.02616105    0.01407663
     atom   42 type  2   force =     0.02078925    0.08863911   -0.00962083
     atom   43 type  2   force =     0.01717437    0.00021944    0.00385470
     atom   44 type  2   force =    -0.02312811   -0.03747477   -0.02375901
     atom   45 type  2   force =     0.12389079   -0.14867085    0.12466185
     atom   46 type  2   force =    -0.00961197    0.08701818    0.02321700
     atom   47 type  2   force =     0.00375148    0.00125488    0.01681146
     atom   48 type  2   force =     0.03370105    0.03300138   -0.06826476
     atom   49 type  2   force =     0.00851653    0.00003911   -0.02290996
     atom   50 type  2   force =     0.02973042   -0.01456391    0.07143098
     atom   51 type  2   force =     0.01702637    0.00364560    0.00327747
     atom   52 type  2   force =    -0.01429531    0.02652690    0.07309731
     atom   53 type  2   force =     0.00470075    0.01791333    0.00147689
     atom   54 type  2   force =    -0.02208331   -0.02110151   -0.04410937
     atom   55 type  2   force =     0.12324023    0.12439432   -0.14651179
     atom   56 type  2   force =     0.02269960    0.02417258    0.02216060
     atom   57 type  2   force =     0.00522992    0.00489822    0.00531612
     atom   58 type  2   force =     0.01670643   -0.00589857   -0.01032838
     atom   59 type  2   force =     0.00789019   -0.01436232   -0.01506279
     atom   60 type  2   force =    -0.01022435    0.01848913   -0.01135631
     atom   61 type  2   force =    -0.01381773    0.00762262   -0.01491162
     atom   62 type  2   force =    -0.00831828   -0.00590788    0.01521358
     atom   63 type  2   force =    -0.01568800   -0.01514024    0.00843011
     The ionic contribution  to forces
     atom    1 type  1   force =     2.98240344    2.95155439    2.99483115
     atom    2 type  2   force =     2.40999539   -2.06152188   -2.20810881
     atom    3 type  2   force =     0.48074601   -0.73014486   -0.84352030
     atom    4 type  2   force =    -2.08961115    2.33257426   -2.15531789
     atom    5 type  2   force =    -0.77870656    0.40099230   -0.82313249
     atom    6 type  2   force =    -2.15580161   -2.12375483    2.45598527
     atom    7 type  2   force =    -0.81524159   -0.74905109    0.54159037
     atom    8 type  2   force =     0.25734760    0.21616786   -0.72484685
     atom    9 type  2   force =     0.06606970    0.03470525   -0.21977287
     atom   10 type  2   force =     0.20518307    0.09586099    0.56655483
     atom   11 type  2   force =    -0.53446235   -0.63461719    0.74406367
     atom   12 type  2   force =     0.02749659    0.16310556    0.54836715
     atom   13 type  2   force =    -0.66316482   -0.56627207    0.75553767
     atom   14 type  2   force =    -0.19658674   -0.17766528   -0.70710532
     atom   15 type  2   force =    -0.17715135   -0.13068827   -0.06359269
     atom   16 type  2   force =     0.17467796   -0.75005819    0.22599123
     atom   17 type  2   force =     0.07117566   -0.14780544    0.09796392
     atom   18 type  2   force =     0.22249343    0.47025444    0.00439121
     atom   19 type  2   force =    -0.36189779    0.74830571   -0.70456961
     atom   20 type  2   force =    -0.17842753   -0.72782877   -0.18255979
     atom   21 type  2   force =    -0.17444440   -0.05786226   -0.19719628
     atom   22 type  2   force =     0.02853144    0.48074158    0.23505929
     atom   23 type  2   force =    -0.68783909    0.77824113   -0.33147113
     atom   24 type  2   force =     0.10848053   -0.13892471   -0.16323122
     atom   25 type  2   force =    -0.02557369   -0.08730762   -0.06617822
     atom   26 type  2   force =     0.13120810   -0.09621287   -0.05119202
     atom   27 type  2   force =     1.14061913    0.24379144    0.24737728
     atom   28 type  2   force =    -0.10647898   -0.16211800    0.11519300
     atom   29 type  2   force =    -0.15456567    0.03116737    0.25153896
     atom   30 type  2   force =    -0.02031509    0.13698529   -0.23256902
     atom   31 type  2   force =    -0.15374306    0.17290120   -0.00812303
     atom   32 type  2   force =    -0.74301216    0.19466961    0.26106515
     atom   33 type  2   force =    -0.20206528    0.02902285    0.09147639
     atom   34 type  2   force =    -0.71650001   -0.17667902   -0.19711671
     atom   35 type  2   force =    -0.06352455   -0.13391130   -0.19572325
     atom   36 type  2   force =     0.51470228    0.17462423    0.00414250
     atom   37 type  2   force =     0.73639395   -0.50015480   -0.68917023
     atom   38 type  2   force =     0.53684794    0.07023273    0.20674337
     atom   39 type  2   force =     0.80007335   -0.63787613   -0.42693071
     atom   40 type  2   force =    -0.19710502    0.06264821   -0.20869764
     atom   41 type  2   force =    -0.07056060   -0.08708734   -0.06832586
     atom   42 type  2   force =    -0.13371221    0.02790761    0.08703978
     atom   43 type  2   force =     0.03290123   -0.11409279    0.25116345
     atom   44 type  2   force =    -0.07118176    0.12326665   -0.05536164
     atom   45 type  2   force =     0.24390772    1.15930374    0.24295672
     atom   46 type  2   force =     0.10101548    0.05108868   -0.16778377
     atom   47 type  2   force =     0.23143658   -0.11438323    0.02071638
     atom   48 type  2   force =    -0.12932949   -0.10980617    0.13546811
     atom   49 type  2   force =    -0.07474522   -0.08077556    0.00738735
     atom   50 type  2   force =    -0.23620571    0.15338016   -0.08182832
     atom   51 type  2   force =    -0.00976382    0.17439370   -0.17928351
     atom   52 type  2   force =     0.13787044   -0.17655117   -0.11951065
     atom   53 type  2   force =     0.22803273    0.01353588   -0.17912437
     atom   54 type  2   force =    -0.06369564   -0.09019127    0.13784387
     atom   55 type  2   force =     0.24420532    0.24271326    1.13204638
     atom   56 type  2   force =    -0.09224971   -0.03064049   -0.12242754
     atom   57 type  2   force =    -0.02260523   -0.03522040   -0.01929291
     atom   58 type  2   force =    -0.07728036    0.04752748    0.03905112
     atom   59 type  2   force =    -0.28480920    0.07694567    0.15277135
     atom   60 type  2   force =     0.06246756   -0.03680413    0.05684748
     atom   61 type  2   force =     0.13144960   -0.30287183    0.15358342
     atom   62 type  2   force =     0.03055314    0.03655154   -0.09825792
     atom   63 type  2   force =     0.12407209    0.07371819   -0.27342527
     The local contribution  to forces
     atom    1 type  1   force =    -2.22466393   -2.19112016   -2.23889587
     atom    2 type  2   force =    -2.21026326    1.85698876    2.01757135
     atom    3 type  2   force =    -0.54681431    0.65763622    0.77739448
     atom    4 type  2   force =     1.88327272   -2.11931825    1.95466430
     atom    5 type  2   force =     0.70794919   -0.46467369    0.75463886
     atom    6 type  2   force =     1.96981041    1.92943364   -2.26734661
     atom    7 type  2   force =     0.74789611    0.67724334   -0.60828144
     atom    8 type  2   force =    -0.25002669   -0.20739670    0.67457850
     atom    9 type  2   force =    -0.06239982   -0.03152546    0.20350235
     atom   10 type  2   force =    -0.15946542   -0.07994357   -0.54687430
     atom   11 type  2   force =     0.61029609    0.57206419   -0.66524884
     atom   12 type  2   force =    -0.01057136   -0.11844338   -0.53072261
     atom   13 type  2   force =     0.60881617    0.64184766   -0.68522889
     atom   14 type  2   force =     0.19732111    0.17926428    0.65726950
     atom   15 type  2   force =     0.16401944    0.12004564    0.06160996
     atom   16 type  2   force =    -0.16230010    0.70048803   -0.21341172
     atom   17 type  2   force =    -0.06833991    0.12696161   -0.09464782
     atom   18 type  2   force =    -0.17854410   -0.44863154    0.01214640
     atom   19 type  2   force =     0.43371762   -0.67253141    0.64388412
     atom   20 type  2   force =     0.17679292    0.67865364    0.18108120
     atom   21 type  2   force =     0.16252836    0.05699681    0.18393094
     atom   22 type  2   force =    -0.01243267   -0.45858110   -0.19156928
     atom   23 type  2   force =     0.62363750   -0.70094340    0.40248268
     atom   24 type  2   force =    -0.03426394    0.11111740    0.13355505
     atom   25 type  2   force =     0.03737725    0.07292249    0.04824577
     atom   26 type  2   force =    -0.07431822    0.12314559    0.07618054
     atom   27 type  2   force =    -1.01926684   -0.37761902   -0.37723822
     atom   28 type  2   force =     0.03550658    0.13840531   -0.09558201
     atom   29 type  2   force =     0.15313913   -0.05192968   -0.25889111
     atom   30 type  2   force =    -0.04876398   -0.11713275    0.20766795
     atom   31 type  2   force =     0.15155406   -0.17787706   -0.01200073
     atom   32 type  2   force =     0.69352894   -0.18450366   -0.25228494
     atom   33 type  2   force =     0.18435888   -0.02605092   -0.08787652
     atom   34 type  2   force =     0.66660561    0.17757684    0.19667623
     atom   35 type  2   force =     0.06197262    0.12399066    0.18165520
     atom   36 type  2   force =    -0.49579562   -0.12996013    0.01348923
     atom   37 type  2   force =    -0.66411074    0.57603903    0.63430390
     atom   38 type  2   force =    -0.51616096   -0.05528271   -0.16210704
     atom   39 type  2   force =    -0.72352350    0.57278367    0.50064724
     atom   40 type  2   force =     0.16731375    0.00849353    0.17814053
     atom   41 type  2   force =     0.05416453    0.09774272    0.05056318
     atom   42 type  2   force =     0.11276611   -0.09913797   -0.07147620
     atom   43 type  2   force =    -0.05109756    0.11460886   -0.25606327
     atom   44 type  2   force =     0.09874748   -0.06877845    0.08223393
     atom   45 type  2   force =    -0.37565788   -1.03749627   -0.37493703
     atom   46 type  2   force =    -0.08492755   -0.12210992    0.14566256
     atom   47 type  2   force =    -0.23586039    0.11467513   -0.03890554
     atom   48 type  2   force =     0.10036798    0.08233162   -0.05957118
     atom   49 type  2   force =     0.05812152    0.06654255    0.00531916
     atom   50 type  2   force =     0.21064858   -0.13218218    0.01378059
     atom   51 type  2   force =    -0.01133258   -0.17987427    0.17625552
     atom   52 type  2   force =    -0.11725305    0.15198611    0.05135374
     atom   53 type  2   force =    -0.23444775   -0.03455941    0.17715586
     atom   54 type  2   force =     0.08837340    0.11658377   -0.07968333
     atom   55 type  2   force =    -0.37462175   -0.37562718   -1.01053259
     atom   56 type  2   force =     0.07416239    0.01114879    0.10500889
     atom   57 type  2   force =     0.01550770    0.02963393    0.01170785
     atom   58 type  2   force =     0.06204979   -0.03750818   -0.02532089
     atom   59 type  2   force =     0.27557673   -0.06530822   -0.14164961
     atom   60 type  2   force =    -0.04975285    0.02024027   -0.04329509
     atom   61 type  2   force =    -0.12074072    0.29302027   -0.14314132
     atom   62 type  2   force =    -0.01824604   -0.02621797    0.08414412
     atom   63 type  2   force =    -0.11206078   -0.06154559    0.26458408
     The core correction contribution to forces
     atom    1 type  1   force =     0.00000000    0.00000000    0.00000000
     atom    2 type  2   force =     0.00000000    0.00000000    0.00000000
     atom    3 type  2   force =     0.00000000    0.00000000    0.00000000
     atom    4 type  2   force =     0.00000000    0.00000000    0.00000000
     atom    5 type  2   force =     0.00000000    0.00000000    0.00000000
     atom    6 type  2   force =     0.00000000    0.00000000    0.00000000
     atom    7 type  2   force =     0.00000000    0.00000000    0.00000000
     atom    8 type  2   force =     0.00000000    0.00000000    0.00000000
     atom    9 type  2   force =     0.00000000    0.00000000    0.00000000
     atom   10 type  2   force =     0.00000000    0.00000000    0.00000000
     atom   11 type  2   force =     0.00000000    0.00000000    0.00000000
     atom   12 type  2   force =     0.00000000    0.00000000    0.00000000
     atom   13 type  2   force =     0.00000000    0.00000000    0.00000000
     atom   14 type  2   force =     0.00000000    0.00000000    0.00000000
     atom   15 type  2   force =     0.00000000    0.00000000    0.00000000
     atom   16 type  2   force =     0.00000000    0.00000000    0.00000000
     atom   17 type  2   force =     0.00000000    0.00000000    0.00000000
     atom   18 type  2   force =     0.00000000    0.00000000    0.00000000
     atom   19 type  2   force =     0.00000000    0.00000000    0.00000000
     atom   20 type  2   force =     0.00000000    0.00000000    0.00000000
     atom   21 type  2   force =     0.00000000    0.00000000    0.00000000
     atom   22 type  2   force =     0.00000000    0.00000000    0.00000000
     atom   23 type  2   force =     0.00000000    0.00000000    0.00000000
     atom   24 type  2   force =     0.00000000    0.00000000    0.00000000
     atom   25 type  2   force =     0.00000000    0.00000000    0.00000000
     atom   26 type  2   force =     0.00000000    0.00000000    0.00000000
     atom   27 type  2   force =     0.00000000    0.00000000    0.00000000
     atom   28 type  2   force =     0.00000000    0.00000000    0.00000000
     atom   29 type  2   force =     0.00000000    0.00000000    0.00000000
     atom   30 type  2   force =     0.00000000    0.00000000    0.00000000
     atom   31 type  2   force =     0.00000000    0.00000000    0.00000000
     atom   32 type  2   force =     0.00000000    0.00000000    0.00000000
     atom   33 type  2   force =     0.00000000    0.00000000    0.00000000
     atom   34 type  2   force =     0.00000000    0.00000000    0.00000000
     atom   35 type  2   force =     0.00000000    0.00000000    0.00000000
     atom   36 type  2   force =     0.00000000    0.00000000    0.00000000
     atom   37 type  2   force =     0.00000000    0.00000000    0.00000000
     atom   38 type  2   force =     0.00000000    0.00000000    0.00000000
     atom   39 type  2   force =     0.00000000    0.00000000    0.00000000
     atom   40 type  2   force =     0.00000000    0.00000000    0.00000000
     atom   41 type  2   force =     0.00000000    0.00000000    0.00000000
     atom   42 type  2   force =     0.00000000    0.00000000    0.00000000
     atom   43 type  2   force =     0.00000000    0.00000000    0.00000000
     atom   44 type  2   force =     0.00000000    0.00000000    0.00000000
     atom   45 type  2   force =     0.00000000    0.00000000    0.00000000
     atom   46 type  2   force =     0.00000000    0.00000000    0.00000000
     atom   47 type  2   force =     0.00000000    0.00000000    0.00000000
     atom   48 type  2   force =     0.00000000    0.00000000    0.00000000
     atom   49 type  2   force =     0.00000000    0.00000000    0.00000000
     atom   50 type  2   force =     0.00000000    0.00000000    0.00000000
     atom   51 type  2   force =     0.00000000    0.00000000    0.00000000
     atom   52 type  2   force =     0.00000000    0.00000000    0.00000000
     atom   53 type  2   force =     0.00000000    0.00000000    0.00000000
     atom   54 type  2   force =     0.00000000    0.00000000    0.00000000
     atom   55 type  2   force =     0.00000000    0.00000000    0.00000000
     atom   56 type  2   force =     0.00000000    0.00000000    0.00000000
     atom   57 type  2   force =     0.00000000    0.00000000    0.00000000
     atom   58 type  2   force =     0.00000000    0.00000000    0.00000000
     atom   59 type  2   force =     0.00000000    0.00000000    0.00000000
     atom   60 type  2   force =     0.00000000    0.00000000    0.00000000
     atom   61 type  2   force =     0.00000000    0.00000000    0.00000000
     atom   62 type  2   force =     0.00000000    0.00000000    0.00000000
     atom   63 type  2   force =     0.00000000    0.00000000    0.00000000
     The Hubbard contrib.    to forces
     atom    1 type  1   force =     0.00000000    0.00000000    0.00000000
     atom    2 type  2   force =     0.00000000    0.00000000    0.00000000
     atom    3 type  2   force =     0.00000000    0.00000000    0.00000000
     atom    4 type  2   force =     0.00000000    0.00000000    0.00000000
     atom    5 type  2   force =     0.00000000    0.00000000    0.00000000
     atom    6 type  2   force =     0.00000000    0.00000000    0.00000000
     atom    7 type  2   force =     0.00000000    0.00000000    0.00000000
     atom    8 type  2   force =     0.00000000    0.00000000    0.00000000
     atom    9 type  2   force =     0.00000000    0.00000000    0.00000000
     atom   10 type  2   force =     0.00000000    0.00000000    0.00000000
     atom   11 type  2   force =     0.00000000    0.00000000    0.00000000
     atom   12 type  2   force =     0.00000000    0.00000000    0.00000000
     atom   13 type  2   force =     0.00000000    0.00000000    0.00000000
     atom   14 type  2   force =     0.00000000    0.00000000    0.00000000
     atom   15 type  2   force =     0.00000000    0.00000000    0.00000000
     atom   16 type  2   force =     0.00000000    0.00000000    0.00000000
     atom   17 type  2   force =     0.00000000    0.00000000    0.00000000
     atom   18 type  2   force =     0.00000000    0.00000000    0.00000000
     atom   19 type  2   force =     0.00000000    0.00000000    0.00000000
     atom   20 type  2   force =     0.00000000    0.00000000    0.00000000
     atom   21 type  2   force =     0.00000000    0.00000000    0.00000000
     atom   22 type  2   force =     0.00000000    0.00000000    0.00000000
     atom   23 type  2   force =     0.00000000    0.00000000    0.00000000
     atom   24 type  2   force =     0.00000000    0.00000000    0.00000000
     atom   25 type  2   force =     0.00000000    0.00000000    0.00000000
     atom   26 type  2   force =     0.00000000    0.00000000    0.00000000
     atom   27 type  2   force =     0.00000000    0.00000000    0.00000000
     atom   28 type  2   force =     0.00000000    0.00000000    0.00000000
     atom   29 type  2   force =     0.00000000    0.00000000    0.00000000
     atom   30 type  2   force =     0.00000000    0.00000000    0.00000000
     atom   31 type  2   force =     0.00000000    0.00000000    0.00000000
     atom   32 type  2   force =     0.00000000    0.00000000    0.00000000
     atom   33 type  2   force =     0.00000000    0.00000000    0.00000000
     atom   34 type  2   force =     0.00000000    0.00000000    0.00000000
     atom   35 type  2   force =     0.00000000    0.00000000    0.00000000
     atom   36 type  2   force =     0.00000000    0.00000000    0.00000000
     atom   37 type  2   force =     0.00000000    0.00000000    0.00000000
     atom   38 type  2   force =     0.00000000    0.00000000    0.00000000
     atom   39 type  2   force =     0.00000000    0.00000000    0.00000000
     atom   40 type  2   force =     0.00000000    0.00000000    0.00000000
     atom   41 type  2   force =     0.00000000    0.00000000    0.00000000
     atom   42 type  2   force =     0.00000000    0.00000000    0.00000000
     atom   43 type  2   force =     0.00000000    0.00000000    0.00000000
     atom   44 type  2   force =     0.00000000    0.00000000    0.00000000
     atom   45 type  2   force =     0.00000000    0.00000000    0.00000000
     atom   46 type  2   force =     0.00000000    0.00000000    0.00000000
     atom   47 type  2   force =     0.00000000    0.00000000    0.00000000
     atom   48 type  2   force =     0.00000000    0.00000000    0.00000000
     atom   49 type  2   force =     0.00000000    0.00000000    0.00000000
     atom   50 type  2   force =     0.00000000    0.00000000    0.00000000
     atom   51 type  2   force =     0.00000000    0.00000000    0.00000000
     atom   52 type  2   force =     0.00000000    0.00000000    0.00000000
     atom   53 type  2   force =     0.00000000    0.00000000    0.00000000
     atom   54 type  2   force =     0.00000000    0.00000000    0.00000000
     atom   55 type  2   force =     0.00000000    0.00000000    0.00000000
     atom   56 type  2   force =     0.00000000    0.00000000    0.00000000
     atom   57 type  2   force =     0.00000000    0.00000000    0.00000000
     atom   58 type  2   force =     0.00000000    0.00000000    0.00000000
     atom   59 type  2   force =     0.00000000    0.00000000    0.00000000
     atom   60 type  2   force =     0.00000000    0.00000000    0.00000000
     atom   61 type  2   force =     0.00000000    0.00000000    0.00000000
     atom   62 type  2   force =     0.00000000    0.00000000    0.00000000
     atom   63 type  2   force =     0.00000000    0.00000000    0.00000000
     The SCF correction term to forces
     atom    1 type  1   force =    -0.00002286   -0.00002764    0.00000344
     atom    2 type  2   force =    -0.00001422   -0.00001688    0.00000017
     atom    3 type  2   force =     0.00001440    0.00001516    0.00001023
     atom    4 type  2   force =     0.00000234   -0.00001525   -0.00000341
     atom    5 type  2   force =     0.00001714   -0.00001557   -0.00001041
     atom    6 type  2   force =     0.00000808   -0.00001826    0.00000712
     atom    7 type  2   force =     0.00002350   -0.00000171    0.00001619
     atom    8 type  2   force =    -0.00002314   -0.00003328   -0.00000365
     atom    9 type  2   force =    -0.00001609   -0.00002286    0.00000173
     atom   10 type  2   force =    -0.00002826   -0.00000730   -0.00000045
     atom   11 type  2   force =    -0.00002021    0.00000156   -0.00000717
     atom   12 type  2   force =    -0.00000339   -0.00001252   -0.00000128
     atom   13 type  2   force =     0.00001355   -0.00001665    0.00000534
     atom   14 type  2   force =     0.00001657   -0.00000928   -0.00000716
     atom   15 type  2   force =     0.00002498    0.00000579   -0.00001804
     atom   16 type  2   force =    -0.00002348    0.00002409   -0.00000806
     atom   17 type  2   force =    -0.00001459    0.00003174    0.00000579
     atom   18 type  2   force =    -0.00002502    0.00001824    0.00000937
     atom   19 type  2   force =    -0.00001793   -0.00000534   -0.00000617
     atom   20 type  2   force =     0.00001682    0.00001693    0.00000699
     atom   21 type  2   force =     0.00002422    0.00000835   -0.00000027
     atom   22 type  2   force =    -0.00000716    0.00001506    0.00001182
     atom   23 type  2   force =     0.00000441    0.00000498    0.00001553
     atom   24 type  2   force =    -0.00002564    0.00003225    0.00000972
     atom   25 type  2   force =    -0.00002101    0.00002104   -0.00000541
     atom   26 type  2   force =    -0.00002139    0.00000738   -0.00000862
     atom   27 type  2   force =    -0.00001270   -0.00000643    0.00000104
     atom   28 type  2   force =    -0.00000407    0.00001540   -0.00000710
     atom   29 type  2   force =     0.00001148    0.00001824   -0.00000070
     atom   30 type  2   force =    -0.00000643    0.00001266   -0.00000993
     atom   31 type  2   force =     0.00001345   -0.00000397   -0.00000769
     atom   32 type  2   force =     0.00001354   -0.00000553    0.00001234
     atom   33 type  2   force =     0.00000383   -0.00001692    0.00000629
     atom   34 type  2   force =     0.00000889   -0.00000829    0.00000581
     atom   35 type  2   force =    -0.00000830    0.00001345    0.00000752
     atom   36 type  2   force =    -0.00000597   -0.00003298    0.00001134
     atom   37 type  2   force =    -0.00002861   -0.00004838    0.00001434
     atom   38 type  2   force =    -0.00001021   -0.00000782   -0.00001141
     atom   39 type  2   force =    -0.00003107    0.00001769   -0.00001818
     atom   40 type  2   force =     0.00002350   -0.00001222   -0.00001287
     atom   41 type  2   force =     0.00001778   -0.00001016   -0.00000482
     atom   42 type  2   force =     0.00002956   -0.00000817   -0.00000582
     atom   43 type  2   force =     0.00002328   -0.00000162   -0.00000604
     atom   44 type  2   force =     0.00000489   -0.00000606   -0.00000907
     atom   45 type  2   force =    -0.00001981   -0.00000949   -0.00001192
     atom   46 type  2   force =    -0.00001462   -0.00000997    0.00001446
     atom   47 type  2   force =    -0.00002534    0.00000865    0.00001448
     atom   48 type  2   force =     0.00002312    0.00000663    0.00001254
     atom   49 type  2   force =     0.00001650    0.00001628    0.00002029
     atom   50 type  2   force =     0.00002703    0.00000914    0.00001082
     atom   51 type  2   force =     0.00002576   -0.00001232   -0.00000102
     atom   52 type  2   force =    -0.00001565    0.00003646    0.00000696
     atom   53 type  2   force =    -0.00002632    0.00004209    0.00000488
     atom   54 type  2   force =     0.00000868    0.00000780    0.00001534
     atom   55 type  2   force =    -0.00001467   -0.00001529    0.00001922
     atom   56 type  2   force =     0.00002365    0.00001074   -0.00001152
     atom   57 type  2   force =     0.00001936    0.00001031   -0.00001994
     atom   58 type  2   force =     0.00001896    0.00000782   -0.00001138
     atom   59 type  2   force =     0.00001591    0.00000130   -0.00000181
     atom   60 type  2   force =     0.00000494    0.00000335   -0.00000923
     atom   61 type  2   force =    -0.00001038    0.00001107   -0.00000459
     atom   62 type  2   force =     0.00000451    0.00000937   -0.00001829
     atom   63 type  2   force =    -0.00001322   -0.00000757   -0.00001874

     Total force =     0.131464     Total SCF correction =     0.000215

     Writing all to output data dir ./pwscf.save/ :
     XML data file, charge density, pseudopotentials, collected wavefunctions
 
     init_run     :      0.73s CPU      0.82s WALL (       1 calls)
     electrons    :     16.22s CPU     16.66s WALL (       1 calls)
     forces       :      1.96s CPU      1.98s WALL (       1 calls)

     Called by init_run:
     wfcinit      :      0.09s CPU      0.11s WALL (       1 calls)
     wfcinit:wfcr :      0.09s CPU      0.10s WALL (       1 calls)
     potinit      :      0.49s CPU      0.49s WALL (       1 calls)
     hinit0       :      0.04s CPU      0.09s WALL (       1 calls)

     Called by electrons:
     c_bands      :     13.95s CPU     14.31s WALL (      14 calls)
     sum_band     :      1.53s CPU      1.54s WALL (      14 calls)
     v_of_rho     :      0.17s CPU      0.17s WALL (      15 calls)
     v_h          :      0.00s CPU      0.00s WALL (      15 calls)
     v_xc         :      0.16s CPU      0.17s WALL (      15 calls)
     mix_rho      :      0.03s CPU      0.03s WALL (      14 calls)

     Called by c_bands:
     init_us_2    :      0.02s CPU      0.02s WALL (      30 calls)
     regterg      :     11.58s CPU     11.93s WALL (      14 calls)

     Called by sum_band:
     sum_band:wei :      0.03s CPU      0.03s WALL (      14 calls)
     sum_band:loo :      1.45s CPU      1.46s WALL (      14 calls)
     sum_band:buf :      0.00s CPU      0.00s WALL (      14 calls)
     sum_band:ini :      0.01s CPU      0.01s WALL (      14 calls)

     Called by *egterg:
     rdiaghg      :      4.11s CPU      4.21s WALL (     274 calls)
     regterg:over :      0.76s CPU      0.86s WALL (     260 calls)
     regterg:upda :      0.62s CPU      0.64s WALL (     260 calls)
     regterg:last :      0.53s CPU      0.54s WALL (      51 calls)
     rdiaghg:chol :      0.14s CPU      0.15s WALL (     274 calls)
     rdiaghg:inve :      0.03s CPU      0.03s WALL (     274 calls)
     rdiaghg:para :      0.41s CPU      0.43s WALL (     548 calls)
     h_psi        :      5.12s CPU      5.22s WALL (     275 calls)
     g_psi        :      0.00s CPU      0.00s WALL (     260 calls)

     Called by h_psi:
     h_psi:calbec :      0.88s CPU      0.91s WALL (     275 calls)
     vloc_psi     :      4.13s CPU      4.19s WALL (     275 calls)
                                        0.00s GPU  (     275 calls)
     add_vuspsi   :      0.11s CPU      0.12s WALL (     275 calls)

     General routines
     calbec       :      2.83s CPU      2.88s WALL (     279 calls)
     fft          :      0.10s CPU      0.12s WALL (     196 calls)
     ffts         :      0.02s CPU      0.02s WALL (      14 calls)
     fftw         :      5.47s CPU      5.53s WALL (   10146 calls)
 
     Parallel routines
 
     PWSCF        :     23.10s CPU     24.04s WALL

 
   This run was terminated on:  15:44:50  16Nov2025            

=------------------------------------------------------------------------------=
   JOB DONE.
=------------------------------------------------------------------------------=
