
     Program PWSCF v.7.5 starts on 16Nov2025 at 16:39:10 

     This program is part of the open-source Quantum ESPRESSO suite
     for quantum simulation of materials; please cite
         "P. Giannozzi et al., J. Phys.:Condens. Matter 21 395502 (2009);
         "P. Giannozzi et al., J. Phys.:Condens. Matter 29 465901 (2017);
         "P. Giannozzi et al., J. Chem. Phys. 152 154105 (2020);
          URL http://www.quantum-espresso.org", 
     in publications or presentations arising from this work. More details at
     http://www.quantum-espresso.org/quote

     Parallel version (MPI), running on    96 processors

     MPI processes distributed on     2 nodes
     174471 MiB available memory on the printing compute node when the environment starts
 
     Reading input from supercell-238.in

     Current dimensions of program PWSCF are:
     Max number of different atomic species (ntypx) = 10
     Max number of k-points (npk) =  40000
     Max angular momentum in pseudopotentials (lmaxx) =  4

     gamma-point specific algorithms are used
 
     K-points division:     npool     =       2
     R & G space division:  proc/nbgrp/npool/nimage =      48
     Subspace diagonalization in iterative solution of the eigenvalue problem:
     one sub-group per band group will be used
     scalapack distributed-memory algorithm (size of sub-group:  2*  2 procs)

 
     Parallelization info
     --------------------
     sticks:   dense  smooth     PW     G-vecs:    dense   smooth      PW
     Min          59      59     14                 2432     2432     302
     Max          62      62     16                 2442     2442     316
     Sum        2885    2885    725               116921   116921   14771
 
     Using Slab Decomposition
 


     bravais-lattice index     =            0
     lattice parameter (alat)  =      13.4813  a.u.
     unit-cell volume          =    2450.1683 (a.u.)^3
     number of atoms/cell      =           63
     number of atomic types    =            2
     number of electrons       =       254.00 (up: 128.00, down: 126.00)
     number of Kohn-Sham states=          152
     kinetic-energy cutoff     =      50.0000  Ry
     charge density cutoff     =     200.0000  Ry
     scf convergence threshold =      1.0E-08
     mixing beta               =       0.7000
     number of iterations used =            8  plain     mixing
     Exchange-correlation= PBE
                           (   1   4   3   4   0   0   0)

     celldm(1)=  13.481306  celldm(2)=   0.000000  celldm(3)=   0.000000
     celldm(4)=   0.000000  celldm(5)=   0.000000  celldm(6)=   0.000000

     crystal axes: (cart. coord. in units of alat)
               a(1) = (   1.000000   0.000000   0.000000 )  
               a(2) = (   0.000000   1.000000   0.000000 )  
               a(3) = (   0.000000   0.000000   1.000000 )  

     reciprocal axes: (cart. coord. in units 2 pi/alat)
               b(1) = (  1.000000  0.000000  0.000000 )  
               b(2) = (  0.000000  1.000000  0.000000 )  
               b(3) = (  0.000000  0.000000  1.000000 )  


     PseudoPot. # 1 for N  read from file:
     ./N_ONCV_PBE-1.2.upf
     MD5 check sum: 5312fdf34e96954e02a33bdc911c617a
     Pseudo is Norm-conserving, Zval =  5.0
     Generated using ONCVPSP code by D. R. Hamann
     Using radial grid of  602 points,  4 beta functions with: 
                l(1) =   0
                l(2) =   0
                l(3) =   1
                l(4) =   1

     PseudoPot. # 2 for C  read from file:
     ./C_ONCV_PBE-1.2.upf
     MD5 check sum: d60b57d9bdca4133f5fde4b584ee909d
     Pseudo is Norm-conserving, Zval =  4.0
     Generated using ONCVPSP code by D. R. Hamann
     Using radial grid of  602 points,  4 beta functions with: 
                l(1) =   0
                l(2) =   0
                l(3) =   1
                l(4) =   1

     atomic species   valence    mass     pseudopotential
     N                 5.00    14.00670     N ( 1.00)
     C                 4.00    12.01070     C ( 1.00)

     Starting magnetic structure 
     atomic species   magnetization
     N               0.000
     C               0.000

     No symmetry found


                                    s                        frac. trans.

      isym =  1     identity                                     

 cryst.   s( 1) = (     1          0          0      )
                  (     0          1          0      )
                  (     0          0          1      )

 cart.    s( 1) = (  1.0000000  0.0000000  0.0000000 )
                  (  0.0000000  1.0000000  0.0000000 )
                  (  0.0000000  0.0000000  1.0000000 )


   Cartesian axes

     site n.     atom                  positions (alat units)
         1        N      tau(   1) = (   0.9893819   0.9897344   0.9891721  )
         2        C      tau(   2) = (   0.9870277   0.2601210   0.2640728  )
         3        C      tau(   3) = (   0.1231717   0.3731672   0.3742038  )
         4        C      tau(   4) = (   0.2603919   0.9894620   0.2619202  )
         5        C      tau(   5) = (   0.3737632   0.1246771   0.3741571  )
         6        C      tau(   6) = (   0.2640151   0.2616009   0.9853609  )
         7        C      tau(   7) = (   0.3737752   0.3731213   0.1223564  )
         8        C      tau(   8) = (   0.0000049   0.0005840   0.4991361  )
         9        C      tau(   9) = (   0.1251361   0.1251278   0.6250981  )
        10        C      tau(  10) = (   0.0020393   0.2482470   0.7515266  )
        11        C      tau(  11) = (   0.1292009   0.3733021   0.8763303  )
        12        C      tau(  12) = (   0.2487801   0.0017974   0.7514403  )
        13        C      tau(  13) = (   0.3754339   0.1292460   0.8748544  )
        14        C      tau(  14) = (   0.2491579   0.2495268   0.4995755  )
        15        C      tau(  15) = (   0.3750038   0.3749547   0.6244069  )
        16        C      tau(  16) = (   0.0016366   0.4979779   0.0013734  )
        17        C      tau(  17) = (   0.1250869   0.6243147   0.1250807  )
        18        C      tau(  18) = (   0.0014462   0.7520697   0.2483230  )
        19        C      tau(  19) = (   0.1266755   0.8769178   0.3741906  )
        20        C      tau(  20) = (   0.2488290   0.4983596   0.2486760  )
        21        C      tau(  21) = (   0.3741642   0.6242659   0.3742111  )
        22        C      tau(  22) = (   0.2480673   0.7520817   0.0015447  )
        23        C      tau(  23) = (   0.3729914   0.8777475   0.1265606  )
        24        C      tau(  24) = (   0.0000493   0.5010760   0.5011299  )
        25        C      tau(  25) = (   0.1252054   0.6262200   0.6252733  )
        26        C      tau(  26) = (   0.9993969   0.7487112   0.7492532  )
        27        C      tau(  27) = (   0.1217927   0.8768349   0.8763928  )
        28        C      tau(  28) = (   0.2492749   0.5017254   0.7482724  )
        29        C      tau(  29) = (   0.3741000   0.6263042   0.8750769  )
        30        C      tau(  30) = (   0.2487293   0.7486845   0.5007616  )
        31        C      tau(  31) = (   0.3739266   0.8750581   0.6258828  )
        32        C      tau(  32) = (   0.4987543   0.0011228   0.0002828  )
        33        C      tau(  33) = (   0.6248203   0.1251003   0.1251034  )
        34        C      tau(  34) = (   0.4991217   0.2493918   0.2488717  )
        35        C      tau(  35) = (   0.6243080   0.3746888   0.3747831  )
        36        C      tau(  36) = (   0.7516460   0.0016191   0.2487956  )
        37        C      tau(  37) = (   0.8750430   0.1283649   0.3757598  )
        38        C      tau(  38) = (   0.7517475   0.2480080   0.0019610  )
        39        C      tau(  39) = (   0.8773622   0.3724247   0.1282033  )
        40        C      tau(  40) = (   0.5008161   0.9985062   0.5008301  )
        41        C      tau(  41) = (   0.6256173   0.1249721   0.6252590  )
        42        C      tau(  42) = (   0.5022259   0.2488088   0.7478265  )
        43        C      tau(  43) = (   0.6264784   0.3739683   0.8752045  )
        44        C      tau(  44) = (   0.7487945   0.9989046   0.7489691  )
        45        C      tau(  45) = (   0.8764746   0.1216998   0.8763156  )
        46        C      tau(  46) = (   0.7479635   0.2486819   0.5018806  )
        47        C      tau(  47) = (   0.8751980   0.3739245   0.6263738  )
        48        C      tau(  48) = (   0.5012000   0.5011574   0.0001136  )
        49        C      tau(  49) = (   0.6256259   0.6262099   0.1252968  )
        50        C      tau(  50) = (   0.5005188   0.7489091   0.2490095  )
        51        C      tau(  51) = (   0.6258050   0.8750157   0.3740056  )
        52        C      tau(  52) = (   0.7486304   0.5011458   0.2494302  )
        53        C      tau(  53) = (   0.8750247   0.6261269   0.3741365  )
        54        C      tau(  54) = (   0.7492281   0.7488562   0.9996087  )
        55        C      tau(  55) = (   0.8766209   0.8769033   0.1218021  )
        56        C      tau(  56) = (   0.4990819   0.4992903   0.4990317  )
        57        C      tau(  57) = (   0.6247789   0.6244471   0.6249452  )
        58        C      tau(  58) = (   0.4991767   0.7499842   0.7500845  )
        59        C      tau(  59) = (   0.6239946   0.8751464   0.8754130  )
        60        C      tau(  60) = (   0.7505316   0.4989321   0.7505826  )
        61        C      tau(  61) = (   0.8758455   0.6234984   0.8759288  )
        62        C      tau(  62) = (   0.7498244   0.7497799   0.4993198  )
        63        C      tau(  63) = (   0.8750855   0.8749084   0.6242568  )

   Crystallographic axes

     site n.     atom                  positions (cryst. coord.)
         1        N      tau(   1) = (  0.9893819  0.9897344  0.9891721  )
         2        C      tau(   2) = (  0.9870277  0.2601210  0.2640728  )
         3        C      tau(   3) = (  0.1231717  0.3731672  0.3742038  )
         4        C      tau(   4) = (  0.2603919  0.9894620  0.2619202  )
         5        C      tau(   5) = (  0.3737632  0.1246771  0.3741571  )
         6        C      tau(   6) = (  0.2640151  0.2616009  0.9853609  )
         7        C      tau(   7) = (  0.3737752  0.3731213  0.1223564  )
         8        C      tau(   8) = (  0.0000049  0.0005840  0.4991361  )
         9        C      tau(   9) = (  0.1251361  0.1251278  0.6250981  )
        10        C      tau(  10) = (  0.0020393  0.2482470  0.7515266  )
        11        C      tau(  11) = (  0.1292009  0.3733021  0.8763303  )
        12        C      tau(  12) = (  0.2487801  0.0017974  0.7514403  )
        13        C      tau(  13) = (  0.3754339  0.1292460  0.8748544  )
        14        C      tau(  14) = (  0.2491579  0.2495268  0.4995755  )
        15        C      tau(  15) = (  0.3750038  0.3749547  0.6244069  )
        16        C      tau(  16) = (  0.0016366  0.4979779  0.0013734  )
        17        C      tau(  17) = (  0.1250869  0.6243147  0.1250807  )
        18        C      tau(  18) = (  0.0014462  0.7520697  0.2483230  )
        19        C      tau(  19) = (  0.1266755  0.8769178  0.3741906  )
        20        C      tau(  20) = (  0.2488290  0.4983596  0.2486760  )
        21        C      tau(  21) = (  0.3741642  0.6242659  0.3742111  )
        22        C      tau(  22) = (  0.2480673  0.7520817  0.0015447  )
        23        C      tau(  23) = (  0.3729914  0.8777475  0.1265606  )
        24        C      tau(  24) = (  0.0000493  0.5010760  0.5011299  )
        25        C      tau(  25) = (  0.1252054  0.6262200  0.6252733  )
        26        C      tau(  26) = (  0.9993969  0.7487112  0.7492532  )
        27        C      tau(  27) = (  0.1217927  0.8768349  0.8763928  )
        28        C      tau(  28) = (  0.2492749  0.5017254  0.7482724  )
        29        C      tau(  29) = (  0.3741000  0.6263042  0.8750769  )
        30        C      tau(  30) = (  0.2487293  0.7486845  0.5007616  )
        31        C      tau(  31) = (  0.3739266  0.8750581  0.6258828  )
        32        C      tau(  32) = (  0.4987543  0.0011228  0.0002828  )
        33        C      tau(  33) = (  0.6248203  0.1251003  0.1251034  )
        34        C      tau(  34) = (  0.4991217  0.2493918  0.2488717  )
        35        C      tau(  35) = (  0.6243080  0.3746888  0.3747831  )
        36        C      tau(  36) = (  0.7516460  0.0016191  0.2487956  )
        37        C      tau(  37) = (  0.8750430  0.1283649  0.3757598  )
        38        C      tau(  38) = (  0.7517475  0.2480080  0.0019610  )
        39        C      tau(  39) = (  0.8773622  0.3724247  0.1282033  )
        40        C      tau(  40) = (  0.5008161  0.9985062  0.5008301  )
        41        C      tau(  41) = (  0.6256173  0.1249721  0.6252590  )
        42        C      tau(  42) = (  0.5022259  0.2488088  0.7478265  )
        43        C      tau(  43) = (  0.6264784  0.3739683  0.8752045  )
        44        C      tau(  44) = (  0.7487945  0.9989046  0.7489691  )
        45        C      tau(  45) = (  0.8764746  0.1216998  0.8763156  )
        46        C      tau(  46) = (  0.7479635  0.2486819  0.5018806  )
        47        C      tau(  47) = (  0.8751980  0.3739245  0.6263738  )
        48        C      tau(  48) = (  0.5012000  0.5011574  0.0001136  )
        49        C      tau(  49) = (  0.6256259  0.6262099  0.1252968  )
        50        C      tau(  50) = (  0.5005188  0.7489091  0.2490095  )
        51        C      tau(  51) = (  0.6258050  0.8750157  0.3740056  )
        52        C      tau(  52) = (  0.7486304  0.5011458  0.2494302  )
        53        C      tau(  53) = (  0.8750247  0.6261269  0.3741365  )
        54        C      tau(  54) = (  0.7492281  0.7488562  0.9996087  )
        55        C      tau(  55) = (  0.8766209  0.8769033  0.1218021  )
        56        C      tau(  56) = (  0.4990819  0.4992903  0.4990317  )
        57        C      tau(  57) = (  0.6247789  0.6244471  0.6249452  )
        58        C      tau(  58) = (  0.4991767  0.7499842  0.7500845  )
        59        C      tau(  59) = (  0.6239946  0.8751464  0.8754130  )
        60        C      tau(  60) = (  0.7505316  0.4989321  0.7505826  )
        61        C      tau(  61) = (  0.8758455  0.6234984  0.8759288  )
        62        C      tau(  62) = (  0.7498244  0.7497799  0.4993198  )
        63        C      tau(  63) = (  0.8750855  0.8749084  0.6242568  )

     number of k points=     1
                       cart. coord. in units 2pi/alat
        k(    1) = (   0.0000000   0.0000000   0.0000000), wk =   1.0000000

                       cryst. coord.
        k(    1) = (   0.0000000   0.0000000   0.0000000), wk =   1.0000000

     Dense  grid:    58461 G-vectors     FFT dimensions: (  64,  64,  64)

     Dynamical RAM for                 wfc:       0.35 MB

     Dynamical RAM for     wfc (w. buffer):       0.35 MB

     Dynamical RAM for           str. fact:       0.04 MB

     Dynamical RAM for           local pot:       0.00 MB

     Dynamical RAM for          nlocal pot:       1.17 MB

     Dynamical RAM for                qrad:       0.65 MB

     Dynamical RAM for          rho,v,vnew:       0.49 MB

     Dynamical RAM for               rhoin:       0.16 MB

     Dynamical RAM for            rho*nmix:       0.60 MB

     Dynamical RAM for           G-vectors:       0.08 MB

     Dynamical RAM for          h,s,v(r/c):       0.53 MB

     Dynamical RAM for          <psi|beta>:       0.58 MB

     Dynamical RAM for                 psi:       0.71 MB

     Dynamical RAM for                hpsi:       0.71 MB

     Dynamical RAM for      wfcinit/wfcrot:       1.24 MB

     Estimated static dynamical RAM per process >       3.37 MB

     Estimated max dynamical RAM per process >       6.49 MB

     Estimated total dynamical RAM >     594.05 MB
     Generating pointlists ...
     new r_m :   0.0854 (alat units)  1.1518 (a.u.) for type    1
     new r_m :   0.0847 (alat units)  1.1416 (a.u.) for type    2

     Initial potential from superposition of free atoms

     starting charge     252.5655, renormalised to     254.0000
     Starting wfcs are random

     total cpu time spent up to now is        1.2 secs

     Self-consistent Calculation

     iteration #  1     ecut=    50.00 Ry     beta= 0.70
     Davidson diagonalization with overlap

---- Real-time Memory Report at c_bands before calling an iterative solver
           160 MiB given to the printing process from OS
             0 MiB allocation reported by mallinfo(arena+hblkhd)
        173489 MiB available memory on the node where the printing process lives
------------------
     ethr =  1.00E-02,  avg # of iterations = 12.0

     total cpu time spent up to now is        1.9 secs

     total energy              =    -723.27076608 Ry
     estimated scf accuracy    <       3.70920399 Ry

     total magnetization       =     2.00 Bohr mag/cell
     absolute magnetization    =     2.00 Bohr mag/cell

     iteration #  2     ecut=    50.00 Ry     beta= 0.70
     Davidson diagonalization with overlap

---- Real-time Memory Report at c_bands before calling an iterative solver
           165 MiB given to the printing process from OS
             0 MiB allocation reported by mallinfo(arena+hblkhd)
        173414 MiB available memory on the node where the printing process lives
------------------
     ethr =  1.46E-03,  avg # of iterations = 11.5

     total cpu time spent up to now is        2.7 secs

     total energy              =    -723.66125062 Ry
     estimated scf accuracy    <       0.45672259 Ry

     total magnetization       =     2.00 Bohr mag/cell
     absolute magnetization    =     2.07 Bohr mag/cell

     iteration #  3     ecut=    50.00 Ry     beta= 0.70
     Davidson diagonalization with overlap

---- Real-time Memory Report at c_bands before calling an iterative solver
           166 MiB given to the printing process from OS
             0 MiB allocation reported by mallinfo(arena+hblkhd)
        173420 MiB available memory on the node where the printing process lives
------------------
     c_bands:  1 eigenvalues not converged
     ethr =  1.80E-04,  avg # of iterations = 20.0

     total cpu time spent up to now is        3.4 secs

     total energy              =    -723.72613201 Ry
     estimated scf accuracy    <       0.86926391 Ry

     total magnetization       =     2.00 Bohr mag/cell
     absolute magnetization    =     2.12 Bohr mag/cell

     iteration #  4     ecut=    50.00 Ry     beta= 0.70
     Davidson diagonalization with overlap

---- Real-time Memory Report at c_bands before calling an iterative solver
           167 MiB given to the printing process from OS
             0 MiB allocation reported by mallinfo(arena+hblkhd)
        173419 MiB available memory on the node where the printing process lives
------------------
     c_bands:  1 eigenvalues not converged
     ethr =  1.80E-04,  avg # of iterations = 20.0

     total cpu time spent up to now is        5.5 secs

     total energy              =    -723.90087561 Ry
     estimated scf accuracy    <       0.00980492 Ry

     total magnetization       =     2.00 Bohr mag/cell
     absolute magnetization    =     2.19 Bohr mag/cell

     iteration #  5     ecut=    50.00 Ry     beta= 0.70
     Davidson diagonalization with overlap

---- Real-time Memory Report at c_bands before calling an iterative solver
           167 MiB given to the printing process from OS
             0 MiB allocation reported by mallinfo(arena+hblkhd)
        173416 MiB available memory on the node where the printing process lives
------------------
     c_bands:  4 eigenvalues not converged
     ethr =  3.86E-06,  avg # of iterations = 20.0

     total cpu time spent up to now is        5.9 secs

     total energy              =    -723.90581953 Ry
     estimated scf accuracy    <       0.00407169 Ry

     total magnetization       =     2.00 Bohr mag/cell
     absolute magnetization    =     2.23 Bohr mag/cell

     iteration #  6     ecut=    50.00 Ry     beta= 0.70
     Davidson diagonalization with overlap

---- Real-time Memory Report at c_bands before calling an iterative solver
           167 MiB given to the printing process from OS
             0 MiB allocation reported by mallinfo(arena+hblkhd)
        173416 MiB available memory on the node where the printing process lives
------------------
     c_bands:  3 eigenvalues not converged
     ethr =  1.60E-06,  avg # of iterations = 20.0

     total cpu time spent up to now is        6.5 secs

     total energy              =    -723.90656969 Ry
     estimated scf accuracy    <       0.00088586 Ry

     total magnetization       =     2.00 Bohr mag/cell
     absolute magnetization    =     2.25 Bohr mag/cell

     iteration #  7     ecut=    50.00 Ry     beta= 0.70
     Davidson diagonalization with overlap

---- Real-time Memory Report at c_bands before calling an iterative solver
           167 MiB given to the printing process from OS
             0 MiB allocation reported by mallinfo(arena+hblkhd)
        173417 MiB available memory on the node where the printing process lives
------------------
     c_bands:  1 eigenvalues not converged
     ethr =  3.49E-07,  avg # of iterations = 19.0

     total cpu time spent up to now is        7.9 secs

     total energy              =    -723.90679700 Ry
     estimated scf accuracy    <       0.00012115 Ry

     total magnetization       =     2.00 Bohr mag/cell
     absolute magnetization    =     2.27 Bohr mag/cell

     iteration #  8     ecut=    50.00 Ry     beta= 0.70
     Davidson diagonalization with overlap

---- Real-time Memory Report at c_bands before calling an iterative solver
           167 MiB given to the printing process from OS
             0 MiB allocation reported by mallinfo(arena+hblkhd)
        173413 MiB available memory on the node where the printing process lives
------------------
     c_bands:  2 eigenvalues not converged
     ethr =  4.77E-08,  avg # of iterations = 20.0

     total cpu time spent up to now is        8.5 secs

     total energy              =    -723.90683733 Ry
     estimated scf accuracy    <       0.00002792 Ry

     total magnetization       =     2.00 Bohr mag/cell
     absolute magnetization    =     2.28 Bohr mag/cell

     iteration #  9     ecut=    50.00 Ry     beta= 0.70
     Davidson diagonalization with overlap

---- Real-time Memory Report at c_bands before calling an iterative solver
           167 MiB given to the printing process from OS
             0 MiB allocation reported by mallinfo(arena+hblkhd)
        173415 MiB available memory on the node where the printing process lives
------------------
     c_bands:  3 eigenvalues not converged
     ethr =  1.10E-08,  avg # of iterations = 20.0

     total cpu time spent up to now is        9.0 secs

     total energy              =    -723.90684756 Ry
     estimated scf accuracy    <       0.00000769 Ry

     total magnetization       =     2.00 Bohr mag/cell
     absolute magnetization    =     2.29 Bohr mag/cell

     iteration # 10     ecut=    50.00 Ry     beta= 0.70
     Davidson diagonalization with overlap

---- Real-time Memory Report at c_bands before calling an iterative solver
           167 MiB given to the printing process from OS
             0 MiB allocation reported by mallinfo(arena+hblkhd)
        173407 MiB available memory on the node where the printing process lives
------------------
     c_bands:  3 eigenvalues not converged
     ethr =  3.03E-09,  avg # of iterations = 20.0

     total cpu time spent up to now is        9.6 secs

     total energy              =    -723.90685107 Ry
     estimated scf accuracy    <       0.00000087 Ry

     total magnetization       =     2.00 Bohr mag/cell
     absolute magnetization    =     2.30 Bohr mag/cell

     iteration # 11     ecut=    50.00 Ry     beta= 0.70
     Davidson diagonalization with overlap

---- Real-time Memory Report at c_bands before calling an iterative solver
           167 MiB given to the printing process from OS
             0 MiB allocation reported by mallinfo(arena+hblkhd)
        173418 MiB available memory on the node where the printing process lives
------------------
     c_bands:  1 eigenvalues not converged
     ethr =  3.41E-10,  avg # of iterations = 20.0

     total cpu time spent up to now is       10.3 secs

     total energy              =    -723.90685169 Ry
     estimated scf accuracy    <       0.00000028 Ry

     total magnetization       =     2.00 Bohr mag/cell
     absolute magnetization    =     2.30 Bohr mag/cell

     iteration # 12     ecut=    50.00 Ry     beta= 0.70
     Davidson diagonalization with overlap

---- Real-time Memory Report at c_bands before calling an iterative solver
           167 MiB given to the printing process from OS
             0 MiB allocation reported by mallinfo(arena+hblkhd)
        173415 MiB available memory on the node where the printing process lives
------------------
     ethr =  1.10E-10,  avg # of iterations = 17.5

     total cpu time spent up to now is       11.1 secs

     total energy              =    -723.90685182 Ry
     estimated scf accuracy    <       0.00000012 Ry

     total magnetization       =     2.00 Bohr mag/cell
     absolute magnetization    =     2.30 Bohr mag/cell

     iteration # 13     ecut=    50.00 Ry     beta= 0.70
     Davidson diagonalization with overlap

---- Real-time Memory Report at c_bands before calling an iterative solver
           167 MiB given to the printing process from OS
             0 MiB allocation reported by mallinfo(arena+hblkhd)
        173415 MiB available memory on the node where the printing process lives
------------------
     ethr =  4.56E-11,  avg # of iterations = 14.5

     total cpu time spent up to now is       11.6 secs

     total energy              =    -723.90685187 Ry
     estimated scf accuracy    <       0.00000002 Ry

     total magnetization       =     2.00 Bohr mag/cell
     absolute magnetization    =     2.30 Bohr mag/cell

     iteration # 14     ecut=    50.00 Ry     beta= 0.70
     Davidson diagonalization with overlap

---- Real-time Memory Report at c_bands before calling an iterative solver
           167 MiB given to the printing process from OS
             0 MiB allocation reported by mallinfo(arena+hblkhd)
        173415 MiB available memory on the node where the printing process lives
------------------
     ethr =  9.24E-12,  avg # of iterations = 17.0
 
     Magnetic moment per site  (integrated on atomic sphere of radius R)
     atom   1 (R=0.085)  charge=  2.9143  magn=  0.0042
     atom   2 (R=0.085)  charge=  1.8171  magn=  0.2447
     atom   3 (R=0.085)  charge=  1.7930  magn= -0.0086
     atom   4 (R=0.085)  charge=  1.8051  magn=  0.2458
     atom   5 (R=0.085)  charge=  1.7914  magn= -0.0087
     atom   6 (R=0.085)  charge=  1.8233  magn=  0.2447
     atom   7 (R=0.085)  charge=  1.7933  magn= -0.0087
     atom   8 (R=0.085)  charge=  1.7860  magn=  0.0091
     atom   9 (R=0.085)  charge=  1.7963  magn= -0.0019
     atom  10 (R=0.085)  charge=  1.7834  magn=  0.0060
     atom  11 (R=0.085)  charge=  1.7969  magn= -0.0042
     atom  12 (R=0.085)  charge=  1.7823  magn=  0.0061
     atom  13 (R=0.085)  charge=  1.8039  magn= -0.0039
     atom  14 (R=0.085)  charge=  1.7891  magn=  0.0085
     atom  15 (R=0.085)  charge=  1.7872  magn= -0.0020
     atom  16 (R=0.085)  charge=  1.7820  magn=  0.0089
     atom  17 (R=0.085)  charge=  1.7956  magn= -0.0018
     atom  18 (R=0.085)  charge=  1.7822  magn=  0.0058
     atom  19 (R=0.085)  charge=  1.7953  magn= -0.0036
     atom  20 (R=0.085)  charge=  1.7834  magn=  0.0083
     atom  21 (R=0.085)  charge=  1.7847  magn= -0.0020
     atom  22 (R=0.085)  charge=  1.7829  magn=  0.0057
     atom  23 (R=0.085)  charge=  1.7905  magn= -0.0037
     atom  24 (R=0.085)  charge=  1.7825  magn=  0.0182
     atom  25 (R=0.085)  charge=  1.8068  magn=  0.0094
     atom  26 (R=0.085)  charge=  1.7935  magn=  0.0032
     atom  27 (R=0.085)  charge=  1.7589  magn=  0.0000
     atom  28 (R=0.085)  charge=  1.7896  magn=  0.0221
     atom  29 (R=0.085)  charge=  1.7825  magn= -0.0013
     atom  30 (R=0.085)  charge=  1.7902  magn=  0.0212
     atom  31 (R=0.085)  charge=  1.7841  magn= -0.0013
     atom  32 (R=0.085)  charge=  1.7844  magn=  0.0090
     atom  33 (R=0.085)  charge=  1.7959  magn= -0.0019
     atom  34 (R=0.085)  charge=  1.7867  magn=  0.0084
     atom  35 (R=0.085)  charge=  1.7865  magn= -0.0020
     atom  36 (R=0.085)  charge=  1.7818  magn=  0.0059
     atom  37 (R=0.085)  charge=  1.8032  magn= -0.0036
     atom  38 (R=0.085)  charge=  1.7836  magn=  0.0058
     atom  39 (R=0.085)  charge=  1.7913  magn= -0.0041
     atom  40 (R=0.085)  charge=  1.7828  magn=  0.0183
     atom  41 (R=0.085)  charge=  1.8090  magn=  0.0094
     atom  42 (R=0.085)  charge=  1.7947  magn=  0.0218
     atom  43 (R=0.085)  charge=  1.7819  magn= -0.0013
     atom  44 (R=0.085)  charge=  1.7937  magn=  0.0032
     atom  45 (R=0.085)  charge=  1.7590  magn= -0.0000
     atom  46 (R=0.085)  charge=  1.7947  magn=  0.0214
     atom  47 (R=0.085)  charge=  1.7819  magn= -0.0013
     atom  48 (R=0.085)  charge=  1.7819  magn=  0.0184
     atom  49 (R=0.085)  charge=  1.8043  magn=  0.0094
     atom  50 (R=0.085)  charge=  1.7874  magn=  0.0213
     atom  51 (R=0.085)  charge=  1.7844  magn= -0.0013
     atom  52 (R=0.085)  charge=  1.7869  magn=  0.0218
     atom  53 (R=0.085)  charge=  1.7826  magn= -0.0013
     atom  54 (R=0.085)  charge=  1.7935  magn=  0.0032
     atom  55 (R=0.085)  charge=  1.7587  magn=  0.0001
     atom  56 (R=0.085)  charge=  1.7914  magn=  0.0009
     atom  57 (R=0.085)  charge=  1.7832  magn=  0.0010
     atom  58 (R=0.085)  charge=  1.7915  magn=  0.0018
     atom  59 (R=0.085)  charge=  1.7879  magn= -0.0009
     atom  60 (R=0.085)  charge=  1.7911  magn=  0.0017
     atom  61 (R=0.085)  charge=  1.7854  magn= -0.0009
     atom  62 (R=0.085)  charge=  1.7914  magn=  0.0019
     atom  63 (R=0.085)  charge=  1.7891  magn= -0.0009

     total cpu time spent up to now is       12.2 secs

     End of self-consistent calculation

 ------ SPIN UP ------------


          k = 0.0000 0.0000 0.0000 (  7386 PWs)   bands (ev):

    -8.5509  -6.9224  -6.2832  -6.2706  -6.1943  -6.1614  -5.8814  -4.9113
    -4.1382  -4.1292  -4.1244  -4.0943  -4.0308  -4.0208  -4.0091  -3.9178
    -3.8742  -3.8667  -3.3581  -2.9324  -2.6769  -2.6738  -2.1614  -0.3633
    -0.3538  -0.3286  -0.2818  -0.0752   0.1729   0.1907   0.2815   0.2967
     0.3654   0.6195   0.8373   0.8435   0.9526   0.9720   0.9932   1.0529
     1.0602   1.0628   1.2674   1.2964   3.0734   3.9066   3.9264   4.0702
     4.1863   4.2070   4.2233   4.2734   4.2827   4.2868   4.4224   4.4246
     4.4959   4.4980   4.5670   4.6622   4.6824   4.6900   4.6910   4.7888
     4.7970   4.9222   4.9643   4.9675   5.0461   5.1981   5.2097   5.3029
     5.3579   5.3703   5.3941   5.4062   5.4081   6.0410   6.0487   6.1072
     6.6586   6.6670   6.7263   6.9906   7.0043   7.0409   7.5272   8.3344
     8.3361   8.4116   8.4666   8.4913   8.6889   8.7055   8.7894   8.8302
     8.8452   8.8513   8.8863   8.9004   8.9080   9.2866   9.2880   9.3251
     9.6847   9.7008   9.8930   9.9109   9.9446   9.9612   9.9622   9.9760
     9.9894  10.0249  10.0319  10.0599  10.1269  10.1394  10.2691  10.3290
    10.3391  11.0554  12.2872  12.4142  12.4307  13.9608  14.6928  14.8029
    17.3379  17.3819  17.4072  17.5242  17.5738  17.5823  17.8416  17.9290
    17.9366  18.0324  18.0689  18.3678  18.9950  19.0017  19.0248  20.6893
    20.8012  20.8244  20.8785  20.9458  20.9486  21.0214  21.0342  21.0420

     occupation numbers 
     1.0000   1.0000   1.0000   1.0000   1.0000   1.0000   1.0000   1.0000
     1.0000   1.0000   1.0000   1.0000   1.0000   1.0000   1.0000   1.0000
     1.0000   1.0000   1.0000   1.0000   1.0000   1.0000   1.0000   1.0000
     1.0000   1.0000   1.0000   1.0000   1.0000   1.0000   1.0000   1.0000
     1.0000   1.0000   1.0000   1.0000   1.0000   1.0000   1.0000   1.0000
     1.0000   1.0000   1.0000   1.0000   1.0000   1.0000   1.0000   1.0000
     1.0000   1.0000   1.0000   1.0000   1.0000   1.0000   1.0000   1.0000
     1.0000   1.0000   1.0000   1.0000   1.0000   1.0000   1.0000   1.0000
     1.0000   1.0000   1.0000   1.0000   1.0000   1.0000   1.0000   1.0000
     1.0000   1.0000   1.0000   1.0000   1.0000   1.0000   1.0000   1.0000
     1.0000   1.0000   1.0000   1.0000   1.0000   1.0000   1.0000   1.0000
     1.0000   1.0000   1.0000   1.0000   1.0000   1.0000   1.0000   1.0000
     1.0000   1.0000   1.0000   1.0000   1.0000   1.0000   1.0000   1.0000
     1.0000   1.0000   1.0000   1.0000   1.0000   1.0000   1.0000   1.0000
     1.0000   1.0000   1.0000   1.0000   1.0000   1.0000   1.0000   1.0000
     1.0000   1.0000   1.0000   1.0000   1.0000   1.0000   1.0000   1.0000
     0.0000   0.0000   0.0000   0.0000   0.0000   0.0000   0.0000   0.0000
     0.0000   0.0000   0.0000   0.0000   0.0000   0.0000   0.0000   0.0000
     0.0000   0.0000   0.0000   0.0000   0.0000   0.0000   0.0000   0.0000

 ------ SPIN DOWN ----------


          k = 0.0000 0.0000 0.0000 (  7386 PWs)   bands (ev):

    -8.5255  -6.9080  -6.2608  -6.2473  -6.1497  -6.1194  -5.8442  -4.8946
    -4.1176  -4.1058  -4.0848  -4.0611  -3.9965  -3.9823  -3.9624  -3.9059
    -3.8385  -3.8254  -3.3159  -2.9137  -2.6241  -2.6199  -2.0165  -0.3458
    -0.3357  -0.3071  -0.2646  -0.0095   0.1916   0.2081   0.3189   0.3298
     0.3902   0.6544   0.8494   0.8552   0.9868   1.0027   1.0176   1.0679
     1.0773   1.0800   1.4330   1.4665   3.1871   3.9297   3.9486   4.0961
     4.2197   4.2504   4.2649   4.2919   4.2985   4.3137   4.4691   4.4712
     4.5175   4.5203   4.5908   4.6866   4.7030   4.7046   4.7116   4.8227
     4.8337   4.9357   4.9964   4.9990   5.1273   5.2323   5.2446   5.3269
     5.3725   5.3814   5.4202   5.4520   5.4699   6.1032   6.1077   6.1452
     6.6851   6.6943   6.7606   7.0779   7.0878   7.0996   7.6974   8.3729
     8.3753   8.4491   8.5024   8.5260   8.7232   8.7371   8.8244   8.8754
     8.8819   8.8860   8.9178   8.9315   8.9388   9.3228   9.3250   9.3527
     9.7123   9.7283   9.9278   9.9345   9.9562   9.9752   9.9766   9.9946
    10.0098  10.0595  10.0688  10.0768  10.1539  10.1653  10.3270  10.3845
    10.3936  11.4343  12.5557  12.5654  12.6029  14.4432  16.0173  16.1432
    17.3630  17.3992  17.4245  17.5520  17.6291  17.6395  17.8644  17.9485
    17.9549  18.0721  18.1095  18.4870  19.0438  19.0795  19.1119  20.7397
    20.8153  20.8386  20.8933  20.9637  20.9666  21.0359  21.0588  21.0640

     occupation numbers 
     1.0000   1.0000   1.0000   1.0000   1.0000   1.0000   1.0000   1.0000
     1.0000   1.0000   1.0000   1.0000   1.0000   1.0000   1.0000   1.0000
     1.0000   1.0000   1.0000   1.0000   1.0000   1.0000   1.0000   1.0000
     1.0000   1.0000   1.0000   1.0000   1.0000   1.0000   1.0000   1.0000
     1.0000   1.0000   1.0000   1.0000   1.0000   1.0000   1.0000   1.0000
     1.0000   1.0000   1.0000   1.0000   1.0000   1.0000   1.0000   1.0000
     1.0000   1.0000   1.0000   1.0000   1.0000   1.0000   1.0000   1.0000
     1.0000   1.0000   1.0000   1.0000   1.0000   1.0000   1.0000   1.0000
     1.0000   1.0000   1.0000   1.0000   1.0000   1.0000   1.0000   1.0000
     1.0000   1.0000   1.0000   1.0000   1.0000   1.0000   1.0000   1.0000
     1.0000   1.0000   1.0000   1.0000   1.0000   1.0000   1.0000   1.0000
     1.0000   1.0000   1.0000   1.0000   1.0000   1.0000   1.0000   1.0000
     1.0000   1.0000   1.0000   1.0000   1.0000   1.0000   1.0000   1.0000
     1.0000   1.0000   1.0000   1.0000   1.0000   1.0000   1.0000   1.0000
     1.0000   1.0000   1.0000   1.0000   1.0000   1.0000   1.0000   1.0000
     1.0000   1.0000   1.0000   1.0000   1.0000   1.0000   0.0000   0.0000
     0.0000   0.0000   0.0000   0.0000   0.0000   0.0000   0.0000   0.0000
     0.0000   0.0000   0.0000   0.0000   0.0000   0.0000   0.0000   0.0000
     0.0000   0.0000   0.0000   0.0000   0.0000   0.0000   0.0000   0.0000

     highest occupied, lowest unoccupied level (ev):    14.8029   16.0173

!    total energy              =    -723.90685188 Ry
     estimated scf accuracy    <          5.0E-09 Ry

     The total energy is the sum of the following terms:
     one-electron contribution =     232.28049057 Ry
     hartree contribution      =      70.33784104 Ry
     xc contribution           =    -226.77199226 Ry
     ewald contribution        =    -799.75319123 Ry

     total magnetization       =     2.00 Bohr mag/cell
     absolute magnetization    =     2.30 Bohr mag/cell

     convergence has been achieved in  14 iterations

     Forces acting on atoms (cartesian axes, Ry/au):

     atom    1 type  1   force =    -0.00264649   -0.00392718   -0.00244390
     atom    2 type  2   force =     0.03522317    0.01588031   -0.01268167
     atom    3 type  2   force =    -0.00926924    0.00859751    0.00608884
     atom    4 type  2   force =     0.00850103    0.02516990   -0.00308627
     atom    5 type  2   force =     0.00278702   -0.02467989    0.00210385
     atom    6 type  2   force =    -0.00845667    0.00827902    0.04342741
     atom    7 type  2   force =     0.01013783    0.01197819   -0.00211073
     atom    8 type  2   force =     0.00302939    0.00426661    0.00655106
     atom    9 type  2   force =    -0.00215864   -0.00467048   -0.00295770
     atom   10 type  2   force =     0.00085795    0.00133441    0.00747644
     atom   11 type  2   force =    -0.02858288    0.00594816   -0.00881730
     atom   12 type  2   force =     0.00028004    0.00450957    0.00308141
     atom   13 type  2   force =    -0.00282234   -0.03979762   -0.00178801
     atom   14 type  2   force =     0.00410561    0.00155732   -0.00402823
     atom   15 type  2   force =    -0.00283241   -0.00130923   -0.00562215
     atom   16 type  2   force =     0.00016347   -0.00103199   -0.00100454
     atom   17 type  2   force =    -0.00140989    0.00639564    0.00020301
     atom   18 type  2   force =     0.00289360   -0.00025156    0.00098588
     atom   19 type  2   force =    -0.00912150   -0.00305002   -0.00525621
     atom   20 type  2   force =     0.00296281   -0.00431612    0.00353707
     atom   21 type  2   force =    -0.00108480   -0.00405043   -0.00206544
     atom   22 type  2   force =     0.00147272    0.00207953    0.00126372
     atom   23 type  2   force =    -0.00062590   -0.00703232   -0.00162801
     atom   24 type  2   force =     0.00967126    0.00540947    0.00432659
     atom   25 type  2   force =    -0.01242323   -0.01387751   -0.00410945
     atom   26 type  2   force =     0.01489643    0.00611723    0.00165721
     atom   27 type  2   force =    -0.02563427   -0.00874891   -0.00650514
     atom   28 type  2   force =     0.01052125    0.00076744    0.00588181
     atom   29 type  2   force =    -0.00005749   -0.00171084   -0.00119929
     atom   30 type  2   force =     0.00711881    0.00591278    0.00446502
     atom   31 type  2   force =     0.00020088   -0.00548467   -0.00275752
     atom   32 type  2   force =     0.00319856    0.00383530    0.00142814
     atom   33 type  2   force =     0.00056687   -0.00433180   -0.00019932
     atom   34 type  2   force =    -0.00437369    0.00112289    0.00425080
     atom   35 type  2   force =    -0.00493188   -0.00086714   -0.00335898
     atom   36 type  2   force =     0.00032380    0.00497053    0.00020521
     atom   37 type  2   force =     0.00073378   -0.03252157   -0.00713149
     atom   38 type  2   force =     0.00704259    0.00173327   -0.00031267
     atom   39 type  2   force =    -0.01009387    0.00612052   -0.01366398
     atom   40 type  2   force =     0.00546118    0.03002409    0.00506511
     atom   41 type  2   force =    -0.00827824   -0.01941450   -0.00455511
     atom   42 type  2   force =    -0.00043479    0.01680720    0.00537249
     atom   43 type  2   force =    -0.00082002    0.00071193   -0.00110665
     atom   44 type  2   force =     0.00495451    0.01775403    0.00334148
     atom   45 type  2   force =    -0.00738086   -0.02659225   -0.00659761
     atom   46 type  2   force =     0.00581929    0.01547688    0.00080866
     atom   47 type  2   force =    -0.00129179    0.00123402   -0.00176622
     atom   48 type  2   force =     0.00490407    0.00555912    0.00781635
     atom   49 type  2   force =    -0.00806793   -0.01414835   -0.01024736
     atom   50 type  2   force =     0.00459858    0.00603302    0.00287122
     atom   51 type  2   force =    -0.00319133   -0.00570353   -0.00057460
     atom   52 type  2   force =     0.00644702    0.00217208    0.00494710
     atom   53 type  2   force =    -0.00158538   -0.00307345   -0.00030920
     atom   54 type  2   force =     0.00256570    0.00542172    0.01398950
     atom   55 type  2   force =    -0.00718443   -0.00864773   -0.02488644
     atom   56 type  2   force =     0.00478264    0.00458873    0.00473237
     atom   57 type  2   force =    -0.00178444   -0.00064193   -0.00230635
     atom   58 type  2   force =     0.00115225    0.00347756    0.00396733
     atom   59 type  2   force =    -0.00121782   -0.00260985   -0.00377638
     atom   60 type  2   force =     0.00265513    0.00202551    0.00235555
     atom   61 type  2   force =    -0.00334525   -0.00180569   -0.00378598
     atom   62 type  2   force =     0.00469987    0.00390226    0.00082991
     atom   63 type  2   force =    -0.00362162   -0.00287719   -0.00039065
     The non-local contrib.  to forces
     atom    1 type  1   force =    -0.76064548   -0.76475142   -0.75874994
     atom    2 type  2   force =    -0.16476178    0.22058941    0.17817827
     atom    3 type  2   force =     0.05706579    0.08100856    0.07263707
     atom    4 type  2   force =     0.21364493   -0.18832781    0.19640994
     atom    5 type  2   force =     0.07357005    0.03869287    0.07078062
     atom    6 type  2   force =     0.17957240    0.20439953   -0.14647740
     atom    7 type  2   force =     0.07744921    0.08302152    0.06462250
     atom    8 type  2   force =    -0.00431607   -0.00467867    0.05666227
     atom    9 type  2   force =    -0.00544503   -0.00794543    0.01331439
     atom   10 type  2   force =    -0.04435882   -0.01410348   -0.01176134
     atom   11 type  2   force =    -0.10398759    0.06765737   -0.08321277
     atom   12 type  2   force =    -0.01636112   -0.04148006   -0.01567596
     atom   13 type  2   force =     0.05200365   -0.11669248   -0.07350736
     atom   14 type  2   force =     0.00336920   -0.00031689    0.04544710
     atom   15 type  2   force =     0.00999013    0.00918430   -0.00382553
     atom   16 type  2   force =    -0.01245253    0.04885542   -0.01319865
     atom   17 type  2   force =    -0.00457695    0.02732337   -0.00321656
     atom   18 type  2   force =    -0.04102452   -0.02201206   -0.01580436
     atom   19 type  2   force =    -0.08105247   -0.07904987    0.05524032
     atom   20 type  2   force =     0.00449710    0.04500213    0.00507632
     atom   21 type  2   force =     0.01081604   -0.00296791    0.01126816
     atom   22 type  2   force =    -0.01456929   -0.02017454   -0.04256913
     atom   23 type  2   force =     0.06346698   -0.08457308   -0.07267979
     atom   24 type  2   force =    -0.06467233    0.03297840    0.03421536
     atom   25 type  2   force =    -0.02464040    0.00019021    0.01380896
     atom   26 type  2   force =    -0.04176375   -0.02064440   -0.02350206
     atom   27 type  2   force =    -0.14664530    0.12554617    0.12297783
     atom   28 type  2   force =     0.08008273    0.02374900   -0.01268709
     atom   29 type  2   force =     0.00062316    0.01837363    0.00519966
     atom   30 type  2   force =     0.07613487   -0.01378975    0.02902460
     atom   31 type  2   force =     0.00277074   -0.00011209    0.01701318
     atom   32 type  2   force =     0.05280763   -0.00670426   -0.00710064
     atom   33 type  2   force =     0.01831094   -0.00746372   -0.00360647
     atom   34 type  2   force =     0.04460648    0.00027154    0.00451377
     atom   35 type  2   force =    -0.00361221    0.00901056    0.01029050
     atom   36 type  2   force =    -0.01947582   -0.04076922   -0.01691775
     atom   37 type  2   force =    -0.07187962   -0.10881442    0.04768102
     atom   38 type  2   force =    -0.01376570   -0.01345348   -0.04519439
     atom   39 type  2   force =    -0.08683776    0.07138985   -0.08758234
     atom   40 type  2   force =     0.03470061   -0.03747017    0.03519351
     atom   41 type  2   force =     0.00801349   -0.03019717    0.01316899
     atom   42 type  2   force =     0.02099723    0.08820143   -0.01029652
     atom   43 type  2   force =     0.01712651    0.00005378    0.00359158
     atom   44 type  2   force =    -0.02164425   -0.03721397   -0.02246839
     atom   45 type  2   force =     0.12543445   -0.14734157    0.12478456
     atom   46 type  2   force =    -0.01040476    0.08644354    0.02318740
     atom   47 type  2   force =     0.00299450    0.00100606    0.01616475
     atom   48 type  2   force =     0.03362121    0.03284693   -0.06836231
     atom   49 type  2   force =     0.00842196   -0.00008965   -0.02309339
     atom   50 type  2   force =     0.02980523   -0.01517622    0.07088179
     atom   51 type  2   force =     0.01740407    0.00027699    0.00279914
     atom   52 type  2   force =    -0.01422327    0.02679949    0.07309882
     atom   53 type  2   force =     0.00501650    0.01784629    0.00159552
     atom   54 type  2   force =    -0.02255959   -0.02051838   -0.04381502
     atom   55 type  2   force =     0.12290262    0.12484329   -0.14602448
     atom   56 type  2   force =     0.02286936    0.02426232    0.02209863
     atom   57 type  2   force =     0.00509277    0.00517362    0.00528387
     atom   58 type  2   force =     0.01619639   -0.00709999   -0.00951458
     atom   59 type  2   force =     0.00768993   -0.01443926   -0.01535780
     atom   60 type  2   force =    -0.01033815    0.01848427   -0.01151790
     atom   61 type  2   force =    -0.01493295    0.00872686   -0.01544404
     atom   62 type  2   force =    -0.00783659   -0.00660791    0.01528145
     atom   63 type  2   force =    -0.01566496   -0.01522549    0.00827853
     The ionic contribution  to forces
     atom    1 type  1   force =     2.98351179    2.95546487    2.99770254
     atom    2 type  2   force =     2.41219409   -2.05992209   -2.21464787
     atom    3 type  2   force =     0.48190474   -0.73229224   -0.85194317
     atom    4 type  2   force =    -2.09047887    2.33963753   -2.15785555
     atom    5 type  2   force =    -0.75404064    0.40030820   -0.80158676
     atom    6 type  2   force =    -2.18592713   -2.09851366    2.45984959
     atom    7 type  2   force =    -0.82353600   -0.75118190    0.53821410
     atom    8 type  2   force =     0.25681446    0.21784701   -0.72705994
     atom    9 type  2   force =     0.06836849    0.02862343   -0.22519749
     atom   10 type  2   force =     0.17999505    0.07095143    0.56493438
     atom   11 type  2   force =    -0.52757260   -0.62837668    0.80285740
     atom   12 type  2   force =     0.02856912    0.16576280    0.55048553
     atom   13 type  2   force =    -0.66207932   -0.56430195    0.75871657
     atom   14 type  2   force =    -0.18612615   -0.18430292   -0.71479556
     atom   15 type  2   force =    -0.16639701   -0.13824262   -0.07060027
     atom   16 type  2   force =     0.20011293   -0.77601197    0.22539390
     atom   17 type  2   force =     0.07093657   -0.15717902    0.09337447
     atom   18 type  2   force =     0.22302451    0.46898358    0.00159981
     atom   19 type  2   force =    -0.36431883    0.75053366   -0.70777351
     atom   20 type  2   force =    -0.18089871   -0.73338589   -0.19037248
     atom   21 type  2   force =    -0.17691222   -0.06540978   -0.20268255
     atom   22 type  2   force =     0.02694336    0.47824732    0.23721625
     atom   23 type  2   force =    -0.68950056    0.78052752   -0.33400587
     atom   24 type  2   force =     0.10605813   -0.13875382   -0.17063244
     atom   25 type  2   force =    -0.02689408   -0.08150479   -0.06984003
     atom   26 type  2   force =     0.13022345   -0.09395248   -0.04843839
     atom   27 type  2   force =     1.14011799    0.24489327    0.25071628
     atom   28 type  2   force =    -0.08199915   -0.13892821    0.11290864
     atom   29 type  2   force =    -0.15504120    0.02906340    0.25815263
     atom   30 type  2   force =    -0.02789761    0.13394995   -0.23478744
     atom   31 type  2   force =    -0.17848109    0.17227636    0.01677434
     atom   32 type  2   force =    -0.74356640    0.19805633    0.26219728
     atom   33 type  2   force =    -0.20307555    0.03184508    0.09379593
     atom   34 type  2   force =    -0.71770820   -0.18033411   -0.19122135
     atom   35 type  2   force =    -0.06592840   -0.14152345   -0.19549817
     atom   36 type  2   force =     0.51501349    0.18026926    0.00314257
     atom   37 type  2   force =     0.73391027   -0.49807037   -0.69118826
     atom   38 type  2   force =     0.53853736    0.07105932    0.20889631
     atom   39 type  2   force =     0.80775715   -0.63893368   -0.43077941
     atom   40 type  2   force =    -0.19424495    0.13029895   -0.20725948
     atom   41 type  2   force =    -0.09624094   -0.08916768   -0.09412469
     atom   42 type  2   force =    -0.13122309    0.02242447    0.08069432
     atom   43 type  2   force =     0.03237043   -0.11628205    0.25281543
     atom   44 type  2   force =    -0.07168369    0.12822638   -0.05429525
     atom   45 type  2   force =     0.24336788    1.16039083    0.24764521
     atom   46 type  2   force =     0.09147626    0.04612003   -0.16995103
     atom   47 type  2   force =     0.22227765   -0.11655267    0.01607176
     atom   48 type  2   force =    -0.13180416   -0.11303953    0.13769427
     atom   49 type  2   force =    -0.07424815   -0.08362299    0.00608005
     atom   50 type  2   force =    -0.23661408    0.14876355   -0.09102775
     atom   51 type  2   force =     0.01531337    0.17375844   -0.20582286
     atom   52 type  2   force =     0.13902642   -0.18009318   -0.12163320
     atom   53 type  2   force =     0.22925884    0.01133209   -0.18260372
     atom   54 type  2   force =    -0.06251841   -0.09083617    0.13895499
     atom   55 type  2   force =     0.24538936    0.24385159    1.13146797
     atom   56 type  2   force =    -0.09105741   -0.03905821   -0.12468435
     atom   57 type  2   force =    -0.02011688   -0.04220853   -0.01700561
     atom   58 type  2   force =    -0.07678848    0.04372955    0.04845259
     atom   59 type  2   force =    -0.28384239    0.07914088    0.15640255
     atom   60 type  2   force =     0.06011753   -0.03887076    0.05893683
     atom   61 type  2   force =     0.13179066   -0.30393267    0.15919069
     atom   62 type  2   force =     0.03851253    0.03255497   -0.09940260
     atom   63 type  2   force =     0.12586843    0.07589404   -0.27261816
     The local contribution  to forces
     atom    1 type  1   force =    -2.22557609   -2.19465571   -2.24145750
     atom    2 type  2   force =    -2.21228391    1.85518661    2.02372834
     atom    3 type  2   force =    -0.54834128    0.65982581    0.78532513
     atom    4 type  2   force =     1.88524372   -2.12616805    1.95830421
     atom    5 type  2   force =     0.68314806   -0.46371293    0.73285972
     atom    6 type  2   force =     1.99780156    1.90236728   -2.27001118
     atom    7 type  2   force =     0.75611356    0.68010195   -0.60502174
     atom    8 type  2   force =    -0.24953231   -0.20891100    0.67688949
     atom    9 type  2   force =    -0.06515203   -0.02536987    0.20886000
     atom   10 type  2   force =    -0.13483930   -0.05554773   -0.54575894
     atom   11 type  2   force =     0.60290838    0.56662539   -0.72851645
     atom   12 type  2   force =    -0.01201177   -0.11980291   -0.53179086
     atom   13 type  2   force =     0.60714943    0.64116953   -0.68706443
     atom   14 type  2   force =     0.18675855    0.18614158    0.66526600
     atom   15 type  2   force =     0.15346098    0.12770220    0.06875910
     atom   16 type  2   force =    -0.18756491    0.72606336   -0.21325146
     atom   17 type  2   force =    -0.06784132    0.13618501   -0.09001846
     atom   18 type  2   force =    -0.17916769   -0.44727769    0.01512237
     atom   19 type  2   force =     0.43618476   -0.67456585    0.64722123
     atom   20 type  2   force =     0.17926128    0.68401591    0.18876739
     atom   21 type  2   force =     0.16489811    0.06428488    0.18928690
     atom   22 type  2   force =    -0.01098079   -0.45604433   -0.19345186
     atom   23 type  2   force =     0.62531092   -0.70303165    0.40498706
     atom   24 type  2   force =    -0.03177881    0.11111612    0.14067371
     atom   25 type  2   force =     0.03904339    0.06738040    0.05186388
     atom   26 type  2   force =    -0.07363182    0.12066845    0.07354319
     atom   27 type  2   force =    -1.01918067   -0.37922123   -0.38026043
     atom   28 type  2   force =     0.01235368    0.11589391   -0.09439574
     atom   29 type  2   force =     0.15426181   -0.04920204   -0.26460969
     atom   30 type  2   force =    -0.04119968   -0.11429409    0.21017368
     atom   31 type  2   force =     0.17580764   -0.17768277   -0.03660224
     atom   32 type  2   force =     0.69385110   -0.18755479   -0.25373953
     atom   33 type  2   force =     0.18523517   -0.02873841   -0.09045342
     atom   34 type  2   force =     0.66862827    0.18115185    0.19089372
     atom   35 type  2   force =     0.06452416    0.13159332    0.18178032
     atom   36 type  2   force =    -0.49529960   -0.13453813    0.01391066
     atom   37 type  2   force =    -0.66135816    0.57436744    0.63630164
     atom   38 type  2   force =    -0.51781136   -0.05590422   -0.16406260
     atom   39 type  2   force =    -0.73107453    0.57360801    0.50465582
     atom   40 type  2   force =     0.16488807   -0.06283548    0.17708258
     atom   41 type  2   force =     0.07983824    0.09991706    0.07634304
     atom   42 type  2   force =     0.10967095   -0.09385231   -0.06508278
     atom   43 type  2   force =    -0.05043164    0.11690447   -0.25756798
     atom   44 type  2   force =     0.09818478   -0.07329535    0.08005070
     atom   45 type  2   force =    -0.37625377   -1.03967434   -0.37907691
     atom   46 type  2   force =    -0.07532987   -0.11711888    0.14749719
     atom   47 type  2   force =    -0.22662947    0.11673315   -0.03407850
     atom   48 type  2   force =     0.10297566    0.08570928   -0.06158726
     atom   49 type  2   force =     0.05764786    0.06951003    0.00668559
     atom   50 type  2   force =     0.21128612   -0.12760123    0.02294702
     atom   51 type  2   force =    -0.03602952   -0.17976697    0.20239064
     atom   52 type  2   force =    -0.11843374    0.15539194    0.05341385
     atom   53 type  2   force =    -0.23592496   -0.03233079    0.18063443
     atom   54 type  2   force =     0.08754179    0.11672831   -0.08122685
     atom   55 type  2   force =    -0.37555086   -0.37736735   -1.01040773
     atom   56 type  2   force =     0.07285630    0.01933676    0.10726724
     atom   57 type  2   force =     0.01312931    0.03634623    0.00937407
     atom   58 type  2   force =     0.06163580   -0.03319691   -0.03502122
     atom   59 type  2   force =     0.27482642   -0.06735445   -0.14488117
     atom   60 type  2   force =    -0.04722132    0.02237190   -0.04511485
     atom   61 type  2   force =    -0.12028556    0.29335126   -0.14758946
     atom   62 type  2   force =    -0.02607286   -0.02209209    0.08490937
     atom   63 type  2   force =    -0.11390308   -0.06357862    0.26390542
     The core correction contribution to forces
     atom    1 type  1   force =     0.00000000    0.00000000    0.00000000
     atom    2 type  2   force =     0.00000000    0.00000000    0.00000000
     atom    3 type  2   force =     0.00000000    0.00000000    0.00000000
     atom    4 type  2   force =     0.00000000    0.00000000    0.00000000
     atom    5 type  2   force =     0.00000000    0.00000000    0.00000000
     atom    6 type  2   force =     0.00000000    0.00000000    0.00000000
     atom    7 type  2   force =     0.00000000    0.00000000    0.00000000
     atom    8 type  2   force =     0.00000000    0.00000000    0.00000000
     atom    9 type  2   force =     0.00000000    0.00000000    0.00000000
     atom   10 type  2   force =     0.00000000    0.00000000    0.00000000
     atom   11 type  2   force =     0.00000000    0.00000000    0.00000000
     atom   12 type  2   force =     0.00000000    0.00000000    0.00000000
     atom   13 type  2   force =     0.00000000    0.00000000    0.00000000
     atom   14 type  2   force =     0.00000000    0.00000000    0.00000000
     atom   15 type  2   force =     0.00000000    0.00000000    0.00000000
     atom   16 type  2   force =     0.00000000    0.00000000    0.00000000
     atom   17 type  2   force =     0.00000000    0.00000000    0.00000000
     atom   18 type  2   force =     0.00000000    0.00000000    0.00000000
     atom   19 type  2   force =     0.00000000    0.00000000    0.00000000
     atom   20 type  2   force =     0.00000000    0.00000000    0.00000000
     atom   21 type  2   force =     0.00000000    0.00000000    0.00000000
     atom   22 type  2   force =     0.00000000    0.00000000    0.00000000
     atom   23 type  2   force =     0.00000000    0.00000000    0.00000000
     atom   24 type  2   force =     0.00000000    0.00000000    0.00000000
     atom   25 type  2   force =     0.00000000    0.00000000    0.00000000
     atom   26 type  2   force =     0.00000000    0.00000000    0.00000000
     atom   27 type  2   force =     0.00000000    0.00000000    0.00000000
     atom   28 type  2   force =     0.00000000    0.00000000    0.00000000
     atom   29 type  2   force =     0.00000000    0.00000000    0.00000000
     atom   30 type  2   force =     0.00000000    0.00000000    0.00000000
     atom   31 type  2   force =     0.00000000    0.00000000    0.00000000
     atom   32 type  2   force =     0.00000000    0.00000000    0.00000000
     atom   33 type  2   force =     0.00000000    0.00000000    0.00000000
     atom   34 type  2   force =     0.00000000    0.00000000    0.00000000
     atom   35 type  2   force =     0.00000000    0.00000000    0.00000000
     atom   36 type  2   force =     0.00000000    0.00000000    0.00000000
     atom   37 type  2   force =     0.00000000    0.00000000    0.00000000
     atom   38 type  2   force =     0.00000000    0.00000000    0.00000000
     atom   39 type  2   force =     0.00000000    0.00000000    0.00000000
     atom   40 type  2   force =     0.00000000    0.00000000    0.00000000
     atom   41 type  2   force =     0.00000000    0.00000000    0.00000000
     atom   42 type  2   force =     0.00000000    0.00000000    0.00000000
     atom   43 type  2   force =     0.00000000    0.00000000    0.00000000
     atom   44 type  2   force =     0.00000000    0.00000000    0.00000000
     atom   45 type  2   force =     0.00000000    0.00000000    0.00000000
     atom   46 type  2   force =     0.00000000    0.00000000    0.00000000
     atom   47 type  2   force =     0.00000000    0.00000000    0.00000000
     atom   48 type  2   force =     0.00000000    0.00000000    0.00000000
     atom   49 type  2   force =     0.00000000    0.00000000    0.00000000
     atom   50 type  2   force =     0.00000000    0.00000000    0.00000000
     atom   51 type  2   force =     0.00000000    0.00000000    0.00000000
     atom   52 type  2   force =     0.00000000    0.00000000    0.00000000
     atom   53 type  2   force =     0.00000000    0.00000000    0.00000000
     atom   54 type  2   force =     0.00000000    0.00000000    0.00000000
     atom   55 type  2   force =     0.00000000    0.00000000    0.00000000
     atom   56 type  2   force =     0.00000000    0.00000000    0.00000000
     atom   57 type  2   force =     0.00000000    0.00000000    0.00000000
     atom   58 type  2   force =     0.00000000    0.00000000    0.00000000
     atom   59 type  2   force =     0.00000000    0.00000000    0.00000000
     atom   60 type  2   force =     0.00000000    0.00000000    0.00000000
     atom   61 type  2   force =     0.00000000    0.00000000    0.00000000
     atom   62 type  2   force =     0.00000000    0.00000000    0.00000000
     atom   63 type  2   force =     0.00000000    0.00000000    0.00000000
     The Hubbard contrib.    to forces
     atom    1 type  1   force =     0.00000000    0.00000000    0.00000000
     atom    2 type  2   force =     0.00000000    0.00000000    0.00000000
     atom    3 type  2   force =     0.00000000    0.00000000    0.00000000
     atom    4 type  2   force =     0.00000000    0.00000000    0.00000000
     atom    5 type  2   force =     0.00000000    0.00000000    0.00000000
     atom    6 type  2   force =     0.00000000    0.00000000    0.00000000
     atom    7 type  2   force =     0.00000000    0.00000000    0.00000000
     atom    8 type  2   force =     0.00000000    0.00000000    0.00000000
     atom    9 type  2   force =     0.00000000    0.00000000    0.00000000
     atom   10 type  2   force =     0.00000000    0.00000000    0.00000000
     atom   11 type  2   force =     0.00000000    0.00000000    0.00000000
     atom   12 type  2   force =     0.00000000    0.00000000    0.00000000
     atom   13 type  2   force =     0.00000000    0.00000000    0.00000000
     atom   14 type  2   force =     0.00000000    0.00000000    0.00000000
     atom   15 type  2   force =     0.00000000    0.00000000    0.00000000
     atom   16 type  2   force =     0.00000000    0.00000000    0.00000000
     atom   17 type  2   force =     0.00000000    0.00000000    0.00000000
     atom   18 type  2   force =     0.00000000    0.00000000    0.00000000
     atom   19 type  2   force =     0.00000000    0.00000000    0.00000000
     atom   20 type  2   force =     0.00000000    0.00000000    0.00000000
     atom   21 type  2   force =     0.00000000    0.00000000    0.00000000
     atom   22 type  2   force =     0.00000000    0.00000000    0.00000000
     atom   23 type  2   force =     0.00000000    0.00000000    0.00000000
     atom   24 type  2   force =     0.00000000    0.00000000    0.00000000
     atom   25 type  2   force =     0.00000000    0.00000000    0.00000000
     atom   26 type  2   force =     0.00000000    0.00000000    0.00000000
     atom   27 type  2   force =     0.00000000    0.00000000    0.00000000
     atom   28 type  2   force =     0.00000000    0.00000000    0.00000000
     atom   29 type  2   force =     0.00000000    0.00000000    0.00000000
     atom   30 type  2   force =     0.00000000    0.00000000    0.00000000
     atom   31 type  2   force =     0.00000000    0.00000000    0.00000000
     atom   32 type  2   force =     0.00000000    0.00000000    0.00000000
     atom   33 type  2   force =     0.00000000    0.00000000    0.00000000
     atom   34 type  2   force =     0.00000000    0.00000000    0.00000000
     atom   35 type  2   force =     0.00000000    0.00000000    0.00000000
     atom   36 type  2   force =     0.00000000    0.00000000    0.00000000
     atom   37 type  2   force =     0.00000000    0.00000000    0.00000000
     atom   38 type  2   force =     0.00000000    0.00000000    0.00000000
     atom   39 type  2   force =     0.00000000    0.00000000    0.00000000
     atom   40 type  2   force =     0.00000000    0.00000000    0.00000000
     atom   41 type  2   force =     0.00000000    0.00000000    0.00000000
     atom   42 type  2   force =     0.00000000    0.00000000    0.00000000
     atom   43 type  2   force =     0.00000000    0.00000000    0.00000000
     atom   44 type  2   force =     0.00000000    0.00000000    0.00000000
     atom   45 type  2   force =     0.00000000    0.00000000    0.00000000
     atom   46 type  2   force =     0.00000000    0.00000000    0.00000000
     atom   47 type  2   force =     0.00000000    0.00000000    0.00000000
     atom   48 type  2   force =     0.00000000    0.00000000    0.00000000
     atom   49 type  2   force =     0.00000000    0.00000000    0.00000000
     atom   50 type  2   force =     0.00000000    0.00000000    0.00000000
     atom   51 type  2   force =     0.00000000    0.00000000    0.00000000
     atom   52 type  2   force =     0.00000000    0.00000000    0.00000000
     atom   53 type  2   force =     0.00000000    0.00000000    0.00000000
     atom   54 type  2   force =     0.00000000    0.00000000    0.00000000
     atom   55 type  2   force =     0.00000000    0.00000000    0.00000000
     atom   56 type  2   force =     0.00000000    0.00000000    0.00000000
     atom   57 type  2   force =     0.00000000    0.00000000    0.00000000
     atom   58 type  2   force =     0.00000000    0.00000000    0.00000000
     atom   59 type  2   force =     0.00000000    0.00000000    0.00000000
     atom   60 type  2   force =     0.00000000    0.00000000    0.00000000
     atom   61 type  2   force =     0.00000000    0.00000000    0.00000000
     atom   62 type  2   force =     0.00000000    0.00000000    0.00000000
     atom   63 type  2   force =     0.00000000    0.00000000    0.00000000
     The SCF correction term to forces
     atom    1 type  1   force =    -0.00002670   -0.00002471    0.00000042
     atom    2 type  2   force =    -0.00001522   -0.00001341   -0.00000098
     atom    3 type  2   force =     0.00001152    0.00001559    0.00000923
     atom    4 type  2   force =     0.00000126   -0.00001157   -0.00000545
     atom    5 type  2   force =     0.00001955   -0.00000782   -0.00001031
     atom    6 type  2   force =     0.00000651   -0.00001393    0.00000582
     atom    7 type  2   force =     0.00002106   -0.00000317    0.00001382
     atom    8 type  2   force =    -0.00002668   -0.00003051   -0.00000134
     atom    9 type  2   force =    -0.00002006   -0.00001840    0.00000481
     atom   10 type  2   force =    -0.00002897   -0.00000561    0.00000175
     atom   11 type  2   force =    -0.00002106    0.00000229   -0.00000607
     atom   12 type  2   force =    -0.00000618   -0.00001006    0.00000213
     atom   13 type  2   force =     0.00001392   -0.00001250    0.00000663
     atom   14 type  2   force =     0.00001402   -0.00000424   -0.00000635
     atom   15 type  2   force =     0.00002350    0.00000710   -0.00001602
     atom   16 type  2   force =    -0.00002200    0.00002142   -0.00000891
     atom   17 type  2   force =    -0.00001819    0.00002650    0.00000298
     atom   18 type  2   force =    -0.00002869    0.00001481    0.00000747
     atom   19 type  2   force =    -0.00002495   -0.00000775   -0.00000483
     atom   20 type  2   force =     0.00001316    0.00001195    0.00000526
     atom   21 type  2   force =     0.00002328    0.00000259    0.00000146
     atom   22 type  2   force =    -0.00001055    0.00001129    0.00000787
     atom   23 type  2   force =     0.00000677    0.00000510    0.00001001
     atom   24 type  2   force =    -0.00002572    0.00002898    0.00000937
     atom   25 type  2   force =    -0.00002213    0.00001688   -0.00000284
     atom   26 type  2   force =    -0.00002144    0.00000586   -0.00000612
     atom   27 type  2   force =    -0.00001627   -0.00000691    0.00000060
     atom   28 type  2   force =    -0.00000600    0.00001295   -0.00000458
     atom   29 type  2   force =     0.00000875    0.00001438   -0.00000247
     atom   30 type  2   force =    -0.00000875    0.00000687   -0.00000641
     atom   31 type  2   force =     0.00001360   -0.00000595   -0.00000338
     atom   32 type  2   force =     0.00001624   -0.00000178    0.00001044
     atom   33 type  2   force =     0.00000632   -0.00001453    0.00000405
     atom   34 type  2   force =     0.00000978   -0.00000619    0.00000408
     atom   35 type  2   force =    -0.00000542    0.00001264    0.00000779
     atom   36 type  2   force =    -0.00000426   -0.00003118    0.00000914
     atom   37 type  2   force =    -0.00002870   -0.00004400    0.00001353
     atom   38 type  2   force =    -0.00000769   -0.00000814   -0.00001258
     atom   39 type  2   force =    -0.00002872    0.00001654   -0.00001864
     atom   40 type  2   force =     0.00002747   -0.00000899   -0.00001209
     atom   41 type  2   force =     0.00002098   -0.00000651   -0.00000303
     atom   42 type  2   force =     0.00003014   -0.00000619   -0.00000311
     atom   43 type  2   force =     0.00002470   -0.00000408   -0.00000625
     atom   44 type  2   force =     0.00000767   -0.00000282   -0.00000616
     atom   45 type  2   force =    -0.00001941   -0.00000696   -0.00001104
     atom   46 type  2   force =    -0.00001233   -0.00000759    0.00001452
     atom   47 type  2   force =    -0.00002445    0.00000768    0.00001519
     atom   48 type  2   force =     0.00002138    0.00000265    0.00001106
     atom   49 type  2   force =     0.00002041    0.00001446    0.00001980
     atom   50 type  2   force =     0.00003131    0.00000713    0.00000958
     atom   51 type  2   force =     0.00003075   -0.00001178   -0.00000210
     atom   52 type  2   force =    -0.00001239    0.00003404    0.00000705
     atom   53 type  2   force =    -0.00002576    0.00003916    0.00000399
     atom   54 type  2   force =     0.00001191    0.00000816    0.00001580
     atom   55 type  2   force =    -0.00001554   -0.00001506    0.00001722
     atom   56 type  2   force =     0.00002441    0.00000806   -0.00000973
     atom   57 type  2   force =     0.00002036    0.00000695   -0.00001926
     atom   58 type  2   force =     0.00001855    0.00000513   -0.00001004
     atom   59 type  2   force =     0.00001824    0.00000319   -0.00000054
     atom   60 type  2   force =     0.00000708    0.00000032   -0.00000912
     atom   61 type  2   force =    -0.00000739    0.00000907   -0.00000375
     atom   62 type  2   force =     0.00000680    0.00000749   -0.00001889
     atom   63 type  2   force =    -0.00001199   -0.00000692   -0.00001701

     Total force =     0.130830     Total SCF correction =     0.000207

     Writing all to output data dir ./pwscf.save/ :
     XML data file, charge density, pseudopotentials, collected wavefunctions
 
     init_run     :      0.57s CPU      0.60s WALL (       1 calls)
     electrons    :     10.79s CPU     11.74s WALL (       1 calls)
     forces       :      0.06s CPU      0.07s WALL (       1 calls)

     Called by init_run:
     wfcinit      :      0.05s CPU      0.06s WALL (       1 calls)
     wfcinit:wfcr :      0.05s CPU      0.05s WALL (       1 calls)
     potinit      :      0.44s CPU      0.44s WALL (       1 calls)
     hinit0       :      0.03s CPU      0.05s WALL (       1 calls)

     Called by electrons:
     c_bands      :      9.23s CPU      9.79s WALL (      14 calls)
     sum_band     :      0.27s CPU      0.27s WALL (      14 calls)
     v_of_rho     :      0.72s CPU      0.85s WALL (      15 calls)
     v_h          :      0.12s CPU      0.16s WALL (      15 calls)
     v_xc         :      0.60s CPU      0.69s WALL (      15 calls)
     mix_rho      :      0.08s CPU      0.09s WALL (      14 calls)

     Called by c_bands:
     init_us_2    :      0.02s CPU      0.02s WALL (      30 calls)
     regterg      :      7.65s CPU      8.20s WALL (      14 calls)

     Called by sum_band:
     sum_band:wei :      0.01s CPU      0.01s WALL (      14 calls)
     sum_band:loo :      0.24s CPU      0.24s WALL (      14 calls)
     sum_band:buf :      0.00s CPU      0.00s WALL (      14 calls)
     sum_band:ini :      0.01s CPU      0.01s WALL (      14 calls)

     Called by *egterg:
     rdiaghg      :      4.33s CPU      4.66s WALL (     264 calls)
     regterg:over :      0.41s CPU      0.48s WALL (     250 calls)
     regterg:upda :      0.34s CPU      0.37s WALL (     250 calls)
     regterg:last :      0.12s CPU      0.13s WALL (      51 calls)
     rdiaghg:chol :      0.16s CPU      0.16s WALL (     264 calls)
     rdiaghg:inve :      0.03s CPU      0.03s WALL (     264 calls)
     rdiaghg:para :      0.39s CPU      0.42s WALL (     528 calls)
     h_psi        :      2.32s CPU      2.40s WALL (     265 calls)
     g_psi        :      0.00s CPU      0.00s WALL (     250 calls)

     Called by h_psi:
     h_psi:calbec :      0.45s CPU      0.48s WALL (     265 calls)
     vloc_psi     :      1.76s CPU      1.81s WALL (     265 calls)
                                        0.00s GPU  (     265 calls)
     add_vuspsi   :      0.10s CPU      0.11s WALL (     265 calls)

     General routines
     calbec       :      0.46s CPU      0.50s WALL (     269 calls)
     fft          :      0.40s CPU      0.46s WALL (     196 calls)
     ffts         :      0.00s CPU      0.00s WALL (      14 calls)
     fftw         :      1.89s CPU      1.93s WALL (   10104 calls)
 
     Parallel routines
 
     PWSCF        :     14.55s CPU     16.32s WALL

 
   This run was terminated on:  16:39:27  16Nov2025            

=------------------------------------------------------------------------------=
   JOB DONE.
=------------------------------------------------------------------------------=
