
     Program PWSCF v.7.5 starts on 16Nov2025 at 15:51: 2 

     This program is part of the open-source Quantum ESPRESSO suite
     for quantum simulation of materials; please cite
         "P. Giannozzi et al., J. Phys.:Condens. Matter 21 395502 (2009);
         "P. Giannozzi et al., J. Phys.:Condens. Matter 29 465901 (2017);
         "P. Giannozzi et al., J. Chem. Phys. 152 154105 (2020);
          URL http://www.quantum-espresso.org", 
     in publications or presentations arising from this work. More details at
     http://www.quantum-espresso.org/quote

     Parallel version (MPI), running on    96 processors

     MPI processes distributed on     2 nodes
     174908 MiB available memory on the printing compute node when the environment starts
 
     Reading input from supercell-085.in

     Current dimensions of program PWSCF are:
     Max number of different atomic species (ntypx) = 10
     Max number of k-points (npk) =  40000
     Max angular momentum in pseudopotentials (lmaxx) =  4

     gamma-point specific algorithms are used
 
     K-points division:     npool     =       2
     R & G space division:  proc/nbgrp/npool/nimage =      48
     Subspace diagonalization in iterative solution of the eigenvalue problem:
     one sub-group per band group will be used
     scalapack distributed-memory algorithm (size of sub-group:  2*  2 procs)

 
     Parallelization info
     --------------------
     sticks:   dense  smooth     PW     G-vecs:    dense   smooth      PW
     Min          59      59     14                 2432     2432     302
     Max          62      62     16                 2442     2442     316
     Sum        2885    2885    725               116921   116921   14771
 
     Using Slab Decomposition
 


     bravais-lattice index     =            0
     lattice parameter (alat)  =      13.4813  a.u.
     unit-cell volume          =    2450.1683 (a.u.)^3
     number of atoms/cell      =           63
     number of atomic types    =            2
     number of electrons       =       254.00 (up: 128.00, down: 126.00)
     number of Kohn-Sham states=          152
     kinetic-energy cutoff     =      50.0000  Ry
     charge density cutoff     =     200.0000  Ry
     scf convergence threshold =      1.0E-08
     mixing beta               =       0.7000
     number of iterations used =            8  plain     mixing
     Exchange-correlation= PBE
                           (   1   4   3   4   0   0   0)

     celldm(1)=  13.481306  celldm(2)=   0.000000  celldm(3)=   0.000000
     celldm(4)=   0.000000  celldm(5)=   0.000000  celldm(6)=   0.000000

     crystal axes: (cart. coord. in units of alat)
               a(1) = (   1.000000   0.000000   0.000000 )  
               a(2) = (   0.000000   1.000000   0.000000 )  
               a(3) = (   0.000000   0.000000   1.000000 )  

     reciprocal axes: (cart. coord. in units 2 pi/alat)
               b(1) = (  1.000000  0.000000  0.000000 )  
               b(2) = (  0.000000  1.000000  0.000000 )  
               b(3) = (  0.000000  0.000000  1.000000 )  


     PseudoPot. # 1 for N  read from file:
     ./N_ONCV_PBE-1.2.upf
     MD5 check sum: 5312fdf34e96954e02a33bdc911c617a
     Pseudo is Norm-conserving, Zval =  5.0
     Generated using ONCVPSP code by D. R. Hamann
     Using radial grid of  602 points,  4 beta functions with: 
                l(1) =   0
                l(2) =   0
                l(3) =   1
                l(4) =   1

     PseudoPot. # 2 for C  read from file:
     ./C_ONCV_PBE-1.2.upf
     MD5 check sum: d60b57d9bdca4133f5fde4b584ee909d
     Pseudo is Norm-conserving, Zval =  4.0
     Generated using ONCVPSP code by D. R. Hamann
     Using radial grid of  602 points,  4 beta functions with: 
                l(1) =   0
                l(2) =   0
                l(3) =   1
                l(4) =   1

     atomic species   valence    mass     pseudopotential
     N                 5.00    14.00670     N ( 1.00)
     C                 4.00    12.01070     C ( 1.00)

     Starting magnetic structure 
     atomic species   magnetization
     N               0.000
     C               0.000

     No symmetry found


                                    s                        frac. trans.

      isym =  1     identity                                     

 cryst.   s( 1) = (     1          0          0      )
                  (     0          1          0      )
                  (     0          0          1      )

 cart.    s( 1) = (  1.0000000  0.0000000  0.0000000 )
                  (  0.0000000  1.0000000  0.0000000 )
                  (  0.0000000  0.0000000  1.0000000 )


   Cartesian axes

     site n.     atom                  positions (alat units)
         1        N      tau(   1) = (   0.9893819   0.9897344   0.9891721  )
         2        C      tau(   2) = (   0.9870277   0.2601210   0.2640728  )
         3        C      tau(   3) = (   0.1231717   0.3731672   0.3742038  )
         4        C      tau(   4) = (   0.2603919   0.9894620   0.2619202  )
         5        C      tau(   5) = (   0.3737632   0.1246771   0.3741571  )
         6        C      tau(   6) = (   0.2640151   0.2616009   0.9853609  )
         7        C      tau(   7) = (   0.3737752   0.3731213   0.1223564  )
         8        C      tau(   8) = (   0.0000049   0.0005840   0.4991361  )
         9        C      tau(   9) = (   0.1251361   0.1251278   0.6250981  )
        10        C      tau(  10) = (   0.0020393   0.2482470   0.7515266  )
        11        C      tau(  11) = (   0.1292009   0.3733021   0.8763303  )
        12        C      tau(  12) = (   0.2487801   0.0017974   0.7514403  )
        13        C      tau(  13) = (   0.3754339   0.1292460   0.8748544  )
        14        C      tau(  14) = (   0.2491579   0.2495268   0.4995755  )
        15        C      tau(  15) = (   0.3764873   0.3749547   0.6244069  )
        16        C      tau(  16) = (   0.0016366   0.4979779   0.0013734  )
        17        C      tau(  17) = (   0.1250869   0.6243147   0.1250807  )
        18        C      tau(  18) = (   0.0014462   0.7520697   0.2483230  )
        19        C      tau(  19) = (   0.1266755   0.8769178   0.3741906  )
        20        C      tau(  20) = (   0.2488290   0.4983596   0.2486760  )
        21        C      tau(  21) = (   0.3741642   0.6242659   0.3742111  )
        22        C      tau(  22) = (   0.2480673   0.7520817   0.0015447  )
        23        C      tau(  23) = (   0.3729914   0.8777475   0.1265606  )
        24        C      tau(  24) = (   0.0000493   0.5010760   0.5011299  )
        25        C      tau(  25) = (   0.1252054   0.6262200   0.6252733  )
        26        C      tau(  26) = (   0.9993969   0.7487112   0.7492532  )
        27        C      tau(  27) = (   0.1217927   0.8768349   0.8763928  )
        28        C      tau(  28) = (   0.2492749   0.5017254   0.7482724  )
        29        C      tau(  29) = (   0.3741000   0.6263042   0.8750769  )
        30        C      tau(  30) = (   0.2487293   0.7486845   0.5007616  )
        31        C      tau(  31) = (   0.3739266   0.8750581   0.6258828  )
        32        C      tau(  32) = (   0.4987543   0.0011228   0.0002828  )
        33        C      tau(  33) = (   0.6248203   0.1251003   0.1251034  )
        34        C      tau(  34) = (   0.4991217   0.2493918   0.2488717  )
        35        C      tau(  35) = (   0.6243080   0.3746888   0.3747831  )
        36        C      tau(  36) = (   0.7516460   0.0016191   0.2487956  )
        37        C      tau(  37) = (   0.8750430   0.1283649   0.3757598  )
        38        C      tau(  38) = (   0.7517475   0.2480080   0.0019610  )
        39        C      tau(  39) = (   0.8773622   0.3724247   0.1282033  )
        40        C      tau(  40) = (   0.5008161   0.9999897   0.5008301  )
        41        C      tau(  41) = (   0.6256173   0.1249721   0.6252590  )
        42        C      tau(  42) = (   0.5022259   0.2488088   0.7478265  )
        43        C      tau(  43) = (   0.6264784   0.3739683   0.8752045  )
        44        C      tau(  44) = (   0.7487945   0.9989046   0.7489691  )
        45        C      tau(  45) = (   0.8764746   0.1216998   0.8763156  )
        46        C      tau(  46) = (   0.7479635   0.2486819   0.5018806  )
        47        C      tau(  47) = (   0.8751980   0.3739245   0.6263738  )
        48        C      tau(  48) = (   0.5012000   0.5011574   0.0001136  )
        49        C      tau(  49) = (   0.6256259   0.6262099   0.1252968  )
        50        C      tau(  50) = (   0.5005188   0.7489091   0.2490095  )
        51        C      tau(  51) = (   0.6258050   0.8750157   0.3740056  )
        52        C      tau(  52) = (   0.7486304   0.5011458   0.2494302  )
        53        C      tau(  53) = (   0.8750247   0.6261269   0.3741365  )
        54        C      tau(  54) = (   0.7492281   0.7488562   0.9996087  )
        55        C      tau(  55) = (   0.8766209   0.8769033   0.1218021  )
        56        C      tau(  56) = (   0.4990819   0.4992903   0.4990317  )
        57        C      tau(  57) = (   0.6247789   0.6244471   0.6249452  )
        58        C      tau(  58) = (   0.4991767   0.7499842   0.7500845  )
        59        C      tau(  59) = (   0.6239946   0.8751464   0.8754130  )
        60        C      tau(  60) = (   0.7505316   0.4989321   0.7505826  )
        61        C      tau(  61) = (   0.8758455   0.6234984   0.8759288  )
        62        C      tau(  62) = (   0.7498244   0.7497799   0.4993198  )
        63        C      tau(  63) = (   0.8750855   0.8749084   0.6242568  )

   Crystallographic axes

     site n.     atom                  positions (cryst. coord.)
         1        N      tau(   1) = (  0.9893819  0.9897344  0.9891721  )
         2        C      tau(   2) = (  0.9870277  0.2601210  0.2640728  )
         3        C      tau(   3) = (  0.1231717  0.3731672  0.3742038  )
         4        C      tau(   4) = (  0.2603919  0.9894620  0.2619202  )
         5        C      tau(   5) = (  0.3737632  0.1246771  0.3741571  )
         6        C      tau(   6) = (  0.2640151  0.2616009  0.9853609  )
         7        C      tau(   7) = (  0.3737752  0.3731213  0.1223564  )
         8        C      tau(   8) = (  0.0000049  0.0005840  0.4991361  )
         9        C      tau(   9) = (  0.1251361  0.1251278  0.6250981  )
        10        C      tau(  10) = (  0.0020393  0.2482470  0.7515266  )
        11        C      tau(  11) = (  0.1292009  0.3733021  0.8763303  )
        12        C      tau(  12) = (  0.2487801  0.0017974  0.7514403  )
        13        C      tau(  13) = (  0.3754339  0.1292460  0.8748544  )
        14        C      tau(  14) = (  0.2491579  0.2495268  0.4995755  )
        15        C      tau(  15) = (  0.3764873  0.3749547  0.6244069  )
        16        C      tau(  16) = (  0.0016366  0.4979779  0.0013734  )
        17        C      tau(  17) = (  0.1250869  0.6243147  0.1250807  )
        18        C      tau(  18) = (  0.0014462  0.7520697  0.2483230  )
        19        C      tau(  19) = (  0.1266755  0.8769178  0.3741906  )
        20        C      tau(  20) = (  0.2488290  0.4983596  0.2486760  )
        21        C      tau(  21) = (  0.3741642  0.6242659  0.3742111  )
        22        C      tau(  22) = (  0.2480673  0.7520817  0.0015447  )
        23        C      tau(  23) = (  0.3729914  0.8777475  0.1265606  )
        24        C      tau(  24) = (  0.0000493  0.5010760  0.5011299  )
        25        C      tau(  25) = (  0.1252054  0.6262200  0.6252733  )
        26        C      tau(  26) = (  0.9993969  0.7487112  0.7492532  )
        27        C      tau(  27) = (  0.1217927  0.8768349  0.8763928  )
        28        C      tau(  28) = (  0.2492749  0.5017254  0.7482724  )
        29        C      tau(  29) = (  0.3741000  0.6263042  0.8750769  )
        30        C      tau(  30) = (  0.2487293  0.7486845  0.5007616  )
        31        C      tau(  31) = (  0.3739266  0.8750581  0.6258828  )
        32        C      tau(  32) = (  0.4987543  0.0011228  0.0002828  )
        33        C      tau(  33) = (  0.6248203  0.1251003  0.1251034  )
        34        C      tau(  34) = (  0.4991217  0.2493918  0.2488717  )
        35        C      tau(  35) = (  0.6243080  0.3746888  0.3747831  )
        36        C      tau(  36) = (  0.7516460  0.0016191  0.2487956  )
        37        C      tau(  37) = (  0.8750430  0.1283649  0.3757598  )
        38        C      tau(  38) = (  0.7517475  0.2480080  0.0019610  )
        39        C      tau(  39) = (  0.8773622  0.3724247  0.1282033  )
        40        C      tau(  40) = (  0.5008161  0.9999897  0.5008301  )
        41        C      tau(  41) = (  0.6256173  0.1249721  0.6252590  )
        42        C      tau(  42) = (  0.5022259  0.2488088  0.7478265  )
        43        C      tau(  43) = (  0.6264784  0.3739683  0.8752045  )
        44        C      tau(  44) = (  0.7487945  0.9989046  0.7489691  )
        45        C      tau(  45) = (  0.8764746  0.1216998  0.8763156  )
        46        C      tau(  46) = (  0.7479635  0.2486819  0.5018806  )
        47        C      tau(  47) = (  0.8751980  0.3739245  0.6263738  )
        48        C      tau(  48) = (  0.5012000  0.5011574  0.0001136  )
        49        C      tau(  49) = (  0.6256259  0.6262099  0.1252968  )
        50        C      tau(  50) = (  0.5005188  0.7489091  0.2490095  )
        51        C      tau(  51) = (  0.6258050  0.8750157  0.3740056  )
        52        C      tau(  52) = (  0.7486304  0.5011458  0.2494302  )
        53        C      tau(  53) = (  0.8750247  0.6261269  0.3741365  )
        54        C      tau(  54) = (  0.7492281  0.7488562  0.9996087  )
        55        C      tau(  55) = (  0.8766209  0.8769033  0.1218021  )
        56        C      tau(  56) = (  0.4990819  0.4992903  0.4990317  )
        57        C      tau(  57) = (  0.6247789  0.6244471  0.6249452  )
        58        C      tau(  58) = (  0.4991767  0.7499842  0.7500845  )
        59        C      tau(  59) = (  0.6239946  0.8751464  0.8754130  )
        60        C      tau(  60) = (  0.7505316  0.4989321  0.7505826  )
        61        C      tau(  61) = (  0.8758455  0.6234984  0.8759288  )
        62        C      tau(  62) = (  0.7498244  0.7497799  0.4993198  )
        63        C      tau(  63) = (  0.8750855  0.8749084  0.6242568  )

     number of k points=     1
                       cart. coord. in units 2pi/alat
        k(    1) = (   0.0000000   0.0000000   0.0000000), wk =   1.0000000

                       cryst. coord.
        k(    1) = (   0.0000000   0.0000000   0.0000000), wk =   1.0000000

     Dense  grid:    58461 G-vectors     FFT dimensions: (  64,  64,  64)

     Dynamical RAM for                 wfc:       0.35 MB

     Dynamical RAM for     wfc (w. buffer):       0.35 MB

     Dynamical RAM for           str. fact:       0.04 MB

     Dynamical RAM for           local pot:       0.00 MB

     Dynamical RAM for          nlocal pot:       1.17 MB

     Dynamical RAM for                qrad:       0.65 MB

     Dynamical RAM for          rho,v,vnew:       0.49 MB

     Dynamical RAM for               rhoin:       0.16 MB

     Dynamical RAM for            rho*nmix:       0.60 MB

     Dynamical RAM for           G-vectors:       0.08 MB

     Dynamical RAM for          h,s,v(r/c):       0.53 MB

     Dynamical RAM for          <psi|beta>:       0.58 MB

     Dynamical RAM for                 psi:       0.71 MB

     Dynamical RAM for                hpsi:       0.71 MB

     Dynamical RAM for      wfcinit/wfcrot:       1.24 MB

     Estimated static dynamical RAM per process >       3.37 MB

     Estimated max dynamical RAM per process >       6.49 MB

     Estimated total dynamical RAM >     594.05 MB
     Generating pointlists ...
     new r_m :   0.0854 (alat units)  1.1518 (a.u.) for type    1
     new r_m :   0.0847 (alat units)  1.1416 (a.u.) for type    2

     Initial potential from superposition of free atoms

     starting charge     252.5655, renormalised to     254.0000
     Starting wfcs are random

     total cpu time spent up to now is        2.8 secs

     Self-consistent Calculation

     iteration #  1     ecut=    50.00 Ry     beta= 0.70
     Davidson diagonalization with overlap

---- Real-time Memory Report at c_bands before calling an iterative solver
           158 MiB given to the printing process from OS
             0 MiB allocation reported by mallinfo(arena+hblkhd)
        173912 MiB available memory on the node where the printing process lives
------------------
     ethr =  1.00E-02,  avg # of iterations = 12.0

     total cpu time spent up to now is        3.4 secs

     total energy              =    -723.26913841 Ry
     estimated scf accuracy    <       3.70839530 Ry

     total magnetization       =     2.00 Bohr mag/cell
     absolute magnetization    =     2.00 Bohr mag/cell

     iteration #  2     ecut=    50.00 Ry     beta= 0.70
     Davidson diagonalization with overlap

---- Real-time Memory Report at c_bands before calling an iterative solver
           164 MiB given to the printing process from OS
             0 MiB allocation reported by mallinfo(arena+hblkhd)
        173862 MiB available memory on the node where the printing process lives
------------------
     ethr =  1.46E-03,  avg # of iterations = 12.5

     total cpu time spent up to now is        4.4 secs

     total energy              =    -723.66117079 Ry
     estimated scf accuracy    <       0.45628661 Ry

     total magnetization       =     2.00 Bohr mag/cell
     absolute magnetization    =     2.07 Bohr mag/cell

     iteration #  3     ecut=    50.00 Ry     beta= 0.70
     Davidson diagonalization with overlap

---- Real-time Memory Report at c_bands before calling an iterative solver
           165 MiB given to the printing process from OS
             0 MiB allocation reported by mallinfo(arena+hblkhd)
        173853 MiB available memory on the node where the printing process lives
------------------
     c_bands:  2 eigenvalues not converged
     ethr =  1.80E-04,  avg # of iterations = 20.0

     total cpu time spent up to now is        6.5 secs

     total energy              =    -723.72666828 Ry
     estimated scf accuracy    <       0.86766183 Ry

     total magnetization       =     2.00 Bohr mag/cell
     absolute magnetization    =     2.12 Bohr mag/cell

     iteration #  4     ecut=    50.00 Ry     beta= 0.70
     Davidson diagonalization with overlap

---- Real-time Memory Report at c_bands before calling an iterative solver
           165 MiB given to the printing process from OS
             0 MiB allocation reported by mallinfo(arena+hblkhd)
        173858 MiB available memory on the node where the printing process lives
------------------
     c_bands:  1 eigenvalues not converged
     ethr =  1.80E-04,  avg # of iterations = 20.0

     total cpu time spent up to now is        7.3 secs

     total energy              =    -723.90108477 Ry
     estimated scf accuracy    <       0.00970060 Ry

     total magnetization       =     2.00 Bohr mag/cell
     absolute magnetization    =     2.19 Bohr mag/cell

     iteration #  5     ecut=    50.00 Ry     beta= 0.70
     Davidson diagonalization with overlap

---- Real-time Memory Report at c_bands before calling an iterative solver
           165 MiB given to the printing process from OS
             0 MiB allocation reported by mallinfo(arena+hblkhd)
        173859 MiB available memory on the node where the printing process lives
------------------
     c_bands:  3 eigenvalues not converged
     ethr =  3.82E-06,  avg # of iterations = 20.0

     total cpu time spent up to now is        8.5 secs

     total energy              =    -723.90601044 Ry
     estimated scf accuracy    <       0.00414776 Ry

     total magnetization       =     2.00 Bohr mag/cell
     absolute magnetization    =     2.23 Bohr mag/cell

     iteration #  6     ecut=    50.00 Ry     beta= 0.70
     Davidson diagonalization with overlap

---- Real-time Memory Report at c_bands before calling an iterative solver
           165 MiB given to the printing process from OS
             0 MiB allocation reported by mallinfo(arena+hblkhd)
        173853 MiB available memory on the node where the printing process lives
------------------
     c_bands:  3 eigenvalues not converged
     ethr =  1.63E-06,  avg # of iterations = 20.0

     total cpu time spent up to now is        9.4 secs

     total energy              =    -723.90676077 Ry
     estimated scf accuracy    <       0.00088801 Ry

     total magnetization       =     2.00 Bohr mag/cell
     absolute magnetization    =     2.25 Bohr mag/cell

     iteration #  7     ecut=    50.00 Ry     beta= 0.70
     Davidson diagonalization with overlap

---- Real-time Memory Report at c_bands before calling an iterative solver
           165 MiB given to the printing process from OS
             0 MiB allocation reported by mallinfo(arena+hblkhd)
        173851 MiB available memory on the node where the printing process lives
------------------
     ethr =  3.50E-07,  avg # of iterations = 19.5

     total cpu time spent up to now is       10.3 secs

     total energy              =    -723.90698863 Ry
     estimated scf accuracy    <       0.00012191 Ry

     total magnetization       =     2.00 Bohr mag/cell
     absolute magnetization    =     2.27 Bohr mag/cell

     iteration #  8     ecut=    50.00 Ry     beta= 0.70
     Davidson diagonalization with overlap

---- Real-time Memory Report at c_bands before calling an iterative solver
           165 MiB given to the printing process from OS
             0 MiB allocation reported by mallinfo(arena+hblkhd)
        173851 MiB available memory on the node where the printing process lives
------------------
     c_bands:  3 eigenvalues not converged
     ethr =  4.80E-08,  avg # of iterations = 20.0

     total cpu time spent up to now is       11.3 secs

     total energy              =    -723.90702930 Ry
     estimated scf accuracy    <       0.00002864 Ry

     total magnetization       =     2.00 Bohr mag/cell
     absolute magnetization    =     2.28 Bohr mag/cell

     iteration #  9     ecut=    50.00 Ry     beta= 0.70
     Davidson diagonalization with overlap

---- Real-time Memory Report at c_bands before calling an iterative solver
           166 MiB given to the printing process from OS
             0 MiB allocation reported by mallinfo(arena+hblkhd)
        173847 MiB available memory on the node where the printing process lives
------------------
     c_bands:  3 eigenvalues not converged
     ethr =  1.13E-08,  avg # of iterations = 20.0

     total cpu time spent up to now is       11.8 secs

     total energy              =    -723.90703969 Ry
     estimated scf accuracy    <       0.00000774 Ry

     total magnetization       =     2.00 Bohr mag/cell
     absolute magnetization    =     2.29 Bohr mag/cell

     iteration # 10     ecut=    50.00 Ry     beta= 0.70
     Davidson diagonalization with overlap

---- Real-time Memory Report at c_bands before calling an iterative solver
           166 MiB given to the printing process from OS
             0 MiB allocation reported by mallinfo(arena+hblkhd)
        173838 MiB available memory on the node where the printing process lives
------------------
     c_bands:  2 eigenvalues not converged
     ethr =  3.05E-09,  avg # of iterations = 20.0

     total cpu time spent up to now is       12.7 secs

     total energy              =    -723.90704323 Ry
     estimated scf accuracy    <       0.00000083 Ry

     total magnetization       =     2.00 Bohr mag/cell
     absolute magnetization    =     2.29 Bohr mag/cell

     iteration # 11     ecut=    50.00 Ry     beta= 0.70
     Davidson diagonalization with overlap

---- Real-time Memory Report at c_bands before calling an iterative solver
           166 MiB given to the printing process from OS
             0 MiB allocation reported by mallinfo(arena+hblkhd)
        173851 MiB available memory on the node where the printing process lives
------------------
     c_bands:  1 eigenvalues not converged
     ethr =  3.28E-10,  avg # of iterations = 20.0

     total cpu time spent up to now is       13.4 secs

     total energy              =    -723.90704387 Ry
     estimated scf accuracy    <       0.00000023 Ry

     total magnetization       =     2.00 Bohr mag/cell
     absolute magnetization    =     2.30 Bohr mag/cell

     iteration # 12     ecut=    50.00 Ry     beta= 0.70
     Davidson diagonalization with overlap

---- Real-time Memory Report at c_bands before calling an iterative solver
           166 MiB given to the printing process from OS
             0 MiB allocation reported by mallinfo(arena+hblkhd)
        173851 MiB available memory on the node where the printing process lives
------------------
     ethr =  9.09E-11,  avg # of iterations = 17.5

     total cpu time spent up to now is       13.9 secs

     total energy              =    -723.90704399 Ry
     estimated scf accuracy    <       0.00000009 Ry

     total magnetization       =     2.00 Bohr mag/cell
     absolute magnetization    =     2.30 Bohr mag/cell

     iteration # 13     ecut=    50.00 Ry     beta= 0.70
     Davidson diagonalization with overlap

---- Real-time Memory Report at c_bands before calling an iterative solver
           166 MiB given to the printing process from OS
             0 MiB allocation reported by mallinfo(arena+hblkhd)
        173851 MiB available memory on the node where the printing process lives
------------------
     ethr =  3.65E-11,  avg # of iterations = 17.0

     total cpu time spent up to now is       15.6 secs

     total energy              =    -723.90704403 Ry
     estimated scf accuracy    <       0.00000003 Ry

     total magnetization       =     2.00 Bohr mag/cell
     absolute magnetization    =     2.30 Bohr mag/cell

     iteration # 14     ecut=    50.00 Ry     beta= 0.70
     Davidson diagonalization with overlap

---- Real-time Memory Report at c_bands before calling an iterative solver
           166 MiB given to the printing process from OS
             0 MiB allocation reported by mallinfo(arena+hblkhd)
        173852 MiB available memory on the node where the printing process lives
------------------
     ethr =  1.01E-11,  avg # of iterations = 18.0
 
     Magnetic moment per site  (integrated on atomic sphere of radius R)
     atom   1 (R=0.085)  charge=  2.9143  magn=  0.0042
     atom   2 (R=0.085)  charge=  1.8170  magn=  0.2449
     atom   3 (R=0.085)  charge=  1.7929  magn= -0.0086
     atom   4 (R=0.085)  charge=  1.8051  magn=  0.2456
     atom   5 (R=0.085)  charge=  1.7933  magn= -0.0087
     atom   6 (R=0.085)  charge=  1.8232  magn=  0.2450
     atom   7 (R=0.085)  charge=  1.7933  magn= -0.0087
     atom   8 (R=0.085)  charge=  1.7860  magn=  0.0091
     atom   9 (R=0.085)  charge=  1.7962  magn= -0.0019
     atom  10 (R=0.085)  charge=  1.7834  magn=  0.0060
     atom  11 (R=0.085)  charge=  1.7968  magn= -0.0042
     atom  12 (R=0.085)  charge=  1.7823  magn=  0.0061
     atom  13 (R=0.085)  charge=  1.8039  magn= -0.0039
     atom  14 (R=0.085)  charge=  1.7874  magn=  0.0085
     atom  15 (R=0.085)  charge=  1.7866  magn= -0.0020
     atom  16 (R=0.085)  charge=  1.7820  magn=  0.0089
     atom  17 (R=0.085)  charge=  1.7956  magn= -0.0018
     atom  18 (R=0.085)  charge=  1.7822  magn=  0.0057
     atom  19 (R=0.085)  charge=  1.7953  magn= -0.0035
     atom  20 (R=0.085)  charge=  1.7834  magn=  0.0083
     atom  21 (R=0.085)  charge=  1.7846  magn= -0.0020
     atom  22 (R=0.085)  charge=  1.7829  magn=  0.0057
     atom  23 (R=0.085)  charge=  1.7905  magn= -0.0037
     atom  24 (R=0.085)  charge=  1.7825  magn=  0.0183
     atom  25 (R=0.085)  charge=  1.8067  magn=  0.0094
     atom  26 (R=0.085)  charge=  1.7935  magn=  0.0032
     atom  27 (R=0.085)  charge=  1.7589  magn=  0.0001
     atom  28 (R=0.085)  charge=  1.7877  magn=  0.0221
     atom  29 (R=0.085)  charge=  1.7825  magn= -0.0013
     atom  30 (R=0.085)  charge=  1.7901  magn=  0.0211
     atom  31 (R=0.085)  charge=  1.7823  magn= -0.0013
     atom  32 (R=0.085)  charge=  1.7844  magn=  0.0090
     atom  33 (R=0.085)  charge=  1.7960  magn= -0.0019
     atom  34 (R=0.085)  charge=  1.7869  magn=  0.0085
     atom  35 (R=0.085)  charge=  1.7866  magn= -0.0020
     atom  36 (R=0.085)  charge=  1.7818  magn=  0.0059
     atom  37 (R=0.085)  charge=  1.8033  magn= -0.0036
     atom  38 (R=0.085)  charge=  1.7836  magn=  0.0058
     atom  39 (R=0.085)  charge=  1.7914  magn= -0.0041
     atom  40 (R=0.085)  charge=  1.7835  magn=  0.0181
     atom  41 (R=0.085)  charge=  1.8110  magn=  0.0094
     atom  42 (R=0.085)  charge=  1.7967  magn=  0.0218
     atom  43 (R=0.085)  charge=  1.7820  magn= -0.0013
     atom  44 (R=0.085)  charge=  1.7937  magn=  0.0032
     atom  45 (R=0.085)  charge=  1.7589  magn= -0.0000
     atom  46 (R=0.085)  charge=  1.7948  magn=  0.0214
     atom  47 (R=0.085)  charge=  1.7819  magn= -0.0013
     atom  48 (R=0.085)  charge=  1.7819  magn=  0.0184
     atom  49 (R=0.085)  charge=  1.8043  magn=  0.0094
     atom  50 (R=0.085)  charge=  1.7873  magn=  0.0212
     atom  51 (R=0.085)  charge=  1.7825  magn= -0.0013
     atom  52 (R=0.085)  charge=  1.7869  magn=  0.0218
     atom  53 (R=0.085)  charge=  1.7826  magn= -0.0013
     atom  54 (R=0.085)  charge=  1.7935  magn=  0.0032
     atom  55 (R=0.085)  charge=  1.7588  magn=  0.0001
     atom  56 (R=0.085)  charge=  1.7934  magn=  0.0009
     atom  57 (R=0.085)  charge=  1.7833  magn=  0.0010
     atom  58 (R=0.085)  charge=  1.7914  magn=  0.0018
     atom  59 (R=0.085)  charge=  1.7879  magn= -0.0009
     atom  60 (R=0.085)  charge=  1.7911  magn=  0.0017
     atom  61 (R=0.085)  charge=  1.7854  magn= -0.0009
     atom  62 (R=0.085)  charge=  1.7913  magn=  0.0019
     atom  63 (R=0.085)  charge=  1.7891  magn= -0.0009

     total cpu time spent up to now is       17.6 secs

     End of self-consistent calculation

 ------ SPIN UP ------------


          k = 0.0000 0.0000 0.0000 (  7386 PWs)   bands (ev):

    -8.5509  -6.9236  -6.2875  -6.2670  -6.1947  -6.1574  -5.8804  -4.9176
    -4.1451  -4.1272  -4.1242  -4.0926  -4.0281  -4.0187  -4.0121  -3.9172
    -3.8738  -3.8615  -3.3598  -2.9358  -2.6755  -2.6726  -2.1604  -0.3632
    -0.3535  -0.3270  -0.2809  -0.0768   0.1727   0.1917   0.2820   0.2958
     0.3659   0.6139   0.8355   0.8456   0.9531   0.9734   0.9874   1.0525
     1.0648   1.0662   1.2688   1.2959   3.0699   3.9057   3.9254   4.0681
     4.1910   4.2068   4.2226   4.2734   4.2824   4.2902   4.4211   4.4233
     4.4935   4.4994   4.5673   4.6609   4.6844   4.6916   4.6927   4.7854
     4.7978   4.9189   4.9687   4.9705   5.0482   5.1978   5.2065   5.3008
     5.3606   5.3722   5.3952   5.4045   5.4084   6.0430   6.0473   6.1037
     6.6620   6.6663   6.7263   6.9905   7.0036   7.0398   7.5271   8.3244
     8.3348   8.4108   8.4671   8.4912   8.6870   8.7087   8.7890   8.8293
     8.8471   8.8542   8.8929   8.8997   8.9035   9.2875   9.2907   9.3257
     9.6830   9.7026   9.8989   9.9127   9.9442   9.9607   9.9637   9.9798
     9.9868  10.0265  10.0357  10.0578  10.1242  10.1402  10.2688  10.3230
    10.3355  11.0537  12.2895  12.4177  12.4295  13.9571  14.6908  14.7993
    17.3402  17.3790  17.4079  17.5255  17.5734  17.5808  17.8479  17.9244
    17.9383  18.0329  18.0667  18.3704  18.9939  19.0019  19.0255  20.6938
    20.7974  20.8211  20.8800  20.9450  20.9512  21.0220  21.0294  21.0440

     occupation numbers 
     1.0000   1.0000   1.0000   1.0000   1.0000   1.0000   1.0000   1.0000
     1.0000   1.0000   1.0000   1.0000   1.0000   1.0000   1.0000   1.0000
     1.0000   1.0000   1.0000   1.0000   1.0000   1.0000   1.0000   1.0000
     1.0000   1.0000   1.0000   1.0000   1.0000   1.0000   1.0000   1.0000
     1.0000   1.0000   1.0000   1.0000   1.0000   1.0000   1.0000   1.0000
     1.0000   1.0000   1.0000   1.0000   1.0000   1.0000   1.0000   1.0000
     1.0000   1.0000   1.0000   1.0000   1.0000   1.0000   1.0000   1.0000
     1.0000   1.0000   1.0000   1.0000   1.0000   1.0000   1.0000   1.0000
     1.0000   1.0000   1.0000   1.0000   1.0000   1.0000   1.0000   1.0000
     1.0000   1.0000   1.0000   1.0000   1.0000   1.0000   1.0000   1.0000
     1.0000   1.0000   1.0000   1.0000   1.0000   1.0000   1.0000   1.0000
     1.0000   1.0000   1.0000   1.0000   1.0000   1.0000   1.0000   1.0000
     1.0000   1.0000   1.0000   1.0000   1.0000   1.0000   1.0000   1.0000
     1.0000   1.0000   1.0000   1.0000   1.0000   1.0000   1.0000   1.0000
     1.0000   1.0000   1.0000   1.0000   1.0000   1.0000   1.0000   1.0000
     1.0000   1.0000   1.0000   1.0000   1.0000   1.0000   1.0000   1.0000
     0.0000   0.0000   0.0000   0.0000   0.0000   0.0000   0.0000   0.0000
     0.0000   0.0000   0.0000   0.0000   0.0000   0.0000   0.0000   0.0000
     0.0000   0.0000   0.0000   0.0000   0.0000   0.0000   0.0000   0.0000

 ------ SPIN DOWN ----------


          k = 0.0000 0.0000 0.0000 (  7386 PWs)   bands (ev):

    -8.5255  -6.9092  -6.2652  -6.2438  -6.1500  -6.1151  -5.8431  -4.9009
    -4.1243  -4.1050  -4.0827  -4.0607  -3.9938  -3.9806  -3.9639  -3.9050
    -3.8379  -3.8212  -3.3176  -2.9172  -2.6225  -2.6192  -2.0154  -0.3457
    -0.3354  -0.3055  -0.2637  -0.0115   0.1912   0.2093   0.3191   0.3291
     0.3908   0.6490   0.8477   0.8571   0.9877   1.0025   1.0127   1.0690
     1.0811   1.0829   1.4346   1.4661   3.1835   3.9290   3.9475   4.0944
     4.2252   4.2498   4.2651   4.2878   4.3010   4.3166   4.4666   4.4694
     4.5175   4.5209   4.5910   4.6852   4.7043   4.7071   4.7141   4.8195
     4.8342   4.9326   5.0006   5.0021   5.1291   5.2319   5.2418   5.3246
     5.3750   5.3832   5.4183   5.4531   5.4702   6.1051   6.1068   6.1419
     6.6887   6.6935   6.7607   7.0769   7.0873   7.0994   7.6968   8.3639
     8.3739   8.4479   8.5024   8.5256   8.7210   8.7399   8.8248   8.8752
     8.8845   8.8885   8.9239   8.9304   8.9339   9.3237   9.3276   9.3531
     9.7108   9.7299   9.9300   9.9400   9.9562   9.9749   9.9770   9.9982
    10.0069  10.0605  10.0682  10.0795  10.1520  10.1661  10.3267  10.3779
    10.3899  11.4341  12.5547  12.5702  12.6029  14.4393  16.0167  16.1403
    17.3655  17.3965  17.4246  17.5532  17.6285  17.6374  17.8706  17.9439
    17.9565  18.0730  18.1071  18.4899  19.0430  19.0793  19.1129  20.7442
    20.8116  20.8351  20.8948  20.9625  20.9679  21.0420  21.0556  21.0603

     occupation numbers 
     1.0000   1.0000   1.0000   1.0000   1.0000   1.0000   1.0000   1.0000
     1.0000   1.0000   1.0000   1.0000   1.0000   1.0000   1.0000   1.0000
     1.0000   1.0000   1.0000   1.0000   1.0000   1.0000   1.0000   1.0000
     1.0000   1.0000   1.0000   1.0000   1.0000   1.0000   1.0000   1.0000
     1.0000   1.0000   1.0000   1.0000   1.0000   1.0000   1.0000   1.0000
     1.0000   1.0000   1.0000   1.0000   1.0000   1.0000   1.0000   1.0000
     1.0000   1.0000   1.0000   1.0000   1.0000   1.0000   1.0000   1.0000
     1.0000   1.0000   1.0000   1.0000   1.0000   1.0000   1.0000   1.0000
     1.0000   1.0000   1.0000   1.0000   1.0000   1.0000   1.0000   1.0000
     1.0000   1.0000   1.0000   1.0000   1.0000   1.0000   1.0000   1.0000
     1.0000   1.0000   1.0000   1.0000   1.0000   1.0000   1.0000   1.0000
     1.0000   1.0000   1.0000   1.0000   1.0000   1.0000   1.0000   1.0000
     1.0000   1.0000   1.0000   1.0000   1.0000   1.0000   1.0000   1.0000
     1.0000   1.0000   1.0000   1.0000   1.0000   1.0000   1.0000   1.0000
     1.0000   1.0000   1.0000   1.0000   1.0000   1.0000   1.0000   1.0000
     1.0000   1.0000   1.0000   1.0000   1.0000   1.0000   0.0000   0.0000
     0.0000   0.0000   0.0000   0.0000   0.0000   0.0000   0.0000   0.0000
     0.0000   0.0000   0.0000   0.0000   0.0000   0.0000   0.0000   0.0000
     0.0000   0.0000   0.0000   0.0000   0.0000   0.0000   0.0000   0.0000

     highest occupied, lowest unoccupied level (ev):    14.7993   16.0167

!    total energy              =    -723.90704404 Ry
     estimated scf accuracy    <          5.4E-09 Ry

     The total energy is the sum of the following terms:
     one-electron contribution =     232.27632889 Ry
     hartree contribution      =      70.33978160 Ry
     xc contribution           =    -226.77210739 Ry
     ewald contribution        =    -799.75104713 Ry

     total magnetization       =     2.00 Bohr mag/cell
     absolute magnetization    =     2.30 Bohr mag/cell

     convergence has been achieved in  14 iterations

     Forces acting on atoms (cartesian axes, Ry/au):

     atom    1 type  1   force =    -0.00277944   -0.00388318   -0.00256643
     atom    2 type  2   force =     0.03520024    0.01576287   -0.01252074
     atom    3 type  2   force =    -0.00869193    0.00899395    0.00681571
     atom    4 type  2   force =     0.00891637    0.02474079   -0.00287944
     atom    5 type  2   force =     0.00170411   -0.02160030    0.00130587
     atom    6 type  2   force =    -0.00841377    0.00823416    0.04344464
     atom    7 type  2   force =     0.01027025    0.01201084   -0.00210896
     atom    8 type  2   force =     0.00306109    0.00438050    0.00646324
     atom    9 type  2   force =    -0.00154035   -0.00412324   -0.00263212
     atom   10 type  2   force =     0.00082806    0.00128125    0.00750007
     atom   11 type  2   force =    -0.02811949    0.00566109   -0.00949392
     atom   12 type  2   force =    -0.00015663    0.00382688    0.00336763
     atom   13 type  2   force =    -0.00342352   -0.03954115   -0.00215896
     atom   14 type  2   force =     0.00735327    0.00293715   -0.00359888
     atom   15 type  2   force =    -0.02032463   -0.00160055   -0.00545255
     atom   16 type  2   force =     0.00020500   -0.00093398   -0.00108044
     atom   17 type  2   force =    -0.00138839    0.00641202    0.00020450
     atom   18 type  2   force =     0.00286534   -0.00024298    0.00098786
     atom   19 type  2   force =    -0.00915871   -0.00314135   -0.00525478
     atom   20 type  2   force =     0.00288322   -0.00437290    0.00350591
     atom   21 type  2   force =    -0.00175063   -0.00444223   -0.00175051
     atom   22 type  2   force =     0.00157326    0.00220595    0.00135282
     atom   23 type  2   force =    -0.00075740   -0.00717548   -0.00169237
     atom   24 type  2   force =     0.00960931    0.00548950    0.00424386
     atom   25 type  2   force =    -0.01177947   -0.01444489   -0.00436312
     atom   26 type  2   force =     0.01492374    0.00604919    0.00177997
     atom   27 type  2   force =    -0.02567635   -0.00862586   -0.00641632
     atom   28 type  2   force =     0.01431745   -0.00012896    0.00517283
     atom   29 type  2   force =    -0.00073396   -0.00133002   -0.00095098
     atom   30 type  2   force =     0.00761573    0.00657088    0.00413367
     atom   31 type  2   force =     0.00107209   -0.00159944   -0.00350926
     atom   32 type  2   force =     0.00331903    0.00395498    0.00133067
     atom   33 type  2   force =     0.00056043   -0.00438253   -0.00013782
     atom   34 type  2   force =    -0.00481783    0.00168906    0.00365094
     atom   35 type  2   force =    -0.00440790   -0.00053541   -0.00395242
     atom   36 type  2   force =     0.00059420    0.00431375   -0.00016326
     atom   37 type  2   force =     0.00063782   -0.03264040   -0.00715948
     atom   38 type  2   force =     0.00704706    0.00182596   -0.00023812
     atom   39 type  2   force =    -0.01004555    0.00608814   -0.01373605
     atom   40 type  2   force =     0.00530647    0.01269411    0.00496775
     atom   41 type  2   force =    -0.00682324   -0.01607670   -0.00335173
     atom   42 type  2   force =     0.00381542    0.01653172    0.00681302
     atom   43 type  2   force =    -0.00033630    0.00041762   -0.00038954
     atom   44 type  2   force =     0.00465026    0.01703895    0.00290796
     atom   45 type  2   force =    -0.00748704   -0.02650237   -0.00665650
     atom   46 type  2   force =     0.00643773    0.01611080    0.00119841
     atom   47 type  2   force =    -0.00119976    0.00127653   -0.00185165
     atom   48 type  2   force =     0.00477472    0.00559931    0.00774507
     atom   49 type  2   force =    -0.00796651   -0.01414117   -0.01015795
     atom   50 type  2   force =     0.00438146    0.00657786    0.00352824
     atom   51 type  2   force =    -0.00394779   -0.00179661    0.00030958
     atom   52 type  2   force =     0.00651298    0.00202230    0.00486349
     atom   53 type  2   force =    -0.00173073   -0.00303509   -0.00037545
     atom   54 type  2   force =     0.00256827    0.00544370    0.01400539
     atom   55 type  2   force =    -0.00712670   -0.00850354   -0.02494076
     atom   56 type  2   force =     0.00889214    0.00566677    0.00365045
     atom   57 type  2   force =    -0.00115947   -0.00002408   -0.00259779
     atom   58 type  2   force =     0.00138009    0.00401114    0.00332851
     atom   59 type  2   force =    -0.00122261   -0.00269815   -0.00375679
     atom   60 type  2   force =     0.00259158    0.00191721    0.00227832
     atom   61 type  2   force =    -0.00344350   -0.00181639   -0.00380506
     atom   62 type  2   force =     0.00409979    0.00456214    0.00124392
     atom   63 type  2   force =    -0.00355839   -0.00296012   -0.00040019
     The non-local contrib.  to forces
     atom    1 type  1   force =    -0.76079837   -0.76437387   -0.75891138
     atom    2 type  2   force =    -0.16453414    0.22056286    0.17839512
     atom    3 type  2   force =     0.05741123    0.08120730    0.07305994
     atom    4 type  2   force =     0.21474391   -0.18886925    0.19735526
     atom    5 type  2   force =     0.07335459    0.04151190    0.06913408
     atom    6 type  2   force =     0.17961924    0.20414321   -0.14652726
     atom    7 type  2   force =     0.07732275    0.08313898    0.06431040
     atom    8 type  2   force =    -0.00425146   -0.00435848    0.05675928
     atom    9 type  2   force =    -0.00492016   -0.00726004    0.01318350
     atom   10 type  2   force =    -0.04457283   -0.01414094   -0.01160887
     atom   11 type  2   force =    -0.10328376    0.06766317   -0.08367924
     atom   12 type  2   force =    -0.01723244   -0.04094438   -0.01445699
     atom   13 type  2   force =     0.05252201   -0.11548389   -0.07440335
     atom   14 type  2   force =     0.00644505    0.00124182    0.04632835
     atom   15 type  2   force =    -0.01083263    0.00872348   -0.00365021
     atom   16 type  2   force =    -0.01228325    0.04875034   -0.01346369
     atom   17 type  2   force =    -0.00463446    0.02721492   -0.00317311
     atom   18 type  2   force =    -0.04096787   -0.02208435   -0.01575334
     atom   19 type  2   force =    -0.08113107   -0.07907048    0.05527558
     atom   20 type  2   force =     0.00462216    0.04499708    0.00518128
     atom   21 type  2   force =     0.01116241   -0.00428182    0.01226388
     atom   22 type  2   force =    -0.01471453   -0.01977999   -0.04206977
     atom   23 type  2   force =     0.06385706   -0.08458031   -0.07274444
     atom   24 type  2   force =    -0.06482182    0.03325038    0.03409548
     atom   25 type  2   force =    -0.02379358   -0.00019561    0.01382605
     atom   26 type  2   force =    -0.04168098   -0.02098970   -0.02360519
     atom   27 type  2   force =    -0.14714430    0.12521460    0.12331596
     atom   28 type  2   force =     0.08366705    0.02287093   -0.01333319
     atom   29 type  2   force =     0.00107630    0.01942307    0.00598277
     atom   30 type  2   force =     0.07678169   -0.01332423    0.02879302
     atom   31 type  2   force =     0.00325699    0.00324970    0.01662179
     atom   32 type  2   force =     0.05259433   -0.00611122   -0.00770666
     atom   33 type  2   force =     0.01813824   -0.00736669   -0.00380547
     atom   34 type  2   force =     0.04488192    0.00128891    0.00372005
     atom   35 type  2   force =    -0.00286561    0.00888648    0.00985623
     atom   36 type  2   force =    -0.01840641   -0.04033231   -0.01791196
     atom   37 type  2   force =    -0.07187347   -0.10859232    0.04783709
     atom   38 type  2   force =    -0.01350653   -0.01344157   -0.04497764
     atom   39 type  2   force =    -0.08648112    0.07136614   -0.08753366
     atom   40 type  2   force =     0.03512694   -0.05858903    0.03565494
     atom   41 type  2   force =     0.00956770   -0.02676439    0.01416397
     atom   42 type  2   force =     0.02474706    0.08820048   -0.00904211
     atom   43 type  2   force =     0.01782916    0.00024397    0.00441346
     atom   44 type  2   force =    -0.02248508   -0.03725285   -0.02343505
     atom   45 type  2   force =     0.12476873   -0.14768316    0.12428700
     atom   46 type  2   force =    -0.01004088    0.08713059    0.02319760
     atom   47 type  2   force =     0.00312087    0.00118462    0.01620462
     atom   48 type  2   force =     0.03367068    0.03290872   -0.06825665
     atom   49 type  2   force =     0.00844011    0.00005820   -0.02283884
     atom   50 type  2   force =     0.02937989   -0.01506775    0.07190436
     atom   51 type  2   force =     0.01698433    0.00358888    0.00322915
     atom   52 type  2   force =    -0.01400883    0.02656163    0.07277123
     atom   53 type  2   force =     0.00463541    0.01792459    0.00160001
     atom   54 type  2   force =    -0.02261440   -0.02060039   -0.04389742
     atom   55 type  2   force =     0.12330128    0.12446030   -0.14648022
     atom   56 type  2   force =     0.02654070    0.02486437    0.02118510
     atom   57 type  2   force =     0.00587140    0.00551931    0.00538041
     atom   58 type  2   force =     0.01628067   -0.00631064   -0.01016846
     atom   59 type  2   force =     0.00783897   -0.01422918   -0.01539451
     atom   60 type  2   force =    -0.01048901    0.01821361   -0.01153705
     atom   61 type  2   force =    -0.01505243    0.00869749   -0.01545986
     atom   62 type  2   force =    -0.00818752   -0.00566990    0.01522526
     atom   63 type  2   force =    -0.01544708   -0.01507141    0.00847254
     The ionic contribution  to forces
     atom    1 type  1   force =     2.98495221    2.95442471    2.99725283
     atom    2 type  2   force =     2.41481871   -2.05916552   -2.21412795
     atom    3 type  2   force =     0.48510776   -0.73008583   -0.84439088
     atom    4 type  2   force =    -2.09126525    2.33405085   -2.15695097
     atom    5 type  2   force =    -0.78406483    0.40108892   -0.82614245
     atom    6 type  2   force =    -2.18931878   -2.09721533    2.45718400
     atom    7 type  2   force =    -0.82689625   -0.74904430    0.53706715
     atom    8 type  2   force =     0.25901296    0.21618680   -0.72653363
     atom    9 type  2   force =     0.07026989    0.03469376   -0.22425347
     atom   10 type  2   force =     0.18750820    0.07354716    0.56313611
     atom   11 type  2   force =    -0.52383584   -0.62722404    0.79493089
     atom   12 type  2   force =     0.02636037    0.16299323    0.54956091
     atom   13 type  2   force =    -0.66856106   -0.56634201    0.76121274
     atom   14 type  2   force =    -0.19276178   -0.15470175   -0.68958567
     atom   15 type  2   force =    -0.23811259   -0.12996054   -0.06673463
     atom   16 type  2   force =     0.20228326   -0.77543634    0.22422189
     atom   17 type  2   force =     0.07145960   -0.15676824    0.09375897
     atom   18 type  2   force =     0.22411229    0.46871363    0.00265481
     atom   19 type  2   force =    -0.36177023    0.74832638   -0.70611642
     atom   20 type  2   force =    -0.18302452   -0.73138734   -0.18792865
     atom   21 type  2   force =    -0.17983635   -0.05794507   -0.20019083
     atom   22 type  2   force =     0.02656278    0.47783412    0.23670545
     atom   23 type  2   force =    -0.68969330    0.77828758   -0.33160818
     atom   24 type  2   force =     0.11366911   -0.13897551   -0.16823929
     atom   25 type  2   force =    -0.02144577   -0.08746824   -0.07040011
     atom   26 type  2   force =     0.13241958   -0.09498339   -0.04964284
     atom   27 type  2   force =     1.14079761    0.24380957    0.24953796
     atom   28 type  2   force =    -0.08057003   -0.16143712    0.08794199
     atom   29 type  2   force =    -0.15977752    0.03118218    0.25689981
     atom   30 type  2   force =    -0.02194214    0.13565526   -0.23379649
     atom   31 type  2   force =    -0.15589554    0.17288311   -0.00827814
     atom   32 type  2   force =    -0.74467752    0.19469886    0.26271881
     atom   33 type  2   force =    -0.20198231    0.02902542    0.09135165
     atom   34 type  2   force =    -0.71995754   -0.17708795   -0.20174177
     atom   35 type  2   force =    -0.05922187   -0.13392044   -0.20628504
     atom   36 type  2   force =     0.51619317    0.17463683    0.00268486
     atom   37 type  2   force =     0.73946290   -0.50014892   -0.69219301
     atom   38 type  2   force =     0.54137845    0.07066334    0.21002006
     atom   39 type  2   force =     0.81036974   -0.63784730   -0.43116859
     atom   40 type  2   force =    -0.19888223    0.05980439   -0.21078127
     atom   41 type  2   force =    -0.06621159   -0.09600771   -0.06845603
     atom   42 type  2   force =    -0.12961665    0.00113582    0.11432812
     atom   43 type  2   force =     0.03718876   -0.11412548    0.26214709
     atom   44 type  2   force =    -0.06953035    0.12156014   -0.05377698
     atom   45 type  2   force =     0.24683873    1.15928650    0.24815344
     atom   46 type  2   force =     0.10759473    0.04802871   -0.17239458
     atom   47 type  2   force =     0.23241291   -0.11436336    0.01660362
     atom   48 type  2   force =    -0.13394490   -0.10984047    0.14010649
     atom   49 type  2   force =    -0.07464549   -0.08077573    0.00726222
     atom   50 type  2   force =    -0.23770140    0.15351475   -0.08344172
     atom   51 type  2   force =    -0.00962607    0.17439319   -0.18105616
     atom   52 type  2   force =     0.14117516   -0.17653923   -0.12280746
     atom   53 type  2   force =     0.23105429    0.01351433   -0.18206889
     atom   54 type  2   force =    -0.06211013   -0.09030517    0.13932917
     atom   55 type  2   force =     0.24598048    0.24274944    1.13196789
     atom   56 type  2   force =    -0.09039249   -0.00432169   -0.15068504
     atom   57 type  2   force =    -0.01823956   -0.02622793   -0.01943452
     atom   58 type  2   force =    -0.07892930    0.05048657    0.04110628
     atom   59 type  2   force =    -0.28469118    0.07694367    0.15462105
     atom   60 type  2   force =     0.06772809   -0.03343411    0.06140667
     atom   61 type  2   force =     0.13441852   -0.30283575    0.15881118
     atom   62 type  2   force =     0.03237701    0.03810015   -0.09988256
     atom   63 type  2   force =     0.12562509    0.07370244   -0.27358989
     The local contribution  to forces
     atom    1 type  1   force =    -2.22698269   -2.19393211   -2.24096552
     atom    2 type  2   force =    -2.21514128    1.85434998    2.02315433
     atom    3 type  2   force =    -0.55129397    0.65782326    0.77807713
     atom    4 type  2   force =     1.88536455   -2.12045213    1.95666273
     atom    5 type  2   force =     0.71232801   -0.46421215    0.75826689
     atom    6 type  2   force =     2.00121075    1.90129277   -2.26727241
     atom    7 type  2   force =     0.75975365    0.67788484   -0.60355892
     atom    8 type  2   force =    -0.25174908   -0.20744383    0.67618208
     atom    9 type  2   force =    -0.06694352   -0.03156456    0.20837820
     atom   10 type  2   force =    -0.14215000   -0.05815050   -0.54408251
     atom   11 type  2   force =     0.59895095    0.56518629   -0.72079206
     atom   12 type  2   force =    -0.00935033   -0.11823612   -0.53179107
     atom   13 type  2   force =     0.61253370    0.64227302   -0.68902844
     atom   14 type  2   force =     0.19358453    0.15637364    0.63960634
     atom   15 type  2   force =     0.22852700    0.11959505    0.06489305
     atom   16 type  2   force =    -0.18984348    0.72569433   -0.21188397
     atom   17 type  2   force =    -0.06826860    0.13590037   -0.09044244
     atom   18 type  2   force =    -0.18032585   -0.44692038    0.01402131
     atom   19 type  2   force =     0.43368711   -0.67241975    0.64553510
     atom   20 type  2   force =     0.18120110    0.68196580    0.18618775
     atom   21 type  2   force =     0.16683072    0.05774123    0.18611556
     atom   22 type  2   force =    -0.01033610   -0.45589400   -0.19334845
     atom   23 type  2   force =     0.62500628   -0.70091713    0.40258650
     atom   24 type  2   force =    -0.03928389    0.11114974    0.13831877
     atom   25 type  2   force =     0.03340876    0.07316638    0.05215885
     atom   26 type  2   force =    -0.07586597    0.12198575    0.07497926
     atom   27 type  2   force =    -1.01938677   -0.37767117   -0.37932694
     atom   28 type  2   force =     0.01115548    0.13838717   -0.06948396
     atom   29 type  2   force =     0.15788884   -0.05198668   -0.26388454
     atom   30 type  2   force =    -0.04728928   -0.11580216    0.20908761
     atom   31 type  2   force =     0.15362826   -0.17775380   -0.01190111
     atom   32 type  2   force =     0.69532037   -0.18465424   -0.25374935
     atom   33 type  2   force =     0.18433078   -0.02605192   -0.08774651
     atom   34 type  2   force =     0.67017948    0.17746690    0.20160750
     atom   35 type  2   force =     0.05761638    0.12445198    0.19240788
     atom   36 type  2   force =    -0.49725627   -0.12998519    0.01499583
     atom   37 type  2   force =    -0.66699447    0.57611741    0.63712368
     atom   38 type  2   force =    -0.52088728   -0.05541893   -0.16532261
     atom   39 type  2   force =    -0.73397609    0.57251910    0.50492793
     atom   40 type  2   force =     0.16896985    0.01146502    0.18004987
     atom   41 type  2   force =     0.04973222    0.10667570    0.05088861
     atom   42 type  2   force =     0.10858582   -0.07282904   -0.09852205
     atom   43 type  2   force =    -0.05544898    0.11426767   -0.26699598
     atom   44 type  2   force =     0.09659001   -0.06729076    0.08007286
     atom   45 type  2   force =    -0.37914682   -1.03812583   -0.37913997
     atom   46 type  2   force =    -0.09117243   -0.11907182    0.15032200
     atom   47 type  2   force =    -0.23677965    0.11441309   -0.03473141
     atom   48 type  2   force =     0.10495754    0.08248969   -0.06416947
     atom   49 type  2   force =     0.05815160    0.06652518    0.00534142
     atom   50 type  2   force =     0.21260792   -0.13191132    0.01499528
     atom   51 type  2   force =    -0.01139902   -0.17979401    0.17807899
     atom   52 type  2   force =    -0.12071002    0.15193015    0.05483314
     atom   53 type  2   force =    -0.23746547   -0.03454718    0.18002956
     atom   54 type  2   force =     0.08721170    0.11631021   -0.08149632
     atom   55 type  2   force =    -0.37646625   -0.37572617   -1.01050186
     atom   56 type  2   force =     0.07265115   -0.01492168    0.13310107
     atom   57 type  2   force =     0.01112076    0.02064211    0.01141956
     atom   58 type  2   force =     0.06394236   -0.04020160   -0.02765129
     atom   59 type  2   force =     0.27554393   -0.06544242   -0.14303610
     atom   60 type  2   force =    -0.05472352    0.01710123   -0.04763625
     atom   61 type  2   force =    -0.12287185    0.29227843   -0.14720601
     atom   62 type  2   force =    -0.02016257   -0.02790640    0.08586074
     atom   63 type  2   force =    -0.11379398   -0.06161159    0.26467753
     The core correction contribution to forces
     atom    1 type  1   force =     0.00000000    0.00000000    0.00000000
     atom    2 type  2   force =     0.00000000    0.00000000    0.00000000
     atom    3 type  2   force =     0.00000000    0.00000000    0.00000000
     atom    4 type  2   force =     0.00000000    0.00000000    0.00000000
     atom    5 type  2   force =     0.00000000    0.00000000    0.00000000
     atom    6 type  2   force =     0.00000000    0.00000000    0.00000000
     atom    7 type  2   force =     0.00000000    0.00000000    0.00000000
     atom    8 type  2   force =     0.00000000    0.00000000    0.00000000
     atom    9 type  2   force =     0.00000000    0.00000000    0.00000000
     atom   10 type  2   force =     0.00000000    0.00000000    0.00000000
     atom   11 type  2   force =     0.00000000    0.00000000    0.00000000
     atom   12 type  2   force =     0.00000000    0.00000000    0.00000000
     atom   13 type  2   force =     0.00000000    0.00000000    0.00000000
     atom   14 type  2   force =     0.00000000    0.00000000    0.00000000
     atom   15 type  2   force =     0.00000000    0.00000000    0.00000000
     atom   16 type  2   force =     0.00000000    0.00000000    0.00000000
     atom   17 type  2   force =     0.00000000    0.00000000    0.00000000
     atom   18 type  2   force =     0.00000000    0.00000000    0.00000000
     atom   19 type  2   force =     0.00000000    0.00000000    0.00000000
     atom   20 type  2   force =     0.00000000    0.00000000    0.00000000
     atom   21 type  2   force =     0.00000000    0.00000000    0.00000000
     atom   22 type  2   force =     0.00000000    0.00000000    0.00000000
     atom   23 type  2   force =     0.00000000    0.00000000    0.00000000
     atom   24 type  2   force =     0.00000000    0.00000000    0.00000000
     atom   25 type  2   force =     0.00000000    0.00000000    0.00000000
     atom   26 type  2   force =     0.00000000    0.00000000    0.00000000
     atom   27 type  2   force =     0.00000000    0.00000000    0.00000000
     atom   28 type  2   force =     0.00000000    0.00000000    0.00000000
     atom   29 type  2   force =     0.00000000    0.00000000    0.00000000
     atom   30 type  2   force =     0.00000000    0.00000000    0.00000000
     atom   31 type  2   force =     0.00000000    0.00000000    0.00000000
     atom   32 type  2   force =     0.00000000    0.00000000    0.00000000
     atom   33 type  2   force =     0.00000000    0.00000000    0.00000000
     atom   34 type  2   force =     0.00000000    0.00000000    0.00000000
     atom   35 type  2   force =     0.00000000    0.00000000    0.00000000
     atom   36 type  2   force =     0.00000000    0.00000000    0.00000000
     atom   37 type  2   force =     0.00000000    0.00000000    0.00000000
     atom   38 type  2   force =     0.00000000    0.00000000    0.00000000
     atom   39 type  2   force =     0.00000000    0.00000000    0.00000000
     atom   40 type  2   force =     0.00000000    0.00000000    0.00000000
     atom   41 type  2   force =     0.00000000    0.00000000    0.00000000
     atom   42 type  2   force =     0.00000000    0.00000000    0.00000000
     atom   43 type  2   force =     0.00000000    0.00000000    0.00000000
     atom   44 type  2   force =     0.00000000    0.00000000    0.00000000
     atom   45 type  2   force =     0.00000000    0.00000000    0.00000000
     atom   46 type  2   force =     0.00000000    0.00000000    0.00000000
     atom   47 type  2   force =     0.00000000    0.00000000    0.00000000
     atom   48 type  2   force =     0.00000000    0.00000000    0.00000000
     atom   49 type  2   force =     0.00000000    0.00000000    0.00000000
     atom   50 type  2   force =     0.00000000    0.00000000    0.00000000
     atom   51 type  2   force =     0.00000000    0.00000000    0.00000000
     atom   52 type  2   force =     0.00000000    0.00000000    0.00000000
     atom   53 type  2   force =     0.00000000    0.00000000    0.00000000
     atom   54 type  2   force =     0.00000000    0.00000000    0.00000000
     atom   55 type  2   force =     0.00000000    0.00000000    0.00000000
     atom   56 type  2   force =     0.00000000    0.00000000    0.00000000
     atom   57 type  2   force =     0.00000000    0.00000000    0.00000000
     atom   58 type  2   force =     0.00000000    0.00000000    0.00000000
     atom   59 type  2   force =     0.00000000    0.00000000    0.00000000
     atom   60 type  2   force =     0.00000000    0.00000000    0.00000000
     atom   61 type  2   force =     0.00000000    0.00000000    0.00000000
     atom   62 type  2   force =     0.00000000    0.00000000    0.00000000
     atom   63 type  2   force =     0.00000000    0.00000000    0.00000000
     The Hubbard contrib.    to forces
     atom    1 type  1   force =     0.00000000    0.00000000    0.00000000
     atom    2 type  2   force =     0.00000000    0.00000000    0.00000000
     atom    3 type  2   force =     0.00000000    0.00000000    0.00000000
     atom    4 type  2   force =     0.00000000    0.00000000    0.00000000
     atom    5 type  2   force =     0.00000000    0.00000000    0.00000000
     atom    6 type  2   force =     0.00000000    0.00000000    0.00000000
     atom    7 type  2   force =     0.00000000    0.00000000    0.00000000
     atom    8 type  2   force =     0.00000000    0.00000000    0.00000000
     atom    9 type  2   force =     0.00000000    0.00000000    0.00000000
     atom   10 type  2   force =     0.00000000    0.00000000    0.00000000
     atom   11 type  2   force =     0.00000000    0.00000000    0.00000000
     atom   12 type  2   force =     0.00000000    0.00000000    0.00000000
     atom   13 type  2   force =     0.00000000    0.00000000    0.00000000
     atom   14 type  2   force =     0.00000000    0.00000000    0.00000000
     atom   15 type  2   force =     0.00000000    0.00000000    0.00000000
     atom   16 type  2   force =     0.00000000    0.00000000    0.00000000
     atom   17 type  2   force =     0.00000000    0.00000000    0.00000000
     atom   18 type  2   force =     0.00000000    0.00000000    0.00000000
     atom   19 type  2   force =     0.00000000    0.00000000    0.00000000
     atom   20 type  2   force =     0.00000000    0.00000000    0.00000000
     atom   21 type  2   force =     0.00000000    0.00000000    0.00000000
     atom   22 type  2   force =     0.00000000    0.00000000    0.00000000
     atom   23 type  2   force =     0.00000000    0.00000000    0.00000000
     atom   24 type  2   force =     0.00000000    0.00000000    0.00000000
     atom   25 type  2   force =     0.00000000    0.00000000    0.00000000
     atom   26 type  2   force =     0.00000000    0.00000000    0.00000000
     atom   27 type  2   force =     0.00000000    0.00000000    0.00000000
     atom   28 type  2   force =     0.00000000    0.00000000    0.00000000
     atom   29 type  2   force =     0.00000000    0.00000000    0.00000000
     atom   30 type  2   force =     0.00000000    0.00000000    0.00000000
     atom   31 type  2   force =     0.00000000    0.00000000    0.00000000
     atom   32 type  2   force =     0.00000000    0.00000000    0.00000000
     atom   33 type  2   force =     0.00000000    0.00000000    0.00000000
     atom   34 type  2   force =     0.00000000    0.00000000    0.00000000
     atom   35 type  2   force =     0.00000000    0.00000000    0.00000000
     atom   36 type  2   force =     0.00000000    0.00000000    0.00000000
     atom   37 type  2   force =     0.00000000    0.00000000    0.00000000
     atom   38 type  2   force =     0.00000000    0.00000000    0.00000000
     atom   39 type  2   force =     0.00000000    0.00000000    0.00000000
     atom   40 type  2   force =     0.00000000    0.00000000    0.00000000
     atom   41 type  2   force =     0.00000000    0.00000000    0.00000000
     atom   42 type  2   force =     0.00000000    0.00000000    0.00000000
     atom   43 type  2   force =     0.00000000    0.00000000    0.00000000
     atom   44 type  2   force =     0.00000000    0.00000000    0.00000000
     atom   45 type  2   force =     0.00000000    0.00000000    0.00000000
     atom   46 type  2   force =     0.00000000    0.00000000    0.00000000
     atom   47 type  2   force =     0.00000000    0.00000000    0.00000000
     atom   48 type  2   force =     0.00000000    0.00000000    0.00000000
     atom   49 type  2   force =     0.00000000    0.00000000    0.00000000
     atom   50 type  2   force =     0.00000000    0.00000000    0.00000000
     atom   51 type  2   force =     0.00000000    0.00000000    0.00000000
     atom   52 type  2   force =     0.00000000    0.00000000    0.00000000
     atom   53 type  2   force =     0.00000000    0.00000000    0.00000000
     atom   54 type  2   force =     0.00000000    0.00000000    0.00000000
     atom   55 type  2   force =     0.00000000    0.00000000    0.00000000
     atom   56 type  2   force =     0.00000000    0.00000000    0.00000000
     atom   57 type  2   force =     0.00000000    0.00000000    0.00000000
     atom   58 type  2   force =     0.00000000    0.00000000    0.00000000
     atom   59 type  2   force =     0.00000000    0.00000000    0.00000000
     atom   60 type  2   force =     0.00000000    0.00000000    0.00000000
     atom   61 type  2   force =     0.00000000    0.00000000    0.00000000
     atom   62 type  2   force =     0.00000000    0.00000000    0.00000000
     atom   63 type  2   force =     0.00000000    0.00000000    0.00000000
     The SCF correction term to forces
     atom    1 type  1   force =    -0.00002065   -0.00003277    0.00000107
     atom    2 type  2   force =    -0.00001312   -0.00001531    0.00000119
     atom    3 type  2   force =     0.00001299    0.00001836    0.00001295
     atom    4 type  2   force =     0.00000309   -0.00001954   -0.00000302
     atom    5 type  2   force =     0.00001628   -0.00001981   -0.00000923
     atom    6 type  2   force =     0.00000495   -0.00001734    0.00000374
     atom    7 type  2   force =     0.00002003    0.00000046    0.00001583
     atom    8 type  2   force =    -0.00002139   -0.00003485   -0.00000106
     atom    9 type  2   force =    -0.00001664   -0.00002325    0.00000308
     atom   10 type  2   force =    -0.00002738   -0.00000533   -0.00000123
     atom   11 type  2   force =    -0.00002091    0.00000482   -0.00001008
     atom   12 type  2   force =    -0.00000430   -0.00001671   -0.00000179
     atom   13 type  2   force =     0.00001177   -0.00001912    0.00000353
     atom   14 type  2   force =     0.00001540   -0.00000741   -0.00000447
     atom   15 type  2   force =     0.00002353    0.00001061   -0.00001733
     atom   16 type  2   force =    -0.00002160    0.00002685   -0.00001124
     atom   17 type  2   force =    -0.00001499    0.00003412    0.00000451
     atom   18 type  2   force =    -0.00002330    0.00001727    0.00000852
     atom   19 type  2   force =    -0.00001459   -0.00000835   -0.00000561
     atom   20 type  2   force =     0.00001440    0.00002071    0.00000895
     atom   21 type  2   force =     0.00002252    0.00001257    0.00000430
     atom   22 type  2   force =    -0.00000895    0.00001497    0.00000902
     atom   23 type  2   force =     0.00000249    0.00000353    0.00001718
     atom   24 type  2   force =    -0.00002416    0.00003404    0.00001233
     atom   25 type  2   force =    -0.00001895    0.00002172   -0.00000448
     atom   26 type  2   force =    -0.00001896    0.00000569   -0.00000783
     atom   27 type  2   force =    -0.00001296   -0.00000971    0.00000013
     atom   28 type  2   force =    -0.00000511    0.00001920   -0.00000858
     atom   29 type  2   force =     0.00000836    0.00002056   -0.00000560
     atom   30 type  2   force =    -0.00000460    0.00001115   -0.00000704
     atom   31 type  2   force =     0.00001232   -0.00000930   -0.00000838
     atom   32 type  2   force =     0.00001178   -0.00000927    0.00001130
     atom   33 type  2   force =     0.00000365   -0.00002020    0.00000595
     atom   34 type  2   force =     0.00000825   -0.00000964    0.00000859
     atom   35 type  2   force =    -0.00000688    0.00001572    0.00001194
     atom   36 type  2   force =    -0.00000637   -0.00003642    0.00001144
     atom   37 type  2   force =    -0.00002720   -0.00004743    0.00001619
     atom   38 type  2   force =    -0.00000764   -0.00000772   -0.00001450
     atom   39 type  2   force =    -0.00002814    0.00001936   -0.00001830
     atom   40 type  2   force =     0.00002185   -0.00001712   -0.00001236
     atom   41 type  2   force =     0.00001836   -0.00001115   -0.00000485
     atom   42 type  2   force =     0.00002911   -0.00000639   -0.00000753
     atom   43 type  2   force =     0.00002470    0.00000060   -0.00001068
     atom   44 type  2   force =     0.00000562   -0.00000844   -0.00000944
     atom   45 type  2   force =    -0.00001775   -0.00001074   -0.00001355
     atom   46 type  2   force =    -0.00001375   -0.00000753    0.00001681
     atom   47 type  2   force =    -0.00002396    0.00001132    0.00001495
     atom   48 type  2   force =     0.00002133    0.00001051    0.00000814
     atom   49 type  2   force =     0.00001720    0.00002032    0.00002068
     atom   50 type  2   force =     0.00002498    0.00001133    0.00001375
     atom   51 type  2   force =     0.00002290   -0.00001552    0.00000102
     atom   52 type  2   force =    -0.00001341    0.00003889    0.00001000
     atom   53 type  2   force =    -0.00002502    0.00004232    0.00000730
     atom   54 type  2   force =     0.00001104    0.00000820    0.00001338
     atom   55 type  2   force =    -0.00001228   -0.00001795    0.00001687
     atom   56 type  2   force =     0.00002272    0.00001492   -0.00000725
     atom   57 type  2   force =     0.00001786    0.00001158   -0.00001981
     atom   58 type  2   force =     0.00001630    0.00000596   -0.00001459
     atom   59 type  2   force =     0.00001561   -0.00000106   -0.00000380
     atom   60 type  2   force =     0.00000595    0.00000563   -0.00001162
     atom   61 type  2   force =    -0.00000781    0.00001260   -0.00000694
     atom   62 type  2   force =     0.00000280    0.00000744   -0.00001609
     atom   63 type  2   force =    -0.00001249   -0.00001040   -0.00001695

     Total force =     0.128851     Total SCF correction =     0.000218

     Writing all to output data dir ./pwscf.save/ :
     XML data file, charge density, pseudopotentials, collected wavefunctions
 
     init_run     :      0.31s CPU      0.60s WALL (       1 calls)
     electrons    :     14.73s CPU     14.97s WALL (       1 calls)
     forces       :      2.17s CPU      2.18s WALL (       1 calls)

     Called by init_run:
     wfcinit      :      0.05s CPU      0.06s WALL (       1 calls)
     wfcinit:wfcr :      0.05s CPU      0.06s WALL (       1 calls)
     potinit      :      0.05s CPU      0.11s WALL (       1 calls)
     hinit0       :      0.14s CPU      0.36s WALL (       1 calls)

     Called by electrons:
     c_bands      :      9.17s CPU      9.36s WALL (      14 calls)
     sum_band     :      2.53s CPU      2.55s WALL (      14 calls)
     v_of_rho     :      1.39s CPU      1.40s WALL (      15 calls)
     v_h          :      0.19s CPU      0.19s WALL (      15 calls)
     v_xc         :      1.20s CPU      1.21s WALL (      15 calls)
     mix_rho      :      0.88s CPU      0.89s WALL (      14 calls)

     Called by c_bands:
     init_us_2    :      0.02s CPU      0.03s WALL (      30 calls)
     regterg      :      8.94s CPU      9.14s WALL (      14 calls)

     Called by sum_band:
     sum_band:wei :      0.10s CPU      0.10s WALL (      14 calls)
     sum_band:loo :      2.26s CPU      2.28s WALL (      14 calls)
     sum_band:buf :      0.00s CPU      0.00s WALL (      14 calls)
     sum_band:ini :      0.01s CPU      0.01s WALL (      14 calls)

     Called by *egterg:
     rdiaghg      :      4.45s CPU      4.57s WALL (     270 calls)
     regterg:over :      0.56s CPU      0.57s WALL (     256 calls)
     regterg:upda :      0.35s CPU      0.35s WALL (     256 calls)
     regterg:last :      0.25s CPU      0.26s WALL (      51 calls)
     rdiaghg:chol :      0.14s CPU      0.15s WALL (     270 calls)
     rdiaghg:inve :      0.03s CPU      0.03s WALL (     270 calls)
     rdiaghg:para :      0.40s CPU      0.42s WALL (     540 calls)
     h_psi        :      3.24s CPU      3.29s WALL (     271 calls)
     g_psi        :      0.00s CPU      0.00s WALL (     256 calls)

     Called by h_psi:
     h_psi:calbec :      0.84s CPU      0.85s WALL (     271 calls)
     vloc_psi     :      2.30s CPU      2.33s WALL (     271 calls)
                                        0.00s GPU  (     271 calls)
     add_vuspsi   :      0.10s CPU      0.11s WALL (     271 calls)

     General routines
     calbec       :      1.14s CPU      1.15s WALL (     275 calls)
     fft          :      0.97s CPU      1.09s WALL (     196 calls)
     ffts         :      0.05s CPU      0.05s WALL (      14 calls)
     fftw         :      4.45s CPU      4.49s WALL (   10072 calls)
 
     Parallel routines
 
     PWSCF        :     19.88s CPU     20.59s WALL

 
   This run was terminated on:  15:51:22  16Nov2025            

=------------------------------------------------------------------------------=
   JOB DONE.
=------------------------------------------------------------------------------=
