
     Program PWSCF v.7.5 starts on 16Nov2025 at 17: 2:59 

     This program is part of the open-source Quantum ESPRESSO suite
     for quantum simulation of materials; please cite
         "P. Giannozzi et al., J. Phys.:Condens. Matter 21 395502 (2009);
         "P. Giannozzi et al., J. Phys.:Condens. Matter 29 465901 (2017);
         "P. Giannozzi et al., J. Chem. Phys. 152 154105 (2020);
          URL http://www.quantum-espresso.org", 
     in publications or presentations arising from this work. More details at
     http://www.quantum-espresso.org/quote

     Parallel version (MPI), running on    96 processors

     MPI processes distributed on     2 nodes
     174256 MiB available memory on the printing compute node when the environment starts
 
     Reading input from supercell-315.in

     Current dimensions of program PWSCF are:
     Max number of different atomic species (ntypx) = 10
     Max number of k-points (npk) =  40000
     Max angular momentum in pseudopotentials (lmaxx) =  4

     gamma-point specific algorithms are used
 
     K-points division:     npool     =       2
     R & G space division:  proc/nbgrp/npool/nimage =      48
     Subspace diagonalization in iterative solution of the eigenvalue problem:
     one sub-group per band group will be used
     scalapack distributed-memory algorithm (size of sub-group:  2*  2 procs)

 
     Parallelization info
     --------------------
     sticks:   dense  smooth     PW     G-vecs:    dense   smooth      PW
     Min          59      59     14                 2432     2432     302
     Max          62      62     16                 2442     2442     316
     Sum        2885    2885    725               116921   116921   14771
 
     Using Slab Decomposition
 


     bravais-lattice index     =            0
     lattice parameter (alat)  =      13.4813  a.u.
     unit-cell volume          =    2450.1683 (a.u.)^3
     number of atoms/cell      =           63
     number of atomic types    =            2
     number of electrons       =       254.00 (up: 128.00, down: 126.00)
     number of Kohn-Sham states=          152
     kinetic-energy cutoff     =      50.0000  Ry
     charge density cutoff     =     200.0000  Ry
     scf convergence threshold =      1.0E-08
     mixing beta               =       0.7000
     number of iterations used =            8  plain     mixing
     Exchange-correlation= PBE
                           (   1   4   3   4   0   0   0)

     celldm(1)=  13.481306  celldm(2)=   0.000000  celldm(3)=   0.000000
     celldm(4)=   0.000000  celldm(5)=   0.000000  celldm(6)=   0.000000

     crystal axes: (cart. coord. in units of alat)
               a(1) = (   1.000000   0.000000   0.000000 )  
               a(2) = (   0.000000   1.000000   0.000000 )  
               a(3) = (   0.000000   0.000000   1.000000 )  

     reciprocal axes: (cart. coord. in units 2 pi/alat)
               b(1) = (  1.000000  0.000000  0.000000 )  
               b(2) = (  0.000000  1.000000  0.000000 )  
               b(3) = (  0.000000  0.000000  1.000000 )  


     PseudoPot. # 1 for N  read from file:
     ./N_ONCV_PBE-1.2.upf
     MD5 check sum: 5312fdf34e96954e02a33bdc911c617a
     Pseudo is Norm-conserving, Zval =  5.0
     Generated using ONCVPSP code by D. R. Hamann
     Using radial grid of  602 points,  4 beta functions with: 
                l(1) =   0
                l(2) =   0
                l(3) =   1
                l(4) =   1

     PseudoPot. # 2 for C  read from file:
     ./C_ONCV_PBE-1.2.upf
     MD5 check sum: d60b57d9bdca4133f5fde4b584ee909d
     Pseudo is Norm-conserving, Zval =  4.0
     Generated using ONCVPSP code by D. R. Hamann
     Using radial grid of  602 points,  4 beta functions with: 
                l(1) =   0
                l(2) =   0
                l(3) =   1
                l(4) =   1

     atomic species   valence    mass     pseudopotential
     N                 5.00    14.00670     N ( 1.00)
     C                 4.00    12.01070     C ( 1.00)

     Starting magnetic structure 
     atomic species   magnetization
     N               0.000
     C               0.000

     No symmetry found


                                    s                        frac. trans.

      isym =  1     identity                                     

 cryst.   s( 1) = (     1          0          0      )
                  (     0          1          0      )
                  (     0          0          1      )

 cart.    s( 1) = (  1.0000000  0.0000000  0.0000000 )
                  (  0.0000000  1.0000000  0.0000000 )
                  (  0.0000000  0.0000000  1.0000000 )


   Cartesian axes

     site n.     atom                  positions (alat units)
         1        N      tau(   1) = (   0.9893819   0.9897344   0.9891721  )
         2        C      tau(   2) = (   0.9870277   0.2601210   0.2640728  )
         3        C      tau(   3) = (   0.1231717   0.3731672   0.3742038  )
         4        C      tau(   4) = (   0.2603919   0.9894620   0.2619202  )
         5        C      tau(   5) = (   0.3737632   0.1246771   0.3741571  )
         6        C      tau(   6) = (   0.2640151   0.2616009   0.9853609  )
         7        C      tau(   7) = (   0.3737752   0.3731213   0.1223564  )
         8        C      tau(   8) = (   0.0000049   0.0005840   0.4991361  )
         9        C      tau(   9) = (   0.1251361   0.1251278   0.6250981  )
        10        C      tau(  10) = (   0.0020393   0.2482470   0.7515266  )
        11        C      tau(  11) = (   0.1292009   0.3733021   0.8763303  )
        12        C      tau(  12) = (   0.2487801   0.0017974   0.7514403  )
        13        C      tau(  13) = (   0.3754339   0.1292460   0.8748544  )
        14        C      tau(  14) = (   0.2491579   0.2495268   0.4995755  )
        15        C      tau(  15) = (   0.3750038   0.3749547   0.6244069  )
        16        C      tau(  16) = (   0.0016366   0.4979779   0.0013734  )
        17        C      tau(  17) = (   0.1250869   0.6243147   0.1250807  )
        18        C      tau(  18) = (   0.0014462   0.7520697   0.2483230  )
        19        C      tau(  19) = (   0.1266755   0.8769178   0.3741906  )
        20        C      tau(  20) = (   0.2488290   0.4983596   0.2486760  )
        21        C      tau(  21) = (   0.3741642   0.6242659   0.3742111  )
        22        C      tau(  22) = (   0.2480673   0.7520817   0.0015447  )
        23        C      tau(  23) = (   0.3729914   0.8777475   0.1265606  )
        24        C      tau(  24) = (   0.0000493   0.5010760   0.5011299  )
        25        C      tau(  25) = (   0.1252054   0.6262200   0.6252733  )
        26        C      tau(  26) = (   0.9993969   0.7487112   0.7492532  )
        27        C      tau(  27) = (   0.1217927   0.8768349   0.8763928  )
        28        C      tau(  28) = (   0.2492749   0.5017254   0.7482724  )
        29        C      tau(  29) = (   0.3741000   0.6263042   0.8750769  )
        30        C      tau(  30) = (   0.2487293   0.7486845   0.5007616  )
        31        C      tau(  31) = (   0.3739266   0.8750581   0.6258828  )
        32        C      tau(  32) = (   0.4987543   0.0011228   0.0002828  )
        33        C      tau(  33) = (   0.6248203   0.1251003   0.1251034  )
        34        C      tau(  34) = (   0.4991217   0.2493918   0.2488717  )
        35        C      tau(  35) = (   0.6243080   0.3746888   0.3747831  )
        36        C      tau(  36) = (   0.7516460   0.0016191   0.2487956  )
        37        C      tau(  37) = (   0.8750430   0.1283649   0.3757598  )
        38        C      tau(  38) = (   0.7517475   0.2480080   0.0019610  )
        39        C      tau(  39) = (   0.8773622   0.3724247   0.1282033  )
        40        C      tau(  40) = (   0.5008161   0.9999897   0.5008301  )
        41        C      tau(  41) = (   0.6256173   0.1249721   0.6252590  )
        42        C      tau(  42) = (   0.5022259   0.2488088   0.7478265  )
        43        C      tau(  43) = (   0.6264784   0.3739683   0.8752045  )
        44        C      tau(  44) = (   0.7487945   0.9989046   0.7489691  )
        45        C      tau(  45) = (   0.8764746   0.1216998   0.8763156  )
        46        C      tau(  46) = (   0.7479635   0.2486819   0.5018806  )
        47        C      tau(  47) = (   0.8751980   0.3739245   0.6263738  )
        48        C      tau(  48) = (   0.5012000   0.5011574   0.0001136  )
        49        C      tau(  49) = (   0.6256259   0.6262099   0.1252968  )
        50        C      tau(  50) = (   0.5005188   0.7489091   0.2490095  )
        51        C      tau(  51) = (   0.6258050   0.8750157   0.3740056  )
        52        C      tau(  52) = (   0.7486304   0.5011458   0.2494302  )
        53        C      tau(  53) = (   0.8750247   0.6276104   0.3741365  )
        54        C      tau(  54) = (   0.7492281   0.7488562   0.9996087  )
        55        C      tau(  55) = (   0.8766209   0.8769033   0.1218021  )
        56        C      tau(  56) = (   0.4990819   0.4992903   0.4990317  )
        57        C      tau(  57) = (   0.6247789   0.6244471   0.6249452  )
        58        C      tau(  58) = (   0.4991767   0.7499842   0.7500845  )
        59        C      tau(  59) = (   0.6239946   0.8751464   0.8754130  )
        60        C      tau(  60) = (   0.7505316   0.4989321   0.7505826  )
        61        C      tau(  61) = (   0.8758455   0.6234984   0.8759288  )
        62        C      tau(  62) = (   0.7498244   0.7497799   0.4993198  )
        63        C      tau(  63) = (   0.8750855   0.8749084   0.6242568  )

   Crystallographic axes

     site n.     atom                  positions (cryst. coord.)
         1        N      tau(   1) = (  0.9893819  0.9897344  0.9891721  )
         2        C      tau(   2) = (  0.9870277  0.2601210  0.2640728  )
         3        C      tau(   3) = (  0.1231717  0.3731672  0.3742038  )
         4        C      tau(   4) = (  0.2603919  0.9894620  0.2619202  )
         5        C      tau(   5) = (  0.3737632  0.1246771  0.3741571  )
         6        C      tau(   6) = (  0.2640151  0.2616009  0.9853609  )
         7        C      tau(   7) = (  0.3737752  0.3731213  0.1223564  )
         8        C      tau(   8) = (  0.0000049  0.0005840  0.4991361  )
         9        C      tau(   9) = (  0.1251361  0.1251278  0.6250981  )
        10        C      tau(  10) = (  0.0020393  0.2482470  0.7515266  )
        11        C      tau(  11) = (  0.1292009  0.3733021  0.8763303  )
        12        C      tau(  12) = (  0.2487801  0.0017974  0.7514403  )
        13        C      tau(  13) = (  0.3754339  0.1292460  0.8748544  )
        14        C      tau(  14) = (  0.2491579  0.2495268  0.4995755  )
        15        C      tau(  15) = (  0.3750038  0.3749547  0.6244069  )
        16        C      tau(  16) = (  0.0016366  0.4979779  0.0013734  )
        17        C      tau(  17) = (  0.1250869  0.6243147  0.1250807  )
        18        C      tau(  18) = (  0.0014462  0.7520697  0.2483230  )
        19        C      tau(  19) = (  0.1266755  0.8769178  0.3741906  )
        20        C      tau(  20) = (  0.2488290  0.4983596  0.2486760  )
        21        C      tau(  21) = (  0.3741642  0.6242659  0.3742111  )
        22        C      tau(  22) = (  0.2480673  0.7520817  0.0015447  )
        23        C      tau(  23) = (  0.3729914  0.8777475  0.1265606  )
        24        C      tau(  24) = (  0.0000493  0.5010760  0.5011299  )
        25        C      tau(  25) = (  0.1252054  0.6262200  0.6252733  )
        26        C      tau(  26) = (  0.9993969  0.7487112  0.7492532  )
        27        C      tau(  27) = (  0.1217927  0.8768349  0.8763928  )
        28        C      tau(  28) = (  0.2492749  0.5017254  0.7482724  )
        29        C      tau(  29) = (  0.3741000  0.6263042  0.8750769  )
        30        C      tau(  30) = (  0.2487293  0.7486845  0.5007616  )
        31        C      tau(  31) = (  0.3739266  0.8750581  0.6258828  )
        32        C      tau(  32) = (  0.4987543  0.0011228  0.0002828  )
        33        C      tau(  33) = (  0.6248203  0.1251003  0.1251034  )
        34        C      tau(  34) = (  0.4991217  0.2493918  0.2488717  )
        35        C      tau(  35) = (  0.6243080  0.3746888  0.3747831  )
        36        C      tau(  36) = (  0.7516460  0.0016191  0.2487956  )
        37        C      tau(  37) = (  0.8750430  0.1283649  0.3757598  )
        38        C      tau(  38) = (  0.7517475  0.2480080  0.0019610  )
        39        C      tau(  39) = (  0.8773622  0.3724247  0.1282033  )
        40        C      tau(  40) = (  0.5008161  0.9999897  0.5008301  )
        41        C      tau(  41) = (  0.6256173  0.1249721  0.6252590  )
        42        C      tau(  42) = (  0.5022259  0.2488088  0.7478265  )
        43        C      tau(  43) = (  0.6264784  0.3739683  0.8752045  )
        44        C      tau(  44) = (  0.7487945  0.9989046  0.7489691  )
        45        C      tau(  45) = (  0.8764746  0.1216998  0.8763156  )
        46        C      tau(  46) = (  0.7479635  0.2486819  0.5018806  )
        47        C      tau(  47) = (  0.8751980  0.3739245  0.6263738  )
        48        C      tau(  48) = (  0.5012000  0.5011574  0.0001136  )
        49        C      tau(  49) = (  0.6256259  0.6262099  0.1252968  )
        50        C      tau(  50) = (  0.5005188  0.7489091  0.2490095  )
        51        C      tau(  51) = (  0.6258050  0.8750157  0.3740056  )
        52        C      tau(  52) = (  0.7486304  0.5011458  0.2494302  )
        53        C      tau(  53) = (  0.8750247  0.6276104  0.3741365  )
        54        C      tau(  54) = (  0.7492281  0.7488562  0.9996087  )
        55        C      tau(  55) = (  0.8766209  0.8769033  0.1218021  )
        56        C      tau(  56) = (  0.4990819  0.4992903  0.4990317  )
        57        C      tau(  57) = (  0.6247789  0.6244471  0.6249452  )
        58        C      tau(  58) = (  0.4991767  0.7499842  0.7500845  )
        59        C      tau(  59) = (  0.6239946  0.8751464  0.8754130  )
        60        C      tau(  60) = (  0.7505316  0.4989321  0.7505826  )
        61        C      tau(  61) = (  0.8758455  0.6234984  0.8759288  )
        62        C      tau(  62) = (  0.7498244  0.7497799  0.4993198  )
        63        C      tau(  63) = (  0.8750855  0.8749084  0.6242568  )

     number of k points=     1
                       cart. coord. in units 2pi/alat
        k(    1) = (   0.0000000   0.0000000   0.0000000), wk =   1.0000000

                       cryst. coord.
        k(    1) = (   0.0000000   0.0000000   0.0000000), wk =   1.0000000

     Dense  grid:    58461 G-vectors     FFT dimensions: (  64,  64,  64)

     Dynamical RAM for                 wfc:       0.35 MB

     Dynamical RAM for     wfc (w. buffer):       0.35 MB

     Dynamical RAM for           str. fact:       0.04 MB

     Dynamical RAM for           local pot:       0.00 MB

     Dynamical RAM for          nlocal pot:       1.17 MB

     Dynamical RAM for                qrad:       0.65 MB

     Dynamical RAM for          rho,v,vnew:       0.49 MB

     Dynamical RAM for               rhoin:       0.16 MB

     Dynamical RAM for            rho*nmix:       0.60 MB

     Dynamical RAM for           G-vectors:       0.08 MB

     Dynamical RAM for          h,s,v(r/c):       0.53 MB

     Dynamical RAM for          <psi|beta>:       0.58 MB

     Dynamical RAM for                 psi:       0.71 MB

     Dynamical RAM for                hpsi:       0.71 MB

     Dynamical RAM for      wfcinit/wfcrot:       1.24 MB

     Estimated static dynamical RAM per process >       3.37 MB

     Estimated max dynamical RAM per process >       6.49 MB

     Estimated total dynamical RAM >     594.05 MB
     Generating pointlists ...
     new r_m :   0.0854 (alat units)  1.1518 (a.u.) for type    1
     new r_m :   0.0847 (alat units)  1.1416 (a.u.) for type    2

     Initial potential from superposition of free atoms

     starting charge     252.5655, renormalised to     254.0000
     Starting wfcs are random

     total cpu time spent up to now is        1.5 secs

     Self-consistent Calculation

     iteration #  1     ecut=    50.00 Ry     beta= 0.70
     Davidson diagonalization with overlap

---- Real-time Memory Report at c_bands before calling an iterative solver
           158 MiB given to the printing process from OS
             0 MiB allocation reported by mallinfo(arena+hblkhd)
        173286 MiB available memory on the node where the printing process lives
------------------
     ethr =  1.00E-02,  avg # of iterations = 12.0

     total cpu time spent up to now is        2.2 secs

     total energy              =    -723.26749913 Ry
     estimated scf accuracy    <       3.70802328 Ry

     total magnetization       =     2.00 Bohr mag/cell
     absolute magnetization    =     2.00 Bohr mag/cell

     iteration #  2     ecut=    50.00 Ry     beta= 0.70
     Davidson diagonalization with overlap

---- Real-time Memory Report at c_bands before calling an iterative solver
           163 MiB given to the printing process from OS
             0 MiB allocation reported by mallinfo(arena+hblkhd)
        173228 MiB available memory on the node where the printing process lives
------------------
     ethr =  1.46E-03,  avg # of iterations = 13.0

     total cpu time spent up to now is        2.6 secs

     total energy              =    -723.66083749 Ry
     estimated scf accuracy    <       0.45753037 Ry

     total magnetization       =     2.00 Bohr mag/cell
     absolute magnetization    =     2.07 Bohr mag/cell

     iteration #  3     ecut=    50.00 Ry     beta= 0.70
     Davidson diagonalization with overlap

---- Real-time Memory Report at c_bands before calling an iterative solver
           164 MiB given to the printing process from OS
             0 MiB allocation reported by mallinfo(arena+hblkhd)
        173233 MiB available memory on the node where the printing process lives
------------------
     c_bands:  2 eigenvalues not converged
     ethr =  1.80E-04,  avg # of iterations = 20.0

     total cpu time spent up to now is        3.2 secs

     total energy              =    -723.72630261 Ry
     estimated scf accuracy    <       0.86836509 Ry

     total magnetization       =     2.00 Bohr mag/cell
     absolute magnetization    =     2.12 Bohr mag/cell

     iteration #  4     ecut=    50.00 Ry     beta= 0.70
     Davidson diagonalization with overlap

---- Real-time Memory Report at c_bands before calling an iterative solver
           165 MiB given to the printing process from OS
             0 MiB allocation reported by mallinfo(arena+hblkhd)
        173230 MiB available memory on the node where the printing process lives
------------------
     c_bands:  1 eigenvalues not converged
     ethr =  1.80E-04,  avg # of iterations = 20.0

     total cpu time spent up to now is        3.6 secs

     total energy              =    -723.90109182 Ry
     estimated scf accuracy    <       0.00980068 Ry

     total magnetization       =     2.00 Bohr mag/cell
     absolute magnetization    =     2.19 Bohr mag/cell

     iteration #  5     ecut=    50.00 Ry     beta= 0.70
     Davidson diagonalization with overlap

---- Real-time Memory Report at c_bands before calling an iterative solver
           165 MiB given to the printing process from OS
             0 MiB allocation reported by mallinfo(arena+hblkhd)
        173225 MiB available memory on the node where the printing process lives
------------------
     c_bands:  3 eigenvalues not converged
     ethr =  3.86E-06,  avg # of iterations = 20.0

     total cpu time spent up to now is        4.4 secs

     total energy              =    -723.90600177 Ry
     estimated scf accuracy    <       0.00408714 Ry

     total magnetization       =     2.00 Bohr mag/cell
     absolute magnetization    =     2.23 Bohr mag/cell

     iteration #  6     ecut=    50.00 Ry     beta= 0.70
     Davidson diagonalization with overlap

---- Real-time Memory Report at c_bands before calling an iterative solver
           165 MiB given to the printing process from OS
             0 MiB allocation reported by mallinfo(arena+hblkhd)
        173221 MiB available memory on the node where the printing process lives
------------------
     c_bands:  3 eigenvalues not converged
     ethr =  1.61E-06,  avg # of iterations = 20.0

     total cpu time spent up to now is        5.0 secs

     total energy              =    -723.90674774 Ry
     estimated scf accuracy    <       0.00087666 Ry

     total magnetization       =     2.00 Bohr mag/cell
     absolute magnetization    =     2.25 Bohr mag/cell

     iteration #  7     ecut=    50.00 Ry     beta= 0.70
     Davidson diagonalization with overlap

---- Real-time Memory Report at c_bands before calling an iterative solver
           165 MiB given to the printing process from OS
             0 MiB allocation reported by mallinfo(arena+hblkhd)
        173227 MiB available memory on the node where the printing process lives
------------------
     ethr =  3.45E-07,  avg # of iterations = 19.5

     total cpu time spent up to now is        5.4 secs

     total energy              =    -723.90697388 Ry
     estimated scf accuracy    <       0.00012321 Ry

     total magnetization       =     2.00 Bohr mag/cell
     absolute magnetization    =     2.27 Bohr mag/cell

     iteration #  8     ecut=    50.00 Ry     beta= 0.70
     Davidson diagonalization with overlap

---- Real-time Memory Report at c_bands before calling an iterative solver
           165 MiB given to the printing process from OS
             0 MiB allocation reported by mallinfo(arena+hblkhd)
        173215 MiB available memory on the node where the printing process lives
------------------
     c_bands:  2 eigenvalues not converged
     ethr =  4.85E-08,  avg # of iterations = 20.0

     total cpu time spent up to now is        5.9 secs

     total energy              =    -723.90701486 Ry
     estimated scf accuracy    <       0.00002813 Ry

     total magnetization       =     2.00 Bohr mag/cell
     absolute magnetization    =     2.28 Bohr mag/cell

     iteration #  9     ecut=    50.00 Ry     beta= 0.70
     Davidson diagonalization with overlap

---- Real-time Memory Report at c_bands before calling an iterative solver
           165 MiB given to the printing process from OS
             0 MiB allocation reported by mallinfo(arena+hblkhd)
        173222 MiB available memory on the node where the printing process lives
------------------
     c_bands:  2 eigenvalues not converged
     ethr =  1.11E-08,  avg # of iterations = 20.0

     total cpu time spent up to now is        6.5 secs

     total energy              =    -723.90702510 Ry
     estimated scf accuracy    <       0.00000758 Ry

     total magnetization       =     2.00 Bohr mag/cell
     absolute magnetization    =     2.29 Bohr mag/cell

     iteration # 10     ecut=    50.00 Ry     beta= 0.70
     Davidson diagonalization with overlap

---- Real-time Memory Report at c_bands before calling an iterative solver
           165 MiB given to the printing process from OS
             0 MiB allocation reported by mallinfo(arena+hblkhd)
        173211 MiB available memory on the node where the printing process lives
------------------
     c_bands:  2 eigenvalues not converged
     ethr =  2.98E-09,  avg # of iterations = 20.0

     total cpu time spent up to now is        7.1 secs

     total energy              =    -723.90702859 Ry
     estimated scf accuracy    <       0.00000083 Ry

     total magnetization       =     2.00 Bohr mag/cell
     absolute magnetization    =     2.29 Bohr mag/cell

     iteration # 11     ecut=    50.00 Ry     beta= 0.70
     Davidson diagonalization with overlap

---- Real-time Memory Report at c_bands before calling an iterative solver
           166 MiB given to the printing process from OS
             0 MiB allocation reported by mallinfo(arena+hblkhd)
        173226 MiB available memory on the node where the printing process lives
------------------
     c_bands:  1 eigenvalues not converged
     ethr =  3.26E-10,  avg # of iterations = 20.0

     total cpu time spent up to now is        7.7 secs

     total energy              =    -723.90702923 Ry
     estimated scf accuracy    <       0.00000024 Ry

     total magnetization       =     2.00 Bohr mag/cell
     absolute magnetization    =     2.30 Bohr mag/cell

     iteration # 12     ecut=    50.00 Ry     beta= 0.70
     Davidson diagonalization with overlap

---- Real-time Memory Report at c_bands before calling an iterative solver
           166 MiB given to the printing process from OS
             0 MiB allocation reported by mallinfo(arena+hblkhd)
        173222 MiB available memory on the node where the printing process lives
------------------
     ethr =  9.27E-11,  avg # of iterations = 15.5

     total cpu time spent up to now is        9.4 secs

     total energy              =    -723.90702935 Ry
     estimated scf accuracy    <       0.00000009 Ry

     total magnetization       =     2.00 Bohr mag/cell
     absolute magnetization    =     2.30 Bohr mag/cell

     iteration # 13     ecut=    50.00 Ry     beta= 0.70
     Davidson diagonalization with overlap

---- Real-time Memory Report at c_bands before calling an iterative solver
           166 MiB given to the printing process from OS
             0 MiB allocation reported by mallinfo(arena+hblkhd)
        173229 MiB available memory on the node where the printing process lives
------------------
     ethr =  3.53E-11,  avg # of iterations = 16.5

     total cpu time spent up to now is       10.5 secs

     total energy              =    -723.90702939 Ry
     estimated scf accuracy    <       0.00000003 Ry

     total magnetization       =     2.00 Bohr mag/cell
     absolute magnetization    =     2.30 Bohr mag/cell

     iteration # 14     ecut=    50.00 Ry     beta= 0.70
     Davidson diagonalization with overlap

---- Real-time Memory Report at c_bands before calling an iterative solver
           166 MiB given to the printing process from OS
             0 MiB allocation reported by mallinfo(arena+hblkhd)
        173228 MiB available memory on the node where the printing process lives
------------------
     c_bands:  1 eigenvalues not converged
     ethr =  1.07E-11,  avg # of iterations = 18.5
 
     Magnetic moment per site  (integrated on atomic sphere of radius R)
     atom   1 (R=0.085)  charge=  2.9143  magn=  0.0042
     atom   2 (R=0.085)  charge=  1.8170  magn=  0.2450
     atom   3 (R=0.085)  charge=  1.7929  magn= -0.0087
     atom   4 (R=0.085)  charge=  1.8051  magn=  0.2455
     atom   5 (R=0.085)  charge=  1.7932  magn= -0.0087
     atom   6 (R=0.085)  charge=  1.8232  magn=  0.2449
     atom   7 (R=0.085)  charge=  1.7933  magn= -0.0087
     atom   8 (R=0.085)  charge=  1.7860  magn=  0.0091
     atom   9 (R=0.085)  charge=  1.7963  magn= -0.0019
     atom  10 (R=0.085)  charge=  1.7834  magn=  0.0060
     atom  11 (R=0.085)  charge=  1.7969  magn= -0.0042
     atom  12 (R=0.085)  charge=  1.7823  magn=  0.0061
     atom  13 (R=0.085)  charge=  1.8040  magn= -0.0039
     atom  14 (R=0.085)  charge=  1.7892  magn=  0.0085
     atom  15 (R=0.085)  charge=  1.7873  magn= -0.0020
     atom  16 (R=0.085)  charge=  1.7820  magn=  0.0089
     atom  17 (R=0.085)  charge=  1.7955  magn= -0.0018
     atom  18 (R=0.085)  charge=  1.7840  magn=  0.0057
     atom  19 (R=0.085)  charge=  1.7954  magn= -0.0035
     atom  20 (R=0.085)  charge=  1.7834  magn=  0.0083
     atom  21 (R=0.085)  charge=  1.7847  magn= -0.0020
     atom  22 (R=0.085)  charge=  1.7829  magn=  0.0057
     atom  23 (R=0.085)  charge=  1.7905  magn= -0.0037
     atom  24 (R=0.085)  charge=  1.7807  magn=  0.0182
     atom  25 (R=0.085)  charge=  1.8068  magn=  0.0094
     atom  26 (R=0.085)  charge=  1.7935  magn=  0.0032
     atom  27 (R=0.085)  charge=  1.7589  magn=  0.0001
     atom  28 (R=0.085)  charge=  1.7896  magn=  0.0221
     atom  29 (R=0.085)  charge=  1.7824  magn= -0.0014
     atom  30 (R=0.085)  charge=  1.7901  magn=  0.0211
     atom  31 (R=0.085)  charge=  1.7823  magn= -0.0013
     atom  32 (R=0.085)  charge=  1.7844  magn=  0.0090
     atom  33 (R=0.085)  charge=  1.7960  magn= -0.0019
     atom  34 (R=0.085)  charge=  1.7868  magn=  0.0085
     atom  35 (R=0.085)  charge=  1.7864  magn= -0.0020
     atom  36 (R=0.085)  charge=  1.7818  magn=  0.0059
     atom  37 (R=0.085)  charge=  1.8033  magn= -0.0036
     atom  38 (R=0.085)  charge=  1.7836  magn=  0.0058
     atom  39 (R=0.085)  charge=  1.7913  magn= -0.0041
     atom  40 (R=0.085)  charge=  1.7836  magn=  0.0181
     atom  41 (R=0.085)  charge=  1.8109  magn=  0.0094
     atom  42 (R=0.085)  charge=  1.7948  magn=  0.0218
     atom  43 (R=0.085)  charge=  1.7819  magn= -0.0013
     atom  44 (R=0.085)  charge=  1.7937  magn=  0.0032
     atom  45 (R=0.085)  charge=  1.7589  magn= -0.0000
     atom  46 (R=0.085)  charge=  1.7948  magn=  0.0215
     atom  47 (R=0.085)  charge=  1.7818  magn= -0.0013
     atom  48 (R=0.085)  charge=  1.7820  magn=  0.0184
     atom  49 (R=0.085)  charge=  1.8043  magn=  0.0094
     atom  50 (R=0.085)  charge=  1.7873  magn=  0.0212
     atom  51 (R=0.085)  charge=  1.7826  magn= -0.0013
     atom  52 (R=0.085)  charge=  1.7850  magn=  0.0218
     atom  53 (R=0.085)  charge=  1.7819  magn= -0.0013
     atom  54 (R=0.085)  charge=  1.7935  magn=  0.0032
     atom  55 (R=0.085)  charge=  1.7589  magn=  0.0001
     atom  56 (R=0.085)  charge=  1.7914  magn=  0.0009
     atom  57 (R=0.085)  charge=  1.7831  magn=  0.0010
     atom  58 (R=0.085)  charge=  1.7913  magn=  0.0018
     atom  59 (R=0.085)  charge=  1.7879  magn= -0.0009
     atom  60 (R=0.085)  charge=  1.7911  magn=  0.0017
     atom  61 (R=0.085)  charge=  1.7854  magn= -0.0009
     atom  62 (R=0.085)  charge=  1.7932  magn=  0.0018
     atom  63 (R=0.085)  charge=  1.7892  magn= -0.0009

     total cpu time spent up to now is       11.3 secs

     End of self-consistent calculation

 ------ SPIN UP ------------


          k = 0.0000 0.0000 0.0000 (  7386 PWs)   bands (ev):

    -8.5510  -6.9218  -6.2872  -6.2699  -6.1954  -6.1551  -5.8826  -4.9118
    -4.1438  -4.1353  -4.1244  -4.0930  -4.0321  -4.0187  -4.0093  -3.9184
    -3.8709  -3.8599  -3.3604  -2.9287  -2.6768  -2.6745  -2.1626  -0.3618
    -0.3541  -0.3294  -0.2816  -0.0768   0.1710   0.1922   0.2790   0.2985
     0.3683   0.6195   0.8355   0.8442   0.9487   0.9733   0.9875   1.0571
     1.0624   1.0689   1.2668   1.2944   3.0702   3.9081   3.9269   4.0680
     4.1881   4.2073   4.2234   4.2732   4.2827   4.2885   4.4205   4.4262
     4.4942   4.4981   4.5671   4.6600   4.6848   4.6904   4.6923   4.7864
     4.7968   4.9201   4.9642   4.9700   5.0497   5.1984   5.2087   5.2993
     5.3576   5.3754   5.3968   5.4039   5.4121   6.0419   6.0484   6.1017
     6.6608   6.6681   6.7244   6.9903   7.0041   7.0402   7.5212   8.3321
     8.3364   8.4109   8.4642   8.4946   8.6847   8.7143   8.7891   8.8291
     8.8454   8.8555   8.8910   8.9013   8.9029   9.2844   9.2871   9.3237
     9.6841   9.7037   9.9014   9.9075   9.9434   9.9600   9.9620   9.9740
     9.9906  10.0272  10.0366  10.0646  10.1250  10.1396  10.2670  10.3253
    10.3354  11.0531  12.2891  12.4143  12.4338  13.9572  14.6908  14.7996
    17.3412  17.3706  17.4113  17.5228  17.5751  17.5823  17.8516  17.9237
    17.9367  18.0327  18.0725  18.3712  18.9946  19.0019  19.0229  20.6953
    20.7878  20.8245  20.8736  20.9409  20.9479  21.0284  21.0317  21.0490

     occupation numbers 
     1.0000   1.0000   1.0000   1.0000   1.0000   1.0000   1.0000   1.0000
     1.0000   1.0000   1.0000   1.0000   1.0000   1.0000   1.0000   1.0000
     1.0000   1.0000   1.0000   1.0000   1.0000   1.0000   1.0000   1.0000
     1.0000   1.0000   1.0000   1.0000   1.0000   1.0000   1.0000   1.0000
     1.0000   1.0000   1.0000   1.0000   1.0000   1.0000   1.0000   1.0000
     1.0000   1.0000   1.0000   1.0000   1.0000   1.0000   1.0000   1.0000
     1.0000   1.0000   1.0000   1.0000   1.0000   1.0000   1.0000   1.0000
     1.0000   1.0000   1.0000   1.0000   1.0000   1.0000   1.0000   1.0000
     1.0000   1.0000   1.0000   1.0000   1.0000   1.0000   1.0000   1.0000
     1.0000   1.0000   1.0000   1.0000   1.0000   1.0000   1.0000   1.0000
     1.0000   1.0000   1.0000   1.0000   1.0000   1.0000   1.0000   1.0000
     1.0000   1.0000   1.0000   1.0000   1.0000   1.0000   1.0000   1.0000
     1.0000   1.0000   1.0000   1.0000   1.0000   1.0000   1.0000   1.0000
     1.0000   1.0000   1.0000   1.0000   1.0000   1.0000   1.0000   1.0000
     1.0000   1.0000   1.0000   1.0000   1.0000   1.0000   1.0000   1.0000
     1.0000   1.0000   1.0000   1.0000   1.0000   1.0000   1.0000   1.0000
     0.0000   0.0000   0.0000   0.0000   0.0000   0.0000   0.0000   0.0000
     0.0000   0.0000   0.0000   0.0000   0.0000   0.0000   0.0000   0.0000
     0.0000   0.0000   0.0000   0.0000   0.0000   0.0000   0.0000   0.0000

 ------ SPIN DOWN ----------


          k = 0.0000 0.0000 0.0000 (  7386 PWs)   bands (ev):

    -8.5256  -6.9074  -6.2649  -6.2465  -6.1511  -6.1130  -5.8455  -4.8951
    -4.1233  -4.1054  -4.0896  -4.0610  -3.9968  -3.9814  -3.9602  -3.9061
    -3.8366  -3.8199  -3.3181  -2.9101  -2.6240  -2.6210  -2.0176  -0.3443
    -0.3361  -0.3079  -0.2646  -0.0112   0.1900   0.2097   0.3163   0.3315
     0.3934   0.6541   0.8479   0.8559   0.9828   1.0031   1.0125   1.0737
     1.0789   1.0859   1.4324   1.4643   3.1841   3.9313   3.9491   4.0940
     4.2227   4.2497   4.2655   4.2879   4.3023   4.3142   4.4671   4.4714
     4.5168   4.5206   4.5912   4.6843   4.7037   4.7071   4.7130   4.8206
     4.8334   4.9332   4.9970   5.0011   5.1311   5.2321   5.2439   5.3230
     5.3722   5.3865   5.4213   5.4543   5.4705   6.1042   6.1078   6.1397
     6.6873   6.6954   6.7587   7.0760   7.0880   7.1003   7.6915   8.3708
     8.3763   8.4479   8.4997   8.5289   8.7188   8.7454   8.8256   8.8747
     8.8838   8.8882   8.9229   8.9313   8.9330   9.3209   9.3235   9.3510
     9.7119   9.7310   9.9278   9.9397   9.9554   9.9732   9.9760   9.9941
    10.0112  10.0605  10.0724  10.0828  10.1527  10.1657  10.3248  10.3795
    10.3899  11.4333  12.5552  12.5665  12.6066  14.4395  16.0168  16.1401
    17.3658  17.3880  17.4282  17.5501  17.6307  17.6396  17.8744  17.9432
    17.9549  18.0728  18.1129  18.4914  19.0428  19.0803  19.1102  20.7456
    20.8020  20.8386  20.8884  20.9584  20.9648  21.0420  21.0593  21.0696

     occupation numbers 
     1.0000   1.0000   1.0000   1.0000   1.0000   1.0000   1.0000   1.0000
     1.0000   1.0000   1.0000   1.0000   1.0000   1.0000   1.0000   1.0000
     1.0000   1.0000   1.0000   1.0000   1.0000   1.0000   1.0000   1.0000
     1.0000   1.0000   1.0000   1.0000   1.0000   1.0000   1.0000   1.0000
     1.0000   1.0000   1.0000   1.0000   1.0000   1.0000   1.0000   1.0000
     1.0000   1.0000   1.0000   1.0000   1.0000   1.0000   1.0000   1.0000
     1.0000   1.0000   1.0000   1.0000   1.0000   1.0000   1.0000   1.0000
     1.0000   1.0000   1.0000   1.0000   1.0000   1.0000   1.0000   1.0000
     1.0000   1.0000   1.0000   1.0000   1.0000   1.0000   1.0000   1.0000
     1.0000   1.0000   1.0000   1.0000   1.0000   1.0000   1.0000   1.0000
     1.0000   1.0000   1.0000   1.0000   1.0000   1.0000   1.0000   1.0000
     1.0000   1.0000   1.0000   1.0000   1.0000   1.0000   1.0000   1.0000
     1.0000   1.0000   1.0000   1.0000   1.0000   1.0000   1.0000   1.0000
     1.0000   1.0000   1.0000   1.0000   1.0000   1.0000   1.0000   1.0000
     1.0000   1.0000   1.0000   1.0000   1.0000   1.0000   1.0000   1.0000
     1.0000   1.0000   1.0000   1.0000   1.0000   1.0000   0.0000   0.0000
     0.0000   0.0000   0.0000   0.0000   0.0000   0.0000   0.0000   0.0000
     0.0000   0.0000   0.0000   0.0000   0.0000   0.0000   0.0000   0.0000
     0.0000   0.0000   0.0000   0.0000   0.0000   0.0000   0.0000   0.0000

     highest occupied, lowest unoccupied level (ev):    14.7996   16.0168

!    total energy              =    -723.90702940 Ry
     estimated scf accuracy    <          5.4E-09 Ry

     The total energy is the sum of the following terms:
     one-electron contribution =     232.28341366 Ry
     hartree contribution      =      70.33632472 Ry
     xc contribution           =    -226.77204405 Ry
     ewald contribution        =    -799.75472373 Ry

     total magnetization       =     2.00 Bohr mag/cell
     absolute magnetization    =     2.30 Bohr mag/cell

     convergence has been achieved in  14 iterations

     Forces acting on atoms (cartesian axes, Ry/au):

     atom    1 type  1   force =    -0.00285837   -0.00382537   -0.00262983
     atom    2 type  2   force =     0.03517666    0.01584065   -0.01261690
     atom    3 type  2   force =    -0.00984546    0.00928146    0.00597085
     atom    4 type  2   force =     0.00886663    0.02488802   -0.00272418
     atom    5 type  2   force =     0.00232060   -0.02121492    0.00162625
     atom    6 type  2   force =    -0.00838529    0.00827028    0.04337482
     atom    7 type  2   force =     0.01026251    0.01204920   -0.00214638
     atom    8 type  2   force =     0.00297412    0.00428216    0.00650697
     atom    9 type  2   force =    -0.00209704   -0.00478435   -0.00296856
     atom   10 type  2   force =     0.00095256    0.00139620    0.00736125
     atom   11 type  2   force =    -0.02863596    0.00595581   -0.00881886
     atom   12 type  2   force =    -0.00003981    0.00387233    0.00339609
     atom   13 type  2   force =    -0.00282832   -0.03987905   -0.00184657
     atom   14 type  2   force =     0.00337804    0.00221037   -0.00431232
     atom   15 type  2   force =    -0.00280099   -0.00130946   -0.00565828
     atom   16 type  2   force =     0.00016397   -0.00109300   -0.00105711
     atom   17 type  2   force =    -0.00173808    0.00580397    0.00055659
     atom   18 type  2   force =     0.00361031    0.00355674    0.00021534
     atom   19 type  2   force =    -0.00854061   -0.00257320   -0.00558575
     atom   20 type  2   force =     0.00301635   -0.00442697    0.00353864
     atom   21 type  2   force =    -0.00113222   -0.00404681   -0.00211715
     atom   22 type  2   force =     0.00136436    0.00225352    0.00134312
     atom   23 type  2   force =    -0.00059373   -0.00708818   -0.00163329
     atom   24 type  2   force =     0.00899770    0.00920187    0.00350941
     atom   25 type  2   force =    -0.01199395   -0.01442758   -0.00369748
     atom   26 type  2   force =     0.01489111    0.00604803    0.00162688
     atom   27 type  2   force =    -0.02571837   -0.00857206   -0.00646908
     atom   28 type  2   force =     0.01061087    0.00084479    0.00596473
     atom   29 type  2   force =    -0.00014152   -0.00182440   -0.00128887
     atom   30 type  2   force =     0.00764834    0.00645092    0.00411968
     atom   31 type  2   force =     0.00103938   -0.00156828   -0.00354731
     atom   32 type  2   force =     0.00318082    0.00385693    0.00138811
     atom   33 type  2   force =     0.00053343   -0.00444555   -0.00017669
     atom   34 type  2   force =    -0.00465468    0.00176010    0.00349905
     atom   35 type  2   force =    -0.00437748   -0.00031091   -0.00298968
     atom   36 type  2   force =     0.00065499    0.00432684   -0.00009474
     atom   37 type  2   force =     0.00068041   -0.03259203   -0.00714301
     atom   38 type  2   force =     0.00692879    0.00180050   -0.00024546
     atom   39 type  2   force =    -0.00985825    0.00675157   -0.01316569
     atom   40 type  2   force =     0.00530033    0.01271102    0.00487949
     atom   41 type  2   force =    -0.00737826   -0.01549134   -0.00369936
     atom   42 type  2   force =    -0.00007754    0.01739851    0.00599868
     atom   43 type  2   force =    -0.00093178    0.00078292   -0.00102638
     atom   44 type  2   force =     0.00470266    0.01717538    0.00306815
     atom   45 type  2   force =    -0.00742781   -0.02650823   -0.00663511
     atom   46 type  2   force =     0.00643477    0.01605334    0.00117850
     atom   47 type  2   force =    -0.00154987    0.00183804   -0.00244383
     atom   48 type  2   force =     0.00479592    0.00573343    0.00769667
     atom   49 type  2   force =    -0.00832832   -0.01468749   -0.01051274
     atom   50 type  2   force =     0.00432156    0.00657540    0.00344220
     atom   51 type  2   force =    -0.00462155   -0.00120255    0.00062440
     atom   52 type  2   force =     0.00729838    0.00593903    0.00567076
     atom   53 type  2   force =    -0.00141923   -0.02163901   -0.00035754
     atom   54 type  2   force =     0.00258279    0.00534131    0.01401487
     atom   55 type  2   force =    -0.00675685   -0.00796070   -0.02551136
     atom   56 type  2   force =     0.00472558    0.00455065    0.00470643
     atom   57 type  2   force =    -0.00138379   -0.00125659   -0.00261664
     atom   58 type  2   force =     0.00156241    0.00420105    0.00322320
     atom   59 type  2   force =    -0.00120087   -0.00265278   -0.00372986
     atom   60 type  2   force =     0.00263372    0.00189883    0.00236492
     atom   61 type  2   force =    -0.00338246   -0.00178719   -0.00382741
     atom   62 type  2   force =     0.00301791    0.00861581    0.00218458
     atom   63 type  2   force =    -0.00392949   -0.00234901    0.00024277
     The non-local contrib.  to forces
     atom    1 type  1   force =    -0.76080553   -0.76419843   -0.75908645
     atom    2 type  2   force =    -0.16473370    0.22033710    0.17811288
     atom    3 type  2   force =     0.05619757    0.08176307    0.07247065
     atom    4 type  2   force =     0.21535052   -0.18826549    0.19777140
     atom    5 type  2   force =     0.07297768    0.04286509    0.07019511
     atom    6 type  2   force =     0.17945753    0.20426225   -0.14639792
     atom    7 type  2   force =     0.07726967    0.08310093    0.06437077
     atom    8 type  2   force =    -0.00448361   -0.00474760    0.05668081
     atom    9 type  2   force =    -0.00561542   -0.00791655    0.01315408
     atom   10 type  2   force =    -0.04443723   -0.01396510   -0.01187045
     atom   11 type  2   force =    -0.10400948    0.06759556   -0.08310484
     atom   12 type  2   force =    -0.01735230   -0.04103667   -0.01459417
     atom   13 type  2   force =     0.05210385   -0.11651470   -0.07335339
     atom   14 type  2   force =     0.00241565    0.00065757    0.04559301
     atom   15 type  2   force =     0.01013713    0.00900399   -0.00384216
     atom   16 type  2   force =    -0.01229107    0.04887176   -0.01310011
     atom   17 type  2   force =    -0.00560888    0.02764475   -0.00224280
     atom   18 type  2   force =    -0.04043501   -0.01858305   -0.01600891
     atom   19 type  2   force =    -0.08062627   -0.07840614    0.05512662
     atom   20 type  2   force =     0.00439276    0.04495420    0.00489690
     atom   21 type  2   force =     0.01074595   -0.00324264    0.01120610
     atom   22 type  2   force =    -0.01498927   -0.02052434   -0.04205373
     atom   23 type  2   force =     0.06338220   -0.08457737   -0.07280802
     atom   24 type  2   force =    -0.06534275    0.03678745    0.03334381
     atom   25 type  2   force =    -0.02339104    0.00071721    0.01490940
     atom   26 type  2   force =    -0.04202478   -0.02057253   -0.02344763
     atom   27 type  2   force =    -0.14703784    0.12515880    0.12348949
     atom   28 type  2   force =     0.08052580    0.02324027   -0.01218293
     atom   29 type  2   force =     0.00062392    0.01885389    0.00496336
     atom   30 type  2   force =     0.07673799   -0.01303436    0.02871852
     atom   31 type  2   force =     0.00333198    0.00321499    0.01672763
     atom   32 type  2   force =     0.05285879   -0.00661986   -0.00719579
     atom   33 type  2   force =     0.01822138   -0.00743248   -0.00371317
     atom   34 type  2   force =     0.04501191    0.00125265    0.00382702
     atom   35 type  2   force =    -0.00309111    0.00949655    0.01043820
     atom   36 type  2   force =    -0.01834840   -0.04048557   -0.01785550
     atom   37 type  2   force =    -0.07171326   -0.10874833    0.04776165
     atom   38 type  2   force =    -0.01362025   -0.01332735   -0.04500953
     atom   39 type  2   force =    -0.08675539    0.07201311   -0.08698419
     atom   40 type  2   force =     0.03471675   -0.05833313    0.03553848
     atom   41 type  2   force =     0.00893649   -0.02638445    0.01415455
     atom   42 type  2   force =     0.02095939    0.08884403   -0.00975771
     atom   43 type  2   force =     0.01724178    0.00018345    0.00381904
     atom   44 type  2   force =    -0.02269751   -0.03681410   -0.02318854
     atom   45 type  2   force =     0.12493869   -0.14736089    0.12428994
     atom   46 type  2   force =    -0.00989204    0.08686970    0.02318330
     atom   47 type  2   force =     0.00323331    0.00181591    0.01573561
     atom   48 type  2   force =     0.03308929    0.03281464   -0.06882211
     atom   49 type  2   force =     0.00744069    0.00040786   -0.02397323
     atom   50 type  2   force =     0.02960130   -0.01445130    0.07160947
     atom   51 type  2   force =     0.01647202    0.00434838    0.00330410
     atom   52 type  2   force =    -0.01326038    0.03014372    0.07375504
     atom   53 type  2   force =     0.00505029   -0.00493549    0.00193014
     atom   54 type  2   force =    -0.02242547   -0.02042520   -0.04396933
     atom   55 type  2   force =     0.12322369    0.12517427   -0.14699539
     atom   56 type  2   force =     0.02293832    0.02423496    0.02222536
     atom   57 type  2   force =     0.00622322    0.00541158    0.00429206
     atom   58 type  2   force =     0.01664271   -0.00666695   -0.01049956
     atom   59 type  2   force =     0.00779949   -0.01432628   -0.01552437
     atom   60 type  2   force =    -0.01046583    0.01842228   -0.01159098
     atom   61 type  2   force =    -0.01492097    0.00870110   -0.01542207
     atom   62 type  2   force =    -0.00914095   -0.00220511    0.01599983
     atom   63 type  2   force =    -0.01576836   -0.01438122    0.00900355
     The ionic contribution  to forces
     atom    1 type  1   force =     2.98414652    2.95655247    2.99617094
     atom    2 type  2   force =     2.40965254   -2.05104645   -2.21268899
     atom    3 type  2   force =     0.47262198   -0.72564867   -0.85247238
     atom    4 type  2   force =    -2.08885817    2.33559943   -2.15796781
     atom    5 type  2   force =    -0.77873619    0.40324866   -0.82620879
     atom    6 type  2   force =    -2.18695080   -2.09725562    2.46035460
     atom    7 type  2   force =    -0.82407393   -0.74886780    0.53774229
     atom    8 type  2   force =     0.25928980    0.22264493   -0.72458453
     atom    9 type  2   force =     0.06594976    0.02948112   -0.22421279
     atom   10 type  2   force =     0.17947361    0.07325922    0.56450227
     atom   11 type  2   force =    -0.52863709   -0.62710712    0.80326729
     atom   12 type  2   force =     0.02886544    0.16159611    0.55094605
     atom   13 type  2   force =    -0.66308346   -0.56525870    0.76122369
     atom   14 type  2   force =    -0.19541215   -0.17786234   -0.71535778
     atom   15 type  2   force =    -0.16883893   -0.13047312   -0.06887861
     atom   16 type  2   force =     0.19909480   -0.77700143    0.22791427
     atom   17 type  2   force =     0.07122763   -0.16146458    0.09383850
     atom   18 type  2   force =     0.24812690    0.46993522   -0.02269676
     atom   19 type  2   force =    -0.35375855    0.75253143   -0.70679421
     atom   20 type  2   force =    -0.18340729   -0.73250829   -0.18938013
     atom   21 type  2   force =    -0.17447379   -0.06072597   -0.20024431
     atom   22 type  2   force =     0.02816595    0.47724828    0.23667921
     atom   23 type  2   force =    -0.68850271    0.77843660   -0.33228850
     atom   24 type  2   force =     0.08124734   -0.13549321   -0.19583335
     atom   25 type  2   force =    -0.02572399   -0.08463765   -0.07039307
     atom   26 type  2   force =     0.13116583   -0.09604623   -0.04670581
     atom   27 type  2   force =     1.14130045    0.24393087    0.25018888
     atom   28 type  2   force =    -0.08250712   -0.13700770    0.11235049
     atom   29 type  2   force =    -0.15449848    0.03006669    0.25695414
     atom   30 type  2   force =    -0.01738229    0.13591897   -0.23380553
     atom   31 type  2   force =    -0.15305018    0.17299968   -0.00759911
     atom   32 type  2   force =    -0.74394808    0.19631166    0.26181366
     atom   33 type  2   force =    -0.20212788    0.03271998    0.09134086
     atom   34 type  2   force =    -0.71662174   -0.17392881   -0.19882372
     atom   35 type  2   force =    -0.05545187   -0.12958925   -0.19797151
     atom   36 type  2   force =     0.51266334    0.18266649    0.00059863
     atom   37 type  2   force =     0.73640740   -0.49118976   -0.69218627
     atom   38 type  2   force =     0.53973133    0.07343344    0.21005574
     atom   39 type  2   force =     0.80806362   -0.63321153   -0.42296664
     atom   40 type  2   force =    -0.19791236    0.06443485   -0.20927093
     atom   41 type  2   force =    -0.07054334   -0.08476466   -0.06846559
     atom   42 type  2   force =    -0.13079333    0.02802042    0.08874060
     atom   43 type  2   force =     0.03357989   -0.11392238    0.25400934
     atom   44 type  2   force =    -0.07223886    0.12490956   -0.05310392
     atom   45 type  2   force =     0.24388334    1.16150483    0.24815969
     atom   46 type  2   force =     0.10224583    0.05800411   -0.17227138
     atom   47 type  2   force =     0.22345595   -0.11010735    0.00865281
     atom   48 type  2   force =    -0.13126723   -0.11190676    0.13823093
     atom   49 type  2   force =    -0.07475832   -0.08686028    0.00729359
     atom   50 type  2   force =    -0.23902786    0.15074885   -0.08388054
     atom   51 type  2   force =    -0.01814519    0.17871077   -0.18038210
     atom   52 type  2   force =     0.16440809   -0.17593850   -0.09655203
     atom   53 type  2   force =     0.22871889   -0.05279589   -0.18332397
     atom   54 type  2   force =    -0.06416717   -0.09292788    0.13652687
     atom   55 type  2   force =     0.24493863    0.24693653    1.12386629
     atom   56 type  2   force =    -0.08861959   -0.03220082   -0.12565804
     atom   57 type  2   force =    -0.02248053   -0.03985405   -0.01953359
     atom   58 type  2   force =    -0.07724751    0.04696514    0.04065157
     atom   59 type  2   force =    -0.28548844    0.07706370    0.15392876
     atom   60 type  2   force =     0.06108916   -0.03794075    0.05650902
     atom   61 type  2   force =     0.13141198   -0.30566883    0.15881339
     atom   62 type  2   force =     0.00440740    0.03736605   -0.07356766
     atom   63 type  2   force =     0.12340101    0.07796637   -0.26525401
     The local contribution  to forces
     atom    1 type  1   force =    -2.22626383   -2.19618747   -2.23976230
     atom    2 type  2   force =    -2.20981377    1.84653025    2.02190872
     atom    3 type  2   force =    -0.53876261    0.65311531    0.78591231
     atom    4 type  2   force =     1.88228627   -2.12246673    1.95742556
     atom    5 type  2   force =     0.70797928   -0.46734576    0.75760165
     atom    6 type  2   force =     1.99901718    1.90124653   -2.27063417
     atom    7 type  2   force =     0.75696071    0.67778154   -0.60432526
     atom    8 type  2   force =    -0.25189681   -0.21362106    0.67436517
     atom    9 type  2   force =    -0.06249978   -0.02636272    0.20804196
     atom   10 type  2   force =    -0.13414062   -0.05792766   -0.54531497
     atom   11 type  2   force =     0.60394849    0.56542747   -0.72901759
     atom   12 type  2   force =    -0.01163349   -0.11670990   -0.53299960
     atom   13 type  2   force =     0.60805360    0.64187753   -0.68976699
     atom   14 type  2   force =     0.19627530    0.17938895    0.66541152
     atom   15 type  2   force =     0.15579232    0.12011575    0.06703432
     atom   16 type  2   force =    -0.18670265    0.72697488   -0.21590861
     atom   17 type  2   force =    -0.06742638    0.13955271   -0.09109266
     atom   18 type  2   force =    -0.20414371   -0.44785182    0.03886347
     atom   19 type  2   force =     0.42577253   -0.67673183    0.64603942
     atom   20 type  2   force =     0.18193224    0.68307160    0.18796414
     atom   21 type  2   force =     0.16248902    0.05987180    0.18686956
     atom   22 type  2   force =    -0.01188831   -0.45452575   -0.19333985
     atom   23 type  2   force =     0.62443922   -0.70099245    0.40339714
     atom   24 type  2   force =    -0.00696757    0.10783888    0.16594050
     atom   25 type  2   force =     0.03705573    0.06943267    0.05174422
     atom   26 type  2   force =    -0.07431666    0.12262074    0.07174215
     atom   27 type  2   force =    -1.02005266   -0.37769291   -0.38019358
     atom   28 type  2   force =     0.01251385    0.11455719   -0.09424038
     atom   29 type  2   force =     0.15363955   -0.05080380   -0.26324858
     atom   30 type  2   force =    -0.05178663   -0.11648602    0.20916751
     atom   31 type  2   force =     0.15066157   -0.17781570   -0.01271361
     atom   32 type  2   force =     0.69417360   -0.18586557   -0.25328963
     atom   33 type  2   force =     0.18435148   -0.02975064   -0.08785920
     atom   34 type  2   force =     0.66686242    0.17441110    0.19843939
     atom   35 type  2   force =     0.05408749    0.11973222    0.18448443
     atom   36 type  2   force =    -0.49373806   -0.13785867    0.01710219
     atom   37 type  2   force =    -0.66407217    0.56735517    0.63721783
     atom   38 type  2   force =    -0.51925963   -0.05833338   -0.16532591
     atom   39 type  2   force =    -0.73122322    0.56789641    0.49675464
     atom   40 type  2   force =     0.16839026    0.00658567    0.17857770
     atom   41 type  2   force =     0.05412545    0.09563096    0.05057003
     atom   42 type  2   force =     0.10964151   -0.09949338   -0.07302265
     atom   43 type  2   force =    -0.05186407    0.11448711   -0.25889150
     atom   44 type  2   force =     0.09954810   -0.07095259    0.07932379
     atom   45 type  2   force =    -0.37631711   -1.04067930   -0.37911764
     atom   46 type  2   force =    -0.08599107   -0.12884770    0.15020268
     atom   47 type  2   force =    -0.22829994    0.11008450   -0.02689375
     atom   48 type  2   force =     0.10286661    0.08477972   -0.06176926
     atom   49 type  2   force =     0.05888661    0.07170692    0.00609841
     atom   50 type  2   force =     0.21363834   -0.12977387    0.01565214
     atom   51 type  2   force =    -0.00305599   -0.18428779    0.17765448
     atom   52 type  2   force =    -0.14392175    0.15165990    0.02841023
     atom   53 type  2   force =    -0.23524878    0.03601319    0.18098185
     atom   54 type  2   force =     0.08908012    0.11864688   -0.07860481
     atom   55 type  2   force =    -0.37499127   -0.38009398   -1.00244738
     atom   56 type  2   force =     0.07029916    0.01246724    0.10810047
     atom   57 type  2   force =     0.01477003    0.03313758    0.01259835
     atom   58 type  2   force =     0.06206642   -0.03614407   -0.02696152
     atom   59 type  2   force =     0.27638788   -0.06542993   -0.14217834
     atom   60 type  2   force =    -0.04808133    0.02137773   -0.04258807
     atom   61 type  2   force =    -0.11995079    0.29513072   -0.14725901
     atom   62 type  2   force =     0.00766265   -0.02659227    0.05972243
     atom   63 type  2   force =    -0.11163590   -0.06596469    0.25646338
     The core correction contribution to forces
     atom    1 type  1   force =     0.00000000    0.00000000    0.00000000
     atom    2 type  2   force =     0.00000000    0.00000000    0.00000000
     atom    3 type  2   force =     0.00000000    0.00000000    0.00000000
     atom    4 type  2   force =     0.00000000    0.00000000    0.00000000
     atom    5 type  2   force =     0.00000000    0.00000000    0.00000000
     atom    6 type  2   force =     0.00000000    0.00000000    0.00000000
     atom    7 type  2   force =     0.00000000    0.00000000    0.00000000
     atom    8 type  2   force =     0.00000000    0.00000000    0.00000000
     atom    9 type  2   force =     0.00000000    0.00000000    0.00000000
     atom   10 type  2   force =     0.00000000    0.00000000    0.00000000
     atom   11 type  2   force =     0.00000000    0.00000000    0.00000000
     atom   12 type  2   force =     0.00000000    0.00000000    0.00000000
     atom   13 type  2   force =     0.00000000    0.00000000    0.00000000
     atom   14 type  2   force =     0.00000000    0.00000000    0.00000000
     atom   15 type  2   force =     0.00000000    0.00000000    0.00000000
     atom   16 type  2   force =     0.00000000    0.00000000    0.00000000
     atom   17 type  2   force =     0.00000000    0.00000000    0.00000000
     atom   18 type  2   force =     0.00000000    0.00000000    0.00000000
     atom   19 type  2   force =     0.00000000    0.00000000    0.00000000
     atom   20 type  2   force =     0.00000000    0.00000000    0.00000000
     atom   21 type  2   force =     0.00000000    0.00000000    0.00000000
     atom   22 type  2   force =     0.00000000    0.00000000    0.00000000
     atom   23 type  2   force =     0.00000000    0.00000000    0.00000000
     atom   24 type  2   force =     0.00000000    0.00000000    0.00000000
     atom   25 type  2   force =     0.00000000    0.00000000    0.00000000
     atom   26 type  2   force =     0.00000000    0.00000000    0.00000000
     atom   27 type  2   force =     0.00000000    0.00000000    0.00000000
     atom   28 type  2   force =     0.00000000    0.00000000    0.00000000
     atom   29 type  2   force =     0.00000000    0.00000000    0.00000000
     atom   30 type  2   force =     0.00000000    0.00000000    0.00000000
     atom   31 type  2   force =     0.00000000    0.00000000    0.00000000
     atom   32 type  2   force =     0.00000000    0.00000000    0.00000000
     atom   33 type  2   force =     0.00000000    0.00000000    0.00000000
     atom   34 type  2   force =     0.00000000    0.00000000    0.00000000
     atom   35 type  2   force =     0.00000000    0.00000000    0.00000000
     atom   36 type  2   force =     0.00000000    0.00000000    0.00000000
     atom   37 type  2   force =     0.00000000    0.00000000    0.00000000
     atom   38 type  2   force =     0.00000000    0.00000000    0.00000000
     atom   39 type  2   force =     0.00000000    0.00000000    0.00000000
     atom   40 type  2   force =     0.00000000    0.00000000    0.00000000
     atom   41 type  2   force =     0.00000000    0.00000000    0.00000000
     atom   42 type  2   force =     0.00000000    0.00000000    0.00000000
     atom   43 type  2   force =     0.00000000    0.00000000    0.00000000
     atom   44 type  2   force =     0.00000000    0.00000000    0.00000000
     atom   45 type  2   force =     0.00000000    0.00000000    0.00000000
     atom   46 type  2   force =     0.00000000    0.00000000    0.00000000
     atom   47 type  2   force =     0.00000000    0.00000000    0.00000000
     atom   48 type  2   force =     0.00000000    0.00000000    0.00000000
     atom   49 type  2   force =     0.00000000    0.00000000    0.00000000
     atom   50 type  2   force =     0.00000000    0.00000000    0.00000000
     atom   51 type  2   force =     0.00000000    0.00000000    0.00000000
     atom   52 type  2   force =     0.00000000    0.00000000    0.00000000
     atom   53 type  2   force =     0.00000000    0.00000000    0.00000000
     atom   54 type  2   force =     0.00000000    0.00000000    0.00000000
     atom   55 type  2   force =     0.00000000    0.00000000    0.00000000
     atom   56 type  2   force =     0.00000000    0.00000000    0.00000000
     atom   57 type  2   force =     0.00000000    0.00000000    0.00000000
     atom   58 type  2   force =     0.00000000    0.00000000    0.00000000
     atom   59 type  2   force =     0.00000000    0.00000000    0.00000000
     atom   60 type  2   force =     0.00000000    0.00000000    0.00000000
     atom   61 type  2   force =     0.00000000    0.00000000    0.00000000
     atom   62 type  2   force =     0.00000000    0.00000000    0.00000000
     atom   63 type  2   force =     0.00000000    0.00000000    0.00000000
     The Hubbard contrib.    to forces
     atom    1 type  1   force =     0.00000000    0.00000000    0.00000000
     atom    2 type  2   force =     0.00000000    0.00000000    0.00000000
     atom    3 type  2   force =     0.00000000    0.00000000    0.00000000
     atom    4 type  2   force =     0.00000000    0.00000000    0.00000000
     atom    5 type  2   force =     0.00000000    0.00000000    0.00000000
     atom    6 type  2   force =     0.00000000    0.00000000    0.00000000
     atom    7 type  2   force =     0.00000000    0.00000000    0.00000000
     atom    8 type  2   force =     0.00000000    0.00000000    0.00000000
     atom    9 type  2   force =     0.00000000    0.00000000    0.00000000
     atom   10 type  2   force =     0.00000000    0.00000000    0.00000000
     atom   11 type  2   force =     0.00000000    0.00000000    0.00000000
     atom   12 type  2   force =     0.00000000    0.00000000    0.00000000
     atom   13 type  2   force =     0.00000000    0.00000000    0.00000000
     atom   14 type  2   force =     0.00000000    0.00000000    0.00000000
     atom   15 type  2   force =     0.00000000    0.00000000    0.00000000
     atom   16 type  2   force =     0.00000000    0.00000000    0.00000000
     atom   17 type  2   force =     0.00000000    0.00000000    0.00000000
     atom   18 type  2   force =     0.00000000    0.00000000    0.00000000
     atom   19 type  2   force =     0.00000000    0.00000000    0.00000000
     atom   20 type  2   force =     0.00000000    0.00000000    0.00000000
     atom   21 type  2   force =     0.00000000    0.00000000    0.00000000
     atom   22 type  2   force =     0.00000000    0.00000000    0.00000000
     atom   23 type  2   force =     0.00000000    0.00000000    0.00000000
     atom   24 type  2   force =     0.00000000    0.00000000    0.00000000
     atom   25 type  2   force =     0.00000000    0.00000000    0.00000000
     atom   26 type  2   force =     0.00000000    0.00000000    0.00000000
     atom   27 type  2   force =     0.00000000    0.00000000    0.00000000
     atom   28 type  2   force =     0.00000000    0.00000000    0.00000000
     atom   29 type  2   force =     0.00000000    0.00000000    0.00000000
     atom   30 type  2   force =     0.00000000    0.00000000    0.00000000
     atom   31 type  2   force =     0.00000000    0.00000000    0.00000000
     atom   32 type  2   force =     0.00000000    0.00000000    0.00000000
     atom   33 type  2   force =     0.00000000    0.00000000    0.00000000
     atom   34 type  2   force =     0.00000000    0.00000000    0.00000000
     atom   35 type  2   force =     0.00000000    0.00000000    0.00000000
     atom   36 type  2   force =     0.00000000    0.00000000    0.00000000
     atom   37 type  2   force =     0.00000000    0.00000000    0.00000000
     atom   38 type  2   force =     0.00000000    0.00000000    0.00000000
     atom   39 type  2   force =     0.00000000    0.00000000    0.00000000
     atom   40 type  2   force =     0.00000000    0.00000000    0.00000000
     atom   41 type  2   force =     0.00000000    0.00000000    0.00000000
     atom   42 type  2   force =     0.00000000    0.00000000    0.00000000
     atom   43 type  2   force =     0.00000000    0.00000000    0.00000000
     atom   44 type  2   force =     0.00000000    0.00000000    0.00000000
     atom   45 type  2   force =     0.00000000    0.00000000    0.00000000
     atom   46 type  2   force =     0.00000000    0.00000000    0.00000000
     atom   47 type  2   force =     0.00000000    0.00000000    0.00000000
     atom   48 type  2   force =     0.00000000    0.00000000    0.00000000
     atom   49 type  2   force =     0.00000000    0.00000000    0.00000000
     atom   50 type  2   force =     0.00000000    0.00000000    0.00000000
     atom   51 type  2   force =     0.00000000    0.00000000    0.00000000
     atom   52 type  2   force =     0.00000000    0.00000000    0.00000000
     atom   53 type  2   force =     0.00000000    0.00000000    0.00000000
     atom   54 type  2   force =     0.00000000    0.00000000    0.00000000
     atom   55 type  2   force =     0.00000000    0.00000000    0.00000000
     atom   56 type  2   force =     0.00000000    0.00000000    0.00000000
     atom   57 type  2   force =     0.00000000    0.00000000    0.00000000
     atom   58 type  2   force =     0.00000000    0.00000000    0.00000000
     atom   59 type  2   force =     0.00000000    0.00000000    0.00000000
     atom   60 type  2   force =     0.00000000    0.00000000    0.00000000
     atom   61 type  2   force =     0.00000000    0.00000000    0.00000000
     atom   62 type  2   force =     0.00000000    0.00000000    0.00000000
     atom   63 type  2   force =     0.00000000    0.00000000    0.00000000
     The SCF correction term to forces
     atom    1 type  1   force =    -0.00002046   -0.00002946    0.00000060
     atom    2 type  2   force =    -0.00001334   -0.00001776    0.00000311
     atom    3 type  2   force =     0.00001267    0.00001424    0.00001290
     atom    4 type  2   force =     0.00000307   -0.00001671   -0.00000071
     atom    5 type  2   force =     0.00001490   -0.00002043   -0.00000910
     atom    6 type  2   force =     0.00000587   -0.00002039    0.00000493
     atom    7 type  2   force =     0.00002112   -0.00000298    0.00001844
     atom    8 type  2   force =    -0.00002021   -0.00003162   -0.00000185
     atom    9 type  2   force =    -0.00001653   -0.00002371    0.00000081
     atom   10 type  2   force =    -0.00002814   -0.00000777   -0.00000297
     atom   11 type  2   force =    -0.00002282    0.00000239   -0.00001111
     atom   12 type  2   force =    -0.00000439   -0.00001472   -0.00000357
     atom   13 type  2   force =     0.00001275   -0.00002068    0.00000274
     atom   14 type  2   force =     0.00001430   -0.00001132   -0.00000645
     atom   15 type  2   force =     0.00002356    0.00000641   -0.00001921
     atom   16 type  2   force =    -0.00002204    0.00002429   -0.00001005
     atom   17 type  2   force =    -0.00001538    0.00003357    0.00000618
     atom   18 type  2   force =    -0.00002280    0.00001888    0.00001017
     atom   19 type  2   force =    -0.00001326   -0.00000418   -0.00000494
     atom   20 type  2   force =     0.00001371    0.00001800    0.00001034
     atom   21 type  2   force =     0.00002166    0.00001248    0.00000413
     atom   22 type  2   force =    -0.00000894    0.00001781    0.00001011
     atom   23 type  2   force =     0.00000263    0.00000752    0.00001871
     atom   24 type  2   force =    -0.00002425    0.00003124    0.00001108
     atom   25 type  2   force =    -0.00001959    0.00002267   -0.00000541
     atom   26 type  2   force =    -0.00001822    0.00000854   -0.00000921
     atom   27 type  2   force =    -0.00001326   -0.00000633   -0.00000125
     atom   28 type  2   force =    -0.00000658    0.00001752   -0.00000983
     atom   29 type  2   force =     0.00000856    0.00002130   -0.00000518
     atom   30 type  2   force =    -0.00000567    0.00001482   -0.00000820
     atom   31 type  2   force =     0.00001109   -0.00000477   -0.00000960
     atom   32 type  2   force =     0.00001157   -0.00000681    0.00001249
     atom   33 type  2   force =     0.00000352   -0.00001993    0.00000745
     atom   34 type  2   force =     0.00000780   -0.00001235    0.00000898
     atom   35 type  2   force =    -0.00000693    0.00001206    0.00001182
     atom   36 type  2   force =    -0.00000683   -0.00003292    0.00001256
     atom   37 type  2   force =    -0.00002650   -0.00004662    0.00001640
     atom   38 type  2   force =    -0.00000759   -0.00000971   -0.00001313
     atom   39 type  2   force =    -0.00002820    0.00001606   -0.00001689
     atom   40 type  2   force =     0.00002075   -0.00001388   -0.00001314
     atom   41 type  2   force =     0.00001820   -0.00001071   -0.00000574
     atom   42 type  2   force =     0.00002995   -0.00001007   -0.00000895
     atom   43 type  2   force =     0.00002568   -0.00000277   -0.00001063
     atom   44 type  2   force =     0.00000600   -0.00000500   -0.00001055
     atom   45 type  2   force =    -0.00001767   -0.00001038   -0.00001447
     atom   46 type  2   force =    -0.00001289   -0.00001028    0.00001652
     atom   47 type  2   force =    -0.00002413    0.00000747    0.00001412
     atom   48 type  2   force =     0.00002232    0.00000832    0.00000973
     atom   49 type  2   force =     0.00001776    0.00002049    0.00002111
     atom   50 type  2   force =     0.00002484    0.00001420    0.00001375
     atom   51 type  2   force =     0.00002267   -0.00001142    0.00000054
     atom   52 type  2   force =    -0.00001252    0.00003641    0.00001014
     atom   53 type  2   force =    -0.00002456    0.00004167    0.00000706
     atom   54 type  2   force =     0.00001038    0.00001000    0.00001477
     atom   55 type  2   force =    -0.00001284   -0.00001503    0.00001773
     atom   56 type  2   force =     0.00002276    0.00001175   -0.00000875
     atom   57 type  2   force =     0.00001856    0.00001079   -0.00002084
     atom   58 type  2   force =     0.00001586    0.00000941   -0.00001467
     atom   59 type  2   force =     0.00001527    0.00000222   -0.00000328
     atom   60 type  2   force =     0.00000679    0.00000205   -0.00001243
     atom   61 type  2   force =    -0.00000762    0.00001230   -0.00000710
     atom   62 type  2   force =     0.00000388    0.00000962   -0.00001740
     atom   63 type  2   force =    -0.00001117   -0.00000697   -0.00001752

     Total force =     0.129206     Total SCF correction =     0.000216

     Writing all to output data dir ./pwscf.save/ :
     XML data file, charge density, pseudopotentials, collected wavefunctions
 
     init_run     :      0.54s CPU      0.60s WALL (       1 calls)
     electrons    :     10.44s CPU     10.65s WALL (       1 calls)
     forces       :      2.08s CPU      2.08s WALL (       1 calls)

     Called by init_run:
     wfcinit      :      0.05s CPU      0.09s WALL (       1 calls)
     wfcinit:wfcr :      0.05s CPU      0.06s WALL (       1 calls)
     potinit      :      0.29s CPU      0.30s WALL (       1 calls)
     hinit0       :      0.06s CPU      0.08s WALL (       1 calls)

     Called by electrons:
     c_bands      :      7.91s CPU      8.07s WALL (      14 calls)
     sum_band     :      0.85s CPU      0.86s WALL (      14 calls)
     v_of_rho     :      0.35s CPU      0.36s WALL (      15 calls)
     v_h          :      0.00s CPU      0.00s WALL (      15 calls)
     v_xc         :      0.34s CPU      0.35s WALL (      15 calls)
     mix_rho      :      0.39s CPU      0.40s WALL (      14 calls)

     Called by c_bands:
     init_us_2    :      0.02s CPU      0.02s WALL (      30 calls)
     regterg      :      7.67s CPU      7.83s WALL (      14 calls)

     Called by sum_band:
     sum_band:wei :      0.02s CPU      0.02s WALL (      14 calls)
     sum_band:loo :      0.78s CPU      0.79s WALL (      14 calls)
     sum_band:buf :      0.00s CPU      0.00s WALL (      14 calls)
     sum_band:ini :      0.01s CPU      0.01s WALL (      14 calls)

     Called by *egterg:
     rdiaghg      :      4.28s CPU      4.38s WALL (     269 calls)
     regterg:over :      0.41s CPU      0.42s WALL (     255 calls)
     regterg:upda :      0.24s CPU      0.24s WALL (     255 calls)
     regterg:last :      0.27s CPU      0.28s WALL (      52 calls)
     rdiaghg:chol :      0.15s CPU      0.15s WALL (     269 calls)
     rdiaghg:inve :      0.03s CPU      0.03s WALL (     269 calls)
     rdiaghg:para :      0.40s CPU      0.43s WALL (     538 calls)
     h_psi        :      2.36s CPU      2.41s WALL (     270 calls)
     g_psi        :      0.00s CPU      0.00s WALL (     255 calls)

     Called by h_psi:
     h_psi:calbec :      0.36s CPU      0.37s WALL (     270 calls)
     vloc_psi     :      1.89s CPU      1.93s WALL (     270 calls)
                                        0.00s GPU  (     270 calls)
     add_vuspsi   :      0.10s CPU      0.11s WALL (     270 calls)

     General routines
     calbec       :      0.39s CPU      0.39s WALL (     274 calls)
     fft          :      0.26s CPU      0.27s WALL (     196 calls)
     ffts         :      0.01s CPU      0.01s WALL (      14 calls)
     fftw         :      2.56s CPU      2.60s WALL (   10092 calls)
 
     Parallel routines
 
     PWSCF        :     17.58s CPU     18.08s WALL

 
   This run was terminated on:  17: 3:17  16Nov2025            

=------------------------------------------------------------------------------=
   JOB DONE.
=------------------------------------------------------------------------------=
