
     Program PWSCF v.7.5 starts on 16Nov2025 at 16:56:10 

     This program is part of the open-source Quantum ESPRESSO suite
     for quantum simulation of materials; please cite
         "P. Giannozzi et al., J. Phys.:Condens. Matter 21 395502 (2009);
         "P. Giannozzi et al., J. Phys.:Condens. Matter 29 465901 (2017);
         "P. Giannozzi et al., J. Chem. Phys. 152 154105 (2020);
          URL http://www.quantum-espresso.org", 
     in publications or presentations arising from this work. More details at
     http://www.quantum-espresso.org/quote

     Parallel version (MPI), running on    96 processors

     MPI processes distributed on     2 nodes
     174322 MiB available memory on the printing compute node when the environment starts
 
     Reading input from supercell-292.in

     Current dimensions of program PWSCF are:
     Max number of different atomic species (ntypx) = 10
     Max number of k-points (npk) =  40000
     Max angular momentum in pseudopotentials (lmaxx) =  4

     gamma-point specific algorithms are used
 
     K-points division:     npool     =       2
     R & G space division:  proc/nbgrp/npool/nimage =      48
     Subspace diagonalization in iterative solution of the eigenvalue problem:
     one sub-group per band group will be used
     scalapack distributed-memory algorithm (size of sub-group:  2*  2 procs)

 
     Parallelization info
     --------------------
     sticks:   dense  smooth     PW     G-vecs:    dense   smooth      PW
     Min          59      59     14                 2432     2432     302
     Max          62      62     16                 2442     2442     316
     Sum        2885    2885    725               116921   116921   14771
 
     Using Slab Decomposition
 


     bravais-lattice index     =            0
     lattice parameter (alat)  =      13.4813  a.u.
     unit-cell volume          =    2450.1683 (a.u.)^3
     number of atoms/cell      =           63
     number of atomic types    =            2
     number of electrons       =       254.00 (up: 128.00, down: 126.00)
     number of Kohn-Sham states=          152
     kinetic-energy cutoff     =      50.0000  Ry
     charge density cutoff     =     200.0000  Ry
     scf convergence threshold =      1.0E-08
     mixing beta               =       0.7000
     number of iterations used =            8  plain     mixing
     Exchange-correlation= PBE
                           (   1   4   3   4   0   0   0)

     celldm(1)=  13.481306  celldm(2)=   0.000000  celldm(3)=   0.000000
     celldm(4)=   0.000000  celldm(5)=   0.000000  celldm(6)=   0.000000

     crystal axes: (cart. coord. in units of alat)
               a(1) = (   1.000000   0.000000   0.000000 )  
               a(2) = (   0.000000   1.000000   0.000000 )  
               a(3) = (   0.000000   0.000000   1.000000 )  

     reciprocal axes: (cart. coord. in units 2 pi/alat)
               b(1) = (  1.000000  0.000000  0.000000 )  
               b(2) = (  0.000000  1.000000  0.000000 )  
               b(3) = (  0.000000  0.000000  1.000000 )  


     PseudoPot. # 1 for N  read from file:
     ./N_ONCV_PBE-1.2.upf
     MD5 check sum: 5312fdf34e96954e02a33bdc911c617a
     Pseudo is Norm-conserving, Zval =  5.0
     Generated using ONCVPSP code by D. R. Hamann
     Using radial grid of  602 points,  4 beta functions with: 
                l(1) =   0
                l(2) =   0
                l(3) =   1
                l(4) =   1

     PseudoPot. # 2 for C  read from file:
     ./C_ONCV_PBE-1.2.upf
     MD5 check sum: d60b57d9bdca4133f5fde4b584ee909d
     Pseudo is Norm-conserving, Zval =  4.0
     Generated using ONCVPSP code by D. R. Hamann
     Using radial grid of  602 points,  4 beta functions with: 
                l(1) =   0
                l(2) =   0
                l(3) =   1
                l(4) =   1

     atomic species   valence    mass     pseudopotential
     N                 5.00    14.00670     N ( 1.00)
     C                 4.00    12.01070     C ( 1.00)

     Starting magnetic structure 
     atomic species   magnetization
     N               0.000
     C               0.000

     No symmetry found


                                    s                        frac. trans.

      isym =  1     identity                                     

 cryst.   s( 1) = (     1          0          0      )
                  (     0          1          0      )
                  (     0          0          1      )

 cart.    s( 1) = (  1.0000000  0.0000000  0.0000000 )
                  (  0.0000000  1.0000000  0.0000000 )
                  (  0.0000000  0.0000000  1.0000000 )


   Cartesian axes

     site n.     atom                  positions (alat units)
         1        N      tau(   1) = (   0.9893819   0.9897344   0.9891721  )
         2        C      tau(   2) = (   0.9870277   0.2601210   0.2640728  )
         3        C      tau(   3) = (   0.1231717   0.3731672   0.3742038  )
         4        C      tau(   4) = (   0.2603919   0.9894620   0.2619202  )
         5        C      tau(   5) = (   0.3737632   0.1246771   0.3741571  )
         6        C      tau(   6) = (   0.2640151   0.2616009   0.9853609  )
         7        C      tau(   7) = (   0.3737752   0.3731213   0.1223564  )
         8        C      tau(   8) = (   0.0000049   0.0005840   0.4991361  )
         9        C      tau(   9) = (   0.1251361   0.1251278   0.6250981  )
        10        C      tau(  10) = (   0.0020393   0.2482470   0.7515266  )
        11        C      tau(  11) = (   0.1292009   0.3733021   0.8763303  )
        12        C      tau(  12) = (   0.2487801   0.0017974   0.7514403  )
        13        C      tau(  13) = (   0.3754339   0.1292460   0.8748544  )
        14        C      tau(  14) = (   0.2491579   0.2495268   0.4995755  )
        15        C      tau(  15) = (   0.3750038   0.3749547   0.6244069  )
        16        C      tau(  16) = (   0.0016366   0.4979779   0.0013734  )
        17        C      tau(  17) = (   0.1250869   0.6243147   0.1250807  )
        18        C      tau(  18) = (   0.0014462   0.7520697   0.2483230  )
        19        C      tau(  19) = (   0.1266755   0.8769178   0.3741906  )
        20        C      tau(  20) = (   0.2488290   0.4983596   0.2486760  )
        21        C      tau(  21) = (   0.3741642   0.6242659   0.3742111  )
        22        C      tau(  22) = (   0.2480673   0.7520817   0.0015447  )
        23        C      tau(  23) = (   0.3729914   0.8777475   0.1265606  )
        24        C      tau(  24) = (   0.0000493   0.5010760   0.5011299  )
        25        C      tau(  25) = (   0.1252054   0.6262200   0.6252733  )
        26        C      tau(  26) = (   0.9993969   0.7487112   0.7492532  )
        27        C      tau(  27) = (   0.1217927   0.8768349   0.8763928  )
        28        C      tau(  28) = (   0.2492749   0.5017254   0.7482724  )
        29        C      tau(  29) = (   0.3741000   0.6263042   0.8750769  )
        30        C      tau(  30) = (   0.2487293   0.7486845   0.5007616  )
        31        C      tau(  31) = (   0.3739266   0.8750581   0.6258828  )
        32        C      tau(  32) = (   0.4987543   0.0011228   0.0002828  )
        33        C      tau(  33) = (   0.6248203   0.1251003   0.1251034  )
        34        C      tau(  34) = (   0.4991217   0.2493918   0.2488717  )
        35        C      tau(  35) = (   0.6243080   0.3746888   0.3747831  )
        36        C      tau(  36) = (   0.7516460   0.0016191   0.2487956  )
        37        C      tau(  37) = (   0.8750430   0.1283649   0.3757598  )
        38        C      tau(  38) = (   0.7517475   0.2480080   0.0019610  )
        39        C      tau(  39) = (   0.8773622   0.3724247   0.1282033  )
        40        C      tau(  40) = (   0.5008161   0.9999897   0.5008301  )
        41        C      tau(  41) = (   0.6256173   0.1249721   0.6252590  )
        42        C      tau(  42) = (   0.5022259   0.2488088   0.7478265  )
        43        C      tau(  43) = (   0.6264784   0.3739683   0.8752045  )
        44        C      tau(  44) = (   0.7487945   0.9989046   0.7489691  )
        45        C      tau(  45) = (   0.8764746   0.1216998   0.8763156  )
        46        C      tau(  46) = (   0.7479635   0.2486819   0.5018806  )
        47        C      tau(  47) = (   0.8751980   0.3739245   0.6263738  )
        48        C      tau(  48) = (   0.5012000   0.5011574   0.0001136  )
        49        C      tau(  49) = (   0.6256259   0.6247264   0.1252968  )
        50        C      tau(  50) = (   0.5005188   0.7489091   0.2490095  )
        51        C      tau(  51) = (   0.6258050   0.8750157   0.3740056  )
        52        C      tau(  52) = (   0.7486304   0.5011458   0.2494302  )
        53        C      tau(  53) = (   0.8750247   0.6261269   0.3741365  )
        54        C      tau(  54) = (   0.7492281   0.7488562   0.9996087  )
        55        C      tau(  55) = (   0.8766209   0.8769033   0.1218021  )
        56        C      tau(  56) = (   0.4990819   0.4992903   0.4990317  )
        57        C      tau(  57) = (   0.6247789   0.6244471   0.6249452  )
        58        C      tau(  58) = (   0.4991767   0.7499842   0.7500845  )
        59        C      tau(  59) = (   0.6239946   0.8751464   0.8754130  )
        60        C      tau(  60) = (   0.7505316   0.4989321   0.7505826  )
        61        C      tau(  61) = (   0.8758455   0.6234984   0.8759288  )
        62        C      tau(  62) = (   0.7498244   0.7497799   0.4993198  )
        63        C      tau(  63) = (   0.8750855   0.8749084   0.6242568  )

   Crystallographic axes

     site n.     atom                  positions (cryst. coord.)
         1        N      tau(   1) = (  0.9893819  0.9897344  0.9891721  )
         2        C      tau(   2) = (  0.9870277  0.2601210  0.2640728  )
         3        C      tau(   3) = (  0.1231717  0.3731672  0.3742038  )
         4        C      tau(   4) = (  0.2603919  0.9894620  0.2619202  )
         5        C      tau(   5) = (  0.3737632  0.1246771  0.3741571  )
         6        C      tau(   6) = (  0.2640151  0.2616009  0.9853609  )
         7        C      tau(   7) = (  0.3737752  0.3731213  0.1223564  )
         8        C      tau(   8) = (  0.0000049  0.0005840  0.4991361  )
         9        C      tau(   9) = (  0.1251361  0.1251278  0.6250981  )
        10        C      tau(  10) = (  0.0020393  0.2482470  0.7515266  )
        11        C      tau(  11) = (  0.1292009  0.3733021  0.8763303  )
        12        C      tau(  12) = (  0.2487801  0.0017974  0.7514403  )
        13        C      tau(  13) = (  0.3754339  0.1292460  0.8748544  )
        14        C      tau(  14) = (  0.2491579  0.2495268  0.4995755  )
        15        C      tau(  15) = (  0.3750038  0.3749547  0.6244069  )
        16        C      tau(  16) = (  0.0016366  0.4979779  0.0013734  )
        17        C      tau(  17) = (  0.1250869  0.6243147  0.1250807  )
        18        C      tau(  18) = (  0.0014462  0.7520697  0.2483230  )
        19        C      tau(  19) = (  0.1266755  0.8769178  0.3741906  )
        20        C      tau(  20) = (  0.2488290  0.4983596  0.2486760  )
        21        C      tau(  21) = (  0.3741642  0.6242659  0.3742111  )
        22        C      tau(  22) = (  0.2480673  0.7520817  0.0015447  )
        23        C      tau(  23) = (  0.3729914  0.8777475  0.1265606  )
        24        C      tau(  24) = (  0.0000493  0.5010760  0.5011299  )
        25        C      tau(  25) = (  0.1252054  0.6262200  0.6252733  )
        26        C      tau(  26) = (  0.9993969  0.7487112  0.7492532  )
        27        C      tau(  27) = (  0.1217927  0.8768349  0.8763928  )
        28        C      tau(  28) = (  0.2492749  0.5017254  0.7482724  )
        29        C      tau(  29) = (  0.3741000  0.6263042  0.8750769  )
        30        C      tau(  30) = (  0.2487293  0.7486845  0.5007616  )
        31        C      tau(  31) = (  0.3739266  0.8750581  0.6258828  )
        32        C      tau(  32) = (  0.4987543  0.0011228  0.0002828  )
        33        C      tau(  33) = (  0.6248203  0.1251003  0.1251034  )
        34        C      tau(  34) = (  0.4991217  0.2493918  0.2488717  )
        35        C      tau(  35) = (  0.6243080  0.3746888  0.3747831  )
        36        C      tau(  36) = (  0.7516460  0.0016191  0.2487956  )
        37        C      tau(  37) = (  0.8750430  0.1283649  0.3757598  )
        38        C      tau(  38) = (  0.7517475  0.2480080  0.0019610  )
        39        C      tau(  39) = (  0.8773622  0.3724247  0.1282033  )
        40        C      tau(  40) = (  0.5008161  0.9999897  0.5008301  )
        41        C      tau(  41) = (  0.6256173  0.1249721  0.6252590  )
        42        C      tau(  42) = (  0.5022259  0.2488088  0.7478265  )
        43        C      tau(  43) = (  0.6264784  0.3739683  0.8752045  )
        44        C      tau(  44) = (  0.7487945  0.9989046  0.7489691  )
        45        C      tau(  45) = (  0.8764746  0.1216998  0.8763156  )
        46        C      tau(  46) = (  0.7479635  0.2486819  0.5018806  )
        47        C      tau(  47) = (  0.8751980  0.3739245  0.6263738  )
        48        C      tau(  48) = (  0.5012000  0.5011574  0.0001136  )
        49        C      tau(  49) = (  0.6256259  0.6247264  0.1252968  )
        50        C      tau(  50) = (  0.5005188  0.7489091  0.2490095  )
        51        C      tau(  51) = (  0.6258050  0.8750157  0.3740056  )
        52        C      tau(  52) = (  0.7486304  0.5011458  0.2494302  )
        53        C      tau(  53) = (  0.8750247  0.6261269  0.3741365  )
        54        C      tau(  54) = (  0.7492281  0.7488562  0.9996087  )
        55        C      tau(  55) = (  0.8766209  0.8769033  0.1218021  )
        56        C      tau(  56) = (  0.4990819  0.4992903  0.4990317  )
        57        C      tau(  57) = (  0.6247789  0.6244471  0.6249452  )
        58        C      tau(  58) = (  0.4991767  0.7499842  0.7500845  )
        59        C      tau(  59) = (  0.6239946  0.8751464  0.8754130  )
        60        C      tau(  60) = (  0.7505316  0.4989321  0.7505826  )
        61        C      tau(  61) = (  0.8758455  0.6234984  0.8759288  )
        62        C      tau(  62) = (  0.7498244  0.7497799  0.4993198  )
        63        C      tau(  63) = (  0.8750855  0.8749084  0.6242568  )

     number of k points=     1
                       cart. coord. in units 2pi/alat
        k(    1) = (   0.0000000   0.0000000   0.0000000), wk =   1.0000000

                       cryst. coord.
        k(    1) = (   0.0000000   0.0000000   0.0000000), wk =   1.0000000

     Dense  grid:    58461 G-vectors     FFT dimensions: (  64,  64,  64)

     Dynamical RAM for                 wfc:       0.35 MB

     Dynamical RAM for     wfc (w. buffer):       0.35 MB

     Dynamical RAM for           str. fact:       0.04 MB

     Dynamical RAM for           local pot:       0.00 MB

     Dynamical RAM for          nlocal pot:       1.17 MB

     Dynamical RAM for                qrad:       0.65 MB

     Dynamical RAM for          rho,v,vnew:       0.49 MB

     Dynamical RAM for               rhoin:       0.16 MB

     Dynamical RAM for            rho*nmix:       0.60 MB

     Dynamical RAM for           G-vectors:       0.08 MB

     Dynamical RAM for          h,s,v(r/c):       0.53 MB

     Dynamical RAM for          <psi|beta>:       0.58 MB

     Dynamical RAM for                 psi:       0.71 MB

     Dynamical RAM for                hpsi:       0.71 MB

     Dynamical RAM for      wfcinit/wfcrot:       1.24 MB

     Estimated static dynamical RAM per process >       3.37 MB

     Estimated max dynamical RAM per process >       6.49 MB

     Estimated total dynamical RAM >     594.05 MB
     Generating pointlists ...
     new r_m :   0.0854 (alat units)  1.1518 (a.u.) for type    1
     new r_m :   0.0847 (alat units)  1.1416 (a.u.) for type    2

     Initial potential from superposition of free atoms

     starting charge     252.5655, renormalised to     254.0000
     Starting wfcs are random

     total cpu time spent up to now is        1.5 secs

     Self-consistent Calculation

     iteration #  1     ecut=    50.00 Ry     beta= 0.70
     Davidson diagonalization with overlap

---- Real-time Memory Report at c_bands before calling an iterative solver
           158 MiB given to the printing process from OS
             0 MiB allocation reported by mallinfo(arena+hblkhd)
        173359 MiB available memory on the node where the printing process lives
------------------
     ethr =  1.00E-02,  avg # of iterations = 12.0

     total cpu time spent up to now is        2.1 secs

     total energy              =    -723.27012142 Ry
     estimated scf accuracy    <       3.70927721 Ry

     total magnetization       =     2.00 Bohr mag/cell
     absolute magnetization    =     2.00 Bohr mag/cell

     iteration #  2     ecut=    50.00 Ry     beta= 0.70
     Davidson diagonalization with overlap

---- Real-time Memory Report at c_bands before calling an iterative solver
           163 MiB given to the printing process from OS
             0 MiB allocation reported by mallinfo(arena+hblkhd)
        173306 MiB available memory on the node where the printing process lives
------------------
     ethr =  1.46E-03,  avg # of iterations = 13.5

     total cpu time spent up to now is        3.3 secs

     total energy              =    -723.66153121 Ry
     estimated scf accuracy    <       0.45596488 Ry

     total magnetization       =     2.00 Bohr mag/cell
     absolute magnetization    =     2.08 Bohr mag/cell

     iteration #  3     ecut=    50.00 Ry     beta= 0.70
     Davidson diagonalization with overlap

---- Real-time Memory Report at c_bands before calling an iterative solver
           164 MiB given to the printing process from OS
             0 MiB allocation reported by mallinfo(arena+hblkhd)
        173313 MiB available memory on the node where the printing process lives
------------------
     c_bands:  2 eigenvalues not converged
     ethr =  1.80E-04,  avg # of iterations = 20.0

     total cpu time spent up to now is        5.3 secs

     total energy              =    -723.72741023 Ry
     estimated scf accuracy    <       0.86339645 Ry

     total magnetization       =     2.00 Bohr mag/cell
     absolute magnetization    =     2.12 Bohr mag/cell

     iteration #  4     ecut=    50.00 Ry     beta= 0.70
     Davidson diagonalization with overlap

---- Real-time Memory Report at c_bands before calling an iterative solver
           165 MiB given to the printing process from OS
             0 MiB allocation reported by mallinfo(arena+hblkhd)
        173307 MiB available memory on the node where the printing process lives
------------------
     c_bands:  1 eigenvalues not converged
     ethr =  1.80E-04,  avg # of iterations = 20.0

     total cpu time spent up to now is        6.3 secs

     total energy              =    -723.90142231 Ry
     estimated scf accuracy    <       0.00972620 Ry

     total magnetization       =     2.00 Bohr mag/cell
     absolute magnetization    =     2.19 Bohr mag/cell

     iteration #  5     ecut=    50.00 Ry     beta= 0.70
     Davidson diagonalization with overlap

---- Real-time Memory Report at c_bands before calling an iterative solver
           165 MiB given to the printing process from OS
             0 MiB allocation reported by mallinfo(arena+hblkhd)
        173308 MiB available memory on the node where the printing process lives
------------------
     c_bands:  3 eigenvalues not converged
     ethr =  3.83E-06,  avg # of iterations = 20.0

     total cpu time spent up to now is        7.8 secs

     total energy              =    -723.90635480 Ry
     estimated scf accuracy    <       0.00408840 Ry

     total magnetization       =     2.00 Bohr mag/cell
     absolute magnetization    =     2.23 Bohr mag/cell

     iteration #  6     ecut=    50.00 Ry     beta= 0.70
     Davidson diagonalization with overlap

---- Real-time Memory Report at c_bands before calling an iterative solver
           165 MiB given to the printing process from OS
             0 MiB allocation reported by mallinfo(arena+hblkhd)
        173309 MiB available memory on the node where the printing process lives
------------------
     c_bands:  3 eigenvalues not converged
     ethr =  1.61E-06,  avg # of iterations = 20.0

     total cpu time spent up to now is        8.9 secs

     total energy              =    -723.90710780 Ry
     estimated scf accuracy    <       0.00083471 Ry

     total magnetization       =     2.00 Bohr mag/cell
     absolute magnetization    =     2.25 Bohr mag/cell

     iteration #  7     ecut=    50.00 Ry     beta= 0.70
     Davidson diagonalization with overlap

---- Real-time Memory Report at c_bands before calling an iterative solver
           165 MiB given to the printing process from OS
             0 MiB allocation reported by mallinfo(arena+hblkhd)
        173308 MiB available memory on the node where the printing process lives
------------------
     ethr =  3.29E-07,  avg # of iterations = 18.5

     total cpu time spent up to now is        9.3 secs

     total energy              =    -723.90732816 Ry
     estimated scf accuracy    <       0.00011636 Ry

     total magnetization       =     2.00 Bohr mag/cell
     absolute magnetization    =     2.27 Bohr mag/cell

     iteration #  8     ecut=    50.00 Ry     beta= 0.70
     Davidson diagonalization with overlap

---- Real-time Memory Report at c_bands before calling an iterative solver
           165 MiB given to the printing process from OS
             0 MiB allocation reported by mallinfo(arena+hblkhd)
        173306 MiB available memory on the node where the printing process lives
------------------
     ethr =  4.58E-08,  avg # of iterations = 20.0

     total cpu time spent up to now is       10.1 secs

     total energy              =    -723.90736664 Ry
     estimated scf accuracy    <       0.00002843 Ry

     total magnetization       =     2.00 Bohr mag/cell
     absolute magnetization    =     2.28 Bohr mag/cell

     iteration #  9     ecut=    50.00 Ry     beta= 0.70
     Davidson diagonalization with overlap

---- Real-time Memory Report at c_bands before calling an iterative solver
           165 MiB given to the printing process from OS
             0 MiB allocation reported by mallinfo(arena+hblkhd)
        173290 MiB available memory on the node where the printing process lives
------------------
     c_bands:  3 eigenvalues not converged
     ethr =  1.12E-08,  avg # of iterations = 20.0

     total cpu time spent up to now is       11.1 secs

     total energy              =    -723.90737684 Ry
     estimated scf accuracy    <       0.00000787 Ry

     total magnetization       =     2.00 Bohr mag/cell
     absolute magnetization    =     2.29 Bohr mag/cell

     iteration # 10     ecut=    50.00 Ry     beta= 0.70
     Davidson diagonalization with overlap

---- Real-time Memory Report at c_bands before calling an iterative solver
           166 MiB given to the printing process from OS
             0 MiB allocation reported by mallinfo(arena+hblkhd)
        173290 MiB available memory on the node where the printing process lives
------------------
     c_bands:  3 eigenvalues not converged
     ethr =  3.10E-09,  avg # of iterations = 20.0

     total cpu time spent up to now is       11.6 secs

     total energy              =    -723.90738040 Ry
     estimated scf accuracy    <       0.00000087 Ry

     total magnetization       =     2.00 Bohr mag/cell
     absolute magnetization    =     2.29 Bohr mag/cell

     iteration # 11     ecut=    50.00 Ry     beta= 0.70
     Davidson diagonalization with overlap

---- Real-time Memory Report at c_bands before calling an iterative solver
           166 MiB given to the printing process from OS
             0 MiB allocation reported by mallinfo(arena+hblkhd)
        173304 MiB available memory on the node where the printing process lives
------------------
     c_bands:  1 eigenvalues not converged
     ethr =  3.44E-10,  avg # of iterations = 20.0

     total cpu time spent up to now is       12.2 secs

     total energy              =    -723.90738105 Ry
     estimated scf accuracy    <       0.00000023 Ry

     total magnetization       =     2.00 Bohr mag/cell
     absolute magnetization    =     2.30 Bohr mag/cell

     iteration # 12     ecut=    50.00 Ry     beta= 0.70
     Davidson diagonalization with overlap

---- Real-time Memory Report at c_bands before calling an iterative solver
           166 MiB given to the printing process from OS
             0 MiB allocation reported by mallinfo(arena+hblkhd)
        173303 MiB available memory on the node where the printing process lives
------------------
     ethr =  9.20E-11,  avg # of iterations = 16.0

     total cpu time spent up to now is       12.7 secs

     total energy              =    -723.90738117 Ry
     estimated scf accuracy    <       0.00000009 Ry

     total magnetization       =     2.00 Bohr mag/cell
     absolute magnetization    =     2.30 Bohr mag/cell

     iteration # 13     ecut=    50.00 Ry     beta= 0.70
     Davidson diagonalization with overlap

---- Real-time Memory Report at c_bands before calling an iterative solver
           166 MiB given to the printing process from OS
             0 MiB allocation reported by mallinfo(arena+hblkhd)
        173301 MiB available memory on the node where the printing process lives
------------------
     ethr =  3.63E-11,  avg # of iterations = 17.0

     total cpu time spent up to now is       13.3 secs

     total energy              =    -723.90738121 Ry
     estimated scf accuracy    <       0.00000003 Ry

     total magnetization       =     2.00 Bohr mag/cell
     absolute magnetization    =     2.30 Bohr mag/cell

     iteration # 14     ecut=    50.00 Ry     beta= 0.70
     Davidson diagonalization with overlap

---- Real-time Memory Report at c_bands before calling an iterative solver
           166 MiB given to the printing process from OS
             0 MiB allocation reported by mallinfo(arena+hblkhd)
        173303 MiB available memory on the node where the printing process lives
------------------
     ethr =  1.09E-11,  avg # of iterations = 18.5
 
     Magnetic moment per site  (integrated on atomic sphere of radius R)
     atom   1 (R=0.085)  charge=  2.9142  magn=  0.0042
     atom   2 (R=0.085)  charge=  1.8170  magn=  0.2451
     atom   3 (R=0.085)  charge=  1.7930  magn= -0.0087
     atom   4 (R=0.085)  charge=  1.8051  magn=  0.2452
     atom   5 (R=0.085)  charge=  1.7932  magn= -0.0087
     atom   6 (R=0.085)  charge=  1.8233  magn=  0.2451
     atom   7 (R=0.085)  charge=  1.7935  magn= -0.0087
     atom   8 (R=0.085)  charge=  1.7860  magn=  0.0091
     atom   9 (R=0.085)  charge=  1.7963  magn= -0.0019
     atom  10 (R=0.085)  charge=  1.7834  magn=  0.0060
     atom  11 (R=0.085)  charge=  1.7969  magn= -0.0042
     atom  12 (R=0.085)  charge=  1.7823  magn=  0.0061
     atom  13 (R=0.085)  charge=  1.8040  magn= -0.0039
     atom  14 (R=0.085)  charge=  1.7893  magn=  0.0085
     atom  15 (R=0.085)  charge=  1.7873  magn= -0.0020
     atom  16 (R=0.085)  charge=  1.7820  magn=  0.0089
     atom  17 (R=0.085)  charge=  1.7956  magn= -0.0018
     atom  18 (R=0.085)  charge=  1.7822  magn=  0.0057
     atom  19 (R=0.085)  charge=  1.7952  magn= -0.0035
     atom  20 (R=0.085)  charge=  1.7834  magn=  0.0083
     atom  21 (R=0.085)  charge=  1.7847  magn= -0.0020
     atom  22 (R=0.085)  charge=  1.7829  magn=  0.0057
     atom  23 (R=0.085)  charge=  1.7904  magn= -0.0037
     atom  24 (R=0.085)  charge=  1.7825  magn=  0.0182
     atom  25 (R=0.085)  charge=  1.8068  magn=  0.0094
     atom  26 (R=0.085)  charge=  1.7935  magn=  0.0032
     atom  27 (R=0.085)  charge=  1.7589  magn=  0.0001
     atom  28 (R=0.085)  charge=  1.7896  magn=  0.0221
     atom  29 (R=0.085)  charge=  1.7824  magn= -0.0013
     atom  30 (R=0.085)  charge=  1.7901  magn=  0.0211
     atom  31 (R=0.085)  charge=  1.7823  magn= -0.0013
     atom  32 (R=0.085)  charge=  1.7844  magn=  0.0090
     atom  33 (R=0.085)  charge=  1.7960  magn= -0.0019
     atom  34 (R=0.085)  charge=  1.7869  magn=  0.0085
     atom  35 (R=0.085)  charge=  1.7866  magn= -0.0020
     atom  36 (R=0.085)  charge=  1.7818  magn=  0.0059
     atom  37 (R=0.085)  charge=  1.8033  magn= -0.0036
     atom  38 (R=0.085)  charge=  1.7836  magn=  0.0058
     atom  39 (R=0.085)  charge=  1.7915  magn= -0.0041
     atom  40 (R=0.085)  charge=  1.7835  magn=  0.0180
     atom  41 (R=0.085)  charge=  1.8109  magn=  0.0094
     atom  42 (R=0.085)  charge=  1.7948  magn=  0.0219
     atom  43 (R=0.085)  charge=  1.7820  magn= -0.0013
     atom  44 (R=0.085)  charge=  1.7936  magn=  0.0032
     atom  45 (R=0.085)  charge=  1.7589  magn= -0.0001
     atom  46 (R=0.085)  charge=  1.7948  magn=  0.0215
     atom  47 (R=0.085)  charge=  1.7819  magn= -0.0013
     atom  48 (R=0.085)  charge=  1.7839  magn=  0.0184
     atom  49 (R=0.085)  charge=  1.8048  magn=  0.0093
     atom  50 (R=0.085)  charge=  1.7853  magn=  0.0212
     atom  51 (R=0.085)  charge=  1.7824  magn= -0.0013
     atom  52 (R=0.085)  charge=  1.7889  magn=  0.0218
     atom  53 (R=0.085)  charge=  1.7826  magn= -0.0013
     atom  54 (R=0.085)  charge=  1.7915  magn=  0.0033
     atom  55 (R=0.085)  charge=  1.7587  magn=  0.0001
     atom  56 (R=0.085)  charge=  1.7914  magn=  0.0009
     atom  57 (R=0.085)  charge=  1.7832  magn=  0.0010
     atom  58 (R=0.085)  charge=  1.7914  magn=  0.0018
     atom  59 (R=0.085)  charge=  1.7878  magn= -0.0009
     atom  60 (R=0.085)  charge=  1.7911  magn=  0.0017
     atom  61 (R=0.085)  charge=  1.7855  magn= -0.0009
     atom  62 (R=0.085)  charge=  1.7913  magn=  0.0019
     atom  63 (R=0.085)  charge=  1.7891  magn= -0.0009

     total cpu time spent up to now is       13.8 secs

     End of self-consistent calculation

 ------ SPIN UP ------------


          k = 0.0000 0.0000 0.0000 (  7386 PWs)   bands (ev):

    -8.5506  -6.9235  -6.2856  -6.2696  -6.1955  -6.1578  -5.8806  -4.9114
    -4.1432  -4.1273  -4.1256  -4.0934  -4.0307  -4.0204  -4.0121  -3.9175
    -3.8742  -3.8609  -3.3585  -2.9344  -2.6755  -2.6740  -2.1610  -0.3620
    -0.3538  -0.3268  -0.2825  -0.0781   0.1720   0.1929   0.2856   0.2969
     0.3667   0.6164   0.8357   0.8437   0.9518   0.9764   0.9869   1.0540
     1.0611   1.0649   1.2649   1.2966   3.0724   3.9094   3.9271   4.0691
     4.1869   4.2075   4.2220   4.2751   4.2841   4.2850   4.4218   4.4229
     4.4946   4.4970   4.5674   4.6607   4.6842   4.6894   4.6927   4.7873
     4.7964   4.9219   4.9675   4.9704   5.0482   5.1997   5.2105   5.3029
     5.3582   5.3729   5.3963   5.4016   5.4072   6.0412   6.0474   6.1013
     6.6617   6.6657   6.7265   6.9920   7.0034   7.0384   7.5263   8.3341
     8.3375   8.4160   8.4669   8.4891   8.6872   8.7018   8.7889   8.8299
     8.8488   8.8502   8.8937   8.8988   8.9021   9.2875   9.2895   9.3232
     9.6852   9.7040   9.8996   9.9110   9.9450   9.9622   9.9641   9.9777
     9.9934  10.0276  10.0370  10.0477  10.1241  10.1403  10.2691  10.3239
    10.3338  11.0531  12.2859  12.4215  12.4304  13.9539  14.6931  14.7994
    17.3415  17.3769  17.4092  17.5225  17.5781  17.5818  17.8505  17.9244
    17.9349  18.0334  18.0665  18.3699  18.9905  19.0044  19.0248  20.6927
    20.7974  20.8242  20.8782  20.9427  20.9496  21.0250  21.0297  21.0414

     occupation numbers 
     1.0000   1.0000   1.0000   1.0000   1.0000   1.0000   1.0000   1.0000
     1.0000   1.0000   1.0000   1.0000   1.0000   1.0000   1.0000   1.0000
     1.0000   1.0000   1.0000   1.0000   1.0000   1.0000   1.0000   1.0000
     1.0000   1.0000   1.0000   1.0000   1.0000   1.0000   1.0000   1.0000
     1.0000   1.0000   1.0000   1.0000   1.0000   1.0000   1.0000   1.0000
     1.0000   1.0000   1.0000   1.0000   1.0000   1.0000   1.0000   1.0000
     1.0000   1.0000   1.0000   1.0000   1.0000   1.0000   1.0000   1.0000
     1.0000   1.0000   1.0000   1.0000   1.0000   1.0000   1.0000   1.0000
     1.0000   1.0000   1.0000   1.0000   1.0000   1.0000   1.0000   1.0000
     1.0000   1.0000   1.0000   1.0000   1.0000   1.0000   1.0000   1.0000
     1.0000   1.0000   1.0000   1.0000   1.0000   1.0000   1.0000   1.0000
     1.0000   1.0000   1.0000   1.0000   1.0000   1.0000   1.0000   1.0000
     1.0000   1.0000   1.0000   1.0000   1.0000   1.0000   1.0000   1.0000
     1.0000   1.0000   1.0000   1.0000   1.0000   1.0000   1.0000   1.0000
     1.0000   1.0000   1.0000   1.0000   1.0000   1.0000   1.0000   1.0000
     1.0000   1.0000   1.0000   1.0000   1.0000   1.0000   1.0000   1.0000
     0.0000   0.0000   0.0000   0.0000   0.0000   0.0000   0.0000   0.0000
     0.0000   0.0000   0.0000   0.0000   0.0000   0.0000   0.0000   0.0000
     0.0000   0.0000   0.0000   0.0000   0.0000   0.0000   0.0000   0.0000

 ------ SPIN DOWN ----------


          k = 0.0000 0.0000 0.0000 (  7386 PWs)   bands (ev):

    -8.5252  -6.9091  -6.2634  -6.2464  -6.1507  -6.1155  -5.8434  -4.8946
    -4.1226  -4.1054  -4.0844  -4.0608  -3.9964  -3.9822  -3.9639  -3.9053
    -3.8381  -3.8207  -3.3161  -2.9158  -2.6225  -2.6208  -2.0160  -0.3445
    -0.3357  -0.3054  -0.2653  -0.0131   0.1910   0.2103   0.3234   0.3303
     0.3916   0.6514   0.8479   0.8554   0.9862   1.0057   1.0123   1.0705
     1.0765   1.0818   1.4308   1.4667   3.1862   3.9326   3.9493   4.0952
     4.2223   4.2490   4.2645   4.2895   4.2985   4.3158   4.4696   4.4702
     4.5167   4.5173   4.5913   4.6847   4.7022   4.7067   4.7136   4.8217
     4.8331   4.9351   4.9997   5.0014   5.1296   5.2339   5.2454   5.3269
     5.3726   5.3835   5.4179   5.4540   5.4675   6.1037   6.1066   6.1392
     6.6882   6.6930   6.7609   7.0767   7.0889   7.0978   7.6963   8.3727
     8.3772   8.4531   8.5026   8.5232   8.7210   8.7331   8.8244   8.8760
     8.8801   8.8876   8.9239   8.9308   8.9349   9.3237   9.3263   9.3508
     9.7129   9.7314   9.9301   9.9397   9.9559   9.9759   9.9800   9.9965
    10.0128  10.0611  10.0630  10.0757  10.1519  10.1661  10.3268  10.3784
    10.3885  11.4327  12.5592  12.5703  12.5992  14.4375  16.0195  16.1390
    17.3666  17.3944  17.4263  17.5500  17.6331  17.6380  17.8733  17.9438
    17.9531  18.0734  18.1068  18.4895  19.0474  19.0743  19.1122  20.7431
    20.8116  20.8383  20.8930  20.9598  20.9673  21.0407  21.0540  21.0633

     occupation numbers 
     1.0000   1.0000   1.0000   1.0000   1.0000   1.0000   1.0000   1.0000
     1.0000   1.0000   1.0000   1.0000   1.0000   1.0000   1.0000   1.0000
     1.0000   1.0000   1.0000   1.0000   1.0000   1.0000   1.0000   1.0000
     1.0000   1.0000   1.0000   1.0000   1.0000   1.0000   1.0000   1.0000
     1.0000   1.0000   1.0000   1.0000   1.0000   1.0000   1.0000   1.0000
     1.0000   1.0000   1.0000   1.0000   1.0000   1.0000   1.0000   1.0000
     1.0000   1.0000   1.0000   1.0000   1.0000   1.0000   1.0000   1.0000
     1.0000   1.0000   1.0000   1.0000   1.0000   1.0000   1.0000   1.0000
     1.0000   1.0000   1.0000   1.0000   1.0000   1.0000   1.0000   1.0000
     1.0000   1.0000   1.0000   1.0000   1.0000   1.0000   1.0000   1.0000
     1.0000   1.0000   1.0000   1.0000   1.0000   1.0000   1.0000   1.0000
     1.0000   1.0000   1.0000   1.0000   1.0000   1.0000   1.0000   1.0000
     1.0000   1.0000   1.0000   1.0000   1.0000   1.0000   1.0000   1.0000
     1.0000   1.0000   1.0000   1.0000   1.0000   1.0000   1.0000   1.0000
     1.0000   1.0000   1.0000   1.0000   1.0000   1.0000   1.0000   1.0000
     1.0000   1.0000   1.0000   1.0000   1.0000   1.0000   0.0000   0.0000
     0.0000   0.0000   0.0000   0.0000   0.0000   0.0000   0.0000   0.0000
     0.0000   0.0000   0.0000   0.0000   0.0000   0.0000   0.0000   0.0000
     0.0000   0.0000   0.0000   0.0000   0.0000   0.0000   0.0000   0.0000

     highest occupied, lowest unoccupied level (ev):    14.7994   16.0195

!    total energy              =    -723.90738122 Ry
     estimated scf accuracy    <          5.7E-09 Ry

     The total energy is the sum of the following terms:
     one-electron contribution =     232.28537909 Ry
     hartree contribution      =      70.33528814 Ry
     xc contribution           =    -226.77196948 Ry
     ewald contribution        =    -799.75607898 Ry

     total magnetization       =     2.00 Bohr mag/cell
     absolute magnetization    =     2.30 Bohr mag/cell

     convergence has been achieved in  14 iterations

     Forces acting on atoms (cartesian axes, Ry/au):

     atom    1 type  1   force =    -0.00293860   -0.00401395   -0.00256876
     atom    2 type  2   force =     0.03527039    0.01575255   -0.01265031
     atom    3 type  2   force =    -0.00924643    0.00860307    0.00616456
     atom    4 type  2   force =     0.00890060    0.02474427   -0.00275606
     atom    5 type  2   force =     0.00232101   -0.02123577    0.00166460
     atom    6 type  2   force =    -0.00849205    0.00815398    0.04340157
     atom    7 type  2   force =     0.00960498    0.01146291   -0.00245503
     atom    8 type  2   force =     0.00298594    0.00432316    0.00652625
     atom    9 type  2   force =    -0.00210750   -0.00474057   -0.00297565
     atom   10 type  2   force =     0.00089389    0.00136266    0.00741025
     atom   11 type  2   force =    -0.02867531    0.00588924   -0.00875890
     atom   12 type  2   force =    -0.00003480    0.00390959    0.00341208
     atom   13 type  2   force =    -0.00282482   -0.03985089   -0.00180729
     atom   14 type  2   force =     0.00341932    0.00216916   -0.00435457
     atom   15 type  2   force =    -0.00275573   -0.00134809   -0.00568830
     atom   16 type  2   force =     0.00012198   -0.00092905   -0.00100280
     atom   17 type  2   force =    -0.00139155    0.00637735    0.00022276
     atom   18 type  2   force =     0.00294436   -0.00013354    0.00095642
     atom   19 type  2   force =    -0.00912733   -0.00317418   -0.00519653
     atom   20 type  2   force =     0.00302953   -0.00426660    0.00354314
     atom   21 type  2   force =    -0.00145502   -0.00349614   -0.00176876
     atom   22 type  2   force =     0.00140176    0.00219330    0.00126526
     atom   23 type  2   force =     0.00004645   -0.00769581   -0.00198552
     atom   24 type  2   force =     0.00955037    0.00530128    0.00418051
     atom   25 type  2   force =    -0.01231167   -0.01365211   -0.00399553
     atom   26 type  2   force =     0.01496503    0.00599351    0.00159683
     atom   27 type  2   force =    -0.02567672   -0.00863241   -0.00650188
     atom   28 type  2   force =     0.01060137    0.00058331    0.00596642
     atom   29 type  2   force =     0.00018124   -0.00104385   -0.00093533
     atom   30 type  2   force =     0.00760843    0.00641199    0.00420156
     atom   31 type  2   force =     0.00102169   -0.00161074   -0.00352831
     atom   32 type  2   force =     0.00314530    0.00390590    0.00136072
     atom   33 type  2   force =     0.00055039   -0.00444617   -0.00014844
     atom   34 type  2   force =    -0.00466479    0.00174813    0.00354074
     atom   35 type  2   force =    -0.00464941   -0.00145896   -0.00269601
     atom   36 type  2   force =     0.00069333    0.00438328   -0.00009945
     atom   37 type  2   force =     0.00069886   -0.03257823   -0.00715624
     atom   38 type  2   force =     0.00694047    0.00177255   -0.00024560
     atom   39 type  2   force =    -0.00939419    0.00549989   -0.01339145
     atom   40 type  2   force =     0.00529011    0.01261457    0.00489725
     atom   41 type  2   force =    -0.00736732   -0.01542925   -0.00368775
     atom   42 type  2   force =    -0.00001264    0.01738057    0.00595176
     atom   43 type  2   force =    -0.00123439    0.00018842   -0.00165541
     atom   44 type  2   force =     0.00472647    0.01708668    0.00307904
     atom   45 type  2   force =    -0.00744195   -0.02646308   -0.00668025
     atom   46 type  2   force =     0.00638480    0.01603167    0.00122849
     atom   47 type  2   force =    -0.00124956    0.00126516   -0.00183907
     atom   48 type  2   force =     0.00405546    0.00166143    0.00683294
     atom   49 type  2   force =    -0.00805959    0.00361393   -0.01033072
     atom   50 type  2   force =     0.00508970    0.00270610    0.00236875
     atom   51 type  2   force =    -0.00360052   -0.00239218   -0.00036925
     atom   52 type  2   force =     0.00731519   -0.00183136    0.00611126
     atom   53 type  2   force =    -0.00200388   -0.00241689   -0.00074153
     atom   54 type  2   force =     0.00166866    0.00139401    0.01501445
     atom   55 type  2   force =    -0.00772816   -0.00902758   -0.02453957
     atom   56 type  2   force =     0.00476672    0.00471503    0.00468420
     atom   57 type  2   force =    -0.00173756   -0.00069391   -0.00225985
     atom   58 type  2   force =     0.00147742    0.00415225    0.00326845
     atom   59 type  2   force =    -0.00157182   -0.00325337   -0.00309307
     atom   60 type  2   force =     0.00263702    0.00206386    0.00237202
     atom   61 type  2   force =    -0.00304549   -0.00122373   -0.00416656
     atom   62 type  2   force =     0.00403850    0.00457880    0.00119503
     atom   63 type  2   force =    -0.00354795   -0.00295514   -0.00038756
     The non-local contrib.  to forces
     atom    1 type  1   force =    -0.76113886   -0.76451917   -0.75916075
     atom    2 type  2   force =    -0.16447428    0.22030478    0.17797163
     atom    3 type  2   force =     0.05670041    0.08116856    0.07258784
     atom    4 type  2   force =     0.21544178   -0.18859150    0.19797651
     atom    5 type  2   force =     0.07305551    0.04271020    0.07020076
     atom    6 type  2   force =     0.17917783    0.20409694   -0.14640457
     atom    7 type  2   force =     0.07687029    0.08252800    0.06420883
     atom    8 type  2   force =    -0.00444000   -0.00460564    0.05675627
     atom    9 type  2   force =    -0.00558345   -0.00772191    0.01320330
     atom   10 type  2   force =    -0.04443417   -0.01414653   -0.01163330
     atom   11 type  2   force =    -0.10391529    0.06767727   -0.08323473
     atom   12 type  2   force =    -0.01735192   -0.04106658   -0.01459387
     atom   13 type  2   force =     0.05208799   -0.11636534   -0.07339093
     atom   14 type  2   force =     0.00263330    0.00049893    0.04562287
     atom   15 type  2   force =     0.01000953    0.00909227   -0.00369678
     atom   16 type  2   force =    -0.01241987    0.04855712   -0.01299731
     atom   17 type  2   force =    -0.00460958    0.02728575   -0.00324470
     atom   18 type  2   force =    -0.04108716   -0.02227621   -0.01555674
     atom   19 type  2   force =    -0.08119094   -0.07904289    0.05519165
     atom   20 type  2   force =     0.00441915    0.04465779    0.00485675
     atom   21 type  2   force =     0.00969694   -0.00369862    0.01223300
     atom   22 type  2   force =    -0.01450370   -0.02043342   -0.04280841
     atom   23 type  2   force =     0.06396283   -0.08522846   -0.07281240
     atom   24 type  2   force =    -0.06519483    0.03342388    0.03354099
     atom   25 type  2   force =    -0.02448011   -0.00016975    0.01392299
     atom   26 type  2   force =    -0.04135981   -0.02047216   -0.02401760
     atom   27 type  2   force =    -0.14711234    0.12521818    0.12349081
     atom   28 type  2   force =     0.08050930    0.02371505   -0.01214337
     atom   29 type  2   force =     0.00175604    0.01792301    0.00599573
     atom   30 type  2   force =     0.07625199   -0.01298213    0.02949276
     atom   31 type  2   force =     0.00335923    0.00328640    0.01670657
     atom   32 type  2   force =     0.05288854   -0.00637540   -0.00728149
     atom   33 type  2   force =     0.01820010   -0.00712522   -0.00374586
     atom   34 type  2   force =     0.04479232    0.00136499    0.00375682
     atom   35 type  2   force =    -0.00364852    0.00811940    0.01095105
     atom   36 type  2   force =    -0.01837928   -0.04010866   -0.01786102
     atom   37 type  2   force =    -0.07172157   -0.10849499    0.04782698
     atom   38 type  2   force =    -0.01363201   -0.01323556   -0.04520896
     atom   39 type  2   force =    -0.08631610    0.07075300   -0.08750603
     atom   40 type  2   force =     0.03512873   -0.05872842    0.03540311
     atom   41 type  2   force =     0.00899463   -0.02643722    0.01410467
     atom   42 type  2   force =     0.02093964    0.08869122   -0.00990013
     atom   43 type  2   force =     0.01724744   -0.00051539    0.00326980
     atom   44 type  2   force =    -0.02267086   -0.03713723   -0.02330470
     atom   45 type  2   force =     0.12489910   -0.14755301    0.12433138
     atom   46 type  2   force =    -0.00986030    0.08687976    0.02321616
     atom   47 type  2   force =     0.00336193    0.00122732    0.01614649
     atom   48 type  2   force =     0.03273693    0.02942696   -0.06852965
     atom   49 type  2   force =     0.00847870    0.02057881   -0.02311990
     atom   50 type  2   force =     0.03059173   -0.01834582    0.07136716
     atom   51 type  2   force =     0.01694861    0.00287683    0.00265627
     atom   52 type  2   force =    -0.01331063    0.02275744    0.07314368
     atom   53 type  2   force =     0.00366105    0.01736600    0.00060072
     atom   54 type  2   force =    -0.02343296   -0.02430225   -0.04356170
     atom   55 type  2   force =     0.12278062    0.12375801   -0.14666940
     atom   56 type  2   force =     0.02300746    0.02395415    0.02221997
     atom   57 type  2   force =     0.00517763    0.00499505    0.00536607
     atom   58 type  2   force =     0.01601617   -0.00654192   -0.00987771
     atom   59 type  2   force =     0.00793361   -0.01502799   -0.01493179
     atom   60 type  2   force =    -0.01046747    0.01814672   -0.01160436
     atom   61 type  2   force =    -0.01386283    0.00830790   -0.01639075
     atom   62 type  2   force =    -0.00818826   -0.00604654    0.01511368
     atom   63 type  2   force =    -0.01587558   -0.01504646    0.00843180
     The ionic contribution  to forces
     atom    1 type  1   force =     2.98180815    2.95128510    2.99850946
     atom    2 type  2   force =     2.41370109   -2.06184420   -2.21466907
     atom    3 type  2   force =     0.48077418   -0.73030837   -0.85179211
     atom    4 type  2   force =    -2.08874013    2.33140388   -2.15810918
     atom    5 type  2   force =    -0.77872844    0.39802277   -0.82621670
     atom    6 type  2   force =    -2.18797878   -2.10039944    2.45934187
     atom    7 type  2   force =    -0.83206358   -0.75330757    0.53697248
     atom    8 type  2   force =     0.25643023    0.21391274   -0.72744498
     atom    9 type  2   force =     0.06593231    0.02539068   -0.22423029
     atom   10 type  2   force =     0.18035581    0.06997180    0.56523803
     atom   11 type  2   force =    -0.52800064   -0.62744188    0.80256755
     atom   12 type  2   force =     0.02885928    0.15940574    0.55094613
     atom   13 type  2   force =    -0.66312144   -0.56935323    0.76118567
     atom   14 type  2   force =    -0.19462756   -0.18117082   -0.71445932
     atom   15 type  2   force =    -0.16951674   -0.13077400   -0.06819256
     atom   16 type  2   force =     0.20255771   -0.77281889    0.22442516
     atom   17 type  2   force =     0.07131441   -0.15325475    0.09375215
     atom   18 type  2   force =     0.22057971    0.47121373    0.00131529
     atom   19 type  2   force =    -0.36188700    0.74815228   -0.70747463
     atom   20 type  2   force =    -0.18333257   -0.72831705   -0.18942400
     atom   21 type  2   force =    -0.17451382   -0.05255793   -0.20020420
     atom   22 type  2   force =     0.03001825    0.48045864    0.23817293
     atom   23 type  2   force =    -0.68055870    0.77406710   -0.33164906
     atom   24 type  2   force =     0.10658272   -0.13542991   -0.17010903
     atom   25 type  2   force =    -0.02570247   -0.07816493   -0.07037146
     atom   26 type  2   force =     0.12968554   -0.09269901   -0.04859668
     atom   27 type  2   force =     1.14058019    0.24363743    0.25089103
     atom   28 type  2   force =    -0.08248498   -0.13481640    0.11237337
     atom   29 type  2   force =    -0.15447071    0.03652514    0.25698175
     atom   30 type  2   force =    -0.01929821    0.13926433   -0.23529885
     atom   31 type  2   force =    -0.15238333    0.17275124   -0.00827217
     atom   32 type  2   force =    -0.74112816    0.18767821    0.26460058
     atom   33 type  2   force =    -0.20210992    0.02075344    0.09135870
     atom   34 type  2   force =    -0.72020170   -0.18370957   -0.19695588
     atom   35 type  2   force =    -0.06356980   -0.13827148   -0.18973217
     atom   36 type  2   force =     0.51265906    0.16741923    0.00068068
     atom   37 type  2   force =     0.73643655   -0.50314994   -0.69215654
     atom   38 type  2   force =     0.54161502    0.06360579    0.20653886
     atom   39 type  2   force =     0.81611371   -0.64213144   -0.43107505
     atom   40 type  2   force =    -0.19618872    0.06007985   -0.21098939
     atom   41 type  2   force =    -0.07052432   -0.08999255   -0.06848471
     atom   42 type  2   force =    -0.13168147    0.02471749    0.08797963
     atom   43 type  2   force =     0.03293059   -0.11843474    0.24585363
     atom   44 type  2   force =    -0.07221938    0.12057557   -0.05312262
     atom   45 type  2   force =     0.24384505    1.15627071    0.24819851
     atom   46 type  2   force =     0.10040819    0.04838774   -0.16876281
     atom   47 type  2   force =     0.22413956   -0.11451800    0.01659257
     atom   48 type  2   force =    -0.15751058   -0.11176877    0.11183145
     atom   49 type  2   force =    -0.07518313   -0.01471933    0.00612954
     atom   50 type  2   force =    -0.21035968    0.15216824   -0.10886627
     atom   51 type  2   force =    -0.00977014    0.17001663   -0.18870850
     atom   52 type  2   force =     0.16527882   -0.17838832   -0.09510162
     atom   53 type  2   force =     0.22803914    0.01891362   -0.18208414
     atom   54 type  2   force =    -0.08896854   -0.09142934    0.16514726
     atom   55 type  2   force =     0.23678897    0.23845971    1.13208310
     atom   56 type  2   force =    -0.09205456   -0.02796678   -0.12221453
     atom   57 type  2   force =    -0.02256116   -0.03170910   -0.01945276
     atom   58 type  2   force =    -0.07575757    0.05023563    0.04255156
     atom   59 type  2   force =    -0.28475396    0.07263184    0.16219887
     atom   60 type  2   force =     0.06110275   -0.03372892    0.05647750
     atom   61 type  2   force =     0.13147865   -0.29747478    0.15874585
     atom   62 type  2   force =     0.02921709    0.03910468   -0.10181945
     atom   63 type  2   force =     0.12271911    0.07357046   -0.27360040
     The local contribution  to forces
     atom    1 type  1   force =    -2.22367257   -2.19079684   -2.24197394
     atom    2 type  2   force =    -2.21402955    1.85726250    2.02398846
     atom    3 type  2   force =    -0.54682109    0.65768062    0.78529945
     atom    4 type  2   force =     1.88210973   -2.11809809    1.95732180
     atom    5 type  2   force =     0.70789334   -0.46199459    0.75763411
     atom    6 type  2   force =     2.00021640    1.90443052   -2.26959842
     atom    7 type  2   force =     0.76469102    0.68219850   -0.60371063
     atom    8 type  2   force =    -0.24907009   -0.20499680    0.67716074
     atom    9 type  2   force =    -0.06252596   -0.02243142    0.20799537
     atom   10 type  2   force =    -0.13508505   -0.05450121   -0.54624701
     atom   11 type  2   force =     0.60317783    0.56560465   -0.72813650
     atom   12 type  2   force =    -0.01162363   -0.11446109   -0.53299172
     atom   13 type  2   force =     0.60810956    0.64584235   -0.68966117
     atom   14 type  2   force =     0.19531246    0.18280557    0.66443266
     atom   15 type  2   force =     0.15664198    0.12028036    0.06616538
     atom   16 type  2   force =    -0.19007781    0.72326000   -0.21247618
     atom   17 type  2   force =    -0.06816714    0.13226413   -0.09034754
     atom   18 type  2   force =    -0.17661098   -0.44913783    0.01513119
     atom   19 type  2   force =     0.43387869   -0.67232643    0.64703536
     atom   20 type  2   force =     0.18184215    0.67932651    0.18804391
     atom   21 type  2   force =     0.16325394    0.05270017    0.18614319
     atom   22 type  2   force =    -0.01419133   -0.45789780   -0.19416578
     atom   23 type  2   force =     0.61655336   -0.69658883    0.40240180
     atom   24 type  2   force =    -0.03189888    0.10722708    0.14068168
     atom   25 type  2   force =     0.03780561    0.06461167    0.05240370
     atom   26 type  2   force =    -0.07342616    0.11910861    0.07416582
     atom   27 type  2   force =    -1.01921789   -0.37752859   -0.38093784
     atom   28 type  2   force =     0.01249678    0.11161931   -0.09430854
     atom   29 type  2   force =     0.15279993   -0.05556199   -0.26396413
     atom   30 type  2   force =    -0.04942537   -0.11993253    0.20996109
     atom   31 type  2   force =     0.14994857   -0.17769075   -0.01200858
     atom   32 type  2   force =     0.69128717   -0.17743515   -0.25602682
     atom   33 type  2   force =     0.18437233   -0.01809996   -0.08782384
     atom   34 type  2   force =     0.67065217    0.18405829    0.19667509
     atom   35 type  2   force =     0.06249125    0.12863323    0.17601764
     atom   36 type  2   force =    -0.49366426   -0.12293900    0.01701278
     atom   37 type  2   force =    -0.66407478    0.57906867    0.63710024
     atom   38 type  2   force =    -0.52111985   -0.04863507   -0.16161726
     atom   39 type  2   force =    -0.73924823    0.57681350    0.50515203
     atom   40 type  2   force =     0.16624382    0.01123027    0.18044160
     atom   41 type  2   force =     0.05405910    0.10096501    0.05064230
     atom   42 type  2   force =     0.11061333   -0.09606508   -0.07217390
     atom   43 type  2   force =    -0.05152365    0.11909323   -0.25082420
     atom   44 type  2   force =     0.09952551   -0.06639168    0.07946094
     atom   45 type  2   force =    -0.37625303   -1.03521670   -0.37925092
     atom   46 type  2   force =    -0.08423435   -0.11927237    0.14670258
     atom   47 type  2   force =    -0.22881245    0.11450000   -0.03464835
     atom   48 type  2   force =     0.12872063    0.08394627   -0.03653495
     atom   49 type  2   force =     0.05854243   -0.00231417    0.00658335
     atom   50 type  2   force =     0.18474711   -0.13117764    0.03979885
     atom   51 type  2   force =    -0.01088691   -0.17532100    0.18562732
     atom   52 type  2   force =    -0.14472490    0.15371432    0.02800377
     atom   53 type  2   force =    -0.23376537   -0.03878696    0.18067875
     atom   54 type  2   force =     0.11397550    0.11706808   -0.10664068
     atom   55 type  2   force =    -0.36736936   -0.37127641   -1.01002743
     atom   56 type  2   force =     0.07370569    0.00866765    0.10463230
     atom   57 type  2   force =     0.01554153    0.02596098    0.01179123
     atom   58 type  2   force =     0.06111593   -0.03959827   -0.02944730
     atom   59 type  2   force =     0.27514756   -0.06090589   -0.15041312
     atom   60 type  2   force =    -0.04809054    0.01759442   -0.04254509
     atom   61 type  2   force =    -0.12073762    0.28788298   -0.14656967
     atom   62 type  2   force =    -0.01708013   -0.02853674    0.08786172
     atom   63 type  2   force =    -0.11046602   -0.06151867    0.26474305
     The core correction contribution to forces
     atom    1 type  1   force =     0.00000000    0.00000000    0.00000000
     atom    2 type  2   force =     0.00000000    0.00000000    0.00000000
     atom    3 type  2   force =     0.00000000    0.00000000    0.00000000
     atom    4 type  2   force =     0.00000000    0.00000000    0.00000000
     atom    5 type  2   force =     0.00000000    0.00000000    0.00000000
     atom    6 type  2   force =     0.00000000    0.00000000    0.00000000
     atom    7 type  2   force =     0.00000000    0.00000000    0.00000000
     atom    8 type  2   force =     0.00000000    0.00000000    0.00000000
     atom    9 type  2   force =     0.00000000    0.00000000    0.00000000
     atom   10 type  2   force =     0.00000000    0.00000000    0.00000000
     atom   11 type  2   force =     0.00000000    0.00000000    0.00000000
     atom   12 type  2   force =     0.00000000    0.00000000    0.00000000
     atom   13 type  2   force =     0.00000000    0.00000000    0.00000000
     atom   14 type  2   force =     0.00000000    0.00000000    0.00000000
     atom   15 type  2   force =     0.00000000    0.00000000    0.00000000
     atom   16 type  2   force =     0.00000000    0.00000000    0.00000000
     atom   17 type  2   force =     0.00000000    0.00000000    0.00000000
     atom   18 type  2   force =     0.00000000    0.00000000    0.00000000
     atom   19 type  2   force =     0.00000000    0.00000000    0.00000000
     atom   20 type  2   force =     0.00000000    0.00000000    0.00000000
     atom   21 type  2   force =     0.00000000    0.00000000    0.00000000
     atom   22 type  2   force =     0.00000000    0.00000000    0.00000000
     atom   23 type  2   force =     0.00000000    0.00000000    0.00000000
     atom   24 type  2   force =     0.00000000    0.00000000    0.00000000
     atom   25 type  2   force =     0.00000000    0.00000000    0.00000000
     atom   26 type  2   force =     0.00000000    0.00000000    0.00000000
     atom   27 type  2   force =     0.00000000    0.00000000    0.00000000
     atom   28 type  2   force =     0.00000000    0.00000000    0.00000000
     atom   29 type  2   force =     0.00000000    0.00000000    0.00000000
     atom   30 type  2   force =     0.00000000    0.00000000    0.00000000
     atom   31 type  2   force =     0.00000000    0.00000000    0.00000000
     atom   32 type  2   force =     0.00000000    0.00000000    0.00000000
     atom   33 type  2   force =     0.00000000    0.00000000    0.00000000
     atom   34 type  2   force =     0.00000000    0.00000000    0.00000000
     atom   35 type  2   force =     0.00000000    0.00000000    0.00000000
     atom   36 type  2   force =     0.00000000    0.00000000    0.00000000
     atom   37 type  2   force =     0.00000000    0.00000000    0.00000000
     atom   38 type  2   force =     0.00000000    0.00000000    0.00000000
     atom   39 type  2   force =     0.00000000    0.00000000    0.00000000
     atom   40 type  2   force =     0.00000000    0.00000000    0.00000000
     atom   41 type  2   force =     0.00000000    0.00000000    0.00000000
     atom   42 type  2   force =     0.00000000    0.00000000    0.00000000
     atom   43 type  2   force =     0.00000000    0.00000000    0.00000000
     atom   44 type  2   force =     0.00000000    0.00000000    0.00000000
     atom   45 type  2   force =     0.00000000    0.00000000    0.00000000
     atom   46 type  2   force =     0.00000000    0.00000000    0.00000000
     atom   47 type  2   force =     0.00000000    0.00000000    0.00000000
     atom   48 type  2   force =     0.00000000    0.00000000    0.00000000
     atom   49 type  2   force =     0.00000000    0.00000000    0.00000000
     atom   50 type  2   force =     0.00000000    0.00000000    0.00000000
     atom   51 type  2   force =     0.00000000    0.00000000    0.00000000
     atom   52 type  2   force =     0.00000000    0.00000000    0.00000000
     atom   53 type  2   force =     0.00000000    0.00000000    0.00000000
     atom   54 type  2   force =     0.00000000    0.00000000    0.00000000
     atom   55 type  2   force =     0.00000000    0.00000000    0.00000000
     atom   56 type  2   force =     0.00000000    0.00000000    0.00000000
     atom   57 type  2   force =     0.00000000    0.00000000    0.00000000
     atom   58 type  2   force =     0.00000000    0.00000000    0.00000000
     atom   59 type  2   force =     0.00000000    0.00000000    0.00000000
     atom   60 type  2   force =     0.00000000    0.00000000    0.00000000
     atom   61 type  2   force =     0.00000000    0.00000000    0.00000000
     atom   62 type  2   force =     0.00000000    0.00000000    0.00000000
     atom   63 type  2   force =     0.00000000    0.00000000    0.00000000
     The Hubbard contrib.    to forces
     atom    1 type  1   force =     0.00000000    0.00000000    0.00000000
     atom    2 type  2   force =     0.00000000    0.00000000    0.00000000
     atom    3 type  2   force =     0.00000000    0.00000000    0.00000000
     atom    4 type  2   force =     0.00000000    0.00000000    0.00000000
     atom    5 type  2   force =     0.00000000    0.00000000    0.00000000
     atom    6 type  2   force =     0.00000000    0.00000000    0.00000000
     atom    7 type  2   force =     0.00000000    0.00000000    0.00000000
     atom    8 type  2   force =     0.00000000    0.00000000    0.00000000
     atom    9 type  2   force =     0.00000000    0.00000000    0.00000000
     atom   10 type  2   force =     0.00000000    0.00000000    0.00000000
     atom   11 type  2   force =     0.00000000    0.00000000    0.00000000
     atom   12 type  2   force =     0.00000000    0.00000000    0.00000000
     atom   13 type  2   force =     0.00000000    0.00000000    0.00000000
     atom   14 type  2   force =     0.00000000    0.00000000    0.00000000
     atom   15 type  2   force =     0.00000000    0.00000000    0.00000000
     atom   16 type  2   force =     0.00000000    0.00000000    0.00000000
     atom   17 type  2   force =     0.00000000    0.00000000    0.00000000
     atom   18 type  2   force =     0.00000000    0.00000000    0.00000000
     atom   19 type  2   force =     0.00000000    0.00000000    0.00000000
     atom   20 type  2   force =     0.00000000    0.00000000    0.00000000
     atom   21 type  2   force =     0.00000000    0.00000000    0.00000000
     atom   22 type  2   force =     0.00000000    0.00000000    0.00000000
     atom   23 type  2   force =     0.00000000    0.00000000    0.00000000
     atom   24 type  2   force =     0.00000000    0.00000000    0.00000000
     atom   25 type  2   force =     0.00000000    0.00000000    0.00000000
     atom   26 type  2   force =     0.00000000    0.00000000    0.00000000
     atom   27 type  2   force =     0.00000000    0.00000000    0.00000000
     atom   28 type  2   force =     0.00000000    0.00000000    0.00000000
     atom   29 type  2   force =     0.00000000    0.00000000    0.00000000
     atom   30 type  2   force =     0.00000000    0.00000000    0.00000000
     atom   31 type  2   force =     0.00000000    0.00000000    0.00000000
     atom   32 type  2   force =     0.00000000    0.00000000    0.00000000
     atom   33 type  2   force =     0.00000000    0.00000000    0.00000000
     atom   34 type  2   force =     0.00000000    0.00000000    0.00000000
     atom   35 type  2   force =     0.00000000    0.00000000    0.00000000
     atom   36 type  2   force =     0.00000000    0.00000000    0.00000000
     atom   37 type  2   force =     0.00000000    0.00000000    0.00000000
     atom   38 type  2   force =     0.00000000    0.00000000    0.00000000
     atom   39 type  2   force =     0.00000000    0.00000000    0.00000000
     atom   40 type  2   force =     0.00000000    0.00000000    0.00000000
     atom   41 type  2   force =     0.00000000    0.00000000    0.00000000
     atom   42 type  2   force =     0.00000000    0.00000000    0.00000000
     atom   43 type  2   force =     0.00000000    0.00000000    0.00000000
     atom   44 type  2   force =     0.00000000    0.00000000    0.00000000
     atom   45 type  2   force =     0.00000000    0.00000000    0.00000000
     atom   46 type  2   force =     0.00000000    0.00000000    0.00000000
     atom   47 type  2   force =     0.00000000    0.00000000    0.00000000
     atom   48 type  2   force =     0.00000000    0.00000000    0.00000000
     atom   49 type  2   force =     0.00000000    0.00000000    0.00000000
     atom   50 type  2   force =     0.00000000    0.00000000    0.00000000
     atom   51 type  2   force =     0.00000000    0.00000000    0.00000000
     atom   52 type  2   force =     0.00000000    0.00000000    0.00000000
     atom   53 type  2   force =     0.00000000    0.00000000    0.00000000
     atom   54 type  2   force =     0.00000000    0.00000000    0.00000000
     atom   55 type  2   force =     0.00000000    0.00000000    0.00000000
     atom   56 type  2   force =     0.00000000    0.00000000    0.00000000
     atom   57 type  2   force =     0.00000000    0.00000000    0.00000000
     atom   58 type  2   force =     0.00000000    0.00000000    0.00000000
     atom   59 type  2   force =     0.00000000    0.00000000    0.00000000
     atom   60 type  2   force =     0.00000000    0.00000000    0.00000000
     atom   61 type  2   force =     0.00000000    0.00000000    0.00000000
     atom   62 type  2   force =     0.00000000    0.00000000    0.00000000
     atom   63 type  2   force =     0.00000000    0.00000000    0.00000000
     The SCF correction term to forces
     atom    1 type  1   force =    -0.00002099   -0.00003019    0.00000079
     atom    2 type  2   force =    -0.00001253   -0.00001770    0.00000298
     atom    3 type  2   force =     0.00001442    0.00001509    0.00001368
     atom    4 type  2   force =     0.00000355   -0.00001718   -0.00000088
     atom    5 type  2   force =     0.00001494   -0.00002131   -0.00000926
     atom    6 type  2   force =     0.00000683   -0.00002121    0.00000701
     atom    7 type  2   force =     0.00002159   -0.00000319    0.00001860
     atom    8 type  2   force =    -0.00001987   -0.00003430   -0.00000147
     atom    9 type  2   force =    -0.00001605   -0.00002507    0.00000027
     atom   10 type  2   force =    -0.00002837   -0.00000855   -0.00000316
     atom   11 type  2   force =    -0.00002287    0.00000204   -0.00001091
     atom   12 type  2   force =    -0.00000420   -0.00001564   -0.00000415
     atom   13 type  2   force =     0.00001341   -0.00002183    0.00000345
     atom   14 type  2   force =     0.00001545   -0.00001168   -0.00000647
     atom   15 type  2   force =     0.00002384    0.00000611   -0.00002003
     atom   16 type  2   force =    -0.00002371    0.00002556   -0.00001016
     atom   17 type  2   force =    -0.00001490    0.00003506    0.00000714
     atom   18 type  2   force =    -0.00002287    0.00001961    0.00001099
     atom   19 type  2   force =    -0.00001374   -0.00000431   -0.00000460
     atom   20 type  2   force =     0.00001514    0.00001899    0.00001079
     atom   21 type  2   force =     0.00002226    0.00001308    0.00000356
     atom   22 type  2   force =    -0.00000712    0.00001871    0.00001082
     atom   23 type  2   force =     0.00000329    0.00000722    0.00001845
     atom   24 type  2   force =    -0.00002430    0.00003307    0.00001119
     atom   25 type  2   force =    -0.00002036    0.00002373   -0.00000646
     atom   26 type  2   force =    -0.00002020    0.00000890   -0.00001040
     atom   27 type  2   force =    -0.00001235   -0.00000660   -0.00000158
     atom   28 type  2   force =    -0.00000540    0.00001819   -0.00001073
     atom   29 type  2   force =     0.00001032    0.00002281   -0.00000437
     atom   30 type  2   force =    -0.00000564    0.00001516   -0.00000914
     atom   31 type  2   force =     0.00001155   -0.00000479   -0.00000983
     atom   32 type  2   force =     0.00001209   -0.00000892    0.00001275
     atom   33 type  2   force =     0.00000222   -0.00002160    0.00000687
     atom   34 type  2   force =     0.00000676   -0.00001273    0.00000902
     atom   35 type  2   force =    -0.00000800    0.00001272    0.00001178
     atom   36 type  2   force =    -0.00000786   -0.00003545    0.00001242
     atom   37 type  2   force =    -0.00002700   -0.00004913    0.00001740
     atom   38 type  2   force =    -0.00000836   -0.00000977   -0.00001393
     atom   39 type  2   force =    -0.00002923    0.00001766   -0.00001809
     atom   40 type  2   force =     0.00002061   -0.00001430   -0.00001376
     atom   41 type  2   force =     0.00001762   -0.00001165   -0.00000570
     atom   42 type  2   force =     0.00003020   -0.00001023   -0.00000953
     atom   43 type  2   force =     0.00002556   -0.00000184   -0.00001035
     atom   44 type  2   force =     0.00000554   -0.00000715   -0.00001027
     atom   45 type  2   force =    -0.00001873   -0.00001124   -0.00001491
     atom   46 type  2   force =    -0.00001440   -0.00001063    0.00001687
     atom   47 type  2   force =    -0.00002427    0.00000868    0.00001453
     atom   48 type  2   force =     0.00002281    0.00000981    0.00001040
     atom   49 type  2   force =     0.00001675    0.00002147    0.00002059
     atom   50 type  2   force =     0.00002488    0.00001415    0.00001331
     atom   51 type  2   force =     0.00002226   -0.00001180   -0.00000004
     atom   52 type  2   force =    -0.00001376    0.00003804    0.00000974
     atom   53 type  2   force =    -0.00002436    0.00004329    0.00000744
     atom   54 type  2   force =     0.00000899    0.00001035    0.00001388
     atom   55 type  2   force =    -0.00001405   -0.00001605    0.00001846
     atom   56 type  2   force =     0.00002246    0.00001284   -0.00000924
     atom   57 type  2   force =     0.00001878    0.00001200   -0.00002009
     atom   58 type  2   force =     0.00001723    0.00000964   -0.00001380
     atom   59 type  2   force =     0.00001531    0.00000150   -0.00000272
     atom   60 type  2   force =     0.00000662    0.00000448   -0.00001172
     atom   61 type  2   force =    -0.00000935    0.00001301   -0.00000768
     atom   62 type  2   force =     0.00000414    0.00001023   -0.00001661
     atom   63 type  2   force =    -0.00001113   -0.00000763   -0.00001771

     Total force =     0.125354     Total SCF correction =     0.000223

     Writing all to output data dir ./pwscf.save/ :
     XML data file, charge density, pseudopotentials, collected wavefunctions
 
     init_run     :      0.21s CPU      0.52s WALL (       1 calls)
     electrons    :     14.16s CPU     14.40s WALL (       1 calls)
     forces       :      0.10s CPU      0.11s WALL (       1 calls)

     Called by init_run:
     wfcinit      :      0.06s CPU      0.07s WALL (       1 calls)
     wfcinit:wfcr :      0.06s CPU      0.06s WALL (       1 calls)
     potinit      :      0.04s CPU      0.06s WALL (       1 calls)
     hinit0       :      0.02s CPU      0.31s WALL (       1 calls)

     Called by electrons:
     c_bands      :      9.35s CPU      9.53s WALL (      14 calls)
     sum_band     :      1.31s CPU      1.33s WALL (      14 calls)
     v_of_rho     :      0.21s CPU      0.22s WALL (      15 calls)
     v_h          :      0.00s CPU      0.00s WALL (      15 calls)
     v_xc         :      0.21s CPU      0.21s WALL (      15 calls)
     mix_rho      :      0.10s CPU      0.10s WALL (      14 calls)

     Called by c_bands:
     init_us_2    :      0.02s CPU      0.03s WALL (      30 calls)
     regterg      :      8.16s CPU      8.33s WALL (      14 calls)

     Called by sum_band:
     sum_band:wei :      0.06s CPU      0.06s WALL (      14 calls)
     sum_band:loo :      0.85s CPU      0.86s WALL (      14 calls)
     sum_band:buf :      0.00s CPU      0.00s WALL (      14 calls)
     sum_band:ini :      0.01s CPU      0.01s WALL (      14 calls)

     Called by *egterg:
     rdiaghg      :      3.74s CPU      3.83s WALL (     269 calls)
     regterg:over :      0.55s CPU      0.56s WALL (     255 calls)
     regterg:upda :      0.35s CPU      0.36s WALL (     255 calls)
     regterg:last :      0.24s CPU      0.24s WALL (      51 calls)
     rdiaghg:chol :      0.13s CPU      0.14s WALL (     269 calls)
     rdiaghg:inve :      0.03s CPU      0.03s WALL (     269 calls)
     rdiaghg:para :      0.34s CPU      0.36s WALL (     538 calls)
     h_psi        :      3.08s CPU      3.13s WALL (     270 calls)
     g_psi        :      0.00s CPU      0.00s WALL (     255 calls)

     Called by h_psi:
     h_psi:calbec :      0.61s CPU      0.61s WALL (     270 calls)
     vloc_psi     :      2.36s CPU      2.39s WALL (     270 calls)
                                        0.00s GPU  (     270 calls)
     add_vuspsi   :      0.11s CPU      0.11s WALL (     270 calls)

     General routines
     calbec       :      0.70s CPU      0.71s WALL (     274 calls)
     fft          :      0.10s CPU      0.36s WALL (     196 calls)
     ffts         :      0.02s CPU      0.02s WALL (      14 calls)
     fftw         :      3.10s CPU      3.14s WALL (   10094 calls)
 
     Parallel routines
 
     PWSCF        :     16.35s CPU     17.07s WALL

 
   This run was terminated on:  16:56:27  16Nov2025            

=------------------------------------------------------------------------------=
   JOB DONE.
=------------------------------------------------------------------------------=
