
     Program PWSCF v.7.5 starts on 16Nov2025 at 16:46:48 

     This program is part of the open-source Quantum ESPRESSO suite
     for quantum simulation of materials; please cite
         "P. Giannozzi et al., J. Phys.:Condens. Matter 21 395502 (2009);
         "P. Giannozzi et al., J. Phys.:Condens. Matter 29 465901 (2017);
         "P. Giannozzi et al., J. Chem. Phys. 152 154105 (2020);
          URL http://www.quantum-espresso.org", 
     in publications or presentations arising from this work. More details at
     http://www.quantum-espresso.org/quote

     Parallel version (MPI), running on    96 processors

     MPI processes distributed on     2 nodes
     174422 MiB available memory on the printing compute node when the environment starts
 
     Reading input from supercell-262.in

     Current dimensions of program PWSCF are:
     Max number of different atomic species (ntypx) = 10
     Max number of k-points (npk) =  40000
     Max angular momentum in pseudopotentials (lmaxx) =  4

     gamma-point specific algorithms are used
 
     K-points division:     npool     =       2
     R & G space division:  proc/nbgrp/npool/nimage =      48
     Subspace diagonalization in iterative solution of the eigenvalue problem:
     one sub-group per band group will be used
     scalapack distributed-memory algorithm (size of sub-group:  2*  2 procs)

 
     Parallelization info
     --------------------
     sticks:   dense  smooth     PW     G-vecs:    dense   smooth      PW
     Min          59      59     14                 2432     2432     302
     Max          62      62     16                 2442     2442     316
     Sum        2885    2885    725               116921   116921   14771
 
     Using Slab Decomposition
 


     bravais-lattice index     =            0
     lattice parameter (alat)  =      13.4813  a.u.
     unit-cell volume          =    2450.1683 (a.u.)^3
     number of atoms/cell      =           63
     number of atomic types    =            2
     number of electrons       =       254.00 (up: 128.00, down: 126.00)
     number of Kohn-Sham states=          152
     kinetic-energy cutoff     =      50.0000  Ry
     charge density cutoff     =     200.0000  Ry
     scf convergence threshold =      1.0E-08
     mixing beta               =       0.7000
     number of iterations used =            8  plain     mixing
     Exchange-correlation= PBE
                           (   1   4   3   4   0   0   0)

     celldm(1)=  13.481306  celldm(2)=   0.000000  celldm(3)=   0.000000
     celldm(4)=   0.000000  celldm(5)=   0.000000  celldm(6)=   0.000000

     crystal axes: (cart. coord. in units of alat)
               a(1) = (   1.000000   0.000000   0.000000 )  
               a(2) = (   0.000000   1.000000   0.000000 )  
               a(3) = (   0.000000   0.000000   1.000000 )  

     reciprocal axes: (cart. coord. in units 2 pi/alat)
               b(1) = (  1.000000  0.000000  0.000000 )  
               b(2) = (  0.000000  1.000000  0.000000 )  
               b(3) = (  0.000000  0.000000  1.000000 )  


     PseudoPot. # 1 for N  read from file:
     ./N_ONCV_PBE-1.2.upf
     MD5 check sum: 5312fdf34e96954e02a33bdc911c617a
     Pseudo is Norm-conserving, Zval =  5.0
     Generated using ONCVPSP code by D. R. Hamann
     Using radial grid of  602 points,  4 beta functions with: 
                l(1) =   0
                l(2) =   0
                l(3) =   1
                l(4) =   1

     PseudoPot. # 2 for C  read from file:
     ./C_ONCV_PBE-1.2.upf
     MD5 check sum: d60b57d9bdca4133f5fde4b584ee909d
     Pseudo is Norm-conserving, Zval =  4.0
     Generated using ONCVPSP code by D. R. Hamann
     Using radial grid of  602 points,  4 beta functions with: 
                l(1) =   0
                l(2) =   0
                l(3) =   1
                l(4) =   1

     atomic species   valence    mass     pseudopotential
     N                 5.00    14.00670     N ( 1.00)
     C                 4.00    12.01070     C ( 1.00)

     Starting magnetic structure 
     atomic species   magnetization
     N               0.000
     C               0.000

     No symmetry found


                                    s                        frac. trans.

      isym =  1     identity                                     

 cryst.   s( 1) = (     1          0          0      )
                  (     0          1          0      )
                  (     0          0          1      )

 cart.    s( 1) = (  1.0000000  0.0000000  0.0000000 )
                  (  0.0000000  1.0000000  0.0000000 )
                  (  0.0000000  0.0000000  1.0000000 )


   Cartesian axes

     site n.     atom                  positions (alat units)
         1        N      tau(   1) = (   0.9893819   0.9897344   0.9891721  )
         2        C      tau(   2) = (   0.9870277   0.2601210   0.2640728  )
         3        C      tau(   3) = (   0.1231717   0.3731672   0.3742038  )
         4        C      tau(   4) = (   0.2603919   0.9894620   0.2619202  )
         5        C      tau(   5) = (   0.3737632   0.1246771   0.3741571  )
         6        C      tau(   6) = (   0.2640151   0.2616009   0.9853609  )
         7        C      tau(   7) = (   0.3737752   0.3731213   0.1223564  )
         8        C      tau(   8) = (   0.0000049   0.0005840   0.4991361  )
         9        C      tau(   9) = (   0.1251361   0.1251278   0.6250981  )
        10        C      tau(  10) = (   0.0020393   0.2482470   0.7515266  )
        11        C      tau(  11) = (   0.1292009   0.3733021   0.8763303  )
        12        C      tau(  12) = (   0.2487801   0.0017974   0.7514403  )
        13        C      tau(  13) = (   0.3754339   0.1292460   0.8748544  )
        14        C      tau(  14) = (   0.2491579   0.2495268   0.4995755  )
        15        C      tau(  15) = (   0.3750038   0.3749547   0.6244069  )
        16        C      tau(  16) = (   0.0016366   0.4979779   0.0013734  )
        17        C      tau(  17) = (   0.1250869   0.6243147   0.1250807  )
        18        C      tau(  18) = (   0.0014462   0.7520697   0.2483230  )
        19        C      tau(  19) = (   0.1266755   0.8769178   0.3741906  )
        20        C      tau(  20) = (   0.2488290   0.4983596   0.2486760  )
        21        C      tau(  21) = (   0.3741642   0.6242659   0.3742111  )
        22        C      tau(  22) = (   0.2480673   0.7520817   0.0015447  )
        23        C      tau(  23) = (   0.3729914   0.8777475   0.1265606  )
        24        C      tau(  24) = (   0.0000493   0.5010760   0.5011299  )
        25        C      tau(  25) = (   0.1252054   0.6262200   0.6252733  )
        26        C      tau(  26) = (   0.9993969   0.7487112   0.7492532  )
        27        C      tau(  27) = (   0.1217927   0.8768349   0.8763928  )
        28        C      tau(  28) = (   0.2492749   0.5017254   0.7482724  )
        29        C      tau(  29) = (   0.3741000   0.6263042   0.8750769  )
        30        C      tau(  30) = (   0.2487293   0.7486845   0.5007616  )
        31        C      tau(  31) = (   0.3739266   0.8750581   0.6258828  )
        32        C      tau(  32) = (   0.4987543   0.0011228   0.0002828  )
        33        C      tau(  33) = (   0.6248203   0.1251003   0.1251034  )
        34        C      tau(  34) = (   0.4991217   0.2493918   0.2488717  )
        35        C      tau(  35) = (   0.6243080   0.3746888   0.3747831  )
        36        C      tau(  36) = (   0.7516460   0.0016191   0.2487956  )
        37        C      tau(  37) = (   0.8750430   0.1283649   0.3757598  )
        38        C      tau(  38) = (   0.7517475   0.2480080   0.0019610  )
        39        C      tau(  39) = (   0.8773622   0.3724247   0.1282033  )
        40        C      tau(  40) = (   0.5008161   0.9999897   0.5008301  )
        41        C      tau(  41) = (   0.6256173   0.1249721   0.6252590  )
        42        C      tau(  42) = (   0.5022259   0.2488088   0.7478265  )
        43        C      tau(  43) = (   0.6264784   0.3739683   0.8752045  )
        44        C      tau(  44) = (   0.7487945   0.9974210   0.7489691  )
        45        C      tau(  45) = (   0.8764746   0.1216998   0.8763156  )
        46        C      tau(  46) = (   0.7479635   0.2486819   0.5018806  )
        47        C      tau(  47) = (   0.8751980   0.3739245   0.6263738  )
        48        C      tau(  48) = (   0.5012000   0.5011574   0.0001136  )
        49        C      tau(  49) = (   0.6256259   0.6262099   0.1252968  )
        50        C      tau(  50) = (   0.5005188   0.7489091   0.2490095  )
        51        C      tau(  51) = (   0.6258050   0.8750157   0.3740056  )
        52        C      tau(  52) = (   0.7486304   0.5011458   0.2494302  )
        53        C      tau(  53) = (   0.8750247   0.6261269   0.3741365  )
        54        C      tau(  54) = (   0.7492281   0.7488562   0.9996087  )
        55        C      tau(  55) = (   0.8766209   0.8769033   0.1218021  )
        56        C      tau(  56) = (   0.4990819   0.4992903   0.4990317  )
        57        C      tau(  57) = (   0.6247789   0.6244471   0.6249452  )
        58        C      tau(  58) = (   0.4991767   0.7499842   0.7500845  )
        59        C      tau(  59) = (   0.6239946   0.8751464   0.8754130  )
        60        C      tau(  60) = (   0.7505316   0.4989321   0.7505826  )
        61        C      tau(  61) = (   0.8758455   0.6234984   0.8759288  )
        62        C      tau(  62) = (   0.7498244   0.7497799   0.4993198  )
        63        C      tau(  63) = (   0.8750855   0.8749084   0.6242568  )

   Crystallographic axes

     site n.     atom                  positions (cryst. coord.)
         1        N      tau(   1) = (  0.9893819  0.9897344  0.9891721  )
         2        C      tau(   2) = (  0.9870277  0.2601210  0.2640728  )
         3        C      tau(   3) = (  0.1231717  0.3731672  0.3742038  )
         4        C      tau(   4) = (  0.2603919  0.9894620  0.2619202  )
         5        C      tau(   5) = (  0.3737632  0.1246771  0.3741571  )
         6        C      tau(   6) = (  0.2640151  0.2616009  0.9853609  )
         7        C      tau(   7) = (  0.3737752  0.3731213  0.1223564  )
         8        C      tau(   8) = (  0.0000049  0.0005840  0.4991361  )
         9        C      tau(   9) = (  0.1251361  0.1251278  0.6250981  )
        10        C      tau(  10) = (  0.0020393  0.2482470  0.7515266  )
        11        C      tau(  11) = (  0.1292009  0.3733021  0.8763303  )
        12        C      tau(  12) = (  0.2487801  0.0017974  0.7514403  )
        13        C      tau(  13) = (  0.3754339  0.1292460  0.8748544  )
        14        C      tau(  14) = (  0.2491579  0.2495268  0.4995755  )
        15        C      tau(  15) = (  0.3750038  0.3749547  0.6244069  )
        16        C      tau(  16) = (  0.0016366  0.4979779  0.0013734  )
        17        C      tau(  17) = (  0.1250869  0.6243147  0.1250807  )
        18        C      tau(  18) = (  0.0014462  0.7520697  0.2483230  )
        19        C      tau(  19) = (  0.1266755  0.8769178  0.3741906  )
        20        C      tau(  20) = (  0.2488290  0.4983596  0.2486760  )
        21        C      tau(  21) = (  0.3741642  0.6242659  0.3742111  )
        22        C      tau(  22) = (  0.2480673  0.7520817  0.0015447  )
        23        C      tau(  23) = (  0.3729914  0.8777475  0.1265606  )
        24        C      tau(  24) = (  0.0000493  0.5010760  0.5011299  )
        25        C      tau(  25) = (  0.1252054  0.6262200  0.6252733  )
        26        C      tau(  26) = (  0.9993969  0.7487112  0.7492532  )
        27        C      tau(  27) = (  0.1217927  0.8768349  0.8763928  )
        28        C      tau(  28) = (  0.2492749  0.5017254  0.7482724  )
        29        C      tau(  29) = (  0.3741000  0.6263042  0.8750769  )
        30        C      tau(  30) = (  0.2487293  0.7486845  0.5007616  )
        31        C      tau(  31) = (  0.3739266  0.8750581  0.6258828  )
        32        C      tau(  32) = (  0.4987543  0.0011228  0.0002828  )
        33        C      tau(  33) = (  0.6248203  0.1251003  0.1251034  )
        34        C      tau(  34) = (  0.4991217  0.2493918  0.2488717  )
        35        C      tau(  35) = (  0.6243080  0.3746888  0.3747831  )
        36        C      tau(  36) = (  0.7516460  0.0016191  0.2487956  )
        37        C      tau(  37) = (  0.8750430  0.1283649  0.3757598  )
        38        C      tau(  38) = (  0.7517475  0.2480080  0.0019610  )
        39        C      tau(  39) = (  0.8773622  0.3724247  0.1282033  )
        40        C      tau(  40) = (  0.5008161  0.9999897  0.5008301  )
        41        C      tau(  41) = (  0.6256173  0.1249721  0.6252590  )
        42        C      tau(  42) = (  0.5022259  0.2488088  0.7478265  )
        43        C      tau(  43) = (  0.6264784  0.3739683  0.8752045  )
        44        C      tau(  44) = (  0.7487945  0.9974210  0.7489691  )
        45        C      tau(  45) = (  0.8764746  0.1216998  0.8763156  )
        46        C      tau(  46) = (  0.7479635  0.2486819  0.5018806  )
        47        C      tau(  47) = (  0.8751980  0.3739245  0.6263738  )
        48        C      tau(  48) = (  0.5012000  0.5011574  0.0001136  )
        49        C      tau(  49) = (  0.6256259  0.6262099  0.1252968  )
        50        C      tau(  50) = (  0.5005188  0.7489091  0.2490095  )
        51        C      tau(  51) = (  0.6258050  0.8750157  0.3740056  )
        52        C      tau(  52) = (  0.7486304  0.5011458  0.2494302  )
        53        C      tau(  53) = (  0.8750247  0.6261269  0.3741365  )
        54        C      tau(  54) = (  0.7492281  0.7488562  0.9996087  )
        55        C      tau(  55) = (  0.8766209  0.8769033  0.1218021  )
        56        C      tau(  56) = (  0.4990819  0.4992903  0.4990317  )
        57        C      tau(  57) = (  0.6247789  0.6244471  0.6249452  )
        58        C      tau(  58) = (  0.4991767  0.7499842  0.7500845  )
        59        C      tau(  59) = (  0.6239946  0.8751464  0.8754130  )
        60        C      tau(  60) = (  0.7505316  0.4989321  0.7505826  )
        61        C      tau(  61) = (  0.8758455  0.6234984  0.8759288  )
        62        C      tau(  62) = (  0.7498244  0.7497799  0.4993198  )
        63        C      tau(  63) = (  0.8750855  0.8749084  0.6242568  )

     number of k points=     1
                       cart. coord. in units 2pi/alat
        k(    1) = (   0.0000000   0.0000000   0.0000000), wk =   1.0000000

                       cryst. coord.
        k(    1) = (   0.0000000   0.0000000   0.0000000), wk =   1.0000000

     Dense  grid:    58461 G-vectors     FFT dimensions: (  64,  64,  64)

     Dynamical RAM for                 wfc:       0.35 MB

     Dynamical RAM for     wfc (w. buffer):       0.35 MB

     Dynamical RAM for           str. fact:       0.04 MB

     Dynamical RAM for           local pot:       0.00 MB

     Dynamical RAM for          nlocal pot:       1.17 MB

     Dynamical RAM for                qrad:       0.65 MB

     Dynamical RAM for          rho,v,vnew:       0.49 MB

     Dynamical RAM for               rhoin:       0.16 MB

     Dynamical RAM for            rho*nmix:       0.60 MB

     Dynamical RAM for           G-vectors:       0.08 MB

     Dynamical RAM for          h,s,v(r/c):       0.53 MB

     Dynamical RAM for          <psi|beta>:       0.58 MB

     Dynamical RAM for                 psi:       0.71 MB

     Dynamical RAM for                hpsi:       0.71 MB

     Dynamical RAM for      wfcinit/wfcrot:       1.24 MB

     Estimated static dynamical RAM per process >       3.37 MB

     Estimated max dynamical RAM per process >       6.49 MB

     Estimated total dynamical RAM >     594.05 MB
     Generating pointlists ...
     new r_m :   0.0854 (alat units)  1.1518 (a.u.) for type    1
     new r_m :   0.0847 (alat units)  1.1416 (a.u.) for type    2

     Initial potential from superposition of free atoms

     starting charge     252.5655, renormalised to     254.0000
     Starting wfcs are random

     total cpu time spent up to now is        0.9 secs

     Self-consistent Calculation

     iteration #  1     ecut=    50.00 Ry     beta= 0.70
     Davidson diagonalization with overlap

---- Real-time Memory Report at c_bands before calling an iterative solver
           160 MiB given to the printing process from OS
             0 MiB allocation reported by mallinfo(arena+hblkhd)
        173466 MiB available memory on the node where the printing process lives
------------------
     ethr =  1.00E-02,  avg # of iterations = 12.0

     total cpu time spent up to now is        1.6 secs

     total energy              =    -723.26973493 Ry
     estimated scf accuracy    <       3.70846106 Ry

     total magnetization       =     2.00 Bohr mag/cell
     absolute magnetization    =     2.00 Bohr mag/cell

     iteration #  2     ecut=    50.00 Ry     beta= 0.70
     Davidson diagonalization with overlap

---- Real-time Memory Report at c_bands before calling an iterative solver
           166 MiB given to the printing process from OS
             0 MiB allocation reported by mallinfo(arena+hblkhd)
        173394 MiB available memory on the node where the printing process lives
------------------
     ethr =  1.46E-03,  avg # of iterations = 12.5

     total cpu time spent up to now is        2.1 secs

     total energy              =    -723.66205170 Ry
     estimated scf accuracy    <       0.45462947 Ry

     total magnetization       =     2.00 Bohr mag/cell
     absolute magnetization    =     2.07 Bohr mag/cell

     iteration #  3     ecut=    50.00 Ry     beta= 0.70
     Davidson diagonalization with overlap

---- Real-time Memory Report at c_bands before calling an iterative solver
           166 MiB given to the printing process from OS
             0 MiB allocation reported by mallinfo(arena+hblkhd)
        173385 MiB available memory on the node where the printing process lives
------------------
     c_bands:  2 eigenvalues not converged
     ethr =  1.79E-04,  avg # of iterations = 20.0

     total cpu time spent up to now is        2.5 secs

     total energy              =    -723.72718745 Ry
     estimated scf accuracy    <       0.86331677 Ry

     total magnetization       =     2.00 Bohr mag/cell
     absolute magnetization    =     2.12 Bohr mag/cell

     iteration #  4     ecut=    50.00 Ry     beta= 0.70
     Davidson diagonalization with overlap

---- Real-time Memory Report at c_bands before calling an iterative solver
           167 MiB given to the printing process from OS
             0 MiB allocation reported by mallinfo(arena+hblkhd)
        173394 MiB available memory on the node where the printing process lives
------------------
     c_bands:  1 eigenvalues not converged
     ethr =  1.79E-04,  avg # of iterations = 20.0

     total cpu time spent up to now is        3.3 secs

     total energy              =    -723.90086566 Ry
     estimated scf accuracy    <       0.00986035 Ry

     total magnetization       =     2.00 Bohr mag/cell
     absolute magnetization    =     2.19 Bohr mag/cell

     iteration #  5     ecut=    50.00 Ry     beta= 0.70
     Davidson diagonalization with overlap

---- Real-time Memory Report at c_bands before calling an iterative solver
           167 MiB given to the printing process from OS
             0 MiB allocation reported by mallinfo(arena+hblkhd)
        173388 MiB available memory on the node where the printing process lives
------------------
     c_bands:  3 eigenvalues not converged
     ethr =  3.88E-06,  avg # of iterations = 20.0

     total cpu time spent up to now is        3.7 secs

     total energy              =    -723.90572550 Ry
     estimated scf accuracy    <       0.00401341 Ry

     total magnetization       =     2.00 Bohr mag/cell
     absolute magnetization    =     2.23 Bohr mag/cell

     iteration #  6     ecut=    50.00 Ry     beta= 0.70
     Davidson diagonalization with overlap

---- Real-time Memory Report at c_bands before calling an iterative solver
           167 MiB given to the printing process from OS
             0 MiB allocation reported by mallinfo(arena+hblkhd)
        173387 MiB available memory on the node where the printing process lives
------------------
     c_bands:  2 eigenvalues not converged
     ethr =  1.58E-06,  avg # of iterations = 20.0

     total cpu time spent up to now is        5.0 secs

     total energy              =    -723.90646516 Ry
     estimated scf accuracy    <       0.00087808 Ry

     total magnetization       =     2.00 Bohr mag/cell
     absolute magnetization    =     2.25 Bohr mag/cell

     iteration #  7     ecut=    50.00 Ry     beta= 0.70
     Davidson diagonalization with overlap

---- Real-time Memory Report at c_bands before calling an iterative solver
           167 MiB given to the printing process from OS
             0 MiB allocation reported by mallinfo(arena+hblkhd)
        173380 MiB available memory on the node where the printing process lives
------------------
     c_bands:  1 eigenvalues not converged
     ethr =  3.46E-07,  avg # of iterations = 20.0

     total cpu time spent up to now is        5.4 secs

     total energy              =    -723.90669069 Ry
     estimated scf accuracy    <       0.00012215 Ry

     total magnetization       =     2.00 Bohr mag/cell
     absolute magnetization    =     2.27 Bohr mag/cell

     iteration #  8     ecut=    50.00 Ry     beta= 0.70
     Davidson diagonalization with overlap

---- Real-time Memory Report at c_bands before calling an iterative solver
           167 MiB given to the printing process from OS
             0 MiB allocation reported by mallinfo(arena+hblkhd)
        173370 MiB available memory on the node where the printing process lives
------------------
     c_bands:  2 eigenvalues not converged
     ethr =  4.81E-08,  avg # of iterations = 20.0

     total cpu time spent up to now is        6.1 secs

     total energy              =    -723.90673164 Ry
     estimated scf accuracy    <       0.00002701 Ry

     total magnetization       =     2.00 Bohr mag/cell
     absolute magnetization    =     2.28 Bohr mag/cell

     iteration #  9     ecut=    50.00 Ry     beta= 0.70
     Davidson diagonalization with overlap

---- Real-time Memory Report at c_bands before calling an iterative solver
           168 MiB given to the printing process from OS
             0 MiB allocation reported by mallinfo(arena+hblkhd)
        173373 MiB available memory on the node where the printing process lives
------------------
     c_bands:  3 eigenvalues not converged
     ethr =  1.06E-08,  avg # of iterations = 20.0

     total cpu time spent up to now is        6.7 secs

     total energy              =    -723.90674183 Ry
     estimated scf accuracy    <       0.00000741 Ry

     total magnetization       =     2.00 Bohr mag/cell
     absolute magnetization    =     2.29 Bohr mag/cell

     iteration # 10     ecut=    50.00 Ry     beta= 0.70
     Davidson diagonalization with overlap

---- Real-time Memory Report at c_bands before calling an iterative solver
           168 MiB given to the printing process from OS
             0 MiB allocation reported by mallinfo(arena+hblkhd)
        173375 MiB available memory on the node where the printing process lives
------------------
     c_bands:  3 eigenvalues not converged
     ethr =  2.92E-09,  avg # of iterations = 20.0

     total cpu time spent up to now is        7.2 secs

     total energy              =    -723.90674527 Ry
     estimated scf accuracy    <       0.00000083 Ry

     total magnetization       =     2.00 Bohr mag/cell
     absolute magnetization    =     2.30 Bohr mag/cell

     iteration # 11     ecut=    50.00 Ry     beta= 0.70
     Davidson diagonalization with overlap

---- Real-time Memory Report at c_bands before calling an iterative solver
           168 MiB given to the printing process from OS
             0 MiB allocation reported by mallinfo(arena+hblkhd)
        173383 MiB available memory on the node where the printing process lives
------------------
     c_bands:  1 eigenvalues not converged
     ethr =  3.27E-10,  avg # of iterations = 20.0

     total cpu time spent up to now is        8.3 secs

     total energy              =    -723.90674589 Ry
     estimated scf accuracy    <       0.00000025 Ry

     total magnetization       =     2.00 Bohr mag/cell
     absolute magnetization    =     2.30 Bohr mag/cell

     iteration # 12     ecut=    50.00 Ry     beta= 0.70
     Davidson diagonalization with overlap

---- Real-time Memory Report at c_bands before calling an iterative solver
           168 MiB given to the printing process from OS
             0 MiB allocation reported by mallinfo(arena+hblkhd)
        173385 MiB available memory on the node where the printing process lives
------------------
     ethr =  9.68E-11,  avg # of iterations = 16.5

     total cpu time spent up to now is        9.0 secs

     total energy              =    -723.90674601 Ry
     estimated scf accuracy    <       0.00000010 Ry

     total magnetization       =     2.00 Bohr mag/cell
     absolute magnetization    =     2.30 Bohr mag/cell

     iteration # 13     ecut=    50.00 Ry     beta= 0.70
     Davidson diagonalization with overlap

---- Real-time Memory Report at c_bands before calling an iterative solver
           168 MiB given to the printing process from OS
             0 MiB allocation reported by mallinfo(arena+hblkhd)
        173386 MiB available memory on the node where the printing process lives
------------------
     ethr =  3.81E-11,  avg # of iterations = 17.0

     total cpu time spent up to now is       10.2 secs

     total energy              =    -723.90674605 Ry
     estimated scf accuracy    <       0.00000003 Ry

     total magnetization       =     2.00 Bohr mag/cell
     absolute magnetization    =     2.30 Bohr mag/cell

     iteration # 14     ecut=    50.00 Ry     beta= 0.70
     Davidson diagonalization with overlap

---- Real-time Memory Report at c_bands before calling an iterative solver
           168 MiB given to the printing process from OS
             0 MiB allocation reported by mallinfo(arena+hblkhd)
        173390 MiB available memory on the node where the printing process lives
------------------
     ethr =  9.96E-12,  avg # of iterations = 16.5
 
     Magnetic moment per site  (integrated on atomic sphere of radius R)
     atom   1 (R=0.085)  charge=  2.9144  magn=  0.0042
     atom   2 (R=0.085)  charge=  1.8170  magn=  0.2449
     atom   3 (R=0.085)  charge=  1.7930  magn= -0.0087
     atom   4 (R=0.085)  charge=  1.8051  magn=  0.2456
     atom   5 (R=0.085)  charge=  1.7932  magn= -0.0087
     atom   6 (R=0.085)  charge=  1.8233  magn=  0.2449
     atom   7 (R=0.085)  charge=  1.7933  magn= -0.0087
     atom   8 (R=0.085)  charge=  1.7860  magn=  0.0091
     atom   9 (R=0.085)  charge=  1.7963  magn= -0.0019
     atom  10 (R=0.085)  charge=  1.7833  magn=  0.0060
     atom  11 (R=0.085)  charge=  1.7969  magn= -0.0042
     atom  12 (R=0.085)  charge=  1.7823  magn=  0.0061
     atom  13 (R=0.085)  charge=  1.8039  magn= -0.0039
     atom  14 (R=0.085)  charge=  1.7892  magn=  0.0085
     atom  15 (R=0.085)  charge=  1.7872  magn= -0.0020
     atom  16 (R=0.085)  charge=  1.7820  magn=  0.0089
     atom  17 (R=0.085)  charge=  1.7956  magn= -0.0018
     atom  18 (R=0.085)  charge=  1.7822  magn=  0.0057
     atom  19 (R=0.085)  charge=  1.7952  magn= -0.0035
     atom  20 (R=0.085)  charge=  1.7834  magn=  0.0083
     atom  21 (R=0.085)  charge=  1.7847  magn= -0.0020
     atom  22 (R=0.085)  charge=  1.7829  magn=  0.0057
     atom  23 (R=0.085)  charge=  1.7904  magn= -0.0037
     atom  24 (R=0.085)  charge=  1.7825  magn=  0.0182
     atom  25 (R=0.085)  charge=  1.8068  magn=  0.0094
     atom  26 (R=0.085)  charge=  1.7936  magn=  0.0032
     atom  27 (R=0.085)  charge=  1.7589  magn=  0.0000
     atom  28 (R=0.085)  charge=  1.7896  magn=  0.0221
     atom  29 (R=0.085)  charge=  1.7825  magn= -0.0014
     atom  30 (R=0.085)  charge=  1.7901  magn=  0.0211
     atom  31 (R=0.085)  charge=  1.7823  magn= -0.0013
     atom  32 (R=0.085)  charge=  1.7843  magn=  0.0090
     atom  33 (R=0.085)  charge=  1.7960  magn= -0.0019
     atom  34 (R=0.085)  charge=  1.7868  magn=  0.0084
     atom  35 (R=0.085)  charge=  1.7865  magn= -0.0020
     atom  36 (R=0.085)  charge=  1.7818  magn=  0.0059
     atom  37 (R=0.085)  charge=  1.8033  magn= -0.0036
     atom  38 (R=0.085)  charge=  1.7835  magn=  0.0058
     atom  39 (R=0.085)  charge=  1.7913  magn= -0.0041
     atom  40 (R=0.085)  charge=  1.7836  magn=  0.0181
     atom  41 (R=0.085)  charge=  1.8090  magn=  0.0094
     atom  42 (R=0.085)  charge=  1.7947  magn=  0.0218
     atom  43 (R=0.085)  charge=  1.7819  magn= -0.0013
     atom  44 (R=0.085)  charge=  1.7934  magn=  0.0032
     atom  45 (R=0.085)  charge=  1.7572  magn= -0.0000
     atom  46 (R=0.085)  charge=  1.7947  magn=  0.0214
     atom  47 (R=0.085)  charge=  1.7819  magn= -0.0013
     atom  48 (R=0.085)  charge=  1.7819  magn=  0.0184
     atom  49 (R=0.085)  charge=  1.8043  magn=  0.0094
     atom  50 (R=0.085)  charge=  1.7873  magn=  0.0212
     atom  51 (R=0.085)  charge=  1.7825  magn= -0.0013
     atom  52 (R=0.085)  charge=  1.7869  magn=  0.0218
     atom  53 (R=0.085)  charge=  1.7826  magn= -0.0013
     atom  54 (R=0.085)  charge=  1.7936  magn=  0.0032
     atom  55 (R=0.085)  charge=  1.7588  magn=  0.0001
     atom  56 (R=0.085)  charge=  1.7914  magn=  0.0009
     atom  57 (R=0.085)  charge=  1.7832  magn=  0.0010
     atom  58 (R=0.085)  charge=  1.7915  magn=  0.0018
     atom  59 (R=0.085)  charge=  1.7898  magn= -0.0009
     atom  60 (R=0.085)  charge=  1.7911  magn=  0.0017
     atom  61 (R=0.085)  charge=  1.7855  magn= -0.0009
     atom  62 (R=0.085)  charge=  1.7914  magn=  0.0019
     atom  63 (R=0.085)  charge=  1.7910  magn= -0.0009

     total cpu time spent up to now is       10.9 secs

     End of self-consistent calculation

 ------ SPIN UP ------------


          k = 0.0000 0.0000 0.0000 (  7386 PWs)   bands (ev):

    -8.5507  -6.9214  -6.2813  -6.2700  -6.1948  -6.1583  -5.8853  -4.9115
    -4.1397  -4.1292  -4.1239  -4.0886  -4.0339  -4.0193  -4.0127  -3.9263
    -3.8733  -3.8613  -3.3564  -2.9322  -2.6768  -2.6736  -2.1616  -0.3619
    -0.3529  -0.3283  -0.2830  -0.0757   0.1709   0.1890   0.2812   0.2963
     0.3707   0.6193   0.8402   0.8453   0.9516   0.9704   0.9896   1.0539
     1.0594   1.0632   1.2670   1.2960   3.0736   3.9078   3.9293   4.0682
     4.1889   4.2060   4.2242   4.2748   4.2833   4.2859   4.4220   4.4244
     4.4959   4.4980   4.5654   4.6586   4.6842   4.6899   4.6912   4.7888
     4.7954   4.9197   4.9659   4.9706   5.0459   5.2000   5.2112   5.3011
     5.3593   5.3738   5.3966   5.4031   5.4041   6.0403   6.0518   6.1036
     6.6612   6.6663   6.7244   6.9911   7.0042   7.0408   7.5265   8.3323
     8.3359   8.4157   8.4675   8.4868   8.6890   8.7080   8.7901   8.8300
     8.8453   8.8505   8.8898   8.9001   8.9054   9.2876   9.2889   9.3235
     9.6812   9.6941   9.8995   9.9104   9.9403   9.9587   9.9723   9.9775
     9.9861  10.0305  10.0358  10.0572  10.1282  10.1393  10.2686  10.3252
    10.3345  11.0578  12.2866  12.4134  12.4321  13.9627  14.6913  14.8005
    17.3357  17.3807  17.4090  17.5151  17.5762  17.5864  17.8520  17.9264
    17.9359  18.0326  18.0687  18.3671  18.9949  19.0021  19.0248  20.6905
    20.7961  20.8243  20.8841  20.9378  20.9495  21.0160  21.0316  21.0370

     occupation numbers 
     1.0000   1.0000   1.0000   1.0000   1.0000   1.0000   1.0000   1.0000
     1.0000   1.0000   1.0000   1.0000   1.0000   1.0000   1.0000   1.0000
     1.0000   1.0000   1.0000   1.0000   1.0000   1.0000   1.0000   1.0000
     1.0000   1.0000   1.0000   1.0000   1.0000   1.0000   1.0000   1.0000
     1.0000   1.0000   1.0000   1.0000   1.0000   1.0000   1.0000   1.0000
     1.0000   1.0000   1.0000   1.0000   1.0000   1.0000   1.0000   1.0000
     1.0000   1.0000   1.0000   1.0000   1.0000   1.0000   1.0000   1.0000
     1.0000   1.0000   1.0000   1.0000   1.0000   1.0000   1.0000   1.0000
     1.0000   1.0000   1.0000   1.0000   1.0000   1.0000   1.0000   1.0000
     1.0000   1.0000   1.0000   1.0000   1.0000   1.0000   1.0000   1.0000
     1.0000   1.0000   1.0000   1.0000   1.0000   1.0000   1.0000   1.0000
     1.0000   1.0000   1.0000   1.0000   1.0000   1.0000   1.0000   1.0000
     1.0000   1.0000   1.0000   1.0000   1.0000   1.0000   1.0000   1.0000
     1.0000   1.0000   1.0000   1.0000   1.0000   1.0000   1.0000   1.0000
     1.0000   1.0000   1.0000   1.0000   1.0000   1.0000   1.0000   1.0000
     1.0000   1.0000   1.0000   1.0000   1.0000   1.0000   1.0000   1.0000
     0.0000   0.0000   0.0000   0.0000   0.0000   0.0000   0.0000   0.0000
     0.0000   0.0000   0.0000   0.0000   0.0000   0.0000   0.0000   0.0000
     0.0000   0.0000   0.0000   0.0000   0.0000   0.0000   0.0000   0.0000

 ------ SPIN DOWN ----------


          k = 0.0000 0.0000 0.0000 (  7386 PWs)   bands (ev):

    -8.5253  -6.9070  -6.2591  -6.2468  -6.1501  -6.1160  -5.8483  -4.8947
    -4.1189  -4.1058  -4.0845  -4.0552  -3.9961  -3.9839  -3.9650  -3.9143
    -3.8377  -3.8215  -3.3141  -2.9136  -2.6240  -2.6198  -2.0163  -0.3444
    -0.3348  -0.3068  -0.2659  -0.0107   0.1899   0.2062   0.3186   0.3288
     0.3963   0.6542   0.8524   0.8570   0.9840   1.0024   1.0134   1.0707
     1.0766   1.0795   1.4328   1.4660   3.1875   3.9309   3.9516   4.0941
     4.2248   4.2473   4.2662   4.2895   4.2987   4.3159   4.4703   4.4709
     4.5175   4.5194   4.5890   4.6829   4.7026   4.7070   4.7124   4.8226
     4.8317   4.9330   4.9982   5.0014   5.1272   5.2337   5.2463   5.3253
     5.3731   5.3850   5.4163   5.4553   5.4668   6.1026   6.1109   6.1414
     6.6877   6.6935   6.7588   7.0776   7.0882   7.0999   7.6967   8.3714
     8.3745   8.4526   8.5023   8.5220   8.7232   8.7392   8.8258   8.8765
     8.8809   8.8855   8.9206   8.9334   8.9344   9.3235   9.3259   9.3510
     9.7086   9.7214   9.9296   9.9380   9.9522   9.9732   9.9865   9.9967
    10.0061  10.0666  10.0695  10.0761  10.1554  10.1653  10.3264  10.3797
    10.3889  11.4385  12.5553  12.5654  12.6038  14.4435  16.0170  16.1413
    17.3610  17.3986  17.4256  17.5421  17.6311  17.6433  17.8747  17.9458
    17.9541  18.0726  18.1090  18.4870  19.0443  19.0794  19.1122  20.7408
    20.8103  20.8383  20.8989  20.9573  20.9674  21.0311  21.0509  21.0618

     occupation numbers 
     1.0000   1.0000   1.0000   1.0000   1.0000   1.0000   1.0000   1.0000
     1.0000   1.0000   1.0000   1.0000   1.0000   1.0000   1.0000   1.0000
     1.0000   1.0000   1.0000   1.0000   1.0000   1.0000   1.0000   1.0000
     1.0000   1.0000   1.0000   1.0000   1.0000   1.0000   1.0000   1.0000
     1.0000   1.0000   1.0000   1.0000   1.0000   1.0000   1.0000   1.0000
     1.0000   1.0000   1.0000   1.0000   1.0000   1.0000   1.0000   1.0000
     1.0000   1.0000   1.0000   1.0000   1.0000   1.0000   1.0000   1.0000
     1.0000   1.0000   1.0000   1.0000   1.0000   1.0000   1.0000   1.0000
     1.0000   1.0000   1.0000   1.0000   1.0000   1.0000   1.0000   1.0000
     1.0000   1.0000   1.0000   1.0000   1.0000   1.0000   1.0000   1.0000
     1.0000   1.0000   1.0000   1.0000   1.0000   1.0000   1.0000   1.0000
     1.0000   1.0000   1.0000   1.0000   1.0000   1.0000   1.0000   1.0000
     1.0000   1.0000   1.0000   1.0000   1.0000   1.0000   1.0000   1.0000
     1.0000   1.0000   1.0000   1.0000   1.0000   1.0000   1.0000   1.0000
     1.0000   1.0000   1.0000   1.0000   1.0000   1.0000   1.0000   1.0000
     1.0000   1.0000   1.0000   1.0000   1.0000   1.0000   0.0000   0.0000
     0.0000   0.0000   0.0000   0.0000   0.0000   0.0000   0.0000   0.0000
     0.0000   0.0000   0.0000   0.0000   0.0000   0.0000   0.0000   0.0000
     0.0000   0.0000   0.0000   0.0000   0.0000   0.0000   0.0000   0.0000

     highest occupied, lowest unoccupied level (ev):    14.8005   16.0170

!    total energy              =    -723.90674606 Ry
     estimated scf accuracy    <          4.9E-09 Ry

     The total energy is the sum of the following terms:
     one-electron contribution =     232.27784727 Ry
     hartree contribution      =      70.33949971 Ry
     xc contribution           =    -226.77209393 Ry
     ewald contribution        =    -799.75199912 Ry

     total magnetization       =     2.00 Bohr mag/cell
     absolute magnetization    =     2.30 Bohr mag/cell

     convergence has been achieved in  14 iterations

     Forces acting on atoms (cartesian axes, Ry/au):

     atom    1 type  1   force =    -0.00207151   -0.00367994   -0.00186967
     atom    2 type  2   force =     0.03520089    0.01587466   -0.01261490
     atom    3 type  2   force =    -0.00931617    0.00864822    0.00622253
     atom    4 type  2   force =     0.00876128    0.02485026   -0.00282518
     atom    5 type  2   force =     0.00219926   -0.02134174    0.00151991
     atom    6 type  2   force =    -0.00839186    0.00827743    0.04340007
     atom    7 type  2   force =     0.01027053    0.01202647   -0.00215385
     atom    8 type  2   force =     0.00267000    0.00490820    0.00688168
     atom    9 type  2   force =    -0.00207714   -0.00468601   -0.00298246
     atom   10 type  2   force =     0.00024166    0.00080373    0.00710072
     atom   11 type  2   force =    -0.02871185    0.00589620   -0.00873077
     atom   12 type  2   force =    -0.00006725    0.00381131    0.00336578
     atom   13 type  2   force =    -0.00287674   -0.03983551   -0.00184631
     atom   14 type  2   force =     0.00346535    0.00212862   -0.00441314
     atom   15 type  2   force =    -0.00272560   -0.00139106   -0.00577506
     atom   16 type  2   force =     0.00017410   -0.00098680   -0.00099325
     atom   17 type  2   force =    -0.00137670    0.00639462    0.00023775
     atom   18 type  2   force =     0.00285159   -0.00026543    0.00096501
     atom   19 type  2   force =    -0.00924531   -0.00329769   -0.00515714
     atom   20 type  2   force =     0.00296729   -0.00438548    0.00354227
     atom   21 type  2   force =    -0.00116545   -0.00408025   -0.00214546
     atom   22 type  2   force =     0.00144986    0.00206499    0.00122265
     atom   23 type  2   force =    -0.00052755   -0.00728040   -0.00175077
     atom   24 type  2   force =     0.00964172    0.00547827    0.00431295
     atom   25 type  2   force =    -0.01224383   -0.01388206   -0.00394875
     atom   26 type  2   force =     0.01549394    0.00551875    0.00135749
     atom   27 type  2   force =    -0.02580910   -0.00847571   -0.00635540
     atom   28 type  2   force =     0.01048686    0.00062113    0.00589146
     atom   29 type  2   force =    -0.00022139   -0.00172322   -0.00136904
     atom   30 type  2   force =     0.00770462    0.00651034    0.00415473
     atom   31 type  2   force =     0.00109008   -0.00153428   -0.00352533
     atom   32 type  2   force =     0.00352893    0.00447830    0.00107006
     atom   33 type  2   force =     0.00054078   -0.00434683   -0.00011595
     atom   34 type  2   force =    -0.00475590    0.00169102    0.00361495
     atom   35 type  2   force =    -0.00508376   -0.00094681   -0.00325245
     atom   36 type  2   force =     0.00060665    0.00427251   -0.00014081
     atom   37 type  2   force =     0.00067386   -0.03256081   -0.00718425
     atom   38 type  2   force =     0.00666367    0.00120027   -0.00093191
     atom   39 type  2   force =    -0.01000778    0.00606619   -0.01379319
     atom   40 type  2   force =     0.00507096    0.01327628    0.00466493
     atom   41 type  2   force =    -0.00644734   -0.01954615   -0.00272444
     atom   42 type  2   force =     0.00053080    0.01679056    0.00639023
     atom   43 type  2   force =    -0.00095893    0.00077278   -0.00099759
     atom   44 type  2   force =     0.00454418    0.03594699    0.00287992
     atom   45 type  2   force =    -0.00827372   -0.03032803   -0.00748861
     atom   46 type  2   force =     0.00683345    0.01546454    0.00176815
     atom   47 type  2   force =    -0.00118352    0.00129408   -0.00190383
     atom   48 type  2   force =     0.00489002    0.00562699    0.00778762
     atom   49 type  2   force =    -0.00790752   -0.01415510   -0.01006576
     atom   50 type  2   force =     0.00428697    0.00663528    0.00346319
     atom   51 type  2   force =    -0.00396632   -0.00174532    0.00032092
     atom   52 type  2   force =     0.00645467    0.00202537    0.00491250
     atom   53 type  2   force =    -0.00175572   -0.00308515   -0.00047174
     atom   54 type  2   force =     0.00226451    0.00482441    0.01458664
     atom   55 type  2   force =    -0.00703546   -0.00837395   -0.02505916
     atom   56 type  2   force =     0.00475666    0.00466784    0.00470665
     atom   57 type  2   force =    -0.00169189   -0.00065298   -0.00221355
     atom   58 type  2   force =     0.00079975    0.00345242    0.00367907
     atom   59 type  2   force =    -0.00217521   -0.00671675   -0.00279622
     atom   60 type  2   force =     0.00262122    0.00192082    0.00232233
     atom   61 type  2   force =    -0.00343395   -0.00180790   -0.00387457
     atom   62 type  2   force =     0.00440766    0.00387923    0.00047864
     atom   63 type  2   force =    -0.00263930   -0.00698773   -0.00135029
     The non-local contrib.  to forces
     atom    1 type  1   force =    -0.75885934   -0.76317172   -0.75696234
     atom    2 type  2   force =    -0.16474060    0.22057213    0.17812044
     atom    3 type  2   force =     0.05674019    0.08108253    0.07250141
     atom    4 type  2   force =     0.21487978   -0.18871727    0.19762856
     atom    5 type  2   force =     0.07240014    0.04269484    0.06961691
     atom    6 type  2   force =     0.17951434    0.20438965   -0.14646500
     atom    7 type  2   force =     0.07731386    0.08309208    0.06429546
     atom    8 type  2   force =    -0.00544854   -0.00493835    0.05780427
     atom    9 type  2   force =    -0.00570610   -0.00790540    0.01303057
     atom   10 type  2   force =    -0.04503774   -0.01487042   -0.01151369
     atom   11 type  2   force =    -0.10422113    0.06747401   -0.08324815
     atom   12 type  2   force =    -0.01735322   -0.04102684   -0.01462152
     atom   13 type  2   force =     0.05221575   -0.11661861   -0.07321259
     atom   14 type  2   force =     0.00261034    0.00053638    0.04568947
     atom   15 type  2   force =     0.01032909    0.00887625   -0.00375324
     atom   16 type  2   force =    -0.01247779    0.04882926   -0.01322467
     atom   17 type  2   force =    -0.00461477    0.02725626   -0.00325320
     atom   18 type  2   force =    -0.04084815   -0.02208690   -0.01561450
     atom   19 type  2   force =    -0.08153418   -0.07878247    0.05566983
     atom   20 type  2   force =     0.00450272    0.04485571    0.00507574
     atom   21 type  2   force =     0.01074885   -0.00324295    0.01120141
     atom   22 type  2   force =    -0.01438153   -0.02025052   -0.04239226
     atom   23 type  2   force =     0.06389970   -0.08430177   -0.07315986
     atom   24 type  2   force =    -0.06462820    0.03340515    0.03420049
     atom   25 type  2   force =    -0.02419530    0.00015874    0.01384423
     atom   26 type  2   force =    -0.04140669   -0.02132292   -0.02372432
     atom   27 type  2   force =    -0.14697651    0.12505630    0.12328524
     atom   28 type  2   force =     0.08003873    0.02314574   -0.01260579
     atom   29 type  2   force =     0.00041425    0.01827961    0.00498354
     atom   30 type  2   force =     0.07656625   -0.01316043    0.02883137
     atom   31 type  2   force =     0.00317662    0.00312858    0.01679240
     atom   32 type  2   force =     0.05394388   -0.00696807   -0.00823209
     atom   33 type  2   force =     0.01802619   -0.00742198   -0.00386680
     atom   34 type  2   force =     0.04485321    0.00112550    0.00375543
     atom   35 type  2   force =    -0.00354177    0.00870737    0.01062665
     atom   36 type  2   force =    -0.01842346   -0.04031600   -0.01791366
     atom   37 type  2   force =    -0.07158993   -0.10874702    0.04789646
     atom   38 type  2   force =    -0.01352222   -0.01422016   -0.04587338
     atom   39 type  2   force =    -0.08687531    0.07120622   -0.08782142
     atom   40 type  2   force =     0.03396667   -0.05872700    0.03445056
     atom   41 type  2   force =     0.00974784   -0.03009471    0.01489529
     atom   42 type  2   force =     0.02142378    0.08815278   -0.00969658
     atom   43 type  2   force =     0.01718910    0.00037765    0.00397909
     atom   44 type  2   force =    -0.02259198   -0.01449509   -0.02350089
     atom   45 type  2   force =     0.12446483   -0.15022419    0.12380382
     atom   46 type  2   force =    -0.00980422    0.08640124    0.02361261
     atom   47 type  2   force =     0.00338277    0.00132840    0.01622925
     atom   48 type  2   force =     0.03360225    0.03326789   -0.06831141
     atom   49 type  2   force =     0.00845417   -0.00012327   -0.02264672
     atom   50 type  2   force =     0.02961252   -0.01454245    0.07131573
     atom   51 type  2   force =     0.01718568    0.00352364    0.00321449
     atom   52 type  2   force =    -0.01414001    0.02619483    0.07305054
     atom   53 type  2   force =     0.00479705    0.01775439    0.00138881
     atom   54 type  2   force =    -0.02277975   -0.02119390   -0.04345906
     atom   55 type  2   force =     0.12320937    0.12435253   -0.14635518
     atom   56 type  2   force =     0.02286991    0.02424418    0.02209990
     atom   57 type  2   force =     0.00523440    0.00515234    0.00542382
     atom   58 type  2   force =     0.01556230   -0.00720408   -0.01007458
     atom   59 type  2   force =     0.00715035   -0.01801296   -0.01465721
     atom   60 type  2   force =    -0.01033000    0.01840258   -0.01150918
     atom   61 type  2   force =    -0.01496639    0.00889661   -0.01547603
     atom   62 type  2   force =    -0.00840058   -0.00671034    0.01464051
     atom   63 type  2   force =    -0.01496892   -0.01880151    0.00774039
     The ionic contribution  to forces
     atom    1 type  1   force =     2.98392591    2.96153853    2.99811596
     atom    2 type  2   force =     2.41165853   -2.05993277   -2.21517206
     atom    3 type  2   force =     0.48036638   -0.73124132   -0.85208744
     atom    4 type  2   force =    -2.09008795    2.33472838   -2.15746728
     atom    5 type  2   force =    -0.77820507    0.40210355   -0.82567724
     atom    6 type  2   force =    -2.18644880   -2.09852590    2.45933194
     atom    7 type  2   force =    -0.82367762   -0.75014280    0.53668251
     atom    8 type  2   force =     0.25673379    0.22032318   -0.72697957
     atom    9 type  2   force =     0.06350078    0.02859346   -0.22326704
     atom   10 type  2   force =     0.17193459    0.06693877    0.56553048
     atom   11 type  2   force =    -0.52907870   -0.62940675    0.80273086
     atom   12 type  2   force =     0.02848509    0.16333877    0.55056873
     atom   13 type  2   force =    -0.66055388   -0.56432443    0.76020659
     atom   14 type  2   force =    -0.19424835   -0.18022650   -0.71415866
     atom   15 type  2   force =    -0.16766688   -0.13284580   -0.06767958
     atom   16 type  2   force =     0.20011108   -0.77787265    0.22539206
     atom   17 type  2   force =     0.07169275   -0.15717047    0.09413080
     atom   18 type  2   force =     0.22371043    0.46899548    0.00228526
     atom   19 type  2   force =    -0.36139270    0.74942385   -0.70730380
     atom   20 type  2   force =    -0.18090753   -0.73151430   -0.19038130
     atom   21 type  2   force =    -0.17485878   -0.05898146   -0.20062962
     atom   22 type  2   force =     0.02762943    0.47825899    0.23790309
     atom   23 type  2   force =    -0.68902562    0.77940934   -0.33110780
     atom   24 type  2   force =     0.10608761   -0.13954377   -0.17066173
     atom   25 type  2   force =    -0.02450577   -0.08149204   -0.07090263
     atom   26 type  2   force =     0.13843922   -0.09807679   -0.04910863
     atom   27 type  2   force =     1.14305348    0.24604963    0.25119981
     atom   28 type  2   force =    -0.08197409   -0.13813685    0.11288370
     atom   29 type  2   force =    -0.15570532    0.02907322    0.25749826
     atom   30 type  2   force =    -0.01980986    0.13802916   -0.23546593
     atom   31 type  2   force =    -0.15550553    0.17509965   -0.00923732
     atom   32 type  2   force =    -0.74346843    0.20052175    0.26209890
     atom   33 type  2   force =    -0.20114438    0.03181593    0.08892268
     atom   34 type  2   force =    -0.71708579   -0.17627545   -0.19933876
     atom   35 type  2   force =    -0.06300397   -0.13612039   -0.19677937
     atom   36 type  2   force =     0.51509070    0.17785225    0.00306448
     atom   37 type  2   force =     0.73539050   -0.49809224   -0.68966301
     atom   38 type  2   force =     0.53912019    0.06703596    0.20081043
     atom   39 type  2   force =     0.80761764   -0.63997412   -0.43229908
     atom   40 type  2   force =    -0.19665170    0.06773876   -0.20974947
     atom   41 type  2   force =    -0.04449685   -0.08980861   -0.04234477
     atom   42 type  2   force =    -0.12278645    0.02237647    0.08916015
     atom   43 type  2   force =     0.03528208   -0.12172469    0.25154330
     atom   44 type  2   force =    -0.07484932    0.18902100   -0.05750378
     atom   45 type  2   force =     0.21925889    1.15923991    0.22360061
     atom   46 type  2   force =     0.09993011    0.04609326   -0.16154848
     atom   47 type  2   force =     0.22100629   -0.12198377    0.01898547
     atom   48 type  2   force =    -0.13183430   -0.11383306    0.13772462
     atom   49 type  2   force =    -0.07531072   -0.08361402    0.00847033
     atom   50 type  2   force =    -0.23728515    0.15285472   -0.08291426
     atom   51 type  2   force =    -0.01072215    0.17660884   -0.18282066
     atom   52 type  2   force =     0.13900735   -0.17930419   -0.12161404
     atom   53 type  2   force =     0.22860489    0.01134426   -0.18326494
     atom   54 type  2   force =    -0.06318374   -0.09495674    0.14717868
     atom   55 type  2   force =     0.24587700    0.24500958    1.13440219
     atom   56 type  2   force =    -0.09106876   -0.03311769   -0.12469572
     atom   57 type  2   force =    -0.02503702   -0.04223034   -0.02192888
     atom   58 type  2   force =    -0.08508915    0.04377423    0.04017493
     atom   59 type  2   force =    -0.31020055    0.07657696    0.17966727
     atom   60 type  2   force =     0.06012099   -0.04480961    0.05894027
     atom   61 type  2   force =     0.13385982   -0.31033804    0.16125818
     atom   62 type  2   force =     0.03022948    0.03261519   -0.10769438
     atom   63 type  2   force =     0.14914585    0.07323452   -0.29901532
     The local contribution  to forces
     atom    1 type  1   force =    -2.22719509   -2.20204688   -2.24307400
     atom    2 type  2   force =    -2.21178119    1.85522314    2.02438784
     atom    3 type  2   force =    -0.54651302    0.65876478    0.78574915
     atom    4 type  2   force =     1.88388809   -2.12117302    1.95696844
     atom    5 type  2   force =     0.70790852   -0.46615243    0.75754034
     atom    6 type  2   force =     1.99845849    1.90240456   -2.26952147
     atom    7 type  2   force =     0.75653607    0.67905311   -0.60319670
     atom    8 type  2   force =    -0.24867087   -0.21047205    0.67600882
     atom    9 type  2   force =    -0.05993368   -0.02537969    0.20720045
     atom   10 type  2   force =    -0.12670597   -0.05128482   -0.54696565
     atom   11 type  2   force =     0.60452942    0.56780059   -0.72825556
     atom   12 type  2   force =    -0.01127325   -0.11851457   -0.53263105
     atom   13 type  2   force =     0.60537179    0.64109689   -0.68889480
     atom   14 type  2   force =     0.19500946    0.18179924    0.66401214
     atom   15 type  2   force =     0.15450986    0.12254319    0.06562543
     atom   16 type  2   force =    -0.18751635    0.72800755   -0.21320155
     atom   17 type  2   force =    -0.06851743    0.13625285   -0.09069396
     atom   18 type  2   force =    -0.18006363   -0.44721647    0.01423668
     atom   19 type  2   force =     0.43362069   -0.67395886    0.64643249
     atom   20 type  2   force =     0.17927945    0.68223104    0.18879101
     atom   21 type  2   force =     0.16284213    0.05810982    0.18722952
     atom   22 type  2   force =    -0.01186779   -0.45598449   -0.19434623
     atom   23 type  2   force =     0.62451606   -0.70242013    0.40245300
     atom   24 type  2   force =    -0.03187025    0.11155994    0.14071460
     atom   25 type  2   force =     0.03639789    0.06740536    0.05306450
     atom   26 type  2   force =    -0.08159737    0.12488497    0.07414816
     atom   27 type  2   force =    -1.02195065   -0.37960306   -0.38089109
     atom   28 type  2   force =     0.01234753    0.11556986   -0.09442898
     atom   29 type  2   force =     0.15498185   -0.04912031   -0.26389508
     atom   30 type  2   force =    -0.04912598   -0.11839518    0.21074614
     atom   31 type  2   force =     0.15332784   -0.17978179   -0.01112361
     atom   32 type  2   force =     0.69296321   -0.18909754   -0.25285747
     atom   33 type  2   force =     0.18357629   -0.02875080   -0.08522712
     atom   34 type  2   force =     0.66738990    0.17682252    0.19914203
     atom   35 type  2   force =     0.06139054    0.12642495    0.18284049
     atom   36 type  2   force =    -0.49613258   -0.13325822    0.01464870
     atom   37 type  2   force =    -0.66317740    0.57429571    0.63451920
     atom   38 type  2   force =    -0.51900423   -0.05163373   -0.15590611
     atom   39 type  2   force =    -0.73080055    0.57479114    0.50629407
     atom   40 type  2   force =     0.16765505    0.00425110    0.17992645
     atom   41 type  2   force =     0.02820479    0.10033896    0.02467970
     atom   42 type  2   force =     0.10178635   -0.09375884   -0.07311729
     atom   43 type  2   force =    -0.05353185    0.12209523   -0.25656041
     atom   44 type  2   force =     0.10190150   -0.13860096    0.08384347
     atom   45 type  2   force =    -0.35205839   -1.03936085   -0.35493125
     atom   46 type  2   force =    -0.08335679   -0.11704990    0.13963889
     atom   47 type  2   force =    -0.22562547    0.12191396   -0.03718205
     atom   48 type  2   force =     0.10302282    0.08615923   -0.06168421
     atom   49 type  2   force =     0.05885256    0.06953829    0.00403996
     atom   50 type  2   force =     0.21185379   -0.13171289    0.01499931
     atom   51 type  2   force =    -0.01053274   -0.18189035    0.17987771
     atom   52 type  2   force =    -0.11847717    0.15507267    0.05341690
     atom   53 type  2   force =    -0.23520919   -0.03224950    0.18134910
     atom   54 type  2   force =     0.08813967    0.12094054   -0.08919757
     atom   55 type  2   force =    -0.37618673   -0.37774804   -1.01317172
     atom   56 type  2   force =     0.07285365    0.01350316    0.10726172
     atom   57 type  2   force =     0.01801546    0.03638971    0.01426258
     atom   58 type  2   force =     0.07023273   -0.03314965   -0.02645725
     atom   59 type  2   force =     0.30078113   -0.06530833   -0.16785291
     atom   60 type  2   force =    -0.04725261    0.02829945   -0.04514673
     atom   61 type  2   force =    -0.12239671    0.29959626   -0.14970117
     atom   62 type  2   force =    -0.01750207   -0.02205887    0.09350092
     atom   63 type  2   force =    -0.13688143   -0.06143943    0.28989201
     The core correction contribution to forces
     atom    1 type  1   force =     0.00000000    0.00000000    0.00000000
     atom    2 type  2   force =     0.00000000    0.00000000    0.00000000
     atom    3 type  2   force =     0.00000000    0.00000000    0.00000000
     atom    4 type  2   force =     0.00000000    0.00000000    0.00000000
     atom    5 type  2   force =     0.00000000    0.00000000    0.00000000
     atom    6 type  2   force =     0.00000000    0.00000000    0.00000000
     atom    7 type  2   force =     0.00000000    0.00000000    0.00000000
     atom    8 type  2   force =     0.00000000    0.00000000    0.00000000
     atom    9 type  2   force =     0.00000000    0.00000000    0.00000000
     atom   10 type  2   force =     0.00000000    0.00000000    0.00000000
     atom   11 type  2   force =     0.00000000    0.00000000    0.00000000
     atom   12 type  2   force =     0.00000000    0.00000000    0.00000000
     atom   13 type  2   force =     0.00000000    0.00000000    0.00000000
     atom   14 type  2   force =     0.00000000    0.00000000    0.00000000
     atom   15 type  2   force =     0.00000000    0.00000000    0.00000000
     atom   16 type  2   force =     0.00000000    0.00000000    0.00000000
     atom   17 type  2   force =     0.00000000    0.00000000    0.00000000
     atom   18 type  2   force =     0.00000000    0.00000000    0.00000000
     atom   19 type  2   force =     0.00000000    0.00000000    0.00000000
     atom   20 type  2   force =     0.00000000    0.00000000    0.00000000
     atom   21 type  2   force =     0.00000000    0.00000000    0.00000000
     atom   22 type  2   force =     0.00000000    0.00000000    0.00000000
     atom   23 type  2   force =     0.00000000    0.00000000    0.00000000
     atom   24 type  2   force =     0.00000000    0.00000000    0.00000000
     atom   25 type  2   force =     0.00000000    0.00000000    0.00000000
     atom   26 type  2   force =     0.00000000    0.00000000    0.00000000
     atom   27 type  2   force =     0.00000000    0.00000000    0.00000000
     atom   28 type  2   force =     0.00000000    0.00000000    0.00000000
     atom   29 type  2   force =     0.00000000    0.00000000    0.00000000
     atom   30 type  2   force =     0.00000000    0.00000000    0.00000000
     atom   31 type  2   force =     0.00000000    0.00000000    0.00000000
     atom   32 type  2   force =     0.00000000    0.00000000    0.00000000
     atom   33 type  2   force =     0.00000000    0.00000000    0.00000000
     atom   34 type  2   force =     0.00000000    0.00000000    0.00000000
     atom   35 type  2   force =     0.00000000    0.00000000    0.00000000
     atom   36 type  2   force =     0.00000000    0.00000000    0.00000000
     atom   37 type  2   force =     0.00000000    0.00000000    0.00000000
     atom   38 type  2   force =     0.00000000    0.00000000    0.00000000
     atom   39 type  2   force =     0.00000000    0.00000000    0.00000000
     atom   40 type  2   force =     0.00000000    0.00000000    0.00000000
     atom   41 type  2   force =     0.00000000    0.00000000    0.00000000
     atom   42 type  2   force =     0.00000000    0.00000000    0.00000000
     atom   43 type  2   force =     0.00000000    0.00000000    0.00000000
     atom   44 type  2   force =     0.00000000    0.00000000    0.00000000
     atom   45 type  2   force =     0.00000000    0.00000000    0.00000000
     atom   46 type  2   force =     0.00000000    0.00000000    0.00000000
     atom   47 type  2   force =     0.00000000    0.00000000    0.00000000
     atom   48 type  2   force =     0.00000000    0.00000000    0.00000000
     atom   49 type  2   force =     0.00000000    0.00000000    0.00000000
     atom   50 type  2   force =     0.00000000    0.00000000    0.00000000
     atom   51 type  2   force =     0.00000000    0.00000000    0.00000000
     atom   52 type  2   force =     0.00000000    0.00000000    0.00000000
     atom   53 type  2   force =     0.00000000    0.00000000    0.00000000
     atom   54 type  2   force =     0.00000000    0.00000000    0.00000000
     atom   55 type  2   force =     0.00000000    0.00000000    0.00000000
     atom   56 type  2   force =     0.00000000    0.00000000    0.00000000
     atom   57 type  2   force =     0.00000000    0.00000000    0.00000000
     atom   58 type  2   force =     0.00000000    0.00000000    0.00000000
     atom   59 type  2   force =     0.00000000    0.00000000    0.00000000
     atom   60 type  2   force =     0.00000000    0.00000000    0.00000000
     atom   61 type  2   force =     0.00000000    0.00000000    0.00000000
     atom   62 type  2   force =     0.00000000    0.00000000    0.00000000
     atom   63 type  2   force =     0.00000000    0.00000000    0.00000000
     The Hubbard contrib.    to forces
     atom    1 type  1   force =     0.00000000    0.00000000    0.00000000
     atom    2 type  2   force =     0.00000000    0.00000000    0.00000000
     atom    3 type  2   force =     0.00000000    0.00000000    0.00000000
     atom    4 type  2   force =     0.00000000    0.00000000    0.00000000
     atom    5 type  2   force =     0.00000000    0.00000000    0.00000000
     atom    6 type  2   force =     0.00000000    0.00000000    0.00000000
     atom    7 type  2   force =     0.00000000    0.00000000    0.00000000
     atom    8 type  2   force =     0.00000000    0.00000000    0.00000000
     atom    9 type  2   force =     0.00000000    0.00000000    0.00000000
     atom   10 type  2   force =     0.00000000    0.00000000    0.00000000
     atom   11 type  2   force =     0.00000000    0.00000000    0.00000000
     atom   12 type  2   force =     0.00000000    0.00000000    0.00000000
     atom   13 type  2   force =     0.00000000    0.00000000    0.00000000
     atom   14 type  2   force =     0.00000000    0.00000000    0.00000000
     atom   15 type  2   force =     0.00000000    0.00000000    0.00000000
     atom   16 type  2   force =     0.00000000    0.00000000    0.00000000
     atom   17 type  2   force =     0.00000000    0.00000000    0.00000000
     atom   18 type  2   force =     0.00000000    0.00000000    0.00000000
     atom   19 type  2   force =     0.00000000    0.00000000    0.00000000
     atom   20 type  2   force =     0.00000000    0.00000000    0.00000000
     atom   21 type  2   force =     0.00000000    0.00000000    0.00000000
     atom   22 type  2   force =     0.00000000    0.00000000    0.00000000
     atom   23 type  2   force =     0.00000000    0.00000000    0.00000000
     atom   24 type  2   force =     0.00000000    0.00000000    0.00000000
     atom   25 type  2   force =     0.00000000    0.00000000    0.00000000
     atom   26 type  2   force =     0.00000000    0.00000000    0.00000000
     atom   27 type  2   force =     0.00000000    0.00000000    0.00000000
     atom   28 type  2   force =     0.00000000    0.00000000    0.00000000
     atom   29 type  2   force =     0.00000000    0.00000000    0.00000000
     atom   30 type  2   force =     0.00000000    0.00000000    0.00000000
     atom   31 type  2   force =     0.00000000    0.00000000    0.00000000
     atom   32 type  2   force =     0.00000000    0.00000000    0.00000000
     atom   33 type  2   force =     0.00000000    0.00000000    0.00000000
     atom   34 type  2   force =     0.00000000    0.00000000    0.00000000
     atom   35 type  2   force =     0.00000000    0.00000000    0.00000000
     atom   36 type  2   force =     0.00000000    0.00000000    0.00000000
     atom   37 type  2   force =     0.00000000    0.00000000    0.00000000
     atom   38 type  2   force =     0.00000000    0.00000000    0.00000000
     atom   39 type  2   force =     0.00000000    0.00000000    0.00000000
     atom   40 type  2   force =     0.00000000    0.00000000    0.00000000
     atom   41 type  2   force =     0.00000000    0.00000000    0.00000000
     atom   42 type  2   force =     0.00000000    0.00000000    0.00000000
     atom   43 type  2   force =     0.00000000    0.00000000    0.00000000
     atom   44 type  2   force =     0.00000000    0.00000000    0.00000000
     atom   45 type  2   force =     0.00000000    0.00000000    0.00000000
     atom   46 type  2   force =     0.00000000    0.00000000    0.00000000
     atom   47 type  2   force =     0.00000000    0.00000000    0.00000000
     atom   48 type  2   force =     0.00000000    0.00000000    0.00000000
     atom   49 type  2   force =     0.00000000    0.00000000    0.00000000
     atom   50 type  2   force =     0.00000000    0.00000000    0.00000000
     atom   51 type  2   force =     0.00000000    0.00000000    0.00000000
     atom   52 type  2   force =     0.00000000    0.00000000    0.00000000
     atom   53 type  2   force =     0.00000000    0.00000000    0.00000000
     atom   54 type  2   force =     0.00000000    0.00000000    0.00000000
     atom   55 type  2   force =     0.00000000    0.00000000    0.00000000
     atom   56 type  2   force =     0.00000000    0.00000000    0.00000000
     atom   57 type  2   force =     0.00000000    0.00000000    0.00000000
     atom   58 type  2   force =     0.00000000    0.00000000    0.00000000
     atom   59 type  2   force =     0.00000000    0.00000000    0.00000000
     atom   60 type  2   force =     0.00000000    0.00000000    0.00000000
     atom   61 type  2   force =     0.00000000    0.00000000    0.00000000
     atom   62 type  2   force =     0.00000000    0.00000000    0.00000000
     atom   63 type  2   force =     0.00000000    0.00000000    0.00000000
     The SCF correction term to forces
     atom    1 type  1   force =    -0.00002113   -0.00002648    0.00000120
     atom    2 type  2   force =    -0.00001401   -0.00001444   -0.00000061
     atom    3 type  2   force =     0.00001213    0.00001563    0.00000991
     atom    4 type  2   force =     0.00000322   -0.00001444   -0.00000441
     atom    5 type  2   force =     0.00001752   -0.00001431   -0.00000961
     atom    6 type  2   force =     0.00000596   -0.00001749    0.00000509
     atom    7 type  2   force =     0.00002008   -0.00000253    0.00001536
     atom    8 type  2   force =    -0.00002253   -0.00003119   -0.00000134
     atom    9 type  2   force =    -0.00001629   -0.00002098    0.00000404
     atom   10 type  2   force =    -0.00002737   -0.00000642    0.00000007
     atom   11 type  2   force =    -0.00001960    0.00000174   -0.00000744
     atom   12 type  2   force =    -0.00000402   -0.00001266    0.00000011
     atom   13 type  2   force =     0.00001144   -0.00001596    0.00000499
     atom   14 type  2   force =     0.00001575   -0.00000711   -0.00000561
     atom   15 type  2   force =     0.00002419    0.00000870   -0.00001718
     atom   16 type  2   force =    -0.00002099    0.00002244   -0.00000860
     atom   17 type  2   force =    -0.00001540    0.00002936    0.00000459
     atom   18 type  2   force =    -0.00002521    0.00001584    0.00000806
     atom   19 type  2   force =    -0.00001727   -0.00000682   -0.00000517
     atom   20 type  2   force =     0.00001451    0.00001547    0.00000731
     atom   21 type  2   force =     0.00002420    0.00000773    0.00000371
     atom   22 type  2   force =    -0.00000839    0.00001439    0.00000853
     atom   23 type  2   force =     0.00000416    0.00000556    0.00001438
     atom   24 type  2   force =    -0.00002559    0.00003035    0.00001007
     atom   25 type  2   force =    -0.00001880    0.00001927   -0.00000436
     atom   26 type  2   force =    -0.00001937    0.00000687   -0.00000724
     atom   27 type  2   force =    -0.00001357   -0.00000520    0.00000113
     atom   28 type  2   force =    -0.00000346    0.00001577   -0.00000698
     atom   29 type  2   force =     0.00000968    0.00001765   -0.00000528
     atom   30 type  2   force =    -0.00000394    0.00001019   -0.00000636
     atom   31 type  2   force =     0.00001300   -0.00000733   -0.00000631
     atom   32 type  2   force =     0.00001211   -0.00000444    0.00001120
     atom   33 type  2   force =     0.00000452   -0.00001660    0.00000577
     atom   34 type  2   force =     0.00000863   -0.00000815    0.00000673
     atom   35 type  2   force =    -0.00000671    0.00001465    0.00001027
     atom   36 type  2   force =    -0.00000616   -0.00003213    0.00001015
     atom   37 type  2   force =    -0.00002746   -0.00004386    0.00001358
     atom   38 type  2   force =    -0.00000822   -0.00000840   -0.00001236
     atom   39 type  2   force =    -0.00002770    0.00001633   -0.00001628
     atom   40 type  2   force =     0.00002279   -0.00001320   -0.00001212
     atom   41 type  2   force =     0.00001873   -0.00000840   -0.00000418
     atom   42 type  2   force =     0.00002897   -0.00000645   -0.00000556
     atom   43 type  2   force =     0.00002359   -0.00000201   -0.00000909
     atom   44 type  2   force =     0.00000583   -0.00000457   -0.00000839
     atom   45 type  2   force =    -0.00001721   -0.00000952   -0.00001131
     atom   46 type  2   force =    -0.00001380   -0.00000668    0.00001562
     atom   47 type  2   force =    -0.00002526    0.00000887    0.00001399
     atom   48 type  2   force =     0.00002110    0.00000634    0.00000911
     atom   49 type  2   force =     0.00001832    0.00001728    0.00002115
     atom   50 type  2   force =     0.00002765    0.00000930    0.00001290
     atom   51 type  2   force =     0.00002473   -0.00001406   -0.00000012
     atom   52 type  2   force =    -0.00001364    0.00003545    0.00000958
     atom   53 type  2   force =    -0.00002662    0.00003910    0.00000579
     atom   54 type  2   force =     0.00001018    0.00000791    0.00001508
     atom   55 type  2   force =    -0.00001326   -0.00001463    0.00001604
     atom   56 type  2   force =     0.00002371    0.00001158   -0.00000876
     atom   57 type  2   force =     0.00001712    0.00000870   -0.00002058
     atom   58 type  2   force =     0.00001573    0.00000531   -0.00001354
     atom   59 type  2   force =     0.00001571    0.00000097   -0.00000288
     atom   60 type  2   force =     0.00000469    0.00000180   -0.00001154
     atom   61 type  2   force =    -0.00000883    0.00001067   -0.00000506
     atom   62 type  2   force =     0.00000268    0.00000664   -0.00001793
     atom   63 type  2   force =    -0.00001295   -0.00000792   -0.00001688

     Total force =     0.132190     Total SCF correction =     0.000206

     Writing all to output data dir ./pwscf.save/ :
     XML data file, charge density, pseudopotentials, collected wavefunctions
 
     init_run     :      0.25s CPU      0.31s WALL (       1 calls)
     electrons    :     10.34s CPU     10.55s WALL (       1 calls)
     forces       :      1.94s CPU      1.95s WALL (       1 calls)

     Called by init_run:
     wfcinit      :      0.06s CPU      0.07s WALL (       1 calls)
     wfcinit:wfcr :      0.05s CPU      0.07s WALL (       1 calls)
     potinit      :      0.07s CPU      0.08s WALL (       1 calls)
     hinit0       :      0.03s CPU      0.06s WALL (       1 calls)

     Called by electrons:
     c_bands      :      7.51s CPU      7.67s WALL (      14 calls)
     sum_band     :      1.87s CPU      1.88s WALL (      14 calls)
     v_of_rho     :      0.13s CPU      0.14s WALL (      15 calls)
     v_h          :      0.01s CPU      0.01s WALL (      15 calls)
     v_xc         :      0.12s CPU      0.13s WALL (      15 calls)
     mix_rho      :      0.03s CPU      0.03s WALL (      14 calls)

     Called by c_bands:
     init_us_2    :      0.02s CPU      0.02s WALL (      30 calls)
     regterg      :      6.78s CPU      6.94s WALL (      14 calls)

     Called by sum_band:
     sum_band:wei :      0.05s CPU      0.05s WALL (      14 calls)
     sum_band:loo :      0.42s CPU      0.42s WALL (      14 calls)
     sum_band:buf :      0.00s CPU      0.00s WALL (      14 calls)
     sum_band:ini :      0.01s CPU      0.01s WALL (      14 calls)

     Called by *egterg:
     rdiaghg      :      3.75s CPU      3.85s WALL (     265 calls)
     regterg:over :      0.37s CPU      0.38s WALL (     251 calls)
     regterg:upda :      0.26s CPU      0.27s WALL (     251 calls)
     regterg:last :      0.13s CPU      0.14s WALL (      52 calls)
     rdiaghg:chol :      0.13s CPU      0.14s WALL (     265 calls)
     rdiaghg:inve :      0.03s CPU      0.03s WALL (     265 calls)
     rdiaghg:para :      0.35s CPU      0.37s WALL (     530 calls)
     h_psi        :      2.18s CPU      2.23s WALL (     266 calls)
     g_psi        :      0.00s CPU      0.00s WALL (     251 calls)

     Called by h_psi:
     h_psi:calbec :      0.47s CPU      0.48s WALL (     266 calls)
     vloc_psi     :      1.60s CPU      1.63s WALL (     266 calls)
                                        0.00s GPU  (     266 calls)
     add_vuspsi   :      0.11s CPU      0.11s WALL (     266 calls)

     General routines
     calbec       :      2.40s CPU      2.42s WALL (     270 calls)
     fft          :      0.07s CPU      0.10s WALL (     196 calls)
     ffts         :      0.00s CPU      0.00s WALL (      14 calls)
     fftw         :      1.90s CPU      1.93s WALL (   10078 calls)
 
     Parallel routines
 
     PWSCF        :     13.46s CPU     13.90s WALL

 
   This run was terminated on:  16:47: 2  16Nov2025            

=------------------------------------------------------------------------------=
   JOB DONE.
=------------------------------------------------------------------------------=
