
     Program PWSCF v.7.5 starts on 16Nov2025 at 16:18: 2 

     This program is part of the open-source Quantum ESPRESSO suite
     for quantum simulation of materials; please cite
         "P. Giannozzi et al., J. Phys.:Condens. Matter 21 395502 (2009);
         "P. Giannozzi et al., J. Phys.:Condens. Matter 29 465901 (2017);
         "P. Giannozzi et al., J. Chem. Phys. 152 154105 (2020);
          URL http://www.quantum-espresso.org", 
     in publications or presentations arising from this work. More details at
     http://www.quantum-espresso.org/quote

     Parallel version (MPI), running on    96 processors

     MPI processes distributed on     2 nodes
     174675 MiB available memory on the printing compute node when the environment starts
 
     Reading input from supercell-171.in

     Current dimensions of program PWSCF are:
     Max number of different atomic species (ntypx) = 10
     Max number of k-points (npk) =  40000
     Max angular momentum in pseudopotentials (lmaxx) =  4

     gamma-point specific algorithms are used
 
     K-points division:     npool     =       2
     R & G space division:  proc/nbgrp/npool/nimage =      48
     Subspace diagonalization in iterative solution of the eigenvalue problem:
     one sub-group per band group will be used
     scalapack distributed-memory algorithm (size of sub-group:  2*  2 procs)

 
     Parallelization info
     --------------------
     sticks:   dense  smooth     PW     G-vecs:    dense   smooth      PW
     Min          59      59     14                 2432     2432     302
     Max          62      62     16                 2442     2442     316
     Sum        2885    2885    725               116921   116921   14771
 
     Using Slab Decomposition
 


     bravais-lattice index     =            0
     lattice parameter (alat)  =      13.4813  a.u.
     unit-cell volume          =    2450.1683 (a.u.)^3
     number of atoms/cell      =           63
     number of atomic types    =            2
     number of electrons       =       254.00 (up: 128.00, down: 126.00)
     number of Kohn-Sham states=          152
     kinetic-energy cutoff     =      50.0000  Ry
     charge density cutoff     =     200.0000  Ry
     scf convergence threshold =      1.0E-08
     mixing beta               =       0.7000
     number of iterations used =            8  plain     mixing
     Exchange-correlation= PBE
                           (   1   4   3   4   0   0   0)

     celldm(1)=  13.481306  celldm(2)=   0.000000  celldm(3)=   0.000000
     celldm(4)=   0.000000  celldm(5)=   0.000000  celldm(6)=   0.000000

     crystal axes: (cart. coord. in units of alat)
               a(1) = (   1.000000   0.000000   0.000000 )  
               a(2) = (   0.000000   1.000000   0.000000 )  
               a(3) = (   0.000000   0.000000   1.000000 )  

     reciprocal axes: (cart. coord. in units 2 pi/alat)
               b(1) = (  1.000000  0.000000  0.000000 )  
               b(2) = (  0.000000  1.000000  0.000000 )  
               b(3) = (  0.000000  0.000000  1.000000 )  


     PseudoPot. # 1 for N  read from file:
     ./N_ONCV_PBE-1.2.upf
     MD5 check sum: 5312fdf34e96954e02a33bdc911c617a
     Pseudo is Norm-conserving, Zval =  5.0
     Generated using ONCVPSP code by D. R. Hamann
     Using radial grid of  602 points,  4 beta functions with: 
                l(1) =   0
                l(2) =   0
                l(3) =   1
                l(4) =   1

     PseudoPot. # 2 for C  read from file:
     ./C_ONCV_PBE-1.2.upf
     MD5 check sum: d60b57d9bdca4133f5fde4b584ee909d
     Pseudo is Norm-conserving, Zval =  4.0
     Generated using ONCVPSP code by D. R. Hamann
     Using radial grid of  602 points,  4 beta functions with: 
                l(1) =   0
                l(2) =   0
                l(3) =   1
                l(4) =   1

     atomic species   valence    mass     pseudopotential
     N                 5.00    14.00670     N ( 1.00)
     C                 4.00    12.01070     C ( 1.00)

     Starting magnetic structure 
     atomic species   magnetization
     N               0.000
     C               0.000

     No symmetry found


                                    s                        frac. trans.

      isym =  1     identity                                     

 cryst.   s( 1) = (     1          0          0      )
                  (     0          1          0      )
                  (     0          0          1      )

 cart.    s( 1) = (  1.0000000  0.0000000  0.0000000 )
                  (  0.0000000  1.0000000  0.0000000 )
                  (  0.0000000  0.0000000  1.0000000 )


   Cartesian axes

     site n.     atom                  positions (alat units)
         1        N      tau(   1) = (   0.9893819   0.9897344   0.9891721  )
         2        C      tau(   2) = (   0.9870277   0.2601210   0.2640728  )
         3        C      tau(   3) = (   0.1231717   0.3731672   0.3742038  )
         4        C      tau(   4) = (   0.2603919   0.9894620   0.2619202  )
         5        C      tau(   5) = (   0.3737632   0.1246771   0.3741571  )
         6        C      tau(   6) = (   0.2640151   0.2616009   0.9853609  )
         7        C      tau(   7) = (   0.3737752   0.3731213   0.1223564  )
         8        C      tau(   8) = (   0.0000049   0.0005840   0.4991361  )
         9        C      tau(   9) = (   0.1251361   0.1251278   0.6250981  )
        10        C      tau(  10) = (   0.0020393   0.2482470   0.7515266  )
        11        C      tau(  11) = (   0.1292009   0.3733021   0.8763303  )
        12        C      tau(  12) = (   0.2487801   0.0017974   0.7514403  )
        13        C      tau(  13) = (   0.3754339   0.1292460   0.8748544  )
        14        C      tau(  14) = (   0.2491579   0.2495268   0.4995755  )
        15        C      tau(  15) = (   0.3750038   0.3749547   0.6244069  )
        16        C      tau(  16) = (   0.0016366   0.4979779   0.0013734  )
        17        C      tau(  17) = (   0.1250869   0.6243147   0.1250807  )
        18        C      tau(  18) = (   0.0014462   0.7520697   0.2483230  )
        19        C      tau(  19) = (   0.1266755   0.8769178   0.3741906  )
        20        C      tau(  20) = (   0.2488290   0.4983596   0.2486760  )
        21        C      tau(  21) = (   0.3741642   0.6242659   0.3742111  )
        22        C      tau(  22) = (   0.2480673   0.7520817   0.0015447  )
        23        C      tau(  23) = (   0.3729914   0.8777475   0.1265606  )
        24        C      tau(  24) = (   0.0000493   0.5010760   0.5011299  )
        25        C      tau(  25) = (   0.1252054   0.6262200   0.6252733  )
        26        C      tau(  26) = (   0.9993969   0.7487112   0.7492532  )
        27        C      tau(  27) = (   0.1217927   0.8768349   0.8763928  )
        28        C      tau(  28) = (   0.2492749   0.5017254   0.7482724  )
        29        C      tau(  29) = (   0.3741000   0.6277877   0.8750769  )
        30        C      tau(  30) = (   0.2487293   0.7486845   0.5007616  )
        31        C      tau(  31) = (   0.3739266   0.8750581   0.6258828  )
        32        C      tau(  32) = (   0.4987543   0.0011228   0.0002828  )
        33        C      tau(  33) = (   0.6248203   0.1251003   0.1251034  )
        34        C      tau(  34) = (   0.4991217   0.2493918   0.2488717  )
        35        C      tau(  35) = (   0.6243080   0.3746888   0.3747831  )
        36        C      tau(  36) = (   0.7516460   0.0016191   0.2487956  )
        37        C      tau(  37) = (   0.8750430   0.1283649   0.3757598  )
        38        C      tau(  38) = (   0.7517475   0.2480080   0.0019610  )
        39        C      tau(  39) = (   0.8773622   0.3724247   0.1282033  )
        40        C      tau(  40) = (   0.5008161   0.9999897   0.5008301  )
        41        C      tau(  41) = (   0.6256173   0.1249721   0.6252590  )
        42        C      tau(  42) = (   0.5022259   0.2488088   0.7478265  )
        43        C      tau(  43) = (   0.6264784   0.3739683   0.8752045  )
        44        C      tau(  44) = (   0.7487945   0.9989046   0.7489691  )
        45        C      tau(  45) = (   0.8764746   0.1216998   0.8763156  )
        46        C      tau(  46) = (   0.7479635   0.2486819   0.5018806  )
        47        C      tau(  47) = (   0.8751980   0.3739245   0.6263738  )
        48        C      tau(  48) = (   0.5012000   0.5011574   0.0001136  )
        49        C      tau(  49) = (   0.6256259   0.6262099   0.1252968  )
        50        C      tau(  50) = (   0.5005188   0.7489091   0.2490095  )
        51        C      tau(  51) = (   0.6258050   0.8750157   0.3740056  )
        52        C      tau(  52) = (   0.7486304   0.5011458   0.2494302  )
        53        C      tau(  53) = (   0.8750247   0.6261269   0.3741365  )
        54        C      tau(  54) = (   0.7492281   0.7488562   0.9996087  )
        55        C      tau(  55) = (   0.8766209   0.8769033   0.1218021  )
        56        C      tau(  56) = (   0.4990819   0.4992903   0.4990317  )
        57        C      tau(  57) = (   0.6247789   0.6244471   0.6249452  )
        58        C      tau(  58) = (   0.4991767   0.7499842   0.7500845  )
        59        C      tau(  59) = (   0.6239946   0.8751464   0.8754130  )
        60        C      tau(  60) = (   0.7505316   0.4989321   0.7505826  )
        61        C      tau(  61) = (   0.8758455   0.6234984   0.8759288  )
        62        C      tau(  62) = (   0.7498244   0.7497799   0.4993198  )
        63        C      tau(  63) = (   0.8750855   0.8749084   0.6242568  )

   Crystallographic axes

     site n.     atom                  positions (cryst. coord.)
         1        N      tau(   1) = (  0.9893819  0.9897344  0.9891721  )
         2        C      tau(   2) = (  0.9870277  0.2601210  0.2640728  )
         3        C      tau(   3) = (  0.1231717  0.3731672  0.3742038  )
         4        C      tau(   4) = (  0.2603919  0.9894620  0.2619202  )
         5        C      tau(   5) = (  0.3737632  0.1246771  0.3741571  )
         6        C      tau(   6) = (  0.2640151  0.2616009  0.9853609  )
         7        C      tau(   7) = (  0.3737752  0.3731213  0.1223564  )
         8        C      tau(   8) = (  0.0000049  0.0005840  0.4991361  )
         9        C      tau(   9) = (  0.1251361  0.1251278  0.6250981  )
        10        C      tau(  10) = (  0.0020393  0.2482470  0.7515266  )
        11        C      tau(  11) = (  0.1292009  0.3733021  0.8763303  )
        12        C      tau(  12) = (  0.2487801  0.0017974  0.7514403  )
        13        C      tau(  13) = (  0.3754339  0.1292460  0.8748544  )
        14        C      tau(  14) = (  0.2491579  0.2495268  0.4995755  )
        15        C      tau(  15) = (  0.3750038  0.3749547  0.6244069  )
        16        C      tau(  16) = (  0.0016366  0.4979779  0.0013734  )
        17        C      tau(  17) = (  0.1250869  0.6243147  0.1250807  )
        18        C      tau(  18) = (  0.0014462  0.7520697  0.2483230  )
        19        C      tau(  19) = (  0.1266755  0.8769178  0.3741906  )
        20        C      tau(  20) = (  0.2488290  0.4983596  0.2486760  )
        21        C      tau(  21) = (  0.3741642  0.6242659  0.3742111  )
        22        C      tau(  22) = (  0.2480673  0.7520817  0.0015447  )
        23        C      tau(  23) = (  0.3729914  0.8777475  0.1265606  )
        24        C      tau(  24) = (  0.0000493  0.5010760  0.5011299  )
        25        C      tau(  25) = (  0.1252054  0.6262200  0.6252733  )
        26        C      tau(  26) = (  0.9993969  0.7487112  0.7492532  )
        27        C      tau(  27) = (  0.1217927  0.8768349  0.8763928  )
        28        C      tau(  28) = (  0.2492749  0.5017254  0.7482724  )
        29        C      tau(  29) = (  0.3741000  0.6277877  0.8750769  )
        30        C      tau(  30) = (  0.2487293  0.7486845  0.5007616  )
        31        C      tau(  31) = (  0.3739266  0.8750581  0.6258828  )
        32        C      tau(  32) = (  0.4987543  0.0011228  0.0002828  )
        33        C      tau(  33) = (  0.6248203  0.1251003  0.1251034  )
        34        C      tau(  34) = (  0.4991217  0.2493918  0.2488717  )
        35        C      tau(  35) = (  0.6243080  0.3746888  0.3747831  )
        36        C      tau(  36) = (  0.7516460  0.0016191  0.2487956  )
        37        C      tau(  37) = (  0.8750430  0.1283649  0.3757598  )
        38        C      tau(  38) = (  0.7517475  0.2480080  0.0019610  )
        39        C      tau(  39) = (  0.8773622  0.3724247  0.1282033  )
        40        C      tau(  40) = (  0.5008161  0.9999897  0.5008301  )
        41        C      tau(  41) = (  0.6256173  0.1249721  0.6252590  )
        42        C      tau(  42) = (  0.5022259  0.2488088  0.7478265  )
        43        C      tau(  43) = (  0.6264784  0.3739683  0.8752045  )
        44        C      tau(  44) = (  0.7487945  0.9989046  0.7489691  )
        45        C      tau(  45) = (  0.8764746  0.1216998  0.8763156  )
        46        C      tau(  46) = (  0.7479635  0.2486819  0.5018806  )
        47        C      tau(  47) = (  0.8751980  0.3739245  0.6263738  )
        48        C      tau(  48) = (  0.5012000  0.5011574  0.0001136  )
        49        C      tau(  49) = (  0.6256259  0.6262099  0.1252968  )
        50        C      tau(  50) = (  0.5005188  0.7489091  0.2490095  )
        51        C      tau(  51) = (  0.6258050  0.8750157  0.3740056  )
        52        C      tau(  52) = (  0.7486304  0.5011458  0.2494302  )
        53        C      tau(  53) = (  0.8750247  0.6261269  0.3741365  )
        54        C      tau(  54) = (  0.7492281  0.7488562  0.9996087  )
        55        C      tau(  55) = (  0.8766209  0.8769033  0.1218021  )
        56        C      tau(  56) = (  0.4990819  0.4992903  0.4990317  )
        57        C      tau(  57) = (  0.6247789  0.6244471  0.6249452  )
        58        C      tau(  58) = (  0.4991767  0.7499842  0.7500845  )
        59        C      tau(  59) = (  0.6239946  0.8751464  0.8754130  )
        60        C      tau(  60) = (  0.7505316  0.4989321  0.7505826  )
        61        C      tau(  61) = (  0.8758455  0.6234984  0.8759288  )
        62        C      tau(  62) = (  0.7498244  0.7497799  0.4993198  )
        63        C      tau(  63) = (  0.8750855  0.8749084  0.6242568  )

     number of k points=     1
                       cart. coord. in units 2pi/alat
        k(    1) = (   0.0000000   0.0000000   0.0000000), wk =   1.0000000

                       cryst. coord.
        k(    1) = (   0.0000000   0.0000000   0.0000000), wk =   1.0000000

     Dense  grid:    58461 G-vectors     FFT dimensions: (  64,  64,  64)

     Dynamical RAM for                 wfc:       0.35 MB

     Dynamical RAM for     wfc (w. buffer):       0.35 MB

     Dynamical RAM for           str. fact:       0.04 MB

     Dynamical RAM for           local pot:       0.00 MB

     Dynamical RAM for          nlocal pot:       1.17 MB

     Dynamical RAM for                qrad:       0.65 MB

     Dynamical RAM for          rho,v,vnew:       0.49 MB

     Dynamical RAM for               rhoin:       0.16 MB

     Dynamical RAM for            rho*nmix:       0.60 MB

     Dynamical RAM for           G-vectors:       0.08 MB

     Dynamical RAM for          h,s,v(r/c):       0.53 MB

     Dynamical RAM for          <psi|beta>:       0.58 MB

     Dynamical RAM for                 psi:       0.71 MB

     Dynamical RAM for                hpsi:       0.71 MB

     Dynamical RAM for      wfcinit/wfcrot:       1.24 MB

     Estimated static dynamical RAM per process >       3.37 MB

     Estimated max dynamical RAM per process >       6.49 MB

     Estimated total dynamical RAM >     594.05 MB
     Generating pointlists ...
     new r_m :   0.0854 (alat units)  1.1518 (a.u.) for type    1
     new r_m :   0.0847 (alat units)  1.1416 (a.u.) for type    2

     Initial potential from superposition of free atoms

     starting charge     252.5655, renormalised to     254.0000
     Starting wfcs are random

     total cpu time spent up to now is        1.1 secs

     Self-consistent Calculation

     iteration #  1     ecut=    50.00 Ry     beta= 0.70
     Davidson diagonalization with overlap

---- Real-time Memory Report at c_bands before calling an iterative solver
           159 MiB given to the printing process from OS
             0 MiB allocation reported by mallinfo(arena+hblkhd)
        173701 MiB available memory on the node where the printing process lives
------------------
     ethr =  1.00E-02,  avg # of iterations = 12.0

     total cpu time spent up to now is        1.7 secs

     total energy              =    -723.27102354 Ry
     estimated scf accuracy    <       3.70989114 Ry

     total magnetization       =     2.00 Bohr mag/cell
     absolute magnetization    =     2.00 Bohr mag/cell

     iteration #  2     ecut=    50.00 Ry     beta= 0.70
     Davidson diagonalization with overlap

---- Real-time Memory Report at c_bands before calling an iterative solver
           164 MiB given to the printing process from OS
             0 MiB allocation reported by mallinfo(arena+hblkhd)
        173642 MiB available memory on the node where the printing process lives
------------------
     ethr =  1.46E-03,  avg # of iterations = 12.0

     total cpu time spent up to now is        2.2 secs

     total energy              =    -723.66158251 Ry
     estimated scf accuracy    <       0.45632046 Ry

     total magnetization       =     2.00 Bohr mag/cell
     absolute magnetization    =     2.07 Bohr mag/cell

     iteration #  3     ecut=    50.00 Ry     beta= 0.70
     Davidson diagonalization with overlap

---- Real-time Memory Report at c_bands before calling an iterative solver
           164 MiB given to the printing process from OS
             0 MiB allocation reported by mallinfo(arena+hblkhd)
        173647 MiB available memory on the node where the printing process lives
------------------
     c_bands:  2 eigenvalues not converged
     ethr =  1.80E-04,  avg # of iterations = 20.0

     total cpu time spent up to now is        3.3 secs

     total energy              =    -723.72640528 Ry
     estimated scf accuracy    <       0.86867456 Ry

     total magnetization       =     2.00 Bohr mag/cell
     absolute magnetization    =     2.12 Bohr mag/cell

     iteration #  4     ecut=    50.00 Ry     beta= 0.70
     Davidson diagonalization with overlap

---- Real-time Memory Report at c_bands before calling an iterative solver
           165 MiB given to the printing process from OS
             0 MiB allocation reported by mallinfo(arena+hblkhd)
        173643 MiB available memory on the node where the printing process lives
------------------
     c_bands:  1 eigenvalues not converged
     ethr =  1.80E-04,  avg # of iterations = 20.0

     total cpu time spent up to now is        4.0 secs

     total energy              =    -723.90109445 Ry
     estimated scf accuracy    <       0.00977937 Ry

     total magnetization       =     2.00 Bohr mag/cell
     absolute magnetization    =     2.19 Bohr mag/cell

     iteration #  5     ecut=    50.00 Ry     beta= 0.70
     Davidson diagonalization with overlap

---- Real-time Memory Report at c_bands before calling an iterative solver
           165 MiB given to the printing process from OS
             0 MiB allocation reported by mallinfo(arena+hblkhd)
        173637 MiB available memory on the node where the printing process lives
------------------
     c_bands:  4 eigenvalues not converged
     ethr =  3.85E-06,  avg # of iterations = 20.0

     total cpu time spent up to now is        4.7 secs

     total energy              =    -723.90602048 Ry
     estimated scf accuracy    <       0.00406272 Ry

     total magnetization       =     2.00 Bohr mag/cell
     absolute magnetization    =     2.23 Bohr mag/cell

     iteration #  6     ecut=    50.00 Ry     beta= 0.70
     Davidson diagonalization with overlap

---- Real-time Memory Report at c_bands before calling an iterative solver
           165 MiB given to the printing process from OS
             0 MiB allocation reported by mallinfo(arena+hblkhd)
        173633 MiB available memory on the node where the printing process lives
------------------
     c_bands:  3 eigenvalues not converged
     ethr =  1.60E-06,  avg # of iterations = 20.0

     total cpu time spent up to now is        5.5 secs

     total energy              =    -723.90677158 Ry
     estimated scf accuracy    <       0.00089214 Ry

     total magnetization       =     2.00 Bohr mag/cell
     absolute magnetization    =     2.25 Bohr mag/cell

     iteration #  7     ecut=    50.00 Ry     beta= 0.70
     Davidson diagonalization with overlap

---- Real-time Memory Report at c_bands before calling an iterative solver
           165 MiB given to the printing process from OS
             0 MiB allocation reported by mallinfo(arena+hblkhd)
        173629 MiB available memory on the node where the printing process lives
------------------
     ethr =  3.51E-07,  avg # of iterations = 20.0

     total cpu time spent up to now is        6.0 secs

     total energy              =    -723.90699986 Ry
     estimated scf accuracy    <       0.00011984 Ry

     total magnetization       =     2.00 Bohr mag/cell
     absolute magnetization    =     2.27 Bohr mag/cell

     iteration #  8     ecut=    50.00 Ry     beta= 0.70
     Davidson diagonalization with overlap

---- Real-time Memory Report at c_bands before calling an iterative solver
           165 MiB given to the printing process from OS
             0 MiB allocation reported by mallinfo(arena+hblkhd)
        173637 MiB available memory on the node where the printing process lives
------------------
     c_bands:  1 eigenvalues not converged
     ethr =  4.72E-08,  avg # of iterations = 20.0

     total cpu time spent up to now is        6.5 secs

     total energy              =    -723.90704033 Ry
     estimated scf accuracy    <       0.00002766 Ry

     total magnetization       =     2.00 Bohr mag/cell
     absolute magnetization    =     2.28 Bohr mag/cell

     iteration #  9     ecut=    50.00 Ry     beta= 0.70
     Davidson diagonalization with overlap

---- Real-time Memory Report at c_bands before calling an iterative solver
           166 MiB given to the printing process from OS
             0 MiB allocation reported by mallinfo(arena+hblkhd)
        173635 MiB available memory on the node where the printing process lives
------------------
     c_bands:  3 eigenvalues not converged
     ethr =  1.09E-08,  avg # of iterations = 20.0

     total cpu time spent up to now is        7.1 secs

     total energy              =    -723.90705064 Ry
     estimated scf accuracy    <       0.00000762 Ry

     total magnetization       =     2.00 Bohr mag/cell
     absolute magnetization    =     2.29 Bohr mag/cell

     iteration # 10     ecut=    50.00 Ry     beta= 0.70
     Davidson diagonalization with overlap

---- Real-time Memory Report at c_bands before calling an iterative solver
           166 MiB given to the printing process from OS
             0 MiB allocation reported by mallinfo(arena+hblkhd)
        173629 MiB available memory on the node where the printing process lives
------------------
     c_bands:  2 eigenvalues not converged
     ethr =  3.00E-09,  avg # of iterations = 20.0

     total cpu time spent up to now is        7.6 secs

     total energy              =    -723.90705415 Ry
     estimated scf accuracy    <       0.00000082 Ry

     total magnetization       =     2.00 Bohr mag/cell
     absolute magnetization    =     2.29 Bohr mag/cell

     iteration # 11     ecut=    50.00 Ry     beta= 0.70
     Davidson diagonalization with overlap

---- Real-time Memory Report at c_bands before calling an iterative solver
           166 MiB given to the printing process from OS
             0 MiB allocation reported by mallinfo(arena+hblkhd)
        173639 MiB available memory on the node where the printing process lives
------------------
     c_bands:  1 eigenvalues not converged
     ethr =  3.24E-10,  avg # of iterations = 20.0

     total cpu time spent up to now is        8.2 secs

     total energy              =    -723.90705478 Ry
     estimated scf accuracy    <       0.00000025 Ry

     total magnetization       =     2.00 Bohr mag/cell
     absolute magnetization    =     2.30 Bohr mag/cell

     iteration # 12     ecut=    50.00 Ry     beta= 0.70
     Davidson diagonalization with overlap

---- Real-time Memory Report at c_bands before calling an iterative solver
           166 MiB given to the printing process from OS
             0 MiB allocation reported by mallinfo(arena+hblkhd)
        173636 MiB available memory on the node where the printing process lives
------------------
     ethr =  9.68E-11,  avg # of iterations = 18.5

     total cpu time spent up to now is        8.8 secs

     total energy              =    -723.90705490 Ry
     estimated scf accuracy    <       0.00000010 Ry

     total magnetization       =     2.00 Bohr mag/cell
     absolute magnetization    =     2.30 Bohr mag/cell

     iteration # 13     ecut=    50.00 Ry     beta= 0.70
     Davidson diagonalization with overlap

---- Real-time Memory Report at c_bands before calling an iterative solver
           166 MiB given to the printing process from OS
             0 MiB allocation reported by mallinfo(arena+hblkhd)
        173636 MiB available memory on the node where the printing process lives
------------------
     ethr =  4.01E-11,  avg # of iterations = 17.0

     total cpu time spent up to now is        9.2 secs

     total energy              =    -723.90705495 Ry
     estimated scf accuracy    <       0.00000003 Ry

     total magnetization       =     2.00 Bohr mag/cell
     absolute magnetization    =     2.30 Bohr mag/cell

     iteration # 14     ecut=    50.00 Ry     beta= 0.70
     Davidson diagonalization with overlap

---- Real-time Memory Report at c_bands before calling an iterative solver
           166 MiB given to the printing process from OS
             0 MiB allocation reported by mallinfo(arena+hblkhd)
        173637 MiB available memory on the node where the printing process lives
------------------
     ethr =  1.03E-11,  avg # of iterations = 18.0
 
     Magnetic moment per site  (integrated on atomic sphere of radius R)
     atom   1 (R=0.085)  charge=  2.9143  magn=  0.0042
     atom   2 (R=0.085)  charge=  1.8170  magn=  0.2449
     atom   3 (R=0.085)  charge=  1.7930  magn= -0.0087
     atom   4 (R=0.085)  charge=  1.8051  magn=  0.2455
     atom   5 (R=0.085)  charge=  1.7932  magn= -0.0087
     atom   6 (R=0.085)  charge=  1.8232  magn=  0.2451
     atom   7 (R=0.085)  charge=  1.7933  magn= -0.0087
     atom   8 (R=0.085)  charge=  1.7860  magn=  0.0091
     atom   9 (R=0.085)  charge=  1.7963  magn= -0.0019
     atom  10 (R=0.085)  charge=  1.7834  magn=  0.0060
     atom  11 (R=0.085)  charge=  1.7968  magn= -0.0042
     atom  12 (R=0.085)  charge=  1.7823  magn=  0.0061
     atom  13 (R=0.085)  charge=  1.8040  magn= -0.0039
     atom  14 (R=0.085)  charge=  1.7892  magn=  0.0085
     atom  15 (R=0.085)  charge=  1.7872  magn= -0.0020
     atom  16 (R=0.085)  charge=  1.7820  magn=  0.0089
     atom  17 (R=0.085)  charge=  1.7955  magn= -0.0018
     atom  18 (R=0.085)  charge=  1.7822  magn=  0.0057
     atom  19 (R=0.085)  charge=  1.7953  magn= -0.0035
     atom  20 (R=0.085)  charge=  1.7834  magn=  0.0083
     atom  21 (R=0.085)  charge=  1.7847  magn= -0.0020
     atom  22 (R=0.085)  charge=  1.7847  magn=  0.0057
     atom  23 (R=0.085)  charge=  1.7906  magn= -0.0037
     atom  24 (R=0.085)  charge=  1.7825  magn=  0.0182
     atom  25 (R=0.085)  charge=  1.8068  magn=  0.0094
     atom  26 (R=0.085)  charge=  1.7935  magn=  0.0032
     atom  27 (R=0.085)  charge=  1.7590  magn=  0.0001
     atom  28 (R=0.085)  charge=  1.7878  magn=  0.0221
     atom  29 (R=0.085)  charge=  1.7819  magn= -0.0013
     atom  30 (R=0.085)  charge=  1.7901  magn=  0.0211
     atom  31 (R=0.085)  charge=  1.7824  magn= -0.0013
     atom  32 (R=0.085)  charge=  1.7844  magn=  0.0090
     atom  33 (R=0.085)  charge=  1.7960  magn= -0.0019
     atom  34 (R=0.085)  charge=  1.7868  magn=  0.0084
     atom  35 (R=0.085)  charge=  1.7865  magn= -0.0020
     atom  36 (R=0.085)  charge=  1.7818  magn=  0.0059
     atom  37 (R=0.085)  charge=  1.8033  magn= -0.0036
     atom  38 (R=0.085)  charge=  1.7836  magn=  0.0058
     atom  39 (R=0.085)  charge=  1.7914  magn= -0.0041
     atom  40 (R=0.085)  charge=  1.7836  magn=  0.0181
     atom  41 (R=0.085)  charge=  1.8109  magn=  0.0094
     atom  42 (R=0.085)  charge=  1.7948  magn=  0.0218
     atom  43 (R=0.085)  charge=  1.7818  magn= -0.0013
     atom  44 (R=0.085)  charge=  1.7937  magn=  0.0032
     atom  45 (R=0.085)  charge=  1.7589  magn= -0.0000
     atom  46 (R=0.085)  charge=  1.7948  magn=  0.0214
     atom  47 (R=0.085)  charge=  1.7819  magn= -0.0013
     atom  48 (R=0.085)  charge=  1.7801  magn=  0.0184
     atom  49 (R=0.085)  charge=  1.8043  magn=  0.0094
     atom  50 (R=0.085)  charge=  1.7873  magn=  0.0212
     atom  51 (R=0.085)  charge=  1.7825  magn= -0.0013
     atom  52 (R=0.085)  charge=  1.7869  magn=  0.0218
     atom  53 (R=0.085)  charge=  1.7826  magn= -0.0013
     atom  54 (R=0.085)  charge=  1.7935  magn=  0.0032
     atom  55 (R=0.085)  charge=  1.7588  magn=  0.0001
     atom  56 (R=0.085)  charge=  1.7914  magn=  0.0009
     atom  57 (R=0.085)  charge=  1.7831  magn=  0.0010
     atom  58 (R=0.085)  charge=  1.7933  magn=  0.0018
     atom  59 (R=0.085)  charge=  1.7880  magn= -0.0009
     atom  60 (R=0.085)  charge=  1.7911  magn=  0.0017
     atom  61 (R=0.085)  charge=  1.7854  magn= -0.0009
     atom  62 (R=0.085)  charge=  1.7912  magn=  0.0018
     atom  63 (R=0.085)  charge=  1.7891  magn= -0.0009

     total cpu time spent up to now is        9.8 secs

     End of self-consistent calculation

 ------ SPIN UP ------------


          k = 0.0000 0.0000 0.0000 (  7386 PWs)   bands (ev):

    -8.5510  -6.9218  -6.2874  -6.2694  -6.1930  -6.1577  -5.8827  -4.9118
    -4.1447  -4.1332  -4.1241  -4.0937  -4.0307  -4.0174  -4.0128  -3.9185
    -3.8697  -3.8611  -3.3604  -2.9286  -2.6771  -2.6742  -2.1625  -0.3617
    -0.3542  -0.3294  -0.2817  -0.0768   0.1707   0.1925   0.2794   0.2980
     0.3683   0.6195   0.8365   0.8436   0.9483   0.9744   0.9869   1.0569
     1.0649   1.0662   1.2679   1.2934   3.0702   3.9087   3.9262   4.0681
     4.1883   4.2083   4.2220   4.2734   4.2816   4.2894   4.4200   4.4267
     4.4937   4.4986   4.5671   4.6605   4.6837   4.6912   4.6920   4.7864
     4.7968   4.9203   4.9643   4.9697   5.0498   5.1980   5.2090   5.2993
     5.3573   5.3756   5.3958   5.4049   5.4121   6.0416   6.0486   6.1017
     6.6607   6.6680   6.7244   6.9910   7.0034   7.0401   7.5212   8.3323
     8.3363   8.4109   8.4643   8.4947   8.6846   8.7145   8.7896   8.8296
     8.8447   8.8554   8.8908   8.8992   8.9047   9.2848   9.2868   9.3235
     9.6839   9.7039   9.9014   9.9073   9.9440   9.9601   9.9619   9.9771
     9.9861  10.0273  10.0374  10.0636  10.1253  10.1399  10.2671  10.3259
    10.3349  11.0530  12.2892  12.4142  12.4336  13.9572  14.6908  14.7996
    17.3405  17.3712  17.4113  17.5223  17.5728  17.5853  17.8512  17.9242
    17.9365  18.0322  18.0729  18.3713  18.9950  19.0008  19.0236  20.6950
    20.7885  20.8235  20.8737  20.9431  20.9454  21.0258  21.0348  21.0485

     occupation numbers 
     1.0000   1.0000   1.0000   1.0000   1.0000   1.0000   1.0000   1.0000
     1.0000   1.0000   1.0000   1.0000   1.0000   1.0000   1.0000   1.0000
     1.0000   1.0000   1.0000   1.0000   1.0000   1.0000   1.0000   1.0000
     1.0000   1.0000   1.0000   1.0000   1.0000   1.0000   1.0000   1.0000
     1.0000   1.0000   1.0000   1.0000   1.0000   1.0000   1.0000   1.0000
     1.0000   1.0000   1.0000   1.0000   1.0000   1.0000   1.0000   1.0000
     1.0000   1.0000   1.0000   1.0000   1.0000   1.0000   1.0000   1.0000
     1.0000   1.0000   1.0000   1.0000   1.0000   1.0000   1.0000   1.0000
     1.0000   1.0000   1.0000   1.0000   1.0000   1.0000   1.0000   1.0000
     1.0000   1.0000   1.0000   1.0000   1.0000   1.0000   1.0000   1.0000
     1.0000   1.0000   1.0000   1.0000   1.0000   1.0000   1.0000   1.0000
     1.0000   1.0000   1.0000   1.0000   1.0000   1.0000   1.0000   1.0000
     1.0000   1.0000   1.0000   1.0000   1.0000   1.0000   1.0000   1.0000
     1.0000   1.0000   1.0000   1.0000   1.0000   1.0000   1.0000   1.0000
     1.0000   1.0000   1.0000   1.0000   1.0000   1.0000   1.0000   1.0000
     1.0000   1.0000   1.0000   1.0000   1.0000   1.0000   1.0000   1.0000
     0.0000   0.0000   0.0000   0.0000   0.0000   0.0000   0.0000   0.0000
     0.0000   0.0000   0.0000   0.0000   0.0000   0.0000   0.0000   0.0000
     0.0000   0.0000   0.0000   0.0000   0.0000   0.0000   0.0000   0.0000

 ------ SPIN DOWN ----------


          k = 0.0000 0.0000 0.0000 (  7386 PWs)   bands (ev):

    -8.5256  -6.9074  -6.2651  -6.2462  -6.1485  -6.1156  -5.8456  -4.8950
    -4.1237  -4.1055  -4.0881  -4.0613  -3.9967  -3.9769  -3.9651  -3.9063
    -3.8358  -3.8209  -3.3182  -2.9100  -2.6244  -2.6206  -2.0176  -0.3442
    -0.3362  -0.3079  -0.2646  -0.0112   0.1897   0.2100   0.3168   0.3309
     0.3935   0.6541   0.8487   0.8555   0.9826   1.0037   1.0124   1.0735
     1.0812   1.0831   1.4334   1.4633   3.1841   3.9320   3.9483   4.0941
     4.2231   4.2502   4.2646   4.2879   4.3016   4.3147   4.4663   4.4724
     4.5165   4.5207   4.5912   4.6848   4.7034   4.7066   4.7132   4.8206
     4.8334   4.9334   4.9966   5.0015   5.1312   5.2319   5.2441   5.3231
     5.3721   5.3865   5.4214   5.4535   5.4712   6.1039   6.1080   6.1397
     6.6872   6.6953   6.7587   7.0767   7.0874   7.1001   7.6915   8.3711
     8.3761   8.4479   8.4996   8.5291   8.7186   8.7458   8.8259   8.8747
     8.8840   8.8878   8.9231   8.9311   8.9325   9.3213   9.3232   9.3509
     9.7118   9.7312   9.9276   9.9398   9.9559   9.9733   9.9759   9.9965
    10.0076  10.0604  10.0741  10.0811  10.1530  10.1660  10.3251  10.3798
    10.3893  11.4332  12.5566  12.5654  12.6063  14.4394  16.0172  16.1398
    17.3647  17.3891  17.4282  17.5497  17.6286  17.6421  17.8740  17.9437
    17.9547  18.0723  18.1134  18.4915  19.0429  19.0796  19.1107  20.7453
    20.8029  20.8376  20.8885  20.9607  20.9621  21.0412  21.0617  21.0679

     occupation numbers 
     1.0000   1.0000   1.0000   1.0000   1.0000   1.0000   1.0000   1.0000
     1.0000   1.0000   1.0000   1.0000   1.0000   1.0000   1.0000   1.0000
     1.0000   1.0000   1.0000   1.0000   1.0000   1.0000   1.0000   1.0000
     1.0000   1.0000   1.0000   1.0000   1.0000   1.0000   1.0000   1.0000
     1.0000   1.0000   1.0000   1.0000   1.0000   1.0000   1.0000   1.0000
     1.0000   1.0000   1.0000   1.0000   1.0000   1.0000   1.0000   1.0000
     1.0000   1.0000   1.0000   1.0000   1.0000   1.0000   1.0000   1.0000
     1.0000   1.0000   1.0000   1.0000   1.0000   1.0000   1.0000   1.0000
     1.0000   1.0000   1.0000   1.0000   1.0000   1.0000   1.0000   1.0000
     1.0000   1.0000   1.0000   1.0000   1.0000   1.0000   1.0000   1.0000
     1.0000   1.0000   1.0000   1.0000   1.0000   1.0000   1.0000   1.0000
     1.0000   1.0000   1.0000   1.0000   1.0000   1.0000   1.0000   1.0000
     1.0000   1.0000   1.0000   1.0000   1.0000   1.0000   1.0000   1.0000
     1.0000   1.0000   1.0000   1.0000   1.0000   1.0000   1.0000   1.0000
     1.0000   1.0000   1.0000   1.0000   1.0000   1.0000   1.0000   1.0000
     1.0000   1.0000   1.0000   1.0000   1.0000   1.0000   0.0000   0.0000
     0.0000   0.0000   0.0000   0.0000   0.0000   0.0000   0.0000   0.0000
     0.0000   0.0000   0.0000   0.0000   0.0000   0.0000   0.0000   0.0000
     0.0000   0.0000   0.0000   0.0000   0.0000   0.0000   0.0000   0.0000

     highest occupied, lowest unoccupied level (ev):    14.7996   16.0172

!    total energy              =    -723.90705496 Ry
     estimated scf accuracy    <          5.1E-09 Ry

     The total energy is the sum of the following terms:
     one-electron contribution =     232.28414210 Ry
     hartree contribution      =      70.33594137 Ry
     xc contribution           =    -226.77206025 Ry
     ewald contribution        =    -799.75507818 Ry

     total magnetization       =     2.00 Bohr mag/cell
     absolute magnetization    =     2.30 Bohr mag/cell

     convergence has been achieved in  14 iterations

     Forces acting on atoms (cartesian axes, Ry/au):

     atom    1 type  1   force =    -0.00283275   -0.00382271   -0.00265523
     atom    2 type  2   force =     0.03517649    0.01586830   -0.01260892
     atom    3 type  2   force =    -0.00930903    0.00867244    0.00621462
     atom    4 type  2   force =     0.00886447    0.02488796   -0.00272441
     atom    5 type  2   force =     0.00230700   -0.02121457    0.00164028
     atom    6 type  2   force =    -0.00838836    0.00825125    0.04337200
     atom    7 type  2   force =     0.01002247    0.01266767   -0.00268259
     atom    8 type  2   force =     0.00298936    0.00428958    0.00653271
     atom    9 type  2   force =    -0.00213531   -0.00478266   -0.00299053
     atom   10 type  2   force =     0.00092481    0.00140245    0.00736057
     atom   11 type  2   force =    -0.02807620    0.00659290   -0.00857569
     atom   12 type  2   force =    -0.00001914    0.00386735    0.00341448
     atom   13 type  2   force =    -0.00283532   -0.03986642   -0.00183870
     atom   14 type  2   force =     0.00335130    0.00220004   -0.00431077
     atom   15 type  2   force =    -0.00246416   -0.00075091   -0.00506596
     atom   16 type  2   force =     0.00011133   -0.00109277   -0.00100359
     atom   17 type  2   force =    -0.00105455    0.00580426   -0.00012264
     atom   18 type  2   force =     0.00297404   -0.00007664    0.00087793
     atom   19 type  2   force =    -0.00912502   -0.00310506   -0.00522372
     atom   20 type  2   force =     0.00296554   -0.00442662    0.00359086
     atom   21 type  2   force =    -0.00113592   -0.00404546   -0.00211296
     atom   22 type  2   force =     0.00071179    0.00588320    0.00197084
     atom   23 type  2   force =    -0.00095836   -0.00655535   -0.00104878
     atom   24 type  2   force =     0.00955333    0.00558445    0.00421652
     atom   25 type  2   force =    -0.01268736   -0.01441676   -0.00436850
     atom   26 type  2   force =     0.01492311    0.00603763    0.00167392
     atom   27 type  2   force =    -0.02626181   -0.00806080   -0.00607844
     atom   28 type  2   force =     0.01123356    0.00452591    0.00671470
     atom   29 type  2   force =    -0.00017649   -0.02037575   -0.00101684
     atom   30 type  2   force =     0.00768519    0.00645214    0.00418818
     atom   31 type  2   force =     0.00139472   -0.00098959   -0.00418189
     atom   32 type  2   force =     0.00315543    0.00385283    0.00137409
     atom   33 type  2   force =     0.00055674   -0.00444374   -0.00013705
     atom   34 type  2   force =    -0.00465479    0.00177472    0.00352617
     atom   35 type  2   force =    -0.00496658   -0.00086496   -0.00332752
     atom   36 type  2   force =     0.00063682    0.00433413   -0.00011494
     atom   37 type  2   force =     0.00067414   -0.03260126   -0.00713564
     atom   38 type  2   force =     0.00692953    0.00179647   -0.00021692
     atom   39 type  2   force =    -0.01009518    0.00612920   -0.01371518
     atom   40 type  2   force =     0.00528683    0.01271287    0.00489475
     atom   41 type  2   force =    -0.00741566   -0.01548976   -0.00366111
     atom   42 type  2   force =    -0.00006373    0.01738640    0.00598971
     atom   43 type  2   force =    -0.00149531    0.00131730   -0.00136303
     atom   44 type  2   force =     0.00468169    0.01717775    0.00309015
     atom   45 type  2   force =    -0.00741786   -0.02650662   -0.00664519
     atom   46 type  2   force =     0.00644445    0.01606763    0.00116433
     atom   47 type  2   force =    -0.00121065    0.00130655   -0.00187715
     atom   48 type  2   force =     0.00410418    0.00933955    0.00715821
     atom   49 type  2   force =    -0.00765949   -0.01469809   -0.00981973
     atom   50 type  2   force =     0.00425337    0.00657786    0.00340602
     atom   51 type  2   force =    -0.00398727   -0.00177754    0.00026986
     atom   52 type  2   force =     0.00653022    0.00224998    0.00503601
     atom   53 type  2   force =    -0.00167445   -0.00318558   -0.00039282
     atom   54 type  2   force =     0.00253589    0.00535301    0.01398459
     atom   55 type  2   force =    -0.00714709   -0.00846814   -0.02496896
     atom   56 type  2   force =     0.00475761    0.00455251    0.00467521
     atom   57 type  2   force =    -0.00209494   -0.00125624   -0.00190584
     atom   58 type  2   force =     0.00253066    0.00821068    0.00226134
     atom   59 type  2   force =    -0.00058415   -0.00207908   -0.00408370
     atom   60 type  2   force =     0.00266493    0.00190063    0.00233443
     atom   61 type  2   force =    -0.00338622   -0.00178571   -0.00382297
     atom   62 type  2   force =     0.00395616    0.00463081    0.00123878
     atom   63 type  2   force =    -0.00357404   -0.00291960   -0.00037333
     The non-local contrib.  to forces
     atom    1 type  1   force =    -0.76098610   -0.76420152   -0.75891358
     atom    2 type  2   force =    -0.16467232    0.22044344    0.17806456
     atom    3 type  2   force =     0.05681630    0.08109118    0.07245781
     atom    4 type  2   force =     0.21502024   -0.18826564    0.19809850
     atom    5 type  2   force =     0.07298067    0.04286205    0.07019069
     atom    6 type  2   force =     0.17951426    0.20415814   -0.14646394
     atom    7 type  2   force =     0.07728746    0.08377516    0.06375512
     atom    8 type  2   force =    -0.00440944   -0.00459470    0.05671684
     atom    9 type  2   force =    -0.00555029   -0.00791779    0.01322610
     atom   10 type  2   force =    -0.04416786   -0.01397073   -0.01161183
     atom   11 type  2   force =    -0.10338601    0.06827892   -0.08312672
     atom   12 type  2   force =    -0.01729364   -0.04119652   -0.01454325
     atom   13 type  2   force =     0.05207804   -0.11661976   -0.07333502
     atom   14 type  2   force =     0.00268333    0.00066288    0.04585139
     atom   15 type  2   force =     0.01014345    0.00966568   -0.00330827
     atom   16 type  2   force =    -0.01234959    0.04887143   -0.01304042
     atom   17 type  2   force =    -0.00359930    0.02764644   -0.00424953
     atom   18 type  2   force =    -0.04050608   -0.02236299   -0.01622641
     atom   19 type  2   force =    -0.08118105   -0.07905621    0.05515449
     atom   20 type  2   force =     0.00432388    0.04495456    0.00496440
     atom   21 type  2   force =     0.01075369   -0.00324214    0.01119677
     atom   22 type  2   force =    -0.01478626   -0.01675544   -0.04199436
     atom   23 type  2   force =     0.06335171   -0.08392511   -0.07225171
     atom   24 type  2   force =    -0.06513576    0.03295331    0.03368937
     atom   25 type  2   force =    -0.02551877    0.00068494    0.01282849
     atom   26 type  2   force =    -0.04191688   -0.02055016   -0.02336601
     atom   27 type  2   force =    -0.14761307    0.12587377    0.12330047
     atom   28 type  2   force =     0.08070901    0.02707126   -0.01174221
     atom   29 type  2   force =     0.00087784   -0.00453467    0.00523089
     atom   30 type  2   force =     0.07685901   -0.01306929    0.02881983
     atom   31 type  2   force =     0.00326592    0.00395389    0.01607876
     atom   32 type  2   force =     0.05282202   -0.00677346   -0.00726885
     atom   33 type  2   force =     0.01814894   -0.00743396   -0.00377709
     atom   34 type  2   force =     0.04475459    0.00124975    0.00355661
     atom   35 type  2   force =    -0.00363251    0.00883083    0.01043452
     atom   36 type  2   force =    -0.01840003   -0.04032780   -0.01791522
     atom   37 type  2   force =    -0.07173035   -0.10864395    0.04778609
     atom   38 type  2   force =    -0.01387484   -0.01331971   -0.04527304
     atom   39 type  2   force =    -0.08673267    0.07132927   -0.08760620
     atom   40 type  2   force =     0.03505466   -0.05833435    0.03520280
     atom   41 type  2   force =     0.00899948   -0.02638508    0.01409108
     atom   42 type  2   force =     0.02098761    0.08861942   -0.00977730
     atom   43 type  2   force =     0.01669781    0.00086222    0.00382637
     atom   44 type  2   force =    -0.02236126   -0.03681387   -0.02352284
     atom   45 type  2   force =     0.12493934   -0.14736236    0.12428716
     atom   46 type  2   force =    -0.00987204    0.08708932    0.02315413
     atom   47 type  2   force =     0.00322407    0.00113488    0.01628300
     atom   48 type  2   force =     0.03277280    0.03662476   -0.06900370
     atom   49 type  2   force =     0.00951679    0.00043421   -0.02184415
     atom   50 type  2   force =     0.02950104   -0.01441386    0.07149159
     atom   51 type  2   force =     0.01711880    0.00360953    0.00336881
     atom   52 type  2   force =    -0.01372267    0.02629354    0.07354372
     atom   53 type  2   force =     0.00477619    0.01832737    0.00159588
     atom   54 type  2   force =    -0.02250725   -0.02044614   -0.04407652
     atom   55 type  2   force =     0.12341501    0.12445552   -0.14641568
     atom   56 type  2   force =     0.02299544    0.02423551    0.02216558
     atom   57 type  2   force =     0.00410392    0.00540995    0.00640911
     atom   58 type  2   force =     0.01693584   -0.00268278   -0.01083358
     atom   59 type  2   force =     0.00841123   -0.01359294   -0.01545701
     atom   60 type  2   force =    -0.01041280    0.01842337   -0.01164246
     atom   61 type  2   force =    -0.01491242    0.00870244   -0.01543042
     atom   62 type  2   force =    -0.00882421   -0.00616905    0.01572318
     atom   63 type  2   force =    -0.01583254   -0.01511436    0.00838844
     The ionic contribution  to forces
     atom    1 type  1   force =     2.98197365    2.95655476    2.99833796
     atom    2 type  2   force =     2.41268308   -2.05866757   -2.21567088
     atom    3 type  2   force =     0.48142434   -0.72996597   -0.85247882
     atom    4 type  2   force =    -2.09058959    2.33557887   -2.15625698
     atom    5 type  2   force =    -0.77873644    0.40324861   -0.82620861
     atom    6 type  2   force =    -2.18391003   -2.08953343    2.45730870
     atom    7 type  2   force =    -0.82405061   -0.74449495    0.52890674
     atom    8 type  2   force =     0.25642893    0.21609838   -0.72744401
     atom    9 type  2   force =     0.06591295    0.02950256   -0.22424971
     atom   10 type  2   force =     0.18115439    0.07332790    0.56612977
     atom   11 type  2   force =    -0.51966548   -0.62259703    0.80320252
     atom   12 type  2   force =     0.02602193    0.16814655    0.54813867
     atom   13 type  2   force =    -0.66308406   -0.55740015    0.76122375
     atom   14 type  2   force =    -0.19373771   -0.17787255   -0.71369021
     atom   15 type  2   force =    -0.16886848   -0.12630852   -0.06012054
     atom   16 type  2   force =     0.20264660   -0.77700094    0.22437323
     atom   17 type  2   force =     0.07140670   -0.16146779    0.09365941
     atom   18 type  2   force =     0.22248813    0.46798398    0.00282097
     atom   19 type  2   force =    -0.36257863    0.74844489   -0.70678695
     atom   20 type  2   force =    -0.17990435   -0.73250653   -0.19289032
     atom   21 type  2   force =    -0.17447335   -0.06072590   -0.20024478
     atom   22 type  2   force =     0.00266988    0.47911885    0.26226170
     atom   23 type  2   force =    -0.68855994    0.78253563   -0.32349584
     atom   24 type  2   force =     0.10659497   -0.13761841   -0.17009541
     atom   25 type  2   force =    -0.02567443   -0.08472565   -0.07034334
     atom   26 type  2   force =     0.12780158   -0.09604831   -0.05008401
     atom   27 type  2   force =     1.13250235    0.24797414    0.25025524
     atom   28 type  2   force =    -0.05701148   -0.13495238    0.13824161
     atom   29 type  2   force =    -0.15595333   -0.03507999    0.25782133
     atom   30 type  2   force =    -0.02077837    0.13591549   -0.23720756
     atom   31 type  2   force =    -0.15306714    0.17719842   -0.01666827
     atom   32 type  2   force =    -0.74110666    0.20285099    0.26466815
     atom   33 type  2   force =    -0.20209041    0.03270477    0.09137821
     atom   34 type  2   force =    -0.71828345   -0.17390567   -0.20049944
     atom   35 type  2   force =    -0.06420229   -0.13374837   -0.19795319
     atom   36 type  2   force =     0.51546841    0.17610699    0.00344559
     atom   37 type  2   force =     0.73640743   -0.49904763   -0.69218577
     atom   38 type  2   force =     0.53811126    0.07336527    0.20837870
     atom   39 type  2   force =     0.80817517   -0.63766252   -0.43184174
     atom   40 type  2   force =    -0.19617243    0.06443308   -0.21101147
     atom   41 type  2   force =    -0.07050347   -0.08477276   -0.06850545
     atom   42 type  2   force =    -0.13353096    0.03430374    0.09146151
     atom   43 type  2   force =     0.02496631   -0.10984160    0.25399446
     atom   44 type  2   force =    -0.07048877    0.12491014   -0.05485132
     atom   45 type  2   force =     0.24388208    1.16150482    0.24816081
     atom   46 type  2   force =     0.09952356    0.05170463   -0.16953606
     atom   47 type  2   force =     0.22347260   -0.11419063    0.01728074
     atom   48 type  2   force =    -0.15697323   -0.10976912    0.11293322
     atom   49 type  2   force =    -0.07480858   -0.08674225    0.00724350
     atom   50 type  2   force =    -0.23562753    0.15074451   -0.08048931
     atom   51 type  2   force =    -0.00908491    0.17450805   -0.18036687
     atom   52 type  2   force =     0.13847402   -0.17816711   -0.12214742
     atom   53 type  2   force =     0.22806166    0.01233717   -0.18206170
     atom   54 type  2   force =    -0.06078816   -0.09293147    0.13989976
     atom   55 type  2   force =     0.24486043    0.24288816    1.13264962
     atom   56 type  2   force =    -0.09203110   -0.03219542   -0.12224868
     atom   57 type  2   force =    -0.02264797   -0.03986198   -0.01936615
     atom   58 type  2   force =    -0.05086479    0.04857200    0.01428637
     atom   59 type  2   force =    -0.27646367    0.08122353    0.15395305
     atom   60 type  2   force =     0.05768781   -0.03793669    0.05990927
     atom   61 type  2   force =     0.13141332   -0.30566871    0.15881206
     atom   62 type  2   force =     0.03070927    0.03580495   -0.09986600
     atom   63 type  2   force =     0.12338901    0.07381617   -0.27426982
     The local contribution  to forces
     atom    1 type  1   force =    -2.22387334   -2.19619051   -2.24213663
     atom    2 type  2   force =    -2.21289655    1.85406979    2.02494037
     atom    3 type  2   force =    -0.54763854    0.65749455    0.78616751
     atom    4 type  2   force =     1.88435500   -2.12245175    1.95538191
     atom    5 type  2   force =     0.70796865   -0.46735011    0.75761181
     atom    6 type  2   force =     1.99592412    1.89360452   -2.26753294
     atom    7 type  2   force =     0.75668582    0.67335179   -0.59541497
     atom    8 type  2   force =    -0.24908284   -0.20722411    0.67720564
     atom    9 type  2   force =    -0.06255617   -0.02638724    0.20797393
     atom   10 type  2   force =    -0.13610904   -0.05798838   -0.54721276
     atom   11 type  2   force =     0.59492126    0.56087104   -0.72869775
     atom   12 type  2   force =    -0.00881974   -0.12311177   -0.53023607
     atom   13 type  2   force =     0.60807954    0.63412908   -0.68978702
     atom   14 type  2   force =     0.19431426    0.17937853    0.66347773
     atom   15 type  2   force =     0.15615907    0.11584761    0.05832359
     atom   16 type  2   force =    -0.19023904    0.72697685   -0.21238102
     atom   17 type  2   force =    -0.06892238    0.13955687   -0.08959249
     atom   18 type  2   force =    -0.17905944   -0.44575405    0.01421918
     atom   19 type  2   force =     0.43457635   -0.67252896    0.64635895
     atom   20 type  2   force =     0.17845451    0.68307184    0.19145326
     atom   21 type  2   force =     0.16248323    0.05987678    0.18687653
     atom   22 type  2   force =     0.01276046   -0.45653375   -0.21836236
     atom   23 type  2   force =     0.62416891   -0.70521240    0.39462793
     atom   24 type  2   force =    -0.03195661    0.11018199    0.14055459
     atom   25 type  2   force =     0.03845104    0.06956753    0.05309439
     atom   26 type  2   force =    -0.07101667    0.12259109    0.07507595
     atom   27 type  2   force =    -1.01121292   -0.38194290   -0.37969053
     atom   28 type  2   force =    -0.01253469    0.11235534   -0.11983361
     atom   29 type  2   force =     0.15481088    0.01918409   -0.26412153
     atom   30 type  2   force =    -0.04846612   -0.11644365    0.21252787
     atom   31 type  2   force =     0.15110472   -0.18217709   -0.00364169
     atom   32 type  2   force =     0.69134863   -0.19226085   -0.25609171
     atom   33 type  2   force =     0.18441531   -0.02973819   -0.08779885
     atom   34 type  2   force =     0.66878716    0.17439996    0.20040657
     atom   35 type  2   force =     0.06279631    0.12400218    0.18412453
     atom   36 type  2   force =    -0.49650412   -0.13145311    0.01428741
     atom   37 type  2   force =    -0.66405257    0.57509572    0.63719198
     atom   38 type  2   force =    -0.51737662   -0.05828122   -0.16336349
     atom   39 type  2   force =    -0.73158545    0.57240771    0.50569659
     atom   40 type  2   force =     0.16630217    0.00658508    0.18065938
     atom   41 type  2   force =     0.05399059    0.09563567    0.05070100
     atom   42 type  2   force =     0.11237030   -0.10556841   -0.07574461
     atom   43 type  2   force =    -0.04326297    0.11026087   -0.25923051
     atom   44 type  2   force =     0.09744784   -0.07095545    0.08141737
     atom   45 type  2   force =    -0.37629775   -1.04068162   -0.37913560
     atom   46 type  2   force =    -0.08327179   -0.12275675    0.14747299
     atom   47 type  2   force =    -0.22795936    0.11431627   -0.03551307
     atom   48 type  2   force =     0.12820332    0.08244090   -0.03683632
     atom   49 type  2   force =     0.05753581    0.07155550    0.00470646
     atom   50 type  2   force =     0.21027428   -0.12980191    0.01233627
     atom   51 type  2   force =    -0.01212512   -0.17992357    0.17721185
     atom   52 type  2   force =    -0.11828545    0.15405073    0.05357606
     atom   53 type  2   force =    -0.23456406   -0.03392817    0.18001059
     atom   54 type  2   force =     0.08574325    0.11868414   -0.08190835
     atom   55 type  2   force =    -0.37548609   -0.37583704   -1.01127565
     atom   56 type  2   force =     0.07369082    0.01246464    0.10471054
     atom   57 type  2   force =     0.01635104    0.03314953    0.01101344
     atom   58 type  2   force =     0.03636250   -0.03772358   -0.00123468
     atom   59 type  2   force =     0.26737302   -0.06975122   -0.14263252
     atom   60 type  2   force =    -0.04469396    0.02137527   -0.04597804
     atom   61 type  2   force =    -0.11995477    0.29513353   -0.14725407
     atom   62 type  2   force =    -0.01801113   -0.02505212    0.08534202
     atom   63 type  2   force =    -0.11119492   -0.06165453    0.26546903
     The core correction contribution to forces
     atom    1 type  1   force =     0.00000000    0.00000000    0.00000000
     atom    2 type  2   force =     0.00000000    0.00000000    0.00000000
     atom    3 type  2   force =     0.00000000    0.00000000    0.00000000
     atom    4 type  2   force =     0.00000000    0.00000000    0.00000000
     atom    5 type  2   force =     0.00000000    0.00000000    0.00000000
     atom    6 type  2   force =     0.00000000    0.00000000    0.00000000
     atom    7 type  2   force =     0.00000000    0.00000000    0.00000000
     atom    8 type  2   force =     0.00000000    0.00000000    0.00000000
     atom    9 type  2   force =     0.00000000    0.00000000    0.00000000
     atom   10 type  2   force =     0.00000000    0.00000000    0.00000000
     atom   11 type  2   force =     0.00000000    0.00000000    0.00000000
     atom   12 type  2   force =     0.00000000    0.00000000    0.00000000
     atom   13 type  2   force =     0.00000000    0.00000000    0.00000000
     atom   14 type  2   force =     0.00000000    0.00000000    0.00000000
     atom   15 type  2   force =     0.00000000    0.00000000    0.00000000
     atom   16 type  2   force =     0.00000000    0.00000000    0.00000000
     atom   17 type  2   force =     0.00000000    0.00000000    0.00000000
     atom   18 type  2   force =     0.00000000    0.00000000    0.00000000
     atom   19 type  2   force =     0.00000000    0.00000000    0.00000000
     atom   20 type  2   force =     0.00000000    0.00000000    0.00000000
     atom   21 type  2   force =     0.00000000    0.00000000    0.00000000
     atom   22 type  2   force =     0.00000000    0.00000000    0.00000000
     atom   23 type  2   force =     0.00000000    0.00000000    0.00000000
     atom   24 type  2   force =     0.00000000    0.00000000    0.00000000
     atom   25 type  2   force =     0.00000000    0.00000000    0.00000000
     atom   26 type  2   force =     0.00000000    0.00000000    0.00000000
     atom   27 type  2   force =     0.00000000    0.00000000    0.00000000
     atom   28 type  2   force =     0.00000000    0.00000000    0.00000000
     atom   29 type  2   force =     0.00000000    0.00000000    0.00000000
     atom   30 type  2   force =     0.00000000    0.00000000    0.00000000
     atom   31 type  2   force =     0.00000000    0.00000000    0.00000000
     atom   32 type  2   force =     0.00000000    0.00000000    0.00000000
     atom   33 type  2   force =     0.00000000    0.00000000    0.00000000
     atom   34 type  2   force =     0.00000000    0.00000000    0.00000000
     atom   35 type  2   force =     0.00000000    0.00000000    0.00000000
     atom   36 type  2   force =     0.00000000    0.00000000    0.00000000
     atom   37 type  2   force =     0.00000000    0.00000000    0.00000000
     atom   38 type  2   force =     0.00000000    0.00000000    0.00000000
     atom   39 type  2   force =     0.00000000    0.00000000    0.00000000
     atom   40 type  2   force =     0.00000000    0.00000000    0.00000000
     atom   41 type  2   force =     0.00000000    0.00000000    0.00000000
     atom   42 type  2   force =     0.00000000    0.00000000    0.00000000
     atom   43 type  2   force =     0.00000000    0.00000000    0.00000000
     atom   44 type  2   force =     0.00000000    0.00000000    0.00000000
     atom   45 type  2   force =     0.00000000    0.00000000    0.00000000
     atom   46 type  2   force =     0.00000000    0.00000000    0.00000000
     atom   47 type  2   force =     0.00000000    0.00000000    0.00000000
     atom   48 type  2   force =     0.00000000    0.00000000    0.00000000
     atom   49 type  2   force =     0.00000000    0.00000000    0.00000000
     atom   50 type  2   force =     0.00000000    0.00000000    0.00000000
     atom   51 type  2   force =     0.00000000    0.00000000    0.00000000
     atom   52 type  2   force =     0.00000000    0.00000000    0.00000000
     atom   53 type  2   force =     0.00000000    0.00000000    0.00000000
     atom   54 type  2   force =     0.00000000    0.00000000    0.00000000
     atom   55 type  2   force =     0.00000000    0.00000000    0.00000000
     atom   56 type  2   force =     0.00000000    0.00000000    0.00000000
     atom   57 type  2   force =     0.00000000    0.00000000    0.00000000
     atom   58 type  2   force =     0.00000000    0.00000000    0.00000000
     atom   59 type  2   force =     0.00000000    0.00000000    0.00000000
     atom   60 type  2   force =     0.00000000    0.00000000    0.00000000
     atom   61 type  2   force =     0.00000000    0.00000000    0.00000000
     atom   62 type  2   force =     0.00000000    0.00000000    0.00000000
     atom   63 type  2   force =     0.00000000    0.00000000    0.00000000
     The Hubbard contrib.    to forces
     atom    1 type  1   force =     0.00000000    0.00000000    0.00000000
     atom    2 type  2   force =     0.00000000    0.00000000    0.00000000
     atom    3 type  2   force =     0.00000000    0.00000000    0.00000000
     atom    4 type  2   force =     0.00000000    0.00000000    0.00000000
     atom    5 type  2   force =     0.00000000    0.00000000    0.00000000
     atom    6 type  2   force =     0.00000000    0.00000000    0.00000000
     atom    7 type  2   force =     0.00000000    0.00000000    0.00000000
     atom    8 type  2   force =     0.00000000    0.00000000    0.00000000
     atom    9 type  2   force =     0.00000000    0.00000000    0.00000000
     atom   10 type  2   force =     0.00000000    0.00000000    0.00000000
     atom   11 type  2   force =     0.00000000    0.00000000    0.00000000
     atom   12 type  2   force =     0.00000000    0.00000000    0.00000000
     atom   13 type  2   force =     0.00000000    0.00000000    0.00000000
     atom   14 type  2   force =     0.00000000    0.00000000    0.00000000
     atom   15 type  2   force =     0.00000000    0.00000000    0.00000000
     atom   16 type  2   force =     0.00000000    0.00000000    0.00000000
     atom   17 type  2   force =     0.00000000    0.00000000    0.00000000
     atom   18 type  2   force =     0.00000000    0.00000000    0.00000000
     atom   19 type  2   force =     0.00000000    0.00000000    0.00000000
     atom   20 type  2   force =     0.00000000    0.00000000    0.00000000
     atom   21 type  2   force =     0.00000000    0.00000000    0.00000000
     atom   22 type  2   force =     0.00000000    0.00000000    0.00000000
     atom   23 type  2   force =     0.00000000    0.00000000    0.00000000
     atom   24 type  2   force =     0.00000000    0.00000000    0.00000000
     atom   25 type  2   force =     0.00000000    0.00000000    0.00000000
     atom   26 type  2   force =     0.00000000    0.00000000    0.00000000
     atom   27 type  2   force =     0.00000000    0.00000000    0.00000000
     atom   28 type  2   force =     0.00000000    0.00000000    0.00000000
     atom   29 type  2   force =     0.00000000    0.00000000    0.00000000
     atom   30 type  2   force =     0.00000000    0.00000000    0.00000000
     atom   31 type  2   force =     0.00000000    0.00000000    0.00000000
     atom   32 type  2   force =     0.00000000    0.00000000    0.00000000
     atom   33 type  2   force =     0.00000000    0.00000000    0.00000000
     atom   34 type  2   force =     0.00000000    0.00000000    0.00000000
     atom   35 type  2   force =     0.00000000    0.00000000    0.00000000
     atom   36 type  2   force =     0.00000000    0.00000000    0.00000000
     atom   37 type  2   force =     0.00000000    0.00000000    0.00000000
     atom   38 type  2   force =     0.00000000    0.00000000    0.00000000
     atom   39 type  2   force =     0.00000000    0.00000000    0.00000000
     atom   40 type  2   force =     0.00000000    0.00000000    0.00000000
     atom   41 type  2   force =     0.00000000    0.00000000    0.00000000
     atom   42 type  2   force =     0.00000000    0.00000000    0.00000000
     atom   43 type  2   force =     0.00000000    0.00000000    0.00000000
     atom   44 type  2   force =     0.00000000    0.00000000    0.00000000
     atom   45 type  2   force =     0.00000000    0.00000000    0.00000000
     atom   46 type  2   force =     0.00000000    0.00000000    0.00000000
     atom   47 type  2   force =     0.00000000    0.00000000    0.00000000
     atom   48 type  2   force =     0.00000000    0.00000000    0.00000000
     atom   49 type  2   force =     0.00000000    0.00000000    0.00000000
     atom   50 type  2   force =     0.00000000    0.00000000    0.00000000
     atom   51 type  2   force =     0.00000000    0.00000000    0.00000000
     atom   52 type  2   force =     0.00000000    0.00000000    0.00000000
     atom   53 type  2   force =     0.00000000    0.00000000    0.00000000
     atom   54 type  2   force =     0.00000000    0.00000000    0.00000000
     atom   55 type  2   force =     0.00000000    0.00000000    0.00000000
     atom   56 type  2   force =     0.00000000    0.00000000    0.00000000
     atom   57 type  2   force =     0.00000000    0.00000000    0.00000000
     atom   58 type  2   force =     0.00000000    0.00000000    0.00000000
     atom   59 type  2   force =     0.00000000    0.00000000    0.00000000
     atom   60 type  2   force =     0.00000000    0.00000000    0.00000000
     atom   61 type  2   force =     0.00000000    0.00000000    0.00000000
     atom   62 type  2   force =     0.00000000    0.00000000    0.00000000
     atom   63 type  2   force =     0.00000000    0.00000000    0.00000000
     The SCF correction term to forces
     atom    1 type  1   force =    -0.00002428   -0.00002449    0.00000116
     atom    2 type  2   force =    -0.00001505   -0.00001641    0.00000118
     atom    3 type  2   force =     0.00001156    0.00001363    0.00001226
     atom    4 type  2   force =     0.00000149   -0.00001257   -0.00000368
     atom    5 type  2   force =     0.00001680   -0.00001416   -0.00000947
     atom    6 type  2   force =     0.00000597   -0.00001702    0.00000432
     atom    7 type  2   force =     0.00002248   -0.00000337    0.00001466
     atom    8 type  2   force =    -0.00002462   -0.00002903   -0.00000161
     atom    9 type  2   force =    -0.00001913   -0.00001923    0.00000329
     atom   10 type  2   force =    -0.00002999   -0.00000539   -0.00000045
     atom   11 type  2   force =    -0.00002330    0.00000094   -0.00000959
     atom   12 type  2   force =    -0.00000502   -0.00000995   -0.00000073
     atom   13 type  2   force =     0.00001383   -0.00001463    0.00000374
     atom   14 type  2   force =     0.00001410   -0.00000787   -0.00000553
     atom   15 type  2   force =     0.00002447    0.00000528   -0.00001660
     atom   16 type  2   force =    -0.00002397    0.00002085   -0.00001124
     atom   17 type  2   force =    -0.00001688    0.00002969    0.00000410
     atom   18 type  2   force =    -0.00002589    0.00001738    0.00000833
     atom   19 type  2   force =    -0.00001901   -0.00000384   -0.00000607
     atom   20 type  2   force =     0.00001416    0.00001446    0.00000766
     atom   21 type  2   force =     0.00002318    0.00000675    0.00000266
     atom   22 type  2   force =    -0.00000962    0.00001450    0.00001001
     atom   23 type  2   force =     0.00000365    0.00000749    0.00001498
     atom   24 type  2   force =    -0.00002659    0.00002851    0.00001211
     atom   25 type  2   force =    -0.00002252    0.00001737   -0.00000390
     atom   26 type  2   force =    -0.00002224    0.00000597   -0.00000785
     atom   27 type  2   force =    -0.00001548   -0.00000485    0.00000051
     atom   28 type  2   force =    -0.00000660    0.00001264   -0.00000695
     atom   29 type  2   force =     0.00001080    0.00001577   -0.00000339
     atom   30 type  2   force =    -0.00000665    0.00001054   -0.00000781
     atom   31 type  2   force =     0.00001390   -0.00000386   -0.00000654
     atom   32 type  2   force =     0.00001410   -0.00000291    0.00001065
     atom   33 type  2   force =     0.00000558   -0.00001540    0.00000482
     atom   34 type  2   force =     0.00000958   -0.00000837    0.00000658
     atom   35 type  2   force =    -0.00000541    0.00001136    0.00001077
     atom   36 type  2   force =    -0.00000476   -0.00003099    0.00001142
     atom   37 type  2   force =    -0.00002770   -0.00004445    0.00001621
     atom   38 type  2   force =    -0.00000759   -0.00000692   -0.00001495
     atom   39 type  2   force =    -0.00002956    0.00001568   -0.00001969
     atom   40 type  2   force =     0.00002511   -0.00000998   -0.00001181
     atom   41 type  2   force =     0.00002043   -0.00000664   -0.00000360
     atom   42 type  2   force =     0.00003199   -0.00000740   -0.00000574
     atom   43 type  2   force =     0.00002622   -0.00000324   -0.00000920
     atom   44 type  2   force =     0.00000656   -0.00000212   -0.00000890
     atom   45 type  2   force =    -0.00001886   -0.00000651   -0.00001341
     atom   46 type  2   force =    -0.00001260   -0.00000863    0.00001742
     atom   47 type  2   force =    -0.00002529    0.00000699    0.00001632
     atom   48 type  2   force =     0.00002396    0.00000396    0.00000916
     atom   49 type  2   force =     0.00001917    0.00001541    0.00001860
     atom   50 type  2   force =     0.00002826    0.00001006    0.00001162
     atom   51 type  2   force =     0.00002664   -0.00001059    0.00000021
     atom   52 type  2   force =    -0.00001301    0.00003377    0.00000780
     atom   53 type  2   force =    -0.00002558    0.00003901    0.00000656
     atom   54 type  2   force =     0.00001072    0.00000743    0.00001385
     atom   55 type  2   force =    -0.00001376   -0.00001383    0.00001689
     atom   56 type  2   force =     0.00002513    0.00000874   -0.00000809
     atom   57 type  2   force =     0.00002075    0.00000722   -0.00001809
     atom   58 type  2   force =     0.00001979    0.00000599   -0.00001263
     atom   59 type  2   force =     0.00001794    0.00000250   -0.00000307
     atom   60 type  2   force =     0.00000656   -0.00000036   -0.00001020
     atom   61 type  2   force =    -0.00000968    0.00000799   -0.00000639
     atom   62 type  2   force =     0.00000491    0.00000799   -0.00001628
     atom   63 type  2   force =    -0.00001292   -0.00000592   -0.00001683

     Total force =     0.128965     Total SCF correction =     0.000209

     Writing all to output data dir ./pwscf.save/ :
     XML data file, charge density, pseudopotentials, collected wavefunctions
 
     init_run     :      0.29s CPU      0.42s WALL (       1 calls)
     electrons    :      8.91s CPU      9.07s WALL (       1 calls)
     forces       :      4.41s CPU      4.43s WALL (       1 calls)

     Called by init_run:
     wfcinit      :      0.05s CPU      0.06s WALL (       1 calls)
     wfcinit:wfcr :      0.05s CPU      0.06s WALL (       1 calls)
     potinit      :      0.10s CPU      0.10s WALL (       1 calls)
     hinit0       :      0.07s CPU      0.18s WALL (       1 calls)

     Called by electrons:
     c_bands      :      7.90s CPU      8.03s WALL (      14 calls)
     sum_band     :      0.21s CPU      0.21s WALL (      14 calls)
     v_of_rho     :      0.28s CPU      0.28s WALL (      15 calls)
     v_h          :      0.00s CPU      0.00s WALL (      15 calls)
     v_xc         :      0.28s CPU      0.28s WALL (      15 calls)
     mix_rho      :      0.17s CPU      0.17s WALL (      14 calls)

     Called by c_bands:
     init_us_2    :      0.02s CPU      0.02s WALL (      30 calls)
     regterg      :      6.67s CPU      6.80s WALL (      14 calls)

     Called by sum_band:
     sum_band:wei :      0.01s CPU      0.01s WALL (      14 calls)
     sum_band:loo :      0.18s CPU      0.18s WALL (      14 calls)
     sum_band:buf :      0.00s CPU      0.00s WALL (      14 calls)
     sum_band:ini :      0.01s CPU      0.01s WALL (      14 calls)

     Called by *egterg:
     rdiaghg      :      3.98s CPU      4.08s WALL (     272 calls)
     regterg:over :      0.29s CPU      0.30s WALL (     258 calls)
     regterg:upda :      0.19s CPU      0.19s WALL (     258 calls)
     regterg:last :      0.16s CPU      0.16s WALL (      52 calls)
     rdiaghg:chol :      0.13s CPU      0.13s WALL (     272 calls)
     rdiaghg:inve :      0.03s CPU      0.03s WALL (     272 calls)
     rdiaghg:para :      0.40s CPU      0.42s WALL (     544 calls)
     h_psi        :      2.02s CPU      2.05s WALL (     273 calls)
     g_psi        :      0.00s CPU      0.00s WALL (     258 calls)

     Called by h_psi:
     h_psi:calbec :      0.26s CPU      0.26s WALL (     273 calls)
     vloc_psi     :      1.65s CPU      1.67s WALL (     273 calls)
                                        0.00s GPU  (     273 calls)
     add_vuspsi   :      0.10s CPU      0.11s WALL (     273 calls)

     General routines
     calbec       :      0.34s CPU      0.35s WALL (     277 calls)
     fft          :      0.23s CPU      0.33s WALL (     196 calls)
     ffts         :      0.01s CPU      0.01s WALL (      14 calls)
     fftw         :      1.71s CPU      1.74s WALL (   10122 calls)
 
     Parallel routines
 
     PWSCF        :     15.30s CPU     15.70s WALL

 
   This run was terminated on:  16:18:18  16Nov2025            

=------------------------------------------------------------------------------=
   JOB DONE.
=------------------------------------------------------------------------------=
