
     Program PWSCF v.7.5 starts on 16Nov2025 at 16:49:21 

     This program is part of the open-source Quantum ESPRESSO suite
     for quantum simulation of materials; please cite
         "P. Giannozzi et al., J. Phys.:Condens. Matter 21 395502 (2009);
         "P. Giannozzi et al., J. Phys.:Condens. Matter 29 465901 (2017);
         "P. Giannozzi et al., J. Chem. Phys. 152 154105 (2020);
          URL http://www.quantum-espresso.org", 
     in publications or presentations arising from this work. More details at
     http://www.quantum-espresso.org/quote

     Parallel version (MPI), running on    96 processors

     MPI processes distributed on     2 nodes
     174399 MiB available memory on the printing compute node when the environment starts
 
     Reading input from supercell-270.in

     Current dimensions of program PWSCF are:
     Max number of different atomic species (ntypx) = 10
     Max number of k-points (npk) =  40000
     Max angular momentum in pseudopotentials (lmaxx) =  4

     gamma-point specific algorithms are used
 
     K-points division:     npool     =       2
     R & G space division:  proc/nbgrp/npool/nimage =      48
     Subspace diagonalization in iterative solution of the eigenvalue problem:
     one sub-group per band group will be used
     scalapack distributed-memory algorithm (size of sub-group:  2*  2 procs)

 
     Parallelization info
     --------------------
     sticks:   dense  smooth     PW     G-vecs:    dense   smooth      PW
     Min          59      59     14                 2432     2432     302
     Max          62      62     16                 2442     2442     316
     Sum        2885    2885    725               116921   116921   14771
 
     Using Slab Decomposition
 


     bravais-lattice index     =            0
     lattice parameter (alat)  =      13.4813  a.u.
     unit-cell volume          =    2450.1683 (a.u.)^3
     number of atoms/cell      =           63
     number of atomic types    =            2
     number of electrons       =       254.00 (up: 128.00, down: 126.00)
     number of Kohn-Sham states=          152
     kinetic-energy cutoff     =      50.0000  Ry
     charge density cutoff     =     200.0000  Ry
     scf convergence threshold =      1.0E-08
     mixing beta               =       0.7000
     number of iterations used =            8  plain     mixing
     Exchange-correlation= PBE
                           (   1   4   3   4   0   0   0)

     celldm(1)=  13.481306  celldm(2)=   0.000000  celldm(3)=   0.000000
     celldm(4)=   0.000000  celldm(5)=   0.000000  celldm(6)=   0.000000

     crystal axes: (cart. coord. in units of alat)
               a(1) = (   1.000000   0.000000   0.000000 )  
               a(2) = (   0.000000   1.000000   0.000000 )  
               a(3) = (   0.000000   0.000000   1.000000 )  

     reciprocal axes: (cart. coord. in units 2 pi/alat)
               b(1) = (  1.000000  0.000000  0.000000 )  
               b(2) = (  0.000000  1.000000  0.000000 )  
               b(3) = (  0.000000  0.000000  1.000000 )  


     PseudoPot. # 1 for N  read from file:
     ./N_ONCV_PBE-1.2.upf
     MD5 check sum: 5312fdf34e96954e02a33bdc911c617a
     Pseudo is Norm-conserving, Zval =  5.0
     Generated using ONCVPSP code by D. R. Hamann
     Using radial grid of  602 points,  4 beta functions with: 
                l(1) =   0
                l(2) =   0
                l(3) =   1
                l(4) =   1

     PseudoPot. # 2 for C  read from file:
     ./C_ONCV_PBE-1.2.upf
     MD5 check sum: d60b57d9bdca4133f5fde4b584ee909d
     Pseudo is Norm-conserving, Zval =  4.0
     Generated using ONCVPSP code by D. R. Hamann
     Using radial grid of  602 points,  4 beta functions with: 
                l(1) =   0
                l(2) =   0
                l(3) =   1
                l(4) =   1

     atomic species   valence    mass     pseudopotential
     N                 5.00    14.00670     N ( 1.00)
     C                 4.00    12.01070     C ( 1.00)

     Starting magnetic structure 
     atomic species   magnetization
     N               0.000
     C               0.000

     No symmetry found


                                    s                        frac. trans.

      isym =  1     identity                                     

 cryst.   s( 1) = (     1          0          0      )
                  (     0          1          0      )
                  (     0          0          1      )

 cart.    s( 1) = (  1.0000000  0.0000000  0.0000000 )
                  (  0.0000000  1.0000000  0.0000000 )
                  (  0.0000000  0.0000000  1.0000000 )


   Cartesian axes

     site n.     atom                  positions (alat units)
         1        N      tau(   1) = (   0.9893819   0.9897344   0.9891721  )
         2        C      tau(   2) = (   0.9870277   0.2601210   0.2640728  )
         3        C      tau(   3) = (   0.1231717   0.3731672   0.3742038  )
         4        C      tau(   4) = (   0.2603919   0.9894620   0.2619202  )
         5        C      tau(   5) = (   0.3737632   0.1246771   0.3741571  )
         6        C      tau(   6) = (   0.2640151   0.2616009   0.9853609  )
         7        C      tau(   7) = (   0.3737752   0.3731213   0.1223564  )
         8        C      tau(   8) = (   0.0000049   0.0005840   0.4991361  )
         9        C      tau(   9) = (   0.1251361   0.1251278   0.6250981  )
        10        C      tau(  10) = (   0.0020393   0.2482470   0.7515266  )
        11        C      tau(  11) = (   0.1292009   0.3733021   0.8763303  )
        12        C      tau(  12) = (   0.2487801   0.0017974   0.7514403  )
        13        C      tau(  13) = (   0.3754339   0.1292460   0.8748544  )
        14        C      tau(  14) = (   0.2491579   0.2495268   0.4995755  )
        15        C      tau(  15) = (   0.3750038   0.3749547   0.6244069  )
        16        C      tau(  16) = (   0.0016366   0.4979779   0.0013734  )
        17        C      tau(  17) = (   0.1250869   0.6243147   0.1250807  )
        18        C      tau(  18) = (   0.0014462   0.7520697   0.2483230  )
        19        C      tau(  19) = (   0.1266755   0.8769178   0.3741906  )
        20        C      tau(  20) = (   0.2488290   0.4983596   0.2486760  )
        21        C      tau(  21) = (   0.3741642   0.6242659   0.3742111  )
        22        C      tau(  22) = (   0.2480673   0.7520817   0.0015447  )
        23        C      tau(  23) = (   0.3729914   0.8777475   0.1265606  )
        24        C      tau(  24) = (   0.0000493   0.5010760   0.5011299  )
        25        C      tau(  25) = (   0.1252054   0.6262200   0.6252733  )
        26        C      tau(  26) = (   0.9993969   0.7487112   0.7492532  )
        27        C      tau(  27) = (   0.1217927   0.8768349   0.8763928  )
        28        C      tau(  28) = (   0.2492749   0.5017254   0.7482724  )
        29        C      tau(  29) = (   0.3741000   0.6263042   0.8750769  )
        30        C      tau(  30) = (   0.2487293   0.7486845   0.5007616  )
        31        C      tau(  31) = (   0.3739266   0.8750581   0.6258828  )
        32        C      tau(  32) = (   0.4987543   0.0011228   0.0002828  )
        33        C      tau(  33) = (   0.6248203   0.1251003   0.1251034  )
        34        C      tau(  34) = (   0.4991217   0.2493918   0.2488717  )
        35        C      tau(  35) = (   0.6243080   0.3746888   0.3747831  )
        36        C      tau(  36) = (   0.7516460   0.0016191   0.2487956  )
        37        C      tau(  37) = (   0.8750430   0.1283649   0.3757598  )
        38        C      tau(  38) = (   0.7517475   0.2480080   0.0019610  )
        39        C      tau(  39) = (   0.8773622   0.3724247   0.1282033  )
        40        C      tau(  40) = (   0.5008161   0.9999897   0.5008301  )
        41        C      tau(  41) = (   0.6256173   0.1249721   0.6252590  )
        42        C      tau(  42) = (   0.5022259   0.2488088   0.7478265  )
        43        C      tau(  43) = (   0.6264784   0.3739683   0.8752045  )
        44        C      tau(  44) = (   0.7487945   0.9989046   0.7489691  )
        45        C      tau(  45) = (   0.8764746   0.1216998   0.8748321  )
        46        C      tau(  46) = (   0.7479635   0.2486819   0.5018806  )
        47        C      tau(  47) = (   0.8751980   0.3739245   0.6263738  )
        48        C      tau(  48) = (   0.5012000   0.5011574   0.0001136  )
        49        C      tau(  49) = (   0.6256259   0.6262099   0.1252968  )
        50        C      tau(  50) = (   0.5005188   0.7489091   0.2490095  )
        51        C      tau(  51) = (   0.6258050   0.8750157   0.3740056  )
        52        C      tau(  52) = (   0.7486304   0.5011458   0.2494302  )
        53        C      tau(  53) = (   0.8750247   0.6261269   0.3741365  )
        54        C      tau(  54) = (   0.7492281   0.7488562   0.9996087  )
        55        C      tau(  55) = (   0.8766209   0.8769033   0.1218021  )
        56        C      tau(  56) = (   0.4990819   0.4992903   0.4990317  )
        57        C      tau(  57) = (   0.6247789   0.6244471   0.6249452  )
        58        C      tau(  58) = (   0.4991767   0.7499842   0.7500845  )
        59        C      tau(  59) = (   0.6239946   0.8751464   0.8754130  )
        60        C      tau(  60) = (   0.7505316   0.4989321   0.7505826  )
        61        C      tau(  61) = (   0.8758455   0.6234984   0.8759288  )
        62        C      tau(  62) = (   0.7498244   0.7497799   0.4993198  )
        63        C      tau(  63) = (   0.8750855   0.8749084   0.6242568  )

   Crystallographic axes

     site n.     atom                  positions (cryst. coord.)
         1        N      tau(   1) = (  0.9893819  0.9897344  0.9891721  )
         2        C      tau(   2) = (  0.9870277  0.2601210  0.2640728  )
         3        C      tau(   3) = (  0.1231717  0.3731672  0.3742038  )
         4        C      tau(   4) = (  0.2603919  0.9894620  0.2619202  )
         5        C      tau(   5) = (  0.3737632  0.1246771  0.3741571  )
         6        C      tau(   6) = (  0.2640151  0.2616009  0.9853609  )
         7        C      tau(   7) = (  0.3737752  0.3731213  0.1223564  )
         8        C      tau(   8) = (  0.0000049  0.0005840  0.4991361  )
         9        C      tau(   9) = (  0.1251361  0.1251278  0.6250981  )
        10        C      tau(  10) = (  0.0020393  0.2482470  0.7515266  )
        11        C      tau(  11) = (  0.1292009  0.3733021  0.8763303  )
        12        C      tau(  12) = (  0.2487801  0.0017974  0.7514403  )
        13        C      tau(  13) = (  0.3754339  0.1292460  0.8748544  )
        14        C      tau(  14) = (  0.2491579  0.2495268  0.4995755  )
        15        C      tau(  15) = (  0.3750038  0.3749547  0.6244069  )
        16        C      tau(  16) = (  0.0016366  0.4979779  0.0013734  )
        17        C      tau(  17) = (  0.1250869  0.6243147  0.1250807  )
        18        C      tau(  18) = (  0.0014462  0.7520697  0.2483230  )
        19        C      tau(  19) = (  0.1266755  0.8769178  0.3741906  )
        20        C      tau(  20) = (  0.2488290  0.4983596  0.2486760  )
        21        C      tau(  21) = (  0.3741642  0.6242659  0.3742111  )
        22        C      tau(  22) = (  0.2480673  0.7520817  0.0015447  )
        23        C      tau(  23) = (  0.3729914  0.8777475  0.1265606  )
        24        C      tau(  24) = (  0.0000493  0.5010760  0.5011299  )
        25        C      tau(  25) = (  0.1252054  0.6262200  0.6252733  )
        26        C      tau(  26) = (  0.9993969  0.7487112  0.7492532  )
        27        C      tau(  27) = (  0.1217927  0.8768349  0.8763928  )
        28        C      tau(  28) = (  0.2492749  0.5017254  0.7482724  )
        29        C      tau(  29) = (  0.3741000  0.6263042  0.8750769  )
        30        C      tau(  30) = (  0.2487293  0.7486845  0.5007616  )
        31        C      tau(  31) = (  0.3739266  0.8750581  0.6258828  )
        32        C      tau(  32) = (  0.4987543  0.0011228  0.0002828  )
        33        C      tau(  33) = (  0.6248203  0.1251003  0.1251034  )
        34        C      tau(  34) = (  0.4991217  0.2493918  0.2488717  )
        35        C      tau(  35) = (  0.6243080  0.3746888  0.3747831  )
        36        C      tau(  36) = (  0.7516460  0.0016191  0.2487956  )
        37        C      tau(  37) = (  0.8750430  0.1283649  0.3757598  )
        38        C      tau(  38) = (  0.7517475  0.2480080  0.0019610  )
        39        C      tau(  39) = (  0.8773622  0.3724247  0.1282033  )
        40        C      tau(  40) = (  0.5008161  0.9999897  0.5008301  )
        41        C      tau(  41) = (  0.6256173  0.1249721  0.6252590  )
        42        C      tau(  42) = (  0.5022259  0.2488088  0.7478265  )
        43        C      tau(  43) = (  0.6264784  0.3739683  0.8752045  )
        44        C      tau(  44) = (  0.7487945  0.9989046  0.7489691  )
        45        C      tau(  45) = (  0.8764746  0.1216998  0.8748321  )
        46        C      tau(  46) = (  0.7479635  0.2486819  0.5018806  )
        47        C      tau(  47) = (  0.8751980  0.3739245  0.6263738  )
        48        C      tau(  48) = (  0.5012000  0.5011574  0.0001136  )
        49        C      tau(  49) = (  0.6256259  0.6262099  0.1252968  )
        50        C      tau(  50) = (  0.5005188  0.7489091  0.2490095  )
        51        C      tau(  51) = (  0.6258050  0.8750157  0.3740056  )
        52        C      tau(  52) = (  0.7486304  0.5011458  0.2494302  )
        53        C      tau(  53) = (  0.8750247  0.6261269  0.3741365  )
        54        C      tau(  54) = (  0.7492281  0.7488562  0.9996087  )
        55        C      tau(  55) = (  0.8766209  0.8769033  0.1218021  )
        56        C      tau(  56) = (  0.4990819  0.4992903  0.4990317  )
        57        C      tau(  57) = (  0.6247789  0.6244471  0.6249452  )
        58        C      tau(  58) = (  0.4991767  0.7499842  0.7500845  )
        59        C      tau(  59) = (  0.6239946  0.8751464  0.8754130  )
        60        C      tau(  60) = (  0.7505316  0.4989321  0.7505826  )
        61        C      tau(  61) = (  0.8758455  0.6234984  0.8759288  )
        62        C      tau(  62) = (  0.7498244  0.7497799  0.4993198  )
        63        C      tau(  63) = (  0.8750855  0.8749084  0.6242568  )

     number of k points=     1
                       cart. coord. in units 2pi/alat
        k(    1) = (   0.0000000   0.0000000   0.0000000), wk =   1.0000000

                       cryst. coord.
        k(    1) = (   0.0000000   0.0000000   0.0000000), wk =   1.0000000

     Dense  grid:    58461 G-vectors     FFT dimensions: (  64,  64,  64)

     Dynamical RAM for                 wfc:       0.35 MB

     Dynamical RAM for     wfc (w. buffer):       0.35 MB

     Dynamical RAM for           str. fact:       0.04 MB

     Dynamical RAM for           local pot:       0.00 MB

     Dynamical RAM for          nlocal pot:       1.17 MB

     Dynamical RAM for                qrad:       0.65 MB

     Dynamical RAM for          rho,v,vnew:       0.49 MB

     Dynamical RAM for               rhoin:       0.16 MB

     Dynamical RAM for            rho*nmix:       0.60 MB

     Dynamical RAM for           G-vectors:       0.08 MB

     Dynamical RAM for          h,s,v(r/c):       0.53 MB

     Dynamical RAM for          <psi|beta>:       0.58 MB

     Dynamical RAM for                 psi:       0.71 MB

     Dynamical RAM for                hpsi:       0.71 MB

     Dynamical RAM for      wfcinit/wfcrot:       1.24 MB

     Estimated static dynamical RAM per process >       3.37 MB

     Estimated max dynamical RAM per process >       6.49 MB

     Estimated total dynamical RAM >     594.05 MB
     Generating pointlists ...
     new r_m :   0.0855 (alat units)  1.1531 (a.u.) for type    1
     new r_m :   0.0847 (alat units)  1.1416 (a.u.) for type    2

     Initial potential from superposition of free atoms

     starting charge     252.5655, renormalised to     254.0000
     Starting wfcs are random

     total cpu time spent up to now is        1.8 secs

     Self-consistent Calculation

     iteration #  1     ecut=    50.00 Ry     beta= 0.70
     Davidson diagonalization with overlap

---- Real-time Memory Report at c_bands before calling an iterative solver
           158 MiB given to the printing process from OS
             0 MiB allocation reported by mallinfo(arena+hblkhd)
        173414 MiB available memory on the node where the printing process lives
------------------
     ethr =  1.00E-02,  avg # of iterations = 12.0

     total cpu time spent up to now is        2.5 secs

     total energy              =    -723.26980620 Ry
     estimated scf accuracy    <       3.70937573 Ry

     total magnetization       =     2.00 Bohr mag/cell
     absolute magnetization    =     2.00 Bohr mag/cell

     iteration #  2     ecut=    50.00 Ry     beta= 0.70
     Davidson diagonalization with overlap

---- Real-time Memory Report at c_bands before calling an iterative solver
           163 MiB given to the printing process from OS
             0 MiB allocation reported by mallinfo(arena+hblkhd)
        173353 MiB available memory on the node where the printing process lives
------------------
     ethr =  1.46E-03,  avg # of iterations = 12.0

     total cpu time spent up to now is        3.3 secs

     total energy              =    -723.66046335 Ry
     estimated scf accuracy    <       0.45776563 Ry

     total magnetization       =     2.00 Bohr mag/cell
     absolute magnetization    =     2.07 Bohr mag/cell

     iteration #  3     ecut=    50.00 Ry     beta= 0.70
     Davidson diagonalization with overlap

---- Real-time Memory Report at c_bands before calling an iterative solver
           164 MiB given to the printing process from OS
             0 MiB allocation reported by mallinfo(arena+hblkhd)
        173359 MiB available memory on the node where the printing process lives
------------------
     c_bands:  2 eigenvalues not converged
     ethr =  1.80E-04,  avg # of iterations = 20.0

     total cpu time spent up to now is        6.2 secs

     total energy              =    -723.72666592 Ry
     estimated scf accuracy    <       0.86709955 Ry

     total magnetization       =     2.00 Bohr mag/cell
     absolute magnetization    =     2.12 Bohr mag/cell

     iteration #  4     ecut=    50.00 Ry     beta= 0.70
     Davidson diagonalization with overlap

---- Real-time Memory Report at c_bands before calling an iterative solver
           165 MiB given to the printing process from OS
             0 MiB allocation reported by mallinfo(arena+hblkhd)
        173354 MiB available memory on the node where the printing process lives
------------------
     c_bands:  1 eigenvalues not converged
     ethr =  1.80E-04,  avg # of iterations = 20.0

     total cpu time spent up to now is        7.1 secs

     total energy              =    -723.90126237 Ry
     estimated scf accuracy    <       0.00960530 Ry

     total magnetization       =     2.00 Bohr mag/cell
     absolute magnetization    =     2.19 Bohr mag/cell

     iteration #  5     ecut=    50.00 Ry     beta= 0.70
     Davidson diagonalization with overlap

---- Real-time Memory Report at c_bands before calling an iterative solver
           165 MiB given to the printing process from OS
             0 MiB allocation reported by mallinfo(arena+hblkhd)
        173359 MiB available memory on the node where the printing process lives
------------------
     c_bands:  3 eigenvalues not converged
     ethr =  3.78E-06,  avg # of iterations = 20.0

     total cpu time spent up to now is        8.3 secs

     total energy              =    -723.90620245 Ry
     estimated scf accuracy    <       0.00416080 Ry

     total magnetization       =     2.00 Bohr mag/cell
     absolute magnetization    =     2.23 Bohr mag/cell

     iteration #  6     ecut=    50.00 Ry     beta= 0.70
     Davidson diagonalization with overlap

---- Real-time Memory Report at c_bands before calling an iterative solver
           165 MiB given to the printing process from OS
             0 MiB allocation reported by mallinfo(arena+hblkhd)
        173360 MiB available memory on the node where the printing process lives
------------------
     c_bands:  3 eigenvalues not converged
     ethr =  1.64E-06,  avg # of iterations = 20.0

     total cpu time spent up to now is        8.7 secs

     total energy              =    -723.90695025 Ry
     estimated scf accuracy    <       0.00085516 Ry

     total magnetization       =     2.00 Bohr mag/cell
     absolute magnetization    =     2.25 Bohr mag/cell

     iteration #  7     ecut=    50.00 Ry     beta= 0.70
     Davidson diagonalization with overlap

---- Real-time Memory Report at c_bands before calling an iterative solver
           165 MiB given to the printing process from OS
             0 MiB allocation reported by mallinfo(arena+hblkhd)
        173356 MiB available memory on the node where the printing process lives
------------------
     c_bands:  1 eigenvalues not converged
     ethr =  3.37E-07,  avg # of iterations = 20.0

     total cpu time spent up to now is        9.1 secs

     total energy              =    -723.90717437 Ry
     estimated scf accuracy    <       0.00012067 Ry

     total magnetization       =     2.00 Bohr mag/cell
     absolute magnetization    =     2.27 Bohr mag/cell

     iteration #  8     ecut=    50.00 Ry     beta= 0.70
     Davidson diagonalization with overlap

---- Real-time Memory Report at c_bands before calling an iterative solver
           165 MiB given to the printing process from OS
             0 MiB allocation reported by mallinfo(arena+hblkhd)
        173347 MiB available memory on the node where the printing process lives
------------------
     c_bands:  3 eigenvalues not converged
     ethr =  4.75E-08,  avg # of iterations = 20.0

     total cpu time spent up to now is       10.0 secs

     total energy              =    -723.90721423 Ry
     estimated scf accuracy    <       0.00002894 Ry

     total magnetization       =     2.00 Bohr mag/cell
     absolute magnetization    =     2.28 Bohr mag/cell

     iteration #  9     ecut=    50.00 Ry     beta= 0.70
     Davidson diagonalization with overlap

---- Real-time Memory Report at c_bands before calling an iterative solver
           165 MiB given to the printing process from OS
             0 MiB allocation reported by mallinfo(arena+hblkhd)
        173351 MiB available memory on the node where the printing process lives
------------------
     c_bands:  2 eigenvalues not converged
     ethr =  1.14E-08,  avg # of iterations = 20.0

     total cpu time spent up to now is       11.2 secs

     total energy              =    -723.90722458 Ry
     estimated scf accuracy    <       0.00000783 Ry

     total magnetization       =     2.00 Bohr mag/cell
     absolute magnetization    =     2.29 Bohr mag/cell

     iteration # 10     ecut=    50.00 Ry     beta= 0.70
     Davidson diagonalization with overlap

---- Real-time Memory Report at c_bands before calling an iterative solver
           165 MiB given to the printing process from OS
             0 MiB allocation reported by mallinfo(arena+hblkhd)
        173347 MiB available memory on the node where the printing process lives
------------------
     c_bands:  3 eigenvalues not converged
     ethr =  3.08E-09,  avg # of iterations = 20.0

     total cpu time spent up to now is       13.4 secs

     total energy              =    -723.90722815 Ry
     estimated scf accuracy    <       0.00000086 Ry

     total magnetization       =     2.00 Bohr mag/cell
     absolute magnetization    =     2.29 Bohr mag/cell

     iteration # 11     ecut=    50.00 Ry     beta= 0.70
     Davidson diagonalization with overlap

---- Real-time Memory Report at c_bands before calling an iterative solver
           165 MiB given to the printing process from OS
             0 MiB allocation reported by mallinfo(arena+hblkhd)
        173355 MiB available memory on the node where the printing process lives
------------------
     c_bands:  1 eigenvalues not converged
     ethr =  3.38E-10,  avg # of iterations = 20.0

     total cpu time spent up to now is       15.4 secs

     total energy              =    -723.90722881 Ry
     estimated scf accuracy    <       0.00000023 Ry

     total magnetization       =     2.00 Bohr mag/cell
     absolute magnetization    =     2.30 Bohr mag/cell

     iteration # 12     ecut=    50.00 Ry     beta= 0.70
     Davidson diagonalization with overlap

---- Real-time Memory Report at c_bands before calling an iterative solver
           165 MiB given to the printing process from OS
             0 MiB allocation reported by mallinfo(arena+hblkhd)
        173354 MiB available memory on the node where the printing process lives
------------------
     ethr =  9.18E-11,  avg # of iterations = 17.5

     total cpu time spent up to now is       17.4 secs

     total energy              =    -723.90722893 Ry
     estimated scf accuracy    <       0.00000009 Ry

     total magnetization       =     2.00 Bohr mag/cell
     absolute magnetization    =     2.30 Bohr mag/cell

     iteration # 13     ecut=    50.00 Ry     beta= 0.70
     Davidson diagonalization with overlap

---- Real-time Memory Report at c_bands before calling an iterative solver
           165 MiB given to the printing process from OS
             0 MiB allocation reported by mallinfo(arena+hblkhd)
        173352 MiB available memory on the node where the printing process lives
------------------
     ethr =  3.38E-11,  avg # of iterations = 18.5

     total cpu time spent up to now is       19.1 secs

     total energy              =    -723.90722897 Ry
     estimated scf accuracy    <       0.00000003 Ry

     total magnetization       =     2.00 Bohr mag/cell
     absolute magnetization    =     2.30 Bohr mag/cell

     iteration # 14     ecut=    50.00 Ry     beta= 0.70
     Davidson diagonalization with overlap

---- Real-time Memory Report at c_bands before calling an iterative solver
           166 MiB given to the printing process from OS
             0 MiB allocation reported by mallinfo(arena+hblkhd)
        173352 MiB available memory on the node where the printing process lives
------------------
     c_bands:  1 eigenvalues not converged
     ethr =  1.07E-11,  avg # of iterations = 19.0
 
     Magnetic moment per site  (integrated on atomic sphere of radius R)
     atom   1 (R=0.086)  charge=  2.9179  magn=  0.0043
     atom   2 (R=0.085)  charge=  1.8170  magn=  0.2450
     atom   3 (R=0.085)  charge=  1.7930  magn= -0.0087
     atom   4 (R=0.085)  charge=  1.8051  magn=  0.2454
     atom   5 (R=0.085)  charge=  1.7932  magn= -0.0087
     atom   6 (R=0.085)  charge=  1.8232  magn=  0.2451
     atom   7 (R=0.085)  charge=  1.7933  magn= -0.0087
     atom   8 (R=0.085)  charge=  1.7860  magn=  0.0091
     atom   9 (R=0.085)  charge=  1.7964  magn= -0.0019
     atom  10 (R=0.085)  charge=  1.7852  magn=  0.0060
     atom  11 (R=0.085)  charge=  1.7969  magn= -0.0042
     atom  12 (R=0.085)  charge=  1.7823  magn=  0.0061
     atom  13 (R=0.085)  charge=  1.8040  magn= -0.0039
     atom  14 (R=0.085)  charge=  1.7893  magn=  0.0085
     atom  15 (R=0.085)  charge=  1.7873  magn= -0.0020
     atom  16 (R=0.085)  charge=  1.7820  magn=  0.0089
     atom  17 (R=0.085)  charge=  1.7956  magn= -0.0018
     atom  18 (R=0.085)  charge=  1.7822  magn=  0.0057
     atom  19 (R=0.085)  charge=  1.7952  magn= -0.0035
     atom  20 (R=0.085)  charge=  1.7834  magn=  0.0083
     atom  21 (R=0.085)  charge=  1.7847  magn= -0.0020
     atom  22 (R=0.085)  charge=  1.7829  magn=  0.0057
     atom  23 (R=0.085)  charge=  1.7905  magn= -0.0037
     atom  24 (R=0.085)  charge=  1.7825  magn=  0.0183
     atom  25 (R=0.085)  charge=  1.8068  magn=  0.0094
     atom  26 (R=0.085)  charge=  1.7935  magn=  0.0032
     atom  27 (R=0.085)  charge=  1.7590  magn=  0.0001
     atom  28 (R=0.085)  charge=  1.7896  magn=  0.0221
     atom  29 (R=0.085)  charge=  1.7824  magn= -0.0013
     atom  30 (R=0.085)  charge=  1.7901  magn=  0.0211
     atom  31 (R=0.085)  charge=  1.7823  magn= -0.0013
     atom  32 (R=0.085)  charge=  1.7844  magn=  0.0090
     atom  33 (R=0.085)  charge=  1.7959  magn= -0.0019
     atom  34 (R=0.085)  charge=  1.7868  magn=  0.0085
     atom  35 (R=0.085)  charge=  1.7865  magn= -0.0020
     atom  36 (R=0.085)  charge=  1.7818  magn=  0.0059
     atom  37 (R=0.085)  charge=  1.8033  magn= -0.0036
     atom  38 (R=0.085)  charge=  1.7817  magn=  0.0059
     atom  39 (R=0.085)  charge=  1.7913  magn= -0.0041
     atom  40 (R=0.085)  charge=  1.7835  magn=  0.0181
     atom  41 (R=0.085)  charge=  1.8110  magn=  0.0094
     atom  42 (R=0.085)  charge=  1.7948  magn=  0.0218
     atom  43 (R=0.085)  charge=  1.7820  magn= -0.0013
     atom  44 (R=0.085)  charge=  1.7953  magn=  0.0032
     atom  45 (R=0.085)  charge=  1.7590  magn= -0.0001
     atom  46 (R=0.085)  charge=  1.7948  magn=  0.0215
     atom  47 (R=0.085)  charge=  1.7820  magn= -0.0013
     atom  48 (R=0.085)  charge=  1.7820  magn=  0.0184
     atom  49 (R=0.085)  charge=  1.8043  magn=  0.0094
     atom  50 (R=0.085)  charge=  1.7873  magn=  0.0212
     atom  51 (R=0.085)  charge=  1.7825  magn= -0.0013
     atom  52 (R=0.085)  charge=  1.7869  magn=  0.0218
     atom  53 (R=0.085)  charge=  1.7826  magn= -0.0013
     atom  54 (R=0.085)  charge=  1.7935  magn=  0.0032
     atom  55 (R=0.085)  charge=  1.7587  magn=  0.0001
     atom  56 (R=0.085)  charge=  1.7914  magn=  0.0009
     atom  57 (R=0.085)  charge=  1.7832  magn=  0.0010
     atom  58 (R=0.085)  charge=  1.7913  magn=  0.0018
     atom  59 (R=0.085)  charge=  1.7878  magn= -0.0009
     atom  60 (R=0.085)  charge=  1.7911  magn=  0.0017
     atom  61 (R=0.085)  charge=  1.7854  magn= -0.0009
     atom  62 (R=0.085)  charge=  1.7913  magn=  0.0019
     atom  63 (R=0.085)  charge=  1.7892  magn= -0.0009

     total cpu time spent up to now is       20.1 secs

     End of self-consistent calculation

 ------ SPIN UP ------------


          k = 0.0000 0.0000 0.0000 (  7386 PWs)   bands (ev):

    -8.5496  -6.9114  -6.2886  -6.2706  -6.1945  -6.1580  -5.8810  -4.9049
    -4.1426  -4.1287  -4.1258  -4.0970  -4.0317  -4.0218  -4.0135  -3.9192
    -3.8731  -3.8594  -3.3610  -2.9302  -2.6769  -2.6749  -2.1604  -0.3589
    -0.3527  -0.3278  -0.2832  -0.0769   0.1734   0.1926   0.2819   0.2919
     0.3662   0.6190   0.8359   0.8446   0.9524   0.9720   0.9858   1.0544
     1.0612   1.0644   1.2667   1.2959   3.0716   3.9100   3.9390   4.0696
     4.1893   4.2064   4.2204   4.2720   4.2794   4.2843   4.4212   4.4244
     4.4934   4.5000   4.5665   4.6598   4.6845   4.6870   4.6931   4.7850
     4.7985   4.9206   4.9676   4.9700   5.0490   5.1994   5.2113   5.2997
     5.3570   5.3703   5.3953   5.4035   5.4082   6.0405   6.0470   6.1019
     6.6620   6.6681   6.7263   6.9898   7.0057   7.0403   7.5270   8.3346
     8.3423   8.4114   8.4639   8.4940   8.6885   8.7096   8.7883   8.8288
     8.8441   8.8526   8.8921   8.8979   8.9008   9.2877   9.2894   9.3240
     9.6908   9.7013   9.9002   9.9092   9.9444   9.9582   9.9641   9.9770
     9.9837  10.0240  10.0367  10.0564  10.1205  10.1397  10.2689  10.3232
    10.3342  11.0542  12.2887  12.4182  12.4339  13.9536  14.6910  14.8009
    17.3353  17.3741  17.4089  17.5230  17.5755  17.5816  17.8500  17.9258
    17.9371  18.0385  18.0629  18.3701  18.9941  19.0045  19.0198  20.6901
    20.8008  20.8225  20.8741  20.9416  20.9469  21.0302  21.0331  21.0448

     occupation numbers 
     1.0000   1.0000   1.0000   1.0000   1.0000   1.0000   1.0000   1.0000
     1.0000   1.0000   1.0000   1.0000   1.0000   1.0000   1.0000   1.0000
     1.0000   1.0000   1.0000   1.0000   1.0000   1.0000   1.0000   1.0000
     1.0000   1.0000   1.0000   1.0000   1.0000   1.0000   1.0000   1.0000
     1.0000   1.0000   1.0000   1.0000   1.0000   1.0000   1.0000   1.0000
     1.0000   1.0000   1.0000   1.0000   1.0000   1.0000   1.0000   1.0000
     1.0000   1.0000   1.0000   1.0000   1.0000   1.0000   1.0000   1.0000
     1.0000   1.0000   1.0000   1.0000   1.0000   1.0000   1.0000   1.0000
     1.0000   1.0000   1.0000   1.0000   1.0000   1.0000   1.0000   1.0000
     1.0000   1.0000   1.0000   1.0000   1.0000   1.0000   1.0000   1.0000
     1.0000   1.0000   1.0000   1.0000   1.0000   1.0000   1.0000   1.0000
     1.0000   1.0000   1.0000   1.0000   1.0000   1.0000   1.0000   1.0000
     1.0000   1.0000   1.0000   1.0000   1.0000   1.0000   1.0000   1.0000
     1.0000   1.0000   1.0000   1.0000   1.0000   1.0000   1.0000   1.0000
     1.0000   1.0000   1.0000   1.0000   1.0000   1.0000   1.0000   1.0000
     1.0000   1.0000   1.0000   1.0000   1.0000   1.0000   1.0000   1.0000
     0.0000   0.0000   0.0000   0.0000   0.0000   0.0000   0.0000   0.0000
     0.0000   0.0000   0.0000   0.0000   0.0000   0.0000   0.0000   0.0000
     0.0000   0.0000   0.0000   0.0000   0.0000   0.0000   0.0000   0.0000

 ------ SPIN DOWN ----------


          k = 0.0000 0.0000 0.0000 (  7386 PWs)   bands (ev):

    -8.5242  -6.8970  -6.2664  -6.2474  -6.1497  -6.1157  -5.8438  -4.8881
    -4.1221  -4.1067  -4.0853  -4.0658  -3.9963  -3.9826  -3.9648  -3.9070
    -3.8375  -3.8195  -3.3188  -2.9116  -2.6237  -2.6216  -2.0153  -0.3413
    -0.3346  -0.3061  -0.2662  -0.0116   0.1921   0.2100   0.3193   0.3250
     0.3912   0.6539   0.8482   0.8563   0.9862   1.0018   1.0118   1.0706
     1.0784   1.0796   1.4325   1.4661   3.1854   3.9333   3.9613   4.0955
     4.2235   4.2498   4.2630   4.2870   4.2978   4.3103   4.4676   4.4714
     4.5164   4.5207   4.5902   4.6841   4.6997   4.7068   4.7144   4.8196
     4.8351   4.9338   4.9999   5.0011   5.1303   5.2333   5.2461   5.3236
     5.3720   5.3813   5.4181   5.4531   5.4687   6.1024   6.1065   6.1397
     6.6885   6.6952   6.7606   7.0750   7.0880   7.1033   7.6970   8.3738
     8.3803   8.4484   8.4994   8.5286   8.7227   8.7408   8.8242   8.8704
     8.8833   8.8876   8.9227   8.9294   8.9331   9.3237   9.3264   9.3514
     9.7179   9.7287   9.9277   9.9405   9.9558   9.9724   9.9776   9.9965
    10.0048  10.0571  10.0689  10.0774  10.1488  10.1656  10.3265  10.3778
    10.3890  11.4357  12.5553  12.5712  12.6024  14.4379  16.0175  16.1408
    17.3603  17.3913  17.4261  17.5506  17.6307  17.6387  17.8727  17.9452
    17.9553  18.0785  18.1032  18.4896  19.0440  19.0819  19.1065  20.7406
    20.8149  20.8368  20.8889  20.9586  20.9648  21.0459  21.0572  21.0673

     occupation numbers 
     1.0000   1.0000   1.0000   1.0000   1.0000   1.0000   1.0000   1.0000
     1.0000   1.0000   1.0000   1.0000   1.0000   1.0000   1.0000   1.0000
     1.0000   1.0000   1.0000   1.0000   1.0000   1.0000   1.0000   1.0000
     1.0000   1.0000   1.0000   1.0000   1.0000   1.0000   1.0000   1.0000
     1.0000   1.0000   1.0000   1.0000   1.0000   1.0000   1.0000   1.0000
     1.0000   1.0000   1.0000   1.0000   1.0000   1.0000   1.0000   1.0000
     1.0000   1.0000   1.0000   1.0000   1.0000   1.0000   1.0000   1.0000
     1.0000   1.0000   1.0000   1.0000   1.0000   1.0000   1.0000   1.0000
     1.0000   1.0000   1.0000   1.0000   1.0000   1.0000   1.0000   1.0000
     1.0000   1.0000   1.0000   1.0000   1.0000   1.0000   1.0000   1.0000
     1.0000   1.0000   1.0000   1.0000   1.0000   1.0000   1.0000   1.0000
     1.0000   1.0000   1.0000   1.0000   1.0000   1.0000   1.0000   1.0000
     1.0000   1.0000   1.0000   1.0000   1.0000   1.0000   1.0000   1.0000
     1.0000   1.0000   1.0000   1.0000   1.0000   1.0000   1.0000   1.0000
     1.0000   1.0000   1.0000   1.0000   1.0000   1.0000   1.0000   1.0000
     1.0000   1.0000   1.0000   1.0000   1.0000   1.0000   0.0000   0.0000
     0.0000   0.0000   0.0000   0.0000   0.0000   0.0000   0.0000   0.0000
     0.0000   0.0000   0.0000   0.0000   0.0000   0.0000   0.0000   0.0000
     0.0000   0.0000   0.0000   0.0000   0.0000   0.0000   0.0000   0.0000

     highest occupied, lowest unoccupied level (ev):    14.8009   16.0175

!    total energy              =    -723.90722899 Ry
     estimated scf accuracy    <          6.0E-09 Ry

     The total energy is the sum of the following terms:
     one-electron contribution =     232.27237471 Ry
     hartree contribution      =      70.34159127 Ry
     xc contribution           =    -226.77165161 Ry
     ewald contribution        =    -799.74954335 Ry

     total magnetization       =     2.00 Bohr mag/cell
     absolute magnetization    =     2.30 Bohr mag/cell

     convergence has been achieved in  14 iterations

     Forces acting on atoms (cartesian axes, Ry/au):

     atom    1 type  1   force =    -0.00305740   -0.00184952   -0.00690218
     atom    2 type  2   force =     0.03514855    0.01588321   -0.01256474
     atom    3 type  2   force =    -0.00927302    0.00861470    0.00621635
     atom    4 type  2   force =     0.00876491    0.02480374   -0.00282762
     atom    5 type  2   force =     0.00233869   -0.02129302    0.00161412
     atom    6 type  2   force =    -0.00832077    0.00824218    0.04339504
     atom    7 type  2   force =     0.01025055    0.01204036   -0.00213335
     atom    8 type  2   force =     0.00296594    0.00433816    0.00657752
     atom    9 type  2   force =    -0.00142072   -0.00442628   -0.00358871
     atom   10 type  2   force =     0.00186046    0.00200815    0.00367646
     atom   11 type  2   force =    -0.02901064    0.00559676   -0.00816323
     atom   12 type  2   force =    -0.00010006    0.00387756    0.00343324
     atom   13 type  2   force =    -0.00285393   -0.03991390   -0.00185619
     atom   14 type  2   force =     0.00350843    0.00205373   -0.00444503
     atom   15 type  2   force =    -0.00277583   -0.00137134   -0.00571115
     atom   16 type  2   force =     0.00015513   -0.00096280   -0.00092596
     atom   17 type  2   force =    -0.00135635    0.00640752    0.00019980
     atom   18 type  2   force =     0.00299147   -0.00011533    0.00085913
     atom   19 type  2   force =    -0.00912298   -0.00315032   -0.00520546
     atom   20 type  2   force =     0.00294303   -0.00437817    0.00355491
     atom   21 type  2   force =    -0.00113480   -0.00408028   -0.00213290
     atom   22 type  2   force =     0.00152202    0.00205002    0.00112578
     atom   23 type  2   force =    -0.00062456   -0.00715707   -0.00167193
     atom   24 type  2   force =     0.00958407    0.00546660    0.00422874
     atom   25 type  2   force =    -0.01237203   -0.01385221   -0.00406402
     atom   26 type  2   force =     0.01498678    0.00610692    0.00170868
     atom   27 type  2   force =    -0.02555782   -0.00912634   -0.00588926
     atom   28 type  2   force =     0.01042279    0.00061029    0.00574379
     atom   29 type  2   force =    -0.00013995   -0.00165771   -0.00108596
     atom   30 type  2   force =     0.00771182    0.00648803    0.00413394
     atom   31 type  2   force =     0.00102593   -0.00155246   -0.00354362
     atom   32 type  2   force =     0.00314641    0.00387280    0.00148704
     atom   33 type  2   force =     0.00120528   -0.00475051   -0.00074062
     atom   34 type  2   force =    -0.00466937    0.00179311    0.00353560
     atom   35 type  2   force =    -0.00500922   -0.00087483   -0.00327168
     atom   36 type  2   force =     0.00059304    0.00430498   -0.00013167
     atom   37 type  2   force =     0.00070588   -0.03263154   -0.00722039
     atom   38 type  2   force =     0.00779083    0.00096942   -0.00436966
     atom   39 type  2   force =    -0.00970617    0.00542755   -0.01435739
     atom   40 type  2   force =     0.00535719    0.01268736    0.00496628
     atom   41 type  2   force =    -0.00800127   -0.01561327   -0.00422182
     atom   42 type  2   force =    -0.00005530    0.01742463    0.00610879
     atom   43 type  2   force =    -0.00127840    0.00113175   -0.00042290
     atom   44 type  2   force =     0.00429785    0.01618212   -0.00051811
     atom   45 type  2   force =    -0.00878723   -0.02689605    0.01139774
     atom   46 type  2   force =     0.00651700    0.01604406    0.00114917
     atom   47 type  2   force =    -0.00098641    0.00185047   -0.00239806
     atom   48 type  2   force =     0.00477511    0.00566012    0.00763824
     atom   49 type  2   force =    -0.00802993   -0.01414438   -0.01019691
     atom   50 type  2   force =     0.00427981    0.00667514    0.00345295
     atom   51 type  2   force =    -0.00394593   -0.00178570    0.00031149
     atom   52 type  2   force =     0.00637509    0.00204048    0.00489241
     atom   53 type  2   force =    -0.00168655   -0.00303947   -0.00041771
     atom   54 type  2   force =     0.00255013    0.00533165    0.01411217
     atom   55 type  2   force =    -0.00765043   -0.00801024   -0.02566587
     atom   56 type  2   force =     0.00474566    0.00464638    0.00473386
     atom   57 type  2   force =    -0.00170393   -0.00069106   -0.00228520
     atom   58 type  2   force =     0.00156578    0.00415566    0.00315013
     atom   59 type  2   force =    -0.00093074   -0.00236751   -0.00309019
     atom   60 type  2   force =     0.00261872    0.00193132    0.00242066
     atom   61 type  2   force =    -0.00337445   -0.00180766   -0.00386166
     atom   62 type  2   force =     0.00411613    0.00442621    0.00108699
     atom   63 type  2   force =    -0.00388425   -0.00364417   -0.00102989
     The non-local contrib.  to forces
     atom    1 type  1   force =    -0.75959016   -0.77466269   -0.76376268
     atom    2 type  2   force =    -0.16462569    0.22037719    0.17816106
     atom    3 type  2   force =     0.05676660    0.08115903    0.07266840
     atom    4 type  2   force =     0.21500243   -0.18844294    0.19786849
     atom    5 type  2   force =     0.07314544    0.04261641    0.07006969
     atom    6 type  2   force =     0.17939639    0.20444218   -0.14657690
     atom    7 type  2   force =     0.07723575    0.08302109    0.06431126
     atom    8 type  2   force =    -0.00448545   -0.00453862    0.05701362
     atom    9 type  2   force =    -0.00520021   -0.00758938    0.01257408
     atom   10 type  2   force =    -0.04413588   -0.01390855   -0.01511008
     atom   11 type  2   force =    -0.10506703    0.06652150   -0.08372782
     atom   12 type  2   force =    -0.01704797   -0.04063649   -0.01498822
     atom   13 type  2   force =     0.05216625   -0.11641956   -0.07333367
     atom   14 type  2   force =     0.00282592    0.00055427    0.04546791
     atom   15 type  2   force =     0.01004936    0.00908756   -0.00373067
     atom   16 type  2   force =    -0.01221948    0.04863296   -0.01337379
     atom   17 type  2   force =    -0.00467771    0.02719149   -0.00317866
     atom   18 type  2   force =    -0.04110017   -0.02181621   -0.01592953
     atom   19 type  2   force =    -0.08125667   -0.07899092    0.05544830
     atom   20 type  2   force =     0.00447007    0.04478841    0.00506058
     atom   21 type  2   force =     0.01076138   -0.00325871    0.01125529
     atom   22 type  2   force =    -0.01402004   -0.02075645   -0.04234960
     atom   23 type  2   force =     0.06359266   -0.08449906   -0.07276450
     atom   24 type  2   force =    -0.06479572    0.03316164    0.03400236
     atom   25 type  2   force =    -0.02433716    0.00007264    0.01380112
     atom   26 type  2   force =    -0.04221141   -0.02112287   -0.02397398
     atom   27 type  2   force =    -0.14547092    0.12352965    0.12240353
     atom   28 type  2   force =     0.07955319    0.02294453   -0.01235624
     atom   29 type  2   force =     0.00066663    0.01839671    0.00444746
     atom   30 type  2   force =     0.07672426   -0.01323419    0.02897087
     atom   31 type  2   force =     0.00342381    0.00314237    0.01663522
     atom   32 type  2   force =     0.05303234   -0.00681753   -0.00746188
     atom   33 type  2   force =     0.01865182   -0.00731819   -0.00444800
     atom   34 type  2   force =     0.04501596    0.00112958    0.00366035
     atom   35 type  2   force =    -0.00346798    0.00879048    0.01059690
     atom   36 type  2   force =    -0.01862180   -0.04017462   -0.01749127
     atom   37 type  2   force =    -0.07171259   -0.10854438    0.04805180
     atom   38 type  2   force =    -0.01317842   -0.01377807   -0.04903231
     atom   39 type  2   force =    -0.08674231    0.07083034   -0.08816122
     atom   40 type  2   force =     0.03503366   -0.05839300    0.03563727
     atom   41 type  2   force =     0.00892048   -0.02650792    0.01389856
     atom   42 type  2   force =     0.02094947    0.08854995   -0.01001364
     atom   43 type  2   force =     0.01592709    0.00144735    0.00325637
     atom   44 type  2   force =    -0.02161435   -0.03593399   -0.02537224
     atom   45 type  2   force =     0.12238224   -0.14664443    0.14464714
     atom   46 type  2   force =    -0.00993230    0.08706173    0.02348032
     atom   47 type  2   force =     0.00356341    0.00128240    0.01587694
     atom   48 type  2   force =     0.03305709    0.03353290   -0.06813047
     atom   49 type  2   force =     0.00852311   -0.00008831   -0.02282751
     atom   50 type  2   force =     0.02974509   -0.01462678    0.07148480
     atom   51 type  2   force =     0.01695563    0.00358473    0.00354904
     atom   52 type  2   force =    -0.01418294    0.02627664    0.07297178
     atom   53 type  2   force =     0.00477080    0.01782406    0.00138923
     atom   54 type  2   force =    -0.02294144   -0.02067324   -0.04421071
     atom   55 type  2   force =     0.12295690    0.12467823   -0.14700106
     atom   56 type  2   force =     0.02286931    0.02405482    0.02209730
     atom   57 type  2   force =     0.00511471    0.00503112    0.00540742
     atom   58 type  2   force =     0.01676644   -0.00581557   -0.00967083
     atom   59 type  2   force =     0.00891771   -0.01314781   -0.01615129
     atom   60 type  2   force =    -0.01008463    0.01830180   -0.01170817
     atom   61 type  2   force =    -0.01495592    0.00866310   -0.01542614
     atom   62 type  2   force =    -0.00826960   -0.00605606    0.01521515
     atom   63 type  2   force =    -0.01609550   -0.01541422    0.00787300
     The ionic contribution  to forces
     atom    1 type  1   force =     2.95101420    2.99197474    3.00005073
     atom    2 type  2   force =     2.41049635   -2.06195220   -2.22268768
     atom    3 type  2   force =     0.48073565   -0.73015877   -0.85549561
     atom    4 type  2   force =    -2.09105076    2.33402674   -2.15961563
     atom    5 type  2   force =    -0.77873675    0.40102246   -0.82843510
     atom    6 type  2   force =    -2.18845232   -2.09906477    2.46231054
     atom    7 type  2   force =    -0.82408870   -0.74972482    0.53696637
     atom    8 type  2   force =     0.25923887    0.21263518   -0.73478780
     atom    9 type  2   force =     0.07421133    0.02660127   -0.22862900
     atom   10 type  2   force =     0.20510044    0.09639163    0.56506797
     atom   11 type  2   force =    -0.52798915   -0.62730421    0.80844973
     atom   12 type  2   force =     0.03104425    0.15952956    0.55279890
     atom   13 type  2   force =    -0.66308333   -0.56635251    0.76405719
     atom   14 type  2   force =    -0.19307232   -0.17953565   -0.71704291
     atom   15 type  2   force =    -0.16882418   -0.12995599   -0.06834912
     atom   16 type  2   force =     0.19914833   -0.77732800    0.22752546
     atom   17 type  2   force =     0.07063371   -0.15606278    0.09361874
     atom   18 type  2   force =     0.22247602    0.47034187    0.00005239
     atom   19 type  2   force =    -0.36191191    0.74832064   -0.70985386
     atom   20 type  2   force =    -0.18129798   -0.73080653   -0.19146760
     atom   21 type  2   force =    -0.17447340   -0.05789170   -0.20133852
     atom   22 type  2   force =     0.02705934    0.47891638    0.23833323
     atom   23 type  2   force =    -0.68855952    0.77897017   -0.33176183
     atom   24 type  2   force =     0.10656893   -0.13538486   -0.17277964
     atom   25 type  2   force =    -0.02502226   -0.07938065   -0.07051358
     atom   26 type  2   force =     0.13119960   -0.09633706   -0.04696015
     atom   27 type  2   force =     1.14058895    0.24382088    0.25590305
     atom   28 type  2   force =    -0.08144833   -0.13539247    0.11395017
     atom   29 type  2   force =    -0.15449844    0.03123657    0.25812439
     atom   30 type  2   force =    -0.01941776    0.13777045   -0.23589160
     atom   31 type  2   force =    -0.15303506    0.17220119   -0.00841503
     atom   32 type  2   force =    -0.74116167    0.19614950    0.26435928
     atom   33 type  2   force =    -0.19394475    0.02959250    0.08714692
     atom   34 type  2   force =    -0.71660331   -0.17665760   -0.20147907
     atom   35 type  2   force =    -0.06351768   -0.13391922   -0.20090592
     atom   36 type  2   force =     0.51762881    0.17746082   -0.00471839
     atom   37 type  2   force =     0.73640735   -0.50014150   -0.70113299
     atom   38 type  2   force =     0.56421415    0.04586861    0.20755702
     atom   39 type  2   force =     0.80811402   -0.64589592   -0.43550022
     atom   40 type  2   force =    -0.19789829    0.06174345   -0.21200624
     atom   41 type  2   force =    -0.07869087   -0.08765760   -0.07275772
     atom   42 type  2   force =    -0.13363785    0.02789989    0.09121663
     atom   43 type  2   force =     0.03289011   -0.11408051    0.25926994
     atom   44 type  2   force =    -0.09742998    0.09799578   -0.05576519
     atom   45 type  2   force =     0.24247828    1.14512775    0.30922631
     atom   46 type  2   force =     0.09741420    0.05304176   -0.17739386
     atom   47 type  2   force =     0.22341938   -0.10621015    0.01242907
     atom   48 type  2   force =    -0.13129427   -0.11131923    0.13877854
     atom   49 type  2   force =    -0.07410185   -0.08140848    0.00713699
     atom   50 type  2   force =    -0.23621766    0.15337519   -0.08400275
     atom   51 type  2   force =    -0.00974798    0.17440964   -0.18341136
     atom   52 type  2   force =     0.13953195   -0.17821233   -0.12373870
     atom   53 type  2   force =     0.22806170    0.01350763   -0.18428859
     atom   54 type  2   force =    -0.06219794   -0.08822572    0.14113935
     atom   55 type  2   force =     0.24488093    0.25149934    1.12743715
     atom   56 type  2   force =    -0.09142292   -0.02974170   -0.12577333
     atom   57 type  2   force =    -0.02323834   -0.03457107   -0.01959598
     atom   58 type  2   force =    -0.07726183    0.04753518    0.04122884
     atom   59 type  2   force =    -0.28481449    0.07694020    0.15932008
     atom   60 type  2   force =     0.05916561   -0.03348904    0.06107867
     atom   61 type  2   force =     0.13141210   -0.30283462    0.16164715
     atom   62 type  2   force =     0.02965817    0.03572464   -0.10157172
     atom   63 type  2   force =     0.12335109    0.06536603   -0.27811415
     The local contribution  to forces
     atom    1 type  1   force =    -2.19454686   -2.21915835   -2.24324654
     atom    2 type  2   force =    -2.21079527    1.85744645    2.03190361
     atom    3 type  2   force =    -0.54687586    0.65756781    0.78897602
     atom    4 type  2   force =     1.88472407   -2.12079164    1.95886445
     atom    5 type  2   force =     0.70783168   -0.46493720    0.75993466
     atom    6 type  2   force =     2.00064246    1.90285523   -2.27239967
     atom    7 type  2   force =     0.75699718    0.67871441   -0.60348442
     atom    8 type  2   force =    -0.25185417   -0.20375337    0.68430032
     atom    9 type  2   force =    -0.07050272   -0.02344085    0.21241273
     atom   10 type  2   force =    -0.15916139   -0.08049628   -0.54633243
     atom   11 type  2   force =     0.60398150    0.56634380   -0.73292900
     atom   12 type  2   force =    -0.01417831   -0.11502772   -0.53442650
     atom   13 type  2   force =     0.60796481    0.64285115   -0.69263688
     atom   14 type  2   force =     0.19365350    0.18101801    0.66708356
     atom   15 type  2   force =     0.15589021    0.11945766    0.06633401
     atom   16 type  2   force =    -0.18683611    0.72767194   -0.21512245
     atom   17 type  2   force =    -0.06738338    0.13520878   -0.09030192
     atom   18 type  2   force =    -0.17844747   -0.44869457    0.01667068
     atom   19 type  2   force =     0.43397135   -0.67250743    0.64915119
     atom   20 type  2   force =     0.17967045    0.68158692    0.18989634
     atom   21 type  2   force =     0.16247021    0.05702182    0.18789160
     atom   22 type  2   force =    -0.01159491   -0.45616169   -0.19492326
     atom   23 type  2   force =     0.62425608   -0.70166698    0.40277883
     atom   24 type  2   force =    -0.03225045    0.10762249    0.14294099
     atom   25 type  2   force =     0.03692012    0.06539636    0.05260020
     atom   26 type  2   force =    -0.07406821    0.12352460    0.07259841
     atom   27 type  2   force =    -1.02074944   -0.37650032   -0.38424861
     atom   28 type  2   force =     0.01223674    0.11300458   -0.09589420
     atom   29 type  2   force =     0.15359775   -0.05134737   -0.26370664
     atom   30 type  2   force =    -0.04967514   -0.11809801    0.21100876
     atom   31 type  2   force =     0.15054155   -0.17692167   -0.01180715
     atom   32 type  2   force =     0.69118110   -0.18548014   -0.25547818
     atom   33 type  2   force =     0.17641406   -0.02703223   -0.08350165
     atom   34 type  2   force =     0.66682835    0.17730449    0.20129010
     atom   35 type  2   force =     0.06190229    0.12420825    0.18697109
     atom   36 type  2   force =    -0.49848923   -0.13297512    0.02201047
     atom   37 type  2   force =    -0.66404660    0.57607474    0.64578961
     atom   38 type  2   force =    -0.54331878   -0.03114112   -0.16293587
     atom   39 type  2   force =    -0.73113287    0.58044297    0.50926673
     atom   40 type  2   force =     0.16812000    0.00932304    0.18129529
     atom   41 type  2   force =     0.06167032    0.09853565    0.05458921
     atom   42 type  2   force =     0.11252060   -0.09904528   -0.07513930
     atom   43 type  2   force =    -0.05020193    0.11373385   -0.26299327
     atom   44 type  2   force =     0.12325450   -0.04590137    0.08057517
     atom   45 type  2   force =    -0.37371319   -1.02539615   -0.44251573
     atom   46 type  2   force =    -0.08103327   -0.12407920    0.15499233
     atom   47 type  2   force =    -0.22802842    0.10673724   -0.03077207
     atom   48 type  2   force =     0.10290673    0.08340259   -0.06307434
     atom   49 type  2   force =     0.05744932    0.06729691    0.00541745
     atom   50 type  2   force =     0.21064477   -0.13212109    0.01590219
     atom   51 type  2   force =    -0.01125719   -0.17979869    0.18011859
     atom   52 type  2   force =    -0.11904214    0.15390344    0.05559489
     atom   53 type  2   force =    -0.23457804   -0.03444960    0.18242015
     atom   54 type  2   force =     0.08759707    0.11418766   -0.08288552
     atom   55 type  2   force =    -0.37555941   -0.38420226   -1.00617533
     atom   56 type  2   force =     0.07319332    0.01028564    0.10836431
     atom   57 type  2   force =     0.01631988    0.02880231    0.01186986
     atom   58 type  2   force =     0.06196205   -0.03760628   -0.02844656
     atom   59 type  2   force =     0.27486851   -0.06619209   -0.14630985
     atom   60 type  2   force =    -0.04655040    0.01707949   -0.04699190
     atom   61 type  2   force =    -0.11990568    0.29231565   -0.15013010
     atom   62 type  2   force =    -0.01735812   -0.02528537    0.08740659
     atom   63 type  2   force =    -0.11121276   -0.05361856    0.26917506
     The core correction contribution to forces
     atom    1 type  1   force =     0.00000000    0.00000000    0.00000000
     atom    2 type  2   force =     0.00000000    0.00000000    0.00000000
     atom    3 type  2   force =     0.00000000    0.00000000    0.00000000
     atom    4 type  2   force =     0.00000000    0.00000000    0.00000000
     atom    5 type  2   force =     0.00000000    0.00000000    0.00000000
     atom    6 type  2   force =     0.00000000    0.00000000    0.00000000
     atom    7 type  2   force =     0.00000000    0.00000000    0.00000000
     atom    8 type  2   force =     0.00000000    0.00000000    0.00000000
     atom    9 type  2   force =     0.00000000    0.00000000    0.00000000
     atom   10 type  2   force =     0.00000000    0.00000000    0.00000000
     atom   11 type  2   force =     0.00000000    0.00000000    0.00000000
     atom   12 type  2   force =     0.00000000    0.00000000    0.00000000
     atom   13 type  2   force =     0.00000000    0.00000000    0.00000000
     atom   14 type  2   force =     0.00000000    0.00000000    0.00000000
     atom   15 type  2   force =     0.00000000    0.00000000    0.00000000
     atom   16 type  2   force =     0.00000000    0.00000000    0.00000000
     atom   17 type  2   force =     0.00000000    0.00000000    0.00000000
     atom   18 type  2   force =     0.00000000    0.00000000    0.00000000
     atom   19 type  2   force =     0.00000000    0.00000000    0.00000000
     atom   20 type  2   force =     0.00000000    0.00000000    0.00000000
     atom   21 type  2   force =     0.00000000    0.00000000    0.00000000
     atom   22 type  2   force =     0.00000000    0.00000000    0.00000000
     atom   23 type  2   force =     0.00000000    0.00000000    0.00000000
     atom   24 type  2   force =     0.00000000    0.00000000    0.00000000
     atom   25 type  2   force =     0.00000000    0.00000000    0.00000000
     atom   26 type  2   force =     0.00000000    0.00000000    0.00000000
     atom   27 type  2   force =     0.00000000    0.00000000    0.00000000
     atom   28 type  2   force =     0.00000000    0.00000000    0.00000000
     atom   29 type  2   force =     0.00000000    0.00000000    0.00000000
     atom   30 type  2   force =     0.00000000    0.00000000    0.00000000
     atom   31 type  2   force =     0.00000000    0.00000000    0.00000000
     atom   32 type  2   force =     0.00000000    0.00000000    0.00000000
     atom   33 type  2   force =     0.00000000    0.00000000    0.00000000
     atom   34 type  2   force =     0.00000000    0.00000000    0.00000000
     atom   35 type  2   force =     0.00000000    0.00000000    0.00000000
     atom   36 type  2   force =     0.00000000    0.00000000    0.00000000
     atom   37 type  2   force =     0.00000000    0.00000000    0.00000000
     atom   38 type  2   force =     0.00000000    0.00000000    0.00000000
     atom   39 type  2   force =     0.00000000    0.00000000    0.00000000
     atom   40 type  2   force =     0.00000000    0.00000000    0.00000000
     atom   41 type  2   force =     0.00000000    0.00000000    0.00000000
     atom   42 type  2   force =     0.00000000    0.00000000    0.00000000
     atom   43 type  2   force =     0.00000000    0.00000000    0.00000000
     atom   44 type  2   force =     0.00000000    0.00000000    0.00000000
     atom   45 type  2   force =     0.00000000    0.00000000    0.00000000
     atom   46 type  2   force =     0.00000000    0.00000000    0.00000000
     atom   47 type  2   force =     0.00000000    0.00000000    0.00000000
     atom   48 type  2   force =     0.00000000    0.00000000    0.00000000
     atom   49 type  2   force =     0.00000000    0.00000000    0.00000000
     atom   50 type  2   force =     0.00000000    0.00000000    0.00000000
     atom   51 type  2   force =     0.00000000    0.00000000    0.00000000
     atom   52 type  2   force =     0.00000000    0.00000000    0.00000000
     atom   53 type  2   force =     0.00000000    0.00000000    0.00000000
     atom   54 type  2   force =     0.00000000    0.00000000    0.00000000
     atom   55 type  2   force =     0.00000000    0.00000000    0.00000000
     atom   56 type  2   force =     0.00000000    0.00000000    0.00000000
     atom   57 type  2   force =     0.00000000    0.00000000    0.00000000
     atom   58 type  2   force =     0.00000000    0.00000000    0.00000000
     atom   59 type  2   force =     0.00000000    0.00000000    0.00000000
     atom   60 type  2   force =     0.00000000    0.00000000    0.00000000
     atom   61 type  2   force =     0.00000000    0.00000000    0.00000000
     atom   62 type  2   force =     0.00000000    0.00000000    0.00000000
     atom   63 type  2   force =     0.00000000    0.00000000    0.00000000
     The Hubbard contrib.    to forces
     atom    1 type  1   force =     0.00000000    0.00000000    0.00000000
     atom    2 type  2   force =     0.00000000    0.00000000    0.00000000
     atom    3 type  2   force =     0.00000000    0.00000000    0.00000000
     atom    4 type  2   force =     0.00000000    0.00000000    0.00000000
     atom    5 type  2   force =     0.00000000    0.00000000    0.00000000
     atom    6 type  2   force =     0.00000000    0.00000000    0.00000000
     atom    7 type  2   force =     0.00000000    0.00000000    0.00000000
     atom    8 type  2   force =     0.00000000    0.00000000    0.00000000
     atom    9 type  2   force =     0.00000000    0.00000000    0.00000000
     atom   10 type  2   force =     0.00000000    0.00000000    0.00000000
     atom   11 type  2   force =     0.00000000    0.00000000    0.00000000
     atom   12 type  2   force =     0.00000000    0.00000000    0.00000000
     atom   13 type  2   force =     0.00000000    0.00000000    0.00000000
     atom   14 type  2   force =     0.00000000    0.00000000    0.00000000
     atom   15 type  2   force =     0.00000000    0.00000000    0.00000000
     atom   16 type  2   force =     0.00000000    0.00000000    0.00000000
     atom   17 type  2   force =     0.00000000    0.00000000    0.00000000
     atom   18 type  2   force =     0.00000000    0.00000000    0.00000000
     atom   19 type  2   force =     0.00000000    0.00000000    0.00000000
     atom   20 type  2   force =     0.00000000    0.00000000    0.00000000
     atom   21 type  2   force =     0.00000000    0.00000000    0.00000000
     atom   22 type  2   force =     0.00000000    0.00000000    0.00000000
     atom   23 type  2   force =     0.00000000    0.00000000    0.00000000
     atom   24 type  2   force =     0.00000000    0.00000000    0.00000000
     atom   25 type  2   force =     0.00000000    0.00000000    0.00000000
     atom   26 type  2   force =     0.00000000    0.00000000    0.00000000
     atom   27 type  2   force =     0.00000000    0.00000000    0.00000000
     atom   28 type  2   force =     0.00000000    0.00000000    0.00000000
     atom   29 type  2   force =     0.00000000    0.00000000    0.00000000
     atom   30 type  2   force =     0.00000000    0.00000000    0.00000000
     atom   31 type  2   force =     0.00000000    0.00000000    0.00000000
     atom   32 type  2   force =     0.00000000    0.00000000    0.00000000
     atom   33 type  2   force =     0.00000000    0.00000000    0.00000000
     atom   34 type  2   force =     0.00000000    0.00000000    0.00000000
     atom   35 type  2   force =     0.00000000    0.00000000    0.00000000
     atom   36 type  2   force =     0.00000000    0.00000000    0.00000000
     atom   37 type  2   force =     0.00000000    0.00000000    0.00000000
     atom   38 type  2   force =     0.00000000    0.00000000    0.00000000
     atom   39 type  2   force =     0.00000000    0.00000000    0.00000000
     atom   40 type  2   force =     0.00000000    0.00000000    0.00000000
     atom   41 type  2   force =     0.00000000    0.00000000    0.00000000
     atom   42 type  2   force =     0.00000000    0.00000000    0.00000000
     atom   43 type  2   force =     0.00000000    0.00000000    0.00000000
     atom   44 type  2   force =     0.00000000    0.00000000    0.00000000
     atom   45 type  2   force =     0.00000000    0.00000000    0.00000000
     atom   46 type  2   force =     0.00000000    0.00000000    0.00000000
     atom   47 type  2   force =     0.00000000    0.00000000    0.00000000
     atom   48 type  2   force =     0.00000000    0.00000000    0.00000000
     atom   49 type  2   force =     0.00000000    0.00000000    0.00000000
     atom   50 type  2   force =     0.00000000    0.00000000    0.00000000
     atom   51 type  2   force =     0.00000000    0.00000000    0.00000000
     atom   52 type  2   force =     0.00000000    0.00000000    0.00000000
     atom   53 type  2   force =     0.00000000    0.00000000    0.00000000
     atom   54 type  2   force =     0.00000000    0.00000000    0.00000000
     atom   55 type  2   force =     0.00000000    0.00000000    0.00000000
     atom   56 type  2   force =     0.00000000    0.00000000    0.00000000
     atom   57 type  2   force =     0.00000000    0.00000000    0.00000000
     atom   58 type  2   force =     0.00000000    0.00000000    0.00000000
     atom   59 type  2   force =     0.00000000    0.00000000    0.00000000
     atom   60 type  2   force =     0.00000000    0.00000000    0.00000000
     atom   61 type  2   force =     0.00000000    0.00000000    0.00000000
     atom   62 type  2   force =     0.00000000    0.00000000    0.00000000
     atom   63 type  2   force =     0.00000000    0.00000000    0.00000000
     The SCF correction term to forces
     atom    1 type  1   force =    -0.00001875   -0.00003480    0.00000186
     atom    2 type  2   force =    -0.00001101   -0.00001981    0.00000380
     atom    3 type  2   force =     0.00001641    0.00001505    0.00001308
     atom    4 type  2   force =     0.00000499   -0.00002001    0.00000062
     atom    5 type  2   force =     0.00001414   -0.00002627   -0.00000959
     atom    6 type  2   force =     0.00000852   -0.00002204    0.00000660
     atom    7 type  2   force =     0.00002215   -0.00000191    0.00001897
     atom    8 type  2   force =    -0.00001749   -0.00003662   -0.00000308
     atom    9 type  2   force =    -0.00001330   -0.00002891   -0.00000099
     atom   10 type  2   force =    -0.00002688   -0.00001025   -0.00000346
     atom   11 type  2   force =    -0.00002012    0.00000408   -0.00001061
     atom   12 type  2   force =    -0.00000220   -0.00001937   -0.00000540
     atom   13 type  2   force =     0.00001417   -0.00002457    0.00000271
     atom   14 type  2   force =     0.00001715   -0.00001448   -0.00000806
     atom   15 type  2   force =     0.00002461    0.00000784   -0.00001983
     atom   16 type  2   force =    -0.00002179    0.00002871   -0.00000966
     atom   17 type  2   force =    -0.00001314    0.00003846    0.00000717
     atom   18 type  2   force =    -0.00002109    0.00002199    0.00001112
     atom   19 type  2   force =    -0.00000993   -0.00000420   -0.00000556
     atom   20 type  2   force =     0.00001631    0.00002144    0.00001113
     atom   21 type  2   force =     0.00002284    0.00001671    0.00000428
     atom   22 type  2   force =    -0.00000654    0.00002019    0.00001095
     atom   23 type  2   force =     0.00000205    0.00000721    0.00002111
     atom   24 type  2   force =    -0.00002285    0.00003575    0.00001057
     atom   25 type  2   force =    -0.00001691    0.00002785   -0.00000623
     atom   26 type  2   force =    -0.00001737    0.00001066   -0.00001006
     atom   27 type  2   force =    -0.00001058   -0.00000815   -0.00000169
     atom   28 type  2   force =    -0.00000299    0.00002206   -0.00001040
     atom   29 type  2   force =     0.00000994    0.00002479   -0.00000563
     atom   30 type  2   force =    -0.00000372    0.00001820   -0.00000855
     atom   31 type  2   force =     0.00001145   -0.00000594   -0.00001111
     atom   32 type  2   force =     0.00001047   -0.00001062    0.00001335
     atom   33 type  2   force =    -0.00000003   -0.00002417    0.00000765
     atom   34 type  2   force =     0.00000546   -0.00001494    0.00000976
     atom   35 type  2   force =    -0.00001002    0.00001407    0.00001180
     atom   36 type  2   force =    -0.00000891   -0.00003769    0.00001305
     atom   37 type  2   force =    -0.00002645   -0.00005199    0.00001672
     atom   38 type  2   force =    -0.00001029   -0.00001159   -0.00001296
     atom   39 type  2   force =    -0.00002918    0.00001857   -0.00001713
     atom   40 type  2   force =     0.00001763   -0.00001772   -0.00001450
     atom   41 type  2   force =     0.00001462   -0.00001500   -0.00000633
     atom   42 type  2   force =     0.00002831   -0.00001153   -0.00000935
     atom   43 type  2   force =     0.00002217   -0.00000054   -0.00001039
     atom   44 type  2   force =     0.00000351   -0.00000989   -0.00001031
     atom   45 type  2   force =    -0.00001874   -0.00001480   -0.00001444
     atom   46 type  2   force =    -0.00001581   -0.00001181    0.00001591
     atom   47 type  2   force =    -0.00002496    0.00000938    0.00001353
     atom   48 type  2   force =     0.00002138    0.00001228    0.00001004
     atom   49 type  2   force =     0.00001532    0.00002391    0.00002169
     atom   50 type  2   force =     0.00002343    0.00001623    0.00001424
     atom   51 type  2   force =     0.00001944   -0.00001296    0.00000076
     atom   52 type  2   force =    -0.00001596    0.00004114    0.00000997
     atom   53 type  2   force =    -0.00002519    0.00004685    0.00000703
     atom   54 type  2   force =     0.00000827    0.00001135    0.00001460
     atom   55 type  2   force =    -0.00001303   -0.00001714    0.00001890
     atom   56 type  2   force =     0.00002178    0.00001604   -0.00000889
     atom   57 type  2   force =     0.00001565    0.00001500   -0.00002096
     atom   58 type  2   force =     0.00001495    0.00001074   -0.00001578
     atom   59 type  2   force =     0.00001335    0.00000061   -0.00000359
     atom   60 type  2   force =     0.00000396    0.00000748   -0.00001240
     atom   61 type  2   force =    -0.00000912    0.00001661   -0.00000703
     atom   62 type  2   force =     0.00000151    0.00001140   -0.00001750
     atom   63 type  2   force =    -0.00001126   -0.00000901   -0.00001825

     Total force =     0.127356     Total SCF correction =     0.000232

     Writing all to output data dir ./pwscf.save/ :
     XML data file, charge density, pseudopotentials, collected wavefunctions
 
     init_run     :      0.35s CPU      0.42s WALL (       1 calls)
     electrons    :     18.49s CPU     18.75s WALL (       1 calls)
     forces       :      0.56s CPU      0.57s WALL (       1 calls)

     Called by init_run:
     wfcinit      :      0.07s CPU      0.08s WALL (       1 calls)
     wfcinit:wfcr :      0.07s CPU      0.07s WALL (       1 calls)
     potinit      :      0.12s CPU      0.12s WALL (       1 calls)
     hinit0       :      0.04s CPU      0.10s WALL (       1 calls)

     Called by electrons:
     c_bands      :     10.92s CPU     11.07s WALL (      14 calls)
     sum_band     :      4.20s CPU      4.21s WALL (      14 calls)
     v_of_rho     :      1.21s CPU      1.21s WALL (      15 calls)
     v_h          :      0.22s CPU      0.22s WALL (      15 calls)
     v_xc         :      0.99s CPU      0.99s WALL (      15 calls)
     mix_rho      :      0.33s CPU      0.33s WALL (      14 calls)

     Called by c_bands:
     init_us_2    :      0.02s CPU      0.02s WALL (      30 calls)
     regterg      :      9.80s CPU      9.94s WALL (      14 calls)

     Called by sum_band:
     sum_band:wei :      0.03s CPU      0.03s WALL (      14 calls)
     sum_band:loo :      2.78s CPU      2.80s WALL (      14 calls)
     sum_band:buf :      0.00s CPU      0.00s WALL (      14 calls)
     sum_band:ini :      0.01s CPU      0.01s WALL (      14 calls)

     Called by *egterg:
     rdiaghg      :      4.71s CPU      4.81s WALL (     272 calls)
     regterg:over :      0.72s CPU      0.73s WALL (     258 calls)
     regterg:upda :      0.32s CPU      0.32s WALL (     258 calls)
     regterg:last :      0.36s CPU      0.36s WALL (      53 calls)
     rdiaghg:chol :      0.16s CPU      0.16s WALL (     272 calls)
     rdiaghg:inve :      0.03s CPU      0.03s WALL (     272 calls)
     rdiaghg:para :      0.43s CPU      0.46s WALL (     544 calls)
     h_psi        :      3.47s CPU      3.50s WALL (     273 calls)
     g_psi        :      0.00s CPU      0.00s WALL (     258 calls)

     Called by h_psi:
     h_psi:calbec :      0.89s CPU      0.90s WALL (     273 calls)
     vloc_psi     :      2.47s CPU      2.49s WALL (     273 calls)
                                        0.00s GPU  (     273 calls)
     add_vuspsi   :      0.10s CPU      0.11s WALL (     273 calls)

     General routines
     calbec       :      0.90s CPU      0.91s WALL (     277 calls)
     fft          :      0.70s CPU      0.76s WALL (     196 calls)
     ffts         :      0.02s CPU      0.02s WALL (      14 calls)
     fftw         :      5.15s CPU      5.18s WALL (   10100 calls)
 
     Parallel routines
 
     PWSCF        :     22.34s CPU     22.81s WALL

 
   This run was terminated on:  16:49:44  16Nov2025            

=------------------------------------------------------------------------------=
   JOB DONE.
=------------------------------------------------------------------------------=
