
     Program PWSCF v.7.5 starts on 16Nov2025 at 15:24:11 

     This program is part of the open-source Quantum ESPRESSO suite
     for quantum simulation of materials; please cite
         "P. Giannozzi et al., J. Phys.:Condens. Matter 21 395502 (2009);
         "P. Giannozzi et al., J. Phys.:Condens. Matter 29 465901 (2017);
         "P. Giannozzi et al., J. Chem. Phys. 152 154105 (2020);
          URL http://www.quantum-espresso.org", 
     in publications or presentations arising from this work. More details at
     http://www.quantum-espresso.org/quote

     Parallel version (MPI), running on    96 processors

     MPI processes distributed on     2 nodes
     175115 MiB available memory on the printing compute node when the environment starts
 
     Reading input from supercell-001.in

     Current dimensions of program PWSCF are:
     Max number of different atomic species (ntypx) = 10
     Max number of k-points (npk) =  40000
     Max angular momentum in pseudopotentials (lmaxx) =  4

     gamma-point specific algorithms are used
 
     K-points division:     npool     =       2
     R & G space division:  proc/nbgrp/npool/nimage =      48
     Subspace diagonalization in iterative solution of the eigenvalue problem:
     one sub-group per band group will be used
     scalapack distributed-memory algorithm (size of sub-group:  2*  2 procs)

 
     Parallelization info
     --------------------
     sticks:   dense  smooth     PW     G-vecs:    dense   smooth      PW
     Min          59      59     14                 2432     2432     302
     Max          62      62     16                 2442     2442     316
     Sum        2885    2885    725               116921   116921   14771
 
     Using Slab Decomposition
 


     bravais-lattice index     =            0
     lattice parameter (alat)  =      13.4813  a.u.
     unit-cell volume          =    2450.1683 (a.u.)^3
     number of atoms/cell      =           63
     number of atomic types    =            2
     number of electrons       =       254.00 (up: 128.00, down: 126.00)
     number of Kohn-Sham states=          152
     kinetic-energy cutoff     =      50.0000  Ry
     charge density cutoff     =     200.0000  Ry
     scf convergence threshold =      1.0E-08
     mixing beta               =       0.7000
     number of iterations used =            8  plain     mixing
     Exchange-correlation= PBE
                           (   1   4   3   4   0   0   0)

     celldm(1)=  13.481306  celldm(2)=   0.000000  celldm(3)=   0.000000
     celldm(4)=   0.000000  celldm(5)=   0.000000  celldm(6)=   0.000000

     crystal axes: (cart. coord. in units of alat)
               a(1) = (   1.000000   0.000000   0.000000 )  
               a(2) = (   0.000000   1.000000   0.000000 )  
               a(3) = (   0.000000   0.000000   1.000000 )  

     reciprocal axes: (cart. coord. in units 2 pi/alat)
               b(1) = (  1.000000  0.000000  0.000000 )  
               b(2) = (  0.000000  1.000000  0.000000 )  
               b(3) = (  0.000000  0.000000  1.000000 )  


     PseudoPot. # 1 for N  read from file:
     ./N_ONCV_PBE-1.2.upf
     MD5 check sum: 5312fdf34e96954e02a33bdc911c617a
     Pseudo is Norm-conserving, Zval =  5.0
     Generated using ONCVPSP code by D. R. Hamann
     Using radial grid of  602 points,  4 beta functions with: 
                l(1) =   0
                l(2) =   0
                l(3) =   1
                l(4) =   1

     PseudoPot. # 2 for C  read from file:
     ./C_ONCV_PBE-1.2.upf
     MD5 check sum: d60b57d9bdca4133f5fde4b584ee909d
     Pseudo is Norm-conserving, Zval =  4.0
     Generated using ONCVPSP code by D. R. Hamann
     Using radial grid of  602 points,  4 beta functions with: 
                l(1) =   0
                l(2) =   0
                l(3) =   1
                l(4) =   1

     atomic species   valence    mass     pseudopotential
     N                 5.00    14.00670     N ( 1.00)
     C                 4.00    12.01070     C ( 1.00)

     Starting magnetic structure 
     atomic species   magnetization
     N               0.000
     C               0.000

     No symmetry found


                                    s                        frac. trans.

      isym =  1     identity                                     

 cryst.   s( 1) = (     1          0          0      )
                  (     0          1          0      )
                  (     0          0          1      )

 cart.    s( 1) = (  1.0000000  0.0000000  0.0000000 )
                  (  0.0000000  1.0000000  0.0000000 )
                  (  0.0000000  0.0000000  1.0000000 )


   Cartesian axes

     site n.     atom                  positions (alat units)
         1        N      tau(   1) = (   0.9908654   0.9897344   0.9891721  )
         2        C      tau(   2) = (   0.9870277   0.2601210   0.2640728  )
         3        C      tau(   3) = (   0.1231717   0.3731672   0.3742038  )
         4        C      tau(   4) = (   0.2603919   0.9894620   0.2619202  )
         5        C      tau(   5) = (   0.3737632   0.1246771   0.3741571  )
         6        C      tau(   6) = (   0.2640151   0.2616009   0.9853609  )
         7        C      tau(   7) = (   0.3737752   0.3731213   0.1223564  )
         8        C      tau(   8) = (   0.0000049   0.0005840   0.4991361  )
         9        C      tau(   9) = (   0.1251361   0.1251278   0.6250981  )
        10        C      tau(  10) = (   0.0020393   0.2482470   0.7515266  )
        11        C      tau(  11) = (   0.1292009   0.3733021   0.8763303  )
        12        C      tau(  12) = (   0.2487801   0.0017974   0.7514403  )
        13        C      tau(  13) = (   0.3754339   0.1292460   0.8748544  )
        14        C      tau(  14) = (   0.2491579   0.2495268   0.4995755  )
        15        C      tau(  15) = (   0.3750038   0.3749547   0.6244069  )
        16        C      tau(  16) = (   0.0016366   0.4979779   0.0013734  )
        17        C      tau(  17) = (   0.1250869   0.6243147   0.1250807  )
        18        C      tau(  18) = (   0.0014462   0.7520697   0.2483230  )
        19        C      tau(  19) = (   0.1266755   0.8769178   0.3741906  )
        20        C      tau(  20) = (   0.2488290   0.4983596   0.2486760  )
        21        C      tau(  21) = (   0.3741642   0.6242659   0.3742111  )
        22        C      tau(  22) = (   0.2480673   0.7520817   0.0015447  )
        23        C      tau(  23) = (   0.3729914   0.8777475   0.1265606  )
        24        C      tau(  24) = (   0.0000493   0.5010760   0.5011299  )
        25        C      tau(  25) = (   0.1252054   0.6262200   0.6252733  )
        26        C      tau(  26) = (   0.9993969   0.7487112   0.7492532  )
        27        C      tau(  27) = (   0.1217927   0.8768349   0.8763928  )
        28        C      tau(  28) = (   0.2492749   0.5017254   0.7482724  )
        29        C      tau(  29) = (   0.3741000   0.6263042   0.8750769  )
        30        C      tau(  30) = (   0.2487293   0.7486845   0.5007616  )
        31        C      tau(  31) = (   0.3739266   0.8750581   0.6258828  )
        32        C      tau(  32) = (   0.4987543   0.0011228   0.0002828  )
        33        C      tau(  33) = (   0.6248203   0.1251003   0.1251034  )
        34        C      tau(  34) = (   0.4991217   0.2493918   0.2488717  )
        35        C      tau(  35) = (   0.6243080   0.3746888   0.3747831  )
        36        C      tau(  36) = (   0.7516460   0.0016191   0.2487956  )
        37        C      tau(  37) = (   0.8750430   0.1283649   0.3757598  )
        38        C      tau(  38) = (   0.7517475   0.2480080   0.0019610  )
        39        C      tau(  39) = (   0.8773622   0.3724247   0.1282033  )
        40        C      tau(  40) = (   0.5008161   0.9999897   0.5008301  )
        41        C      tau(  41) = (   0.6256173   0.1249721   0.6252590  )
        42        C      tau(  42) = (   0.5022259   0.2488088   0.7478265  )
        43        C      tau(  43) = (   0.6264784   0.3739683   0.8752045  )
        44        C      tau(  44) = (   0.7487945   0.9989046   0.7489691  )
        45        C      tau(  45) = (   0.8764746   0.1216998   0.8763156  )
        46        C      tau(  46) = (   0.7479635   0.2486819   0.5018806  )
        47        C      tau(  47) = (   0.8751980   0.3739245   0.6263738  )
        48        C      tau(  48) = (   0.5012000   0.5011574   0.0001136  )
        49        C      tau(  49) = (   0.6256259   0.6262099   0.1252968  )
        50        C      tau(  50) = (   0.5005188   0.7489091   0.2490095  )
        51        C      tau(  51) = (   0.6258050   0.8750157   0.3740056  )
        52        C      tau(  52) = (   0.7486304   0.5011458   0.2494302  )
        53        C      tau(  53) = (   0.8750247   0.6261269   0.3741365  )
        54        C      tau(  54) = (   0.7492281   0.7488562   0.9996087  )
        55        C      tau(  55) = (   0.8766209   0.8769033   0.1218021  )
        56        C      tau(  56) = (   0.4990819   0.4992903   0.4990317  )
        57        C      tau(  57) = (   0.6247789   0.6244471   0.6249452  )
        58        C      tau(  58) = (   0.4991767   0.7499842   0.7500845  )
        59        C      tau(  59) = (   0.6239946   0.8751464   0.8754130  )
        60        C      tau(  60) = (   0.7505316   0.4989321   0.7505826  )
        61        C      tau(  61) = (   0.8758455   0.6234984   0.8759288  )
        62        C      tau(  62) = (   0.7498244   0.7497799   0.4993198  )
        63        C      tau(  63) = (   0.8750855   0.8749084   0.6242568  )

   Crystallographic axes

     site n.     atom                  positions (cryst. coord.)
         1        N      tau(   1) = (  0.9908654  0.9897344  0.9891721  )
         2        C      tau(   2) = (  0.9870277  0.2601210  0.2640728  )
         3        C      tau(   3) = (  0.1231717  0.3731672  0.3742038  )
         4        C      tau(   4) = (  0.2603919  0.9894620  0.2619202  )
         5        C      tau(   5) = (  0.3737632  0.1246771  0.3741571  )
         6        C      tau(   6) = (  0.2640151  0.2616009  0.9853609  )
         7        C      tau(   7) = (  0.3737752  0.3731213  0.1223564  )
         8        C      tau(   8) = (  0.0000049  0.0005840  0.4991361  )
         9        C      tau(   9) = (  0.1251361  0.1251278  0.6250981  )
        10        C      tau(  10) = (  0.0020393  0.2482470  0.7515266  )
        11        C      tau(  11) = (  0.1292009  0.3733021  0.8763303  )
        12        C      tau(  12) = (  0.2487801  0.0017974  0.7514403  )
        13        C      tau(  13) = (  0.3754339  0.1292460  0.8748544  )
        14        C      tau(  14) = (  0.2491579  0.2495268  0.4995755  )
        15        C      tau(  15) = (  0.3750038  0.3749547  0.6244069  )
        16        C      tau(  16) = (  0.0016366  0.4979779  0.0013734  )
        17        C      tau(  17) = (  0.1250869  0.6243147  0.1250807  )
        18        C      tau(  18) = (  0.0014462  0.7520697  0.2483230  )
        19        C      tau(  19) = (  0.1266755  0.8769178  0.3741906  )
        20        C      tau(  20) = (  0.2488290  0.4983596  0.2486760  )
        21        C      tau(  21) = (  0.3741642  0.6242659  0.3742111  )
        22        C      tau(  22) = (  0.2480673  0.7520817  0.0015447  )
        23        C      tau(  23) = (  0.3729914  0.8777475  0.1265606  )
        24        C      tau(  24) = (  0.0000493  0.5010760  0.5011299  )
        25        C      tau(  25) = (  0.1252054  0.6262200  0.6252733  )
        26        C      tau(  26) = (  0.9993969  0.7487112  0.7492532  )
        27        C      tau(  27) = (  0.1217927  0.8768349  0.8763928  )
        28        C      tau(  28) = (  0.2492749  0.5017254  0.7482724  )
        29        C      tau(  29) = (  0.3741000  0.6263042  0.8750769  )
        30        C      tau(  30) = (  0.2487293  0.7486845  0.5007616  )
        31        C      tau(  31) = (  0.3739266  0.8750581  0.6258828  )
        32        C      tau(  32) = (  0.4987543  0.0011228  0.0002828  )
        33        C      tau(  33) = (  0.6248203  0.1251003  0.1251034  )
        34        C      tau(  34) = (  0.4991217  0.2493918  0.2488717  )
        35        C      tau(  35) = (  0.6243080  0.3746888  0.3747831  )
        36        C      tau(  36) = (  0.7516460  0.0016191  0.2487956  )
        37        C      tau(  37) = (  0.8750430  0.1283649  0.3757598  )
        38        C      tau(  38) = (  0.7517475  0.2480080  0.0019610  )
        39        C      tau(  39) = (  0.8773622  0.3724247  0.1282033  )
        40        C      tau(  40) = (  0.5008161  0.9999897  0.5008301  )
        41        C      tau(  41) = (  0.6256173  0.1249721  0.6252590  )
        42        C      tau(  42) = (  0.5022259  0.2488088  0.7478265  )
        43        C      tau(  43) = (  0.6264784  0.3739683  0.8752045  )
        44        C      tau(  44) = (  0.7487945  0.9989046  0.7489691  )
        45        C      tau(  45) = (  0.8764746  0.1216998  0.8763156  )
        46        C      tau(  46) = (  0.7479635  0.2486819  0.5018806  )
        47        C      tau(  47) = (  0.8751980  0.3739245  0.6263738  )
        48        C      tau(  48) = (  0.5012000  0.5011574  0.0001136  )
        49        C      tau(  49) = (  0.6256259  0.6262099  0.1252968  )
        50        C      tau(  50) = (  0.5005188  0.7489091  0.2490095  )
        51        C      tau(  51) = (  0.6258050  0.8750157  0.3740056  )
        52        C      tau(  52) = (  0.7486304  0.5011458  0.2494302  )
        53        C      tau(  53) = (  0.8750247  0.6261269  0.3741365  )
        54        C      tau(  54) = (  0.7492281  0.7488562  0.9996087  )
        55        C      tau(  55) = (  0.8766209  0.8769033  0.1218021  )
        56        C      tau(  56) = (  0.4990819  0.4992903  0.4990317  )
        57        C      tau(  57) = (  0.6247789  0.6244471  0.6249452  )
        58        C      tau(  58) = (  0.4991767  0.7499842  0.7500845  )
        59        C      tau(  59) = (  0.6239946  0.8751464  0.8754130  )
        60        C      tau(  60) = (  0.7505316  0.4989321  0.7505826  )
        61        C      tau(  61) = (  0.8758455  0.6234984  0.8759288  )
        62        C      tau(  62) = (  0.7498244  0.7497799  0.4993198  )
        63        C      tau(  63) = (  0.8750855  0.8749084  0.6242568  )

     number of k points=     1
                       cart. coord. in units 2pi/alat
        k(    1) = (   0.0000000   0.0000000   0.0000000), wk =   1.0000000

                       cryst. coord.
        k(    1) = (   0.0000000   0.0000000   0.0000000), wk =   1.0000000

     Dense  grid:    58461 G-vectors     FFT dimensions: (  64,  64,  64)

     Dynamical RAM for                 wfc:       0.35 MB

     Dynamical RAM for     wfc (w. buffer):       0.35 MB

     Dynamical RAM for           str. fact:       0.04 MB

     Dynamical RAM for           local pot:       0.00 MB

     Dynamical RAM for          nlocal pot:       1.17 MB

     Dynamical RAM for                qrad:       0.65 MB

     Dynamical RAM for          rho,v,vnew:       0.49 MB

     Dynamical RAM for               rhoin:       0.16 MB

     Dynamical RAM for            rho*nmix:       0.60 MB

     Dynamical RAM for           G-vectors:       0.08 MB

     Dynamical RAM for          h,s,v(r/c):       0.53 MB

     Dynamical RAM for          <psi|beta>:       0.58 MB

     Dynamical RAM for                 psi:       0.71 MB

     Dynamical RAM for                hpsi:       0.71 MB

     Dynamical RAM for      wfcinit/wfcrot:       1.24 MB

     Estimated static dynamical RAM per process >       3.37 MB

     Estimated max dynamical RAM per process >       6.49 MB

     Estimated total dynamical RAM >     594.05 MB
     Generating pointlists ...
     new r_m :   0.0851 (alat units)  1.1479 (a.u.) for type    1
     new r_m :   0.0847 (alat units)  1.1416 (a.u.) for type    2

     Initial potential from superposition of free atoms

     starting charge     252.5655, renormalised to     254.0000
     Starting wfcs are random

     total cpu time spent up to now is        2.6 secs

     Self-consistent Calculation

     iteration #  1     ecut=    50.00 Ry     beta= 0.70
     Davidson diagonalization with overlap

---- Real-time Memory Report at c_bands before calling an iterative solver
           158 MiB given to the printing process from OS
             0 MiB allocation reported by mallinfo(arena+hblkhd)
        174141 MiB available memory on the node where the printing process lives
------------------
     ethr =  1.00E-02,  avg # of iterations = 12.0

     total cpu time spent up to now is        3.4 secs

     total energy              =    -723.26198177 Ry
     estimated scf accuracy    <       3.70557040 Ry

     total magnetization       =     2.00 Bohr mag/cell
     absolute magnetization    =     2.00 Bohr mag/cell

     iteration #  2     ecut=    50.00 Ry     beta= 0.70
     Davidson diagonalization with overlap

---- Real-time Memory Report at c_bands before calling an iterative solver
           163 MiB given to the printing process from OS
             0 MiB allocation reported by mallinfo(arena+hblkhd)
        174083 MiB available memory on the node where the printing process lives
------------------
     ethr =  1.46E-03,  avg # of iterations = 12.5

     total cpu time spent up to now is        5.3 secs

     total energy              =    -723.65932523 Ry
     estimated scf accuracy    <       0.45910282 Ry

     total magnetization       =     2.00 Bohr mag/cell
     absolute magnetization    =     2.08 Bohr mag/cell

     iteration #  3     ecut=    50.00 Ry     beta= 0.70
     Davidson diagonalization with overlap

---- Real-time Memory Report at c_bands before calling an iterative solver
           164 MiB given to the printing process from OS
             0 MiB allocation reported by mallinfo(arena+hblkhd)
        174084 MiB available memory on the node where the printing process lives
------------------
     c_bands:  2 eigenvalues not converged
     ethr =  1.81E-04,  avg # of iterations = 20.0

     total cpu time spent up to now is        6.4 secs

     total energy              =    -723.72551739 Ry
     estimated scf accuracy    <       0.87129695 Ry

     total magnetization       =     2.00 Bohr mag/cell
     absolute magnetization    =     2.12 Bohr mag/cell

     iteration #  4     ecut=    50.00 Ry     beta= 0.70
     Davidson diagonalization with overlap

---- Real-time Memory Report at c_bands before calling an iterative solver
           164 MiB given to the printing process from OS
             0 MiB allocation reported by mallinfo(arena+hblkhd)
        174084 MiB available memory on the node where the printing process lives
------------------
     c_bands:  1 eigenvalues not converged
     ethr =  1.81E-04,  avg # of iterations = 20.0

     total cpu time spent up to now is        7.7 secs

     total energy              =    -723.90112075 Ry
     estimated scf accuracy    <       0.00983227 Ry

     total magnetization       =     2.00 Bohr mag/cell
     absolute magnetization    =     2.19 Bohr mag/cell

     iteration #  5     ecut=    50.00 Ry     beta= 0.70
     Davidson diagonalization with overlap

---- Real-time Memory Report at c_bands before calling an iterative solver
           165 MiB given to the printing process from OS
             0 MiB allocation reported by mallinfo(arena+hblkhd)
        174080 MiB available memory on the node where the printing process lives
------------------
     c_bands:  3 eigenvalues not converged
     ethr =  3.87E-06,  avg # of iterations = 20.0

     total cpu time spent up to now is        8.5 secs

     total energy              =    -723.90604740 Ry
     estimated scf accuracy    <       0.00404143 Ry

     total magnetization       =     2.00 Bohr mag/cell
     absolute magnetization    =     2.23 Bohr mag/cell

     iteration #  6     ecut=    50.00 Ry     beta= 0.70
     Davidson diagonalization with overlap

---- Real-time Memory Report at c_bands before calling an iterative solver
           165 MiB given to the printing process from OS
             0 MiB allocation reported by mallinfo(arena+hblkhd)
        174079 MiB available memory on the node where the printing process lives
------------------
     c_bands:  3 eigenvalues not converged
     ethr =  1.59E-06,  avg # of iterations = 20.0

     total cpu time spent up to now is        9.2 secs

     total energy              =    -723.90678843 Ry
     estimated scf accuracy    <       0.00085707 Ry

     total magnetization       =     2.00 Bohr mag/cell
     absolute magnetization    =     2.25 Bohr mag/cell

     iteration #  7     ecut=    50.00 Ry     beta= 0.70
     Davidson diagonalization with overlap

---- Real-time Memory Report at c_bands before calling an iterative solver
           165 MiB given to the printing process from OS
             0 MiB allocation reported by mallinfo(arena+hblkhd)
        174083 MiB available memory on the node where the printing process lives
------------------
     c_bands:  1 eigenvalues not converged
     ethr =  3.37E-07,  avg # of iterations = 20.0

     total cpu time spent up to now is        9.6 secs

     total energy              =    -723.90701128 Ry
     estimated scf accuracy    <       0.00012212 Ry

     total magnetization       =     2.00 Bohr mag/cell
     absolute magnetization    =     2.27 Bohr mag/cell

     iteration #  8     ecut=    50.00 Ry     beta= 0.70
     Davidson diagonalization with overlap

---- Real-time Memory Report at c_bands before calling an iterative solver
           165 MiB given to the printing process from OS
             0 MiB allocation reported by mallinfo(arena+hblkhd)
        174075 MiB available memory on the node where the printing process lives
------------------
     c_bands:  2 eigenvalues not converged
     ethr =  4.81E-08,  avg # of iterations = 20.0

     total cpu time spent up to now is       10.2 secs

     total energy              =    -723.90705190 Ry
     estimated scf accuracy    <       0.00002784 Ry

     total magnetization       =     2.00 Bohr mag/cell
     absolute magnetization    =     2.28 Bohr mag/cell

     iteration #  9     ecut=    50.00 Ry     beta= 0.70
     Davidson diagonalization with overlap

---- Real-time Memory Report at c_bands before calling an iterative solver
           166 MiB given to the printing process from OS
             0 MiB allocation reported by mallinfo(arena+hblkhd)
        174080 MiB available memory on the node where the printing process lives
------------------
     c_bands:  3 eigenvalues not converged
     ethr =  1.10E-08,  avg # of iterations = 20.0

     total cpu time spent up to now is       10.8 secs

     total energy              =    -723.90706223 Ry
     estimated scf accuracy    <       0.00000789 Ry

     total magnetization       =     2.00 Bohr mag/cell
     absolute magnetization    =     2.29 Bohr mag/cell

     iteration # 10     ecut=    50.00 Ry     beta= 0.70
     Davidson diagonalization with overlap

---- Real-time Memory Report at c_bands before calling an iterative solver
           166 MiB given to the printing process from OS
             0 MiB allocation reported by mallinfo(arena+hblkhd)
        174072 MiB available memory on the node where the printing process lives
------------------
     c_bands:  2 eigenvalues not converged
     ethr =  3.11E-09,  avg # of iterations = 20.0

     total cpu time spent up to now is       11.4 secs

     total energy              =    -723.90706578 Ry
     estimated scf accuracy    <       0.00000086 Ry

     total magnetization       =     2.00 Bohr mag/cell
     absolute magnetization    =     2.30 Bohr mag/cell

     iteration # 11     ecut=    50.00 Ry     beta= 0.70
     Davidson diagonalization with overlap

---- Real-time Memory Report at c_bands before calling an iterative solver
           166 MiB given to the printing process from OS
             0 MiB allocation reported by mallinfo(arena+hblkhd)
        174084 MiB available memory on the node where the printing process lives
------------------
     c_bands:  1 eigenvalues not converged
     ethr =  3.40E-10,  avg # of iterations = 20.0

     total cpu time spent up to now is       12.0 secs

     total energy              =    -723.90706642 Ry
     estimated scf accuracy    <       0.00000024 Ry

     total magnetization       =     2.00 Bohr mag/cell
     absolute magnetization    =     2.30 Bohr mag/cell

     iteration # 12     ecut=    50.00 Ry     beta= 0.70
     Davidson diagonalization with overlap

---- Real-time Memory Report at c_bands before calling an iterative solver
           166 MiB given to the printing process from OS
             0 MiB allocation reported by mallinfo(arena+hblkhd)
        174080 MiB available memory on the node where the printing process lives
------------------
     c_bands:  1 eigenvalues not converged
     ethr =  9.44E-11,  avg # of iterations = 19.5

     total cpu time spent up to now is       12.5 secs

     total energy              =    -723.90706655 Ry
     estimated scf accuracy    <       0.00000009 Ry

     total magnetization       =     2.00 Bohr mag/cell
     absolute magnetization    =     2.30 Bohr mag/cell

     iteration # 13     ecut=    50.00 Ry     beta= 0.70
     Davidson diagonalization with overlap

---- Real-time Memory Report at c_bands before calling an iterative solver
           166 MiB given to the printing process from OS
             0 MiB allocation reported by mallinfo(arena+hblkhd)
        174080 MiB available memory on the node where the printing process lives
------------------
     ethr =  3.38E-11,  avg # of iterations = 17.5

     total cpu time spent up to now is       13.1 secs

     total energy              =    -723.90706659 Ry
     estimated scf accuracy    <       0.00000003 Ry

     total magnetization       =     2.00 Bohr mag/cell
     absolute magnetization    =     2.30 Bohr mag/cell

     iteration # 14     ecut=    50.00 Ry     beta= 0.70
     Davidson diagonalization with overlap

---- Real-time Memory Report at c_bands before calling an iterative solver
           166 MiB given to the printing process from OS
             0 MiB allocation reported by mallinfo(arena+hblkhd)
        174080 MiB available memory on the node where the printing process lives
------------------
     ethr =  1.04E-11,  avg # of iterations = 19.0
 
     Magnetic moment per site  (integrated on atomic sphere of radius R)
     atom   1 (R=0.085)  charge=  2.8930  magn=  0.0042
     atom   2 (R=0.085)  charge=  1.8171  magn=  0.2444
     atom   3 (R=0.085)  charge=  1.7930  magn= -0.0086
     atom   4 (R=0.085)  charge=  1.8051  magn=  0.2458
     atom   5 (R=0.085)  charge=  1.7932  magn= -0.0087
     atom   6 (R=0.085)  charge=  1.8232  magn=  0.2452
     atom   7 (R=0.085)  charge=  1.7933  magn= -0.0087
     atom   8 (R=0.085)  charge=  1.7860  magn=  0.0091
     atom   9 (R=0.085)  charge=  1.7963  magn= -0.0019
     atom  10 (R=0.085)  charge=  1.7834  magn=  0.0060
     atom  11 (R=0.085)  charge=  1.7969  magn= -0.0043
     atom  12 (R=0.085)  charge=  1.7824  magn=  0.0061
     atom  13 (R=0.085)  charge=  1.8040  magn= -0.0039
     atom  14 (R=0.085)  charge=  1.7892  magn=  0.0085
     atom  15 (R=0.085)  charge=  1.7873  magn= -0.0020
     atom  16 (R=0.085)  charge=  1.7820  magn=  0.0089
     atom  17 (R=0.085)  charge=  1.7956  magn= -0.0018
     atom  18 (R=0.085)  charge=  1.7823  magn=  0.0057
     atom  19 (R=0.085)  charge=  1.7953  magn= -0.0035
     atom  20 (R=0.085)  charge=  1.7834  magn=  0.0083
     atom  21 (R=0.085)  charge=  1.7847  magn= -0.0020
     atom  22 (R=0.085)  charge=  1.7830  magn=  0.0057
     atom  23 (R=0.085)  charge=  1.7905  magn= -0.0037
     atom  24 (R=0.085)  charge=  1.7825  magn=  0.0182
     atom  25 (R=0.085)  charge=  1.8067  magn=  0.0093
     atom  26 (R=0.085)  charge=  1.7937  magn=  0.0032
     atom  27 (R=0.085)  charge=  1.7615  magn=  0.0001
     atom  28 (R=0.085)  charge=  1.7896  magn=  0.0222
     atom  29 (R=0.085)  charge=  1.7825  magn= -0.0014
     atom  30 (R=0.085)  charge=  1.7901  magn=  0.0212
     atom  31 (R=0.085)  charge=  1.7823  magn= -0.0013
     atom  32 (R=0.085)  charge=  1.7844  magn=  0.0090
     atom  33 (R=0.085)  charge=  1.7960  magn= -0.0019
     atom  34 (R=0.085)  charge=  1.7869  magn=  0.0085
     atom  35 (R=0.085)  charge=  1.7865  magn= -0.0020
     atom  36 (R=0.085)  charge=  1.7817  magn=  0.0059
     atom  37 (R=0.085)  charge=  1.8032  magn= -0.0036
     atom  38 (R=0.085)  charge=  1.7835  magn=  0.0058
     atom  39 (R=0.085)  charge=  1.7913  magn= -0.0041
     atom  40 (R=0.085)  charge=  1.7835  magn=  0.0181
     atom  41 (R=0.085)  charge=  1.8109  magn=  0.0094
     atom  42 (R=0.085)  charge=  1.7948  magn=  0.0219
     atom  43 (R=0.085)  charge=  1.7819  magn= -0.0013
     atom  44 (R=0.085)  charge=  1.7935  magn=  0.0032
     atom  45 (R=0.085)  charge=  1.7570  magn= -0.0000
     atom  46 (R=0.085)  charge=  1.7948  magn=  0.0214
     atom  47 (R=0.085)  charge=  1.7819  magn= -0.0013
     atom  48 (R=0.085)  charge=  1.7819  magn=  0.0184
     atom  49 (R=0.085)  charge=  1.8042  magn=  0.0094
     atom  50 (R=0.085)  charge=  1.7873  magn=  0.0212
     atom  51 (R=0.085)  charge=  1.7825  magn= -0.0013
     atom  52 (R=0.085)  charge=  1.7869  magn=  0.0218
     atom  53 (R=0.085)  charge=  1.7827  magn= -0.0013
     atom  54 (R=0.085)  charge=  1.7933  magn=  0.0032
     atom  55 (R=0.085)  charge=  1.7569  magn=  0.0001
     atom  56 (R=0.085)  charge=  1.7914  magn=  0.0009
     atom  57 (R=0.085)  charge=  1.7832  magn=  0.0010
     atom  58 (R=0.085)  charge=  1.7914  magn=  0.0018
     atom  59 (R=0.085)  charge=  1.7879  magn= -0.0009
     atom  60 (R=0.085)  charge=  1.7911  magn=  0.0017
     atom  61 (R=0.085)  charge=  1.7854  magn= -0.0009
     atom  62 (R=0.085)  charge=  1.7913  magn=  0.0019
     atom  63 (R=0.085)  charge=  1.7891  magn= -0.0009

     total cpu time spent up to now is       13.7 secs

     End of self-consistent calculation

 ------ SPIN UP ------------


          k = 0.0000 0.0000 0.0000 (  7386 PWs)   bands (ev):

    -8.5488  -6.9140  -6.2858  -6.2700  -6.1941  -6.1575  -5.8815  -4.9081
    -4.1433  -4.1290  -4.1240  -4.0929  -4.0304  -4.0195  -4.0118  -3.9185
    -3.8727  -3.8605  -3.3608  -2.9314  -2.6754  -2.6734  -2.1603  -0.3601
    -0.3525  -0.3265  -0.2821  -0.0782   0.1733   0.1940   0.2815   0.2960
     0.3667   0.6185   0.8358   0.8489   0.9531   0.9725   0.9873   1.0547
     1.0623   1.0651   1.2676   1.2963   3.0705   3.9101   3.9388   4.0725
     4.1905   4.2069   4.2223   4.2754   4.2810   4.2859   4.4227   4.4251
     4.4945   4.5007   4.5671   4.6606   4.6845   4.6897   4.6916   4.7858
     4.7957   4.9217   4.9681   4.9715   5.0493   5.2008   5.2105   5.3007
     5.3584   5.3724   5.3965   5.4033   5.4081   6.0404   6.0460   6.1012
     6.6604   6.6692   6.7267   6.9922   7.0052   7.0411   7.5243   8.3292
     8.3471   8.4107   8.4668   8.4921   8.6881   8.7096   8.7891   8.8316
     8.8463   8.8524   8.8928   8.8986   8.9026   9.2865   9.2907   9.3234
     9.6863   9.7084   9.8998   9.9114   9.9445   9.9605   9.9626   9.9781
     9.9866  10.0266  10.0363  10.0564  10.1247  10.1398  10.2695  10.3242
    10.3340  11.0424  12.2894  12.4184  12.4324  13.9547  14.6923  14.8002
    17.3382  17.3775  17.4106  17.5229  17.5760  17.5812  17.8509  17.9229
    17.9366  18.0337  18.0663  18.3697  18.9911  19.0019  19.0209  20.6895
    20.7964  20.8263  20.8781  20.9429  20.9468  21.0267  21.0338  21.0448

     occupation numbers 
     1.0000   1.0000   1.0000   1.0000   1.0000   1.0000   1.0000   1.0000
     1.0000   1.0000   1.0000   1.0000   1.0000   1.0000   1.0000   1.0000
     1.0000   1.0000   1.0000   1.0000   1.0000   1.0000   1.0000   1.0000
     1.0000   1.0000   1.0000   1.0000   1.0000   1.0000   1.0000   1.0000
     1.0000   1.0000   1.0000   1.0000   1.0000   1.0000   1.0000   1.0000
     1.0000   1.0000   1.0000   1.0000   1.0000   1.0000   1.0000   1.0000
     1.0000   1.0000   1.0000   1.0000   1.0000   1.0000   1.0000   1.0000
     1.0000   1.0000   1.0000   1.0000   1.0000   1.0000   1.0000   1.0000
     1.0000   1.0000   1.0000   1.0000   1.0000   1.0000   1.0000   1.0000
     1.0000   1.0000   1.0000   1.0000   1.0000   1.0000   1.0000   1.0000
     1.0000   1.0000   1.0000   1.0000   1.0000   1.0000   1.0000   1.0000
     1.0000   1.0000   1.0000   1.0000   1.0000   1.0000   1.0000   1.0000
     1.0000   1.0000   1.0000   1.0000   1.0000   1.0000   1.0000   1.0000
     1.0000   1.0000   1.0000   1.0000   1.0000   1.0000   1.0000   1.0000
     1.0000   1.0000   1.0000   1.0000   1.0000   1.0000   1.0000   1.0000
     1.0000   1.0000   1.0000   1.0000   1.0000   1.0000   1.0000   1.0000
     0.0000   0.0000   0.0000   0.0000   0.0000   0.0000   0.0000   0.0000
     0.0000   0.0000   0.0000   0.0000   0.0000   0.0000   0.0000   0.0000
     0.0000   0.0000   0.0000   0.0000   0.0000   0.0000   0.0000   0.0000

 ------ SPIN DOWN ----------


          k = 0.0000 0.0000 0.0000 (  7386 PWs)   bands (ev):

    -8.5233  -6.8996  -6.2636  -6.2467  -6.1494  -6.1152  -5.8443  -4.8913
    -4.1227  -4.1065  -4.0839  -4.0601  -3.9955  -3.9813  -3.9638  -3.9063
    -3.8371  -3.8203  -3.3185  -2.9127  -2.6226  -2.6198  -2.0155  -0.3426
    -0.3343  -0.3049  -0.2650  -0.0129   0.1922   0.2115   0.3188   0.3291
     0.3918   0.6533   0.8479   0.8606   0.9869   1.0027   1.0125   1.0711
     1.0785   1.0817   1.4333   1.4664   3.1843   3.9331   3.9613   4.0987
     4.2249   4.2499   4.2648   4.2899   4.2989   4.3132   4.4701   4.4720
     4.5166   4.5216   4.5908   4.6849   4.7022   4.7069   4.7129   4.8200
     4.8326   4.9349   5.0003   5.0028   5.1305   5.2347   5.2454   5.3245
     5.3731   5.3834   5.4178   5.4544   5.4690   6.1027   6.1054   6.1391
     6.6871   6.6962   6.7610   7.0786   7.0867   7.1029   7.6946   8.3676
     8.3857   8.4478   8.5025   8.5271   8.7220   8.7409   8.8248   8.8760
     8.8834   8.8875   8.9234   8.9304   8.9337   9.3227   9.3276   9.3507
     9.7142   9.7356   9.9298   9.9401   9.9561   9.9743   9.9766   9.9973
    10.0070  10.0611  10.0690  10.0766  10.1524  10.1658  10.3273  10.3786
    10.3888  11.4201  12.5602  12.5665  12.6035  14.4412  16.0178  16.1409
    17.3634  17.3949  17.4275  17.5502  17.6310  17.6384  17.8737  17.9423
    17.9549  18.0739  18.1067  18.4894  19.0434  19.0760  19.1079  20.7400
    20.8108  20.8403  20.8929  20.9602  20.9645  21.0434  21.0599  21.0636

     occupation numbers 
     1.0000   1.0000   1.0000   1.0000   1.0000   1.0000   1.0000   1.0000
     1.0000   1.0000   1.0000   1.0000   1.0000   1.0000   1.0000   1.0000
     1.0000   1.0000   1.0000   1.0000   1.0000   1.0000   1.0000   1.0000
     1.0000   1.0000   1.0000   1.0000   1.0000   1.0000   1.0000   1.0000
     1.0000   1.0000   1.0000   1.0000   1.0000   1.0000   1.0000   1.0000
     1.0000   1.0000   1.0000   1.0000   1.0000   1.0000   1.0000   1.0000
     1.0000   1.0000   1.0000   1.0000   1.0000   1.0000   1.0000   1.0000
     1.0000   1.0000   1.0000   1.0000   1.0000   1.0000   1.0000   1.0000
     1.0000   1.0000   1.0000   1.0000   1.0000   1.0000   1.0000   1.0000
     1.0000   1.0000   1.0000   1.0000   1.0000   1.0000   1.0000   1.0000
     1.0000   1.0000   1.0000   1.0000   1.0000   1.0000   1.0000   1.0000
     1.0000   1.0000   1.0000   1.0000   1.0000   1.0000   1.0000   1.0000
     1.0000   1.0000   1.0000   1.0000   1.0000   1.0000   1.0000   1.0000
     1.0000   1.0000   1.0000   1.0000   1.0000   1.0000   1.0000   1.0000
     1.0000   1.0000   1.0000   1.0000   1.0000   1.0000   1.0000   1.0000
     1.0000   1.0000   1.0000   1.0000   1.0000   1.0000   0.0000   0.0000
     0.0000   0.0000   0.0000   0.0000   0.0000   0.0000   0.0000   0.0000
     0.0000   0.0000   0.0000   0.0000   0.0000   0.0000   0.0000   0.0000
     0.0000   0.0000   0.0000   0.0000   0.0000   0.0000   0.0000   0.0000

     highest occupied, lowest unoccupied level (ev):    14.8002   16.0178

!    total energy              =    -723.90706660 Ry
     estimated scf accuracy    <          5.9E-09 Ry

     The total energy is the sum of the following terms:
     one-electron contribution =     232.38996963 Ry
     hartree contribution      =      70.28560985 Ry
     xc contribution           =    -226.76871018 Ry
     ewald contribution        =    -799.81393590 Ry

     total magnetization       =     2.00 Bohr mag/cell
     absolute magnetization    =     2.30 Bohr mag/cell

     convergence has been achieved in  14 iterations

     Forces acting on atoms (cartesian axes, Ry/au):

     atom    1 type  1   force =    -0.01793836   -0.00055626    0.00063973
     atom    2 type  2   force =     0.03515864    0.01583261   -0.01262626
     atom    3 type  2   force =    -0.00940191    0.00866358    0.00622470
     atom    4 type  2   force =     0.00907532    0.02475831   -0.00235099
     atom    5 type  2   force =     0.00229739   -0.02122371    0.00167204
     atom    6 type  2   force =    -0.00808292    0.00870654    0.04331213
     atom    7 type  2   force =     0.01022685    0.01204632   -0.00208680
     atom    8 type  2   force =     0.00301955    0.00429952    0.00657278
     atom    9 type  2   force =    -0.00212882   -0.00478800   -0.00291454
     atom   10 type  2   force =     0.00024040    0.00156365    0.00714651
     atom   11 type  2   force =    -0.02869290    0.00590121   -0.00877360
     atom   12 type  2   force =     0.00044153    0.00349706    0.00274984
     atom   13 type  2   force =    -0.00290942   -0.03996436   -0.00176150
     atom   14 type  2   force =     0.00344937    0.00216572   -0.00440578
     atom   15 type  2   force =    -0.00279856   -0.00131981   -0.00569549
     atom   16 type  2   force =     0.00017042   -0.00100445   -0.00099431
     atom   17 type  2   force =    -0.00141389    0.00644455    0.00017878
     atom   18 type  2   force =     0.00226896   -0.00051572    0.00119996
     atom   19 type  2   force =    -0.00919759   -0.00312687   -0.00524723
     atom   20 type  2   force =     0.00297007   -0.00437854    0.00357061
     atom   21 type  2   force =    -0.00114340   -0.00410288   -0.00209602
     atom   22 type  2   force =     0.00196791    0.00147674    0.00088413
     atom   23 type  2   force =    -0.00067074   -0.00706346   -0.00172668
     atom   24 type  2   force =     0.00968348    0.00543210    0.00428899
     atom   25 type  2   force =    -0.01245892   -0.01381906   -0.00400081
     atom   26 type  2   force =     0.01466351    0.00587041    0.00144803
     atom   27 type  2   force =    -0.02217995   -0.01075805   -0.00859790
     atom   28 type  2   force =     0.01050847    0.00064206    0.00591265
     atom   29 type  2   force =    -0.00008553   -0.00173181   -0.00113133
     atom   30 type  2   force =     0.00768415    0.00654762    0.00406540
     atom   31 type  2   force =     0.00110553   -0.00145082   -0.00358693
     atom   32 type  2   force =     0.00324635    0.00386148    0.00141667
     atom   33 type  2   force =     0.00045295   -0.00431971   -0.00006247
     atom   34 type  2   force =    -0.00475801    0.00169624    0.00359072
     atom   35 type  2   force =    -0.00499723   -0.00091145   -0.00333169
     atom   36 type  2   force =     0.00124657    0.00482207   -0.00080881
     atom   37 type  2   force =     0.00067620   -0.03257021   -0.00710536
     atom   38 type  2   force =     0.00764935    0.00104512    0.00017471
     atom   39 type  2   force =    -0.01008136    0.00612429   -0.01367737
     atom   40 type  2   force =     0.00550147    0.01254242    0.00499991
     atom   41 type  2   force =    -0.00726350   -0.01521294   -0.00348937
     atom   42 type  2   force =    -0.00019222    0.01744558    0.00605311
     atom   43 type  2   force =    -0.00083552    0.00065059   -0.00120145
     atom   44 type  2   force =     0.00541963    0.01642141    0.00406027
     atom   45 type  2   force =    -0.00307464   -0.02746905   -0.00634096
     atom   46 type  2   force =     0.00651582    0.01609027    0.00114864
     atom   47 type  2   force =    -0.00109749    0.00139102   -0.00195949
     atom   48 type  2   force =     0.00498319    0.00559887    0.00768251
     atom   49 type  2   force =    -0.00785396   -0.01392406   -0.00990087
     atom   50 type  2   force =     0.00416887    0.00666988    0.00349118
     atom   51 type  2   force =    -0.00388476   -0.00198211    0.00018009
     atom   52 type  2   force =     0.00648638    0.00212026    0.00496198
     atom   53 type  2   force =    -0.00155004   -0.00312699   -0.00027542
     atom   54 type  2   force =     0.00340149    0.00647321    0.01328717
     atom   55 type  2   force =    -0.00281490   -0.00824219   -0.02583491
     atom   56 type  2   force =     0.00479718    0.00461902    0.00472149
     atom   57 type  2   force =    -0.00174918   -0.00065262   -0.00223878
     atom   58 type  2   force =     0.00141007    0.00404110    0.00330138
     atom   59 type  2   force =    -0.00137868   -0.00279038   -0.00383995
     atom   60 type  2   force =     0.00263840    0.00194832    0.00233683
     atom   61 type  2   force =    -0.00337802   -0.00187736   -0.00389149
     atom   62 type  2   force =     0.00406176    0.00449490    0.00113009
     atom   63 type  2   force =    -0.00357479   -0.00302121   -0.00044844
     The non-local contrib.  to forces
     atom    1 type  1   force =    -0.78213633   -0.77636656   -0.77093859
     atom    2 type  2   force =    -0.16497134    0.22060145    0.17818357
     atom    3 type  2   force =     0.05687562    0.08117047    0.07255954
     atom    4 type  2   force =     0.21540522   -0.18848581    0.19812053
     atom    5 type  2   force =     0.07316792    0.04247981    0.07029964
     atom    6 type  2   force =     0.17986158    0.20463492   -0.14653824
     atom    7 type  2   force =     0.07752301    0.08324794    0.06422339
     atom    8 type  2   force =    -0.00442674   -0.00464643    0.05676473
     atom    9 type  2   force =    -0.00567827   -0.00781346    0.01313262
     atom   10 type  2   force =    -0.04461154   -0.01341301   -0.01230885
     atom   11 type  2   force =    -0.10391653    0.06772100   -0.08311458
     atom   12 type  2   force =    -0.01600925   -0.04054428   -0.01578432
     atom   13 type  2   force =     0.05220026   -0.11645954   -0.07324025
     atom   14 type  2   force =     0.00281411    0.00044516    0.04560145
     atom   15 type  2   force =     0.01024627    0.00901085   -0.00368090
     atom   16 type  2   force =    -0.01245129    0.04877150   -0.01325064
     atom   17 type  2   force =    -0.00469713    0.02723579   -0.00327973
     atom   18 type  2   force =    -0.04119614   -0.02277249   -0.01504940
     atom   19 type  2   force =    -0.08109009   -0.07898057    0.05529920
     atom   20 type  2   force =     0.00465205    0.04482831    0.00498046
     atom   21 type  2   force =     0.01091219   -0.00313483    0.01116947
     atom   22 type  2   force =    -0.01317257   -0.02143882   -0.04205131
     atom   23 type  2   force =     0.06355049   -0.08444189   -0.07271488
     atom   24 type  2   force =    -0.06464690    0.03322988    0.03415759
     atom   25 type  2   force =    -0.02444867    0.00047267    0.01408462
     atom   26 type  2   force =    -0.04298418   -0.02162497   -0.02444948
     atom   27 type  2   force =    -0.14192003    0.12278512    0.12104327
     atom   28 type  2   force =     0.08005483    0.02335429   -0.01258399
     atom   29 type  2   force =     0.00112765    0.01795701    0.00488529
     atom   30 type  2   force =     0.07667718   -0.01316346    0.02879746
     atom   31 type  2   force =     0.00374536    0.00319508    0.01617867
     atom   32 type  2   force =     0.05295122   -0.00661705   -0.00720797
     atom   33 type  2   force =     0.01809497   -0.00723752   -0.00369012
     atom   34 type  2   force =     0.04474188    0.00102981    0.00371306
     atom   35 type  2   force =    -0.00357113    0.00883968    0.01035059
     atom   36 type  2   force =    -0.01738126   -0.04068657   -0.01904441
     atom   37 type  2   force =    -0.07201176   -0.10882405    0.04784535
     atom   38 type  2   force =    -0.01260343   -0.01459401   -0.04561625
     atom   39 type  2   force =    -0.08706085    0.07142125   -0.08775787
     atom   40 type  2   force =     0.03561800   -0.05841917    0.03542131
     atom   41 type  2   force =     0.00956901   -0.02674082    0.01496610
     atom   42 type  2   force =     0.02095844    0.08870789   -0.00969180
     atom   43 type  2   force =     0.01745742   -0.00022073    0.00409134
     atom   44 type  2   force =    -0.02069089   -0.03577501   -0.02142135
     atom   45 type  2   force =     0.12840576   -0.14783551    0.12389970
     atom   46 type  2   force =    -0.01014247    0.08706788    0.02332485
     atom   47 type  2   force =     0.00300631    0.00146369    0.01593796
     atom   48 type  2   force =     0.03414718    0.03299057   -0.06826413
     atom   49 type  2   force =     0.00907430    0.00081242   -0.02337074
     atom   50 type  2   force =     0.02970061   -0.01451448    0.07127748
     atom   51 type  2   force =     0.01732128    0.00386001    0.00286727
     atom   52 type  2   force =    -0.01443980    0.02671857    0.07305786
     atom   53 type  2   force =     0.00449014    0.01762191    0.00190618
     atom   54 type  2   force =    -0.02068376   -0.01854912   -0.04268925
     atom   55 type  2   force =     0.12681937    0.12410510   -0.14661932
     atom   56 type  2   force =     0.02284405    0.02406940    0.02206142
     atom   57 type  2   force =     0.00524058    0.00500329    0.00538895
     atom   58 type  2   force =     0.01616864   -0.00635985   -0.00995193
     atom   59 type  2   force =     0.00809983   -0.01441970   -0.01560069
     atom   60 type  2   force =    -0.01043625    0.01828109   -0.01132955
     atom   61 type  2   force =    -0.01522420    0.00887252   -0.01526548
     atom   62 type  2   force =    -0.00846530   -0.00576686    0.01524431
     atom   63 type  2   force =    -0.01608585   -0.01490983    0.00862723
     The ionic contribution  to forces
     atom    1 type  1   force =     2.89825596    2.99950550    3.04253462
     atom    2 type  2   force =     2.40724359   -2.05973975   -2.21541969
     atom    3 type  2   force =     0.47952395   -0.72954376   -0.85187163
     atom    4 type  2   force =    -2.08554167    2.33354854   -2.14973770
     atom    5 type  2   force =    -0.77609504    0.40162793   -0.82499363
     atom    6 type  2   force =    -2.18194400   -2.09063903    2.45990152
     atom    7 type  2   force =    -0.82139345   -0.74780546    0.53767415
     atom    8 type  2   force =     0.25327171    0.21501813   -0.72708442
     atom    9 type  2   force =     0.06346954    0.02795151   -0.22763016
     atom   10 type  2   force =     0.17319342    0.07161118    0.56512032
     atom   11 type  2   force =    -0.53022030   -0.62424985    0.80213885
     atom   12 type  2   force =     0.03496116    0.16104435    0.54012560
     atom   13 type  2   force =    -0.65396408   -0.56339637    0.75879537
     atom   14 type  2   force =    -0.19396935   -0.17924295   -0.71495927
     atom   15 type  2   force =    -0.16740428   -0.13020254   -0.06865303
     atom   16 type  2   force =     0.19657805   -0.77494133    0.22540127
     atom   17 type  2   force =     0.06886528   -0.15943243    0.09520065
     atom   18 type  2   force =     0.21626668    0.46862307    0.00278348
     atom   19 type  2   force =    -0.36421486    0.74722411   -0.70383756
     atom   20 type  2   force =    -0.18062924   -0.73052180   -0.18955095
     atom   21 type  2   force =    -0.17304622   -0.05834465   -0.19981349
     atom   22 type  2   force =     0.03408916    0.46785009    0.23777952
     atom   23 type  2   force =    -0.67921162    0.77579538   -0.32855809
     atom   24 type  2   force =     0.10459442   -0.13653133   -0.17063624
     atom   25 type  2   force =    -0.02703432   -0.08014543   -0.07118179
     atom   26 type  2   force =     0.12268416   -0.09426704   -0.04957549
     atom   27 type  2   force =     1.14997223    0.20554647    0.21200816
     atom   28 type  2   force =    -0.08166473   -0.13606617    0.11203349
     atom   29 type  2   force =    -0.15147583    0.02970025    0.25633646
     atom   30 type  2   force =    -0.01950909    0.13731193   -0.23493520
     atom   31 type  2   force =    -0.15004112    0.17226168   -0.00981619
     atom   32 type  2   force =    -0.73238979    0.19519769    0.26217376
     atom   33 type  2   force =    -0.19314741    0.02635439    0.08799406
     atom   34 type  2   force =    -0.71424266   -0.17622991   -0.19944349
     atom   35 type  2   force =    -0.06228850   -0.13435877   -0.19839662
     atom   36 type  2   force =     0.51946244    0.17453497   -0.00725846
     atom   37 type  2   force =     0.73364495   -0.50122803   -0.69459630
     atom   38 type  2   force =     0.54366715    0.06075502    0.20835674
     atom   39 type  2   force =     0.80527592   -0.64033649   -0.43228507
     atom   40 type  2   force =    -0.19393117    0.06225635   -0.20979985
     atom   41 type  2   force =    -0.06780273   -0.08857150   -0.06678512
     atom   42 type  2   force =    -0.12742707    0.02674335    0.08926815
     atom   43 type  2   force =     0.03547187   -0.11562347    0.25463454
     atom   44 type  2   force =    -0.06583331    0.12229479   -0.04265761
     atom   45 type  2   force =     0.24156101    1.12128880    0.28065452
     atom   46 type  2   force =     0.09996109    0.04973357   -0.16975958
     atom   47 type  2   force =     0.22197867   -0.11498545    0.01724728
     atom   48 type  2   force =    -0.12902101   -0.11080013    0.13769028
     atom   49 type  2   force =    -0.07205948   -0.07975360    0.00646084
     atom   50 type  2   force =    -0.23285991    0.15311195   -0.08304815
     atom   51 type  2   force =    -0.00719814    0.17502727   -0.18188905
     atom   52 type  2   force =     0.13905679   -0.17693997   -0.12246186
     atom   53 type  2   force =     0.22658664    0.01414481   -0.18267706
     atom   54 type  2   force =    -0.05740757   -0.07906900    0.13843073
     atom   55 type  2   force =     0.24239256    0.27493679    1.09413802
     atom   56 type  2   force =    -0.08968938   -0.03010494   -0.12468219
     atom   57 type  2   force =    -0.02118895   -0.03396904   -0.01887720
     atom   58 type  2   force =    -0.07269906    0.04819201    0.04025920
     atom   59 type  2   force =    -0.27427165    0.08032099    0.15729276
     atom   60 type  2   force =     0.06015849   -0.03573328    0.05980981
     atom   61 type  2   force =     0.12819437   -0.29946154    0.16001770
     atom   62 type  2   force =     0.03024142    0.03778219   -0.09921434
     atom   63 type  2   force =     0.12019429    0.07493996   -0.27017536
     The local contribution  to forces
     atom    1 type  1   force =    -2.13412298   -2.22369323   -2.27101966
     atom    2 type  2   force =    -2.20718739    1.85496038    2.02455417
     atom    3 type  2   force =    -0.54590550    0.65699182    0.78547291
     atom    4 type  2   force =     1.87911918   -2.12031603    1.94921269
     atom    5 type  2   force =     0.70512167   -0.46533746    0.75632370
     atom    6 type  2   force =     1.99390336    1.89470219   -2.27011697
     atom    7 type  2   force =     0.75398805    0.67657587   -0.60406036
     atom    8 type  2   force =    -0.24589311   -0.20606854    0.67684446
     atom    9 type  2   force =    -0.05999406   -0.02492931    0.21153007
     atom   10 type  2   force =    -0.12839976   -0.05665448   -0.54571938
     atom   11 type  2   force =     0.60537747    0.56239679   -0.72784737
     atom   12 type  2   force =    -0.01859663   -0.11701696   -0.52164371
     atom   13 type  2   force =     0.59875275    0.63988442   -0.68737806
     atom   14 type  2   force =     0.19449887    0.18094733    0.66490830
     atom   15 type  2   force =     0.15424687    0.11983631    0.06660497
     atom   16 type  2   force =    -0.18402120    0.72510778   -0.21319512
     atom   17 type  2   force =    -0.06565650    0.13857326   -0.09180556
     atom   18 type  2   force =    -0.17286691   -0.44641957    0.01340328
     atom   19 type  2   force =     0.43603009   -0.67139866    0.64324641
     atom   20 type  2   force =     0.17884331    0.68126396    0.18807787
     atom   21 type  2   force =     0.16088059    0.05733007    0.18649419
     atom   22 type  2   force =    -0.01902924   -0.44498490   -0.19491485
     atom   23 type  2   force =     0.61490057   -0.69845540    0.39946865
     atom   24 type  2   force =    -0.03032641    0.10866952    0.14070628
     atom   25 type  2   force =     0.03895429    0.06579695    0.05304874
     atom   26 type  2   force =    -0.06510442    0.12171997    0.07542436
     atom   27 type  2   force =    -1.03030783   -0.33911389   -0.34170840
     atom   28 type  2   force =     0.01203378    0.11330372   -0.09358452
     atom   29 type  2   force =     0.15016599   -0.04944379   -0.26240847
     atom   30 type  2   force =    -0.04956862   -0.11765075    0.21016208
     atom   31 type  2   force =     0.14730187   -0.17693558   -0.00999165
     atom   32 type  2   force =     0.68258705   -0.18474117   -0.25362155
     atom   33 type  2   force =     0.17541865   -0.02344390   -0.08443129
     atom   34 type  2   force =     0.66464980    0.17688101    0.19925817
     atom   35 type  2   force =     0.06078676    0.12456544    0.18465107
     atom   36 type  2   force =    -0.50091051   -0.12902182    0.02542871
     atom   37 type  2   force =    -0.66101395    0.57750257    0.63957813
     atom   38 type  2   force =    -0.52348941   -0.04513388   -0.16261191
     atom   39 type  2   force =    -0.72835241    0.57499223    0.50632689
     atom   40 type  2   force =     0.16370984    0.00868975    0.17934160
     atom   41 type  2   force =     0.05087002    0.10008241    0.04828257
     atom   42 type  2   force =     0.10616109   -0.09802416   -0.07357062
     atom   43 type  2   force =    -0.05387338    0.11646705   -0.25997574
     atom   44 type  2   force =     0.09185506   -0.07012157    0.06809186
     atom   45 type  2   force =    -0.37310735   -1.00093885   -0.41094092
     atom   46 type  2   force =    -0.08337129   -0.12072931    0.14751624
     atom   47 type  2   force =    -0.22614172    0.11487453   -0.03521216
     atom   48 type  2   force =     0.09974974    0.08336730   -0.06181325
     atom   49 type  2   force =     0.05503089    0.06496266    0.00693072
     atom   50 type  2   force =     0.20721860   -0.13197513    0.01519454
     atom   51 type  2   force =    -0.01411279   -0.18088967    0.17915056
     atom   52 type  2   force =    -0.11820006    0.15227221    0.05430254
     atom   53 type  2   force =    -0.23268649   -0.03496951    0.18043752
     atom   54 type  2   force =     0.08139902    0.10404718   -0.08252854
     atom   55 type  2   force =    -0.37209878   -0.40730045   -0.97342816
     atom   56 type  2   force =     0.07153358    0.01061043    0.10730015
     atom   57 type  2   force =     0.01409697    0.02826910    0.01121720
     atom   58 type  2   force =     0.05783858   -0.03783347   -0.02704793
     atom   59 type  2   force =     0.26469317   -0.06872550   -0.14558853
     atom   60 type  2   force =    -0.04717223    0.01936530   -0.04618782
     atom   61 type  2   force =    -0.11642449    0.28866526   -0.14869693
     atom   62 type  2   force =    -0.01780020   -0.02756292    0.08506629
     atom   63 type  2   force =    -0.10775608   -0.06307591    0.26106372
     The core correction contribution to forces
     atom    1 type  1   force =     0.00000000    0.00000000    0.00000000
     atom    2 type  2   force =     0.00000000    0.00000000    0.00000000
     atom    3 type  2   force =     0.00000000    0.00000000    0.00000000
     atom    4 type  2   force =     0.00000000    0.00000000    0.00000000
     atom    5 type  2   force =     0.00000000    0.00000000    0.00000000
     atom    6 type  2   force =     0.00000000    0.00000000    0.00000000
     atom    7 type  2   force =     0.00000000    0.00000000    0.00000000
     atom    8 type  2   force =     0.00000000    0.00000000    0.00000000
     atom    9 type  2   force =     0.00000000    0.00000000    0.00000000
     atom   10 type  2   force =     0.00000000    0.00000000    0.00000000
     atom   11 type  2   force =     0.00000000    0.00000000    0.00000000
     atom   12 type  2   force =     0.00000000    0.00000000    0.00000000
     atom   13 type  2   force =     0.00000000    0.00000000    0.00000000
     atom   14 type  2   force =     0.00000000    0.00000000    0.00000000
     atom   15 type  2   force =     0.00000000    0.00000000    0.00000000
     atom   16 type  2   force =     0.00000000    0.00000000    0.00000000
     atom   17 type  2   force =     0.00000000    0.00000000    0.00000000
     atom   18 type  2   force =     0.00000000    0.00000000    0.00000000
     atom   19 type  2   force =     0.00000000    0.00000000    0.00000000
     atom   20 type  2   force =     0.00000000    0.00000000    0.00000000
     atom   21 type  2   force =     0.00000000    0.00000000    0.00000000
     atom   22 type  2   force =     0.00000000    0.00000000    0.00000000
     atom   23 type  2   force =     0.00000000    0.00000000    0.00000000
     atom   24 type  2   force =     0.00000000    0.00000000    0.00000000
     atom   25 type  2   force =     0.00000000    0.00000000    0.00000000
     atom   26 type  2   force =     0.00000000    0.00000000    0.00000000
     atom   27 type  2   force =     0.00000000    0.00000000    0.00000000
     atom   28 type  2   force =     0.00000000    0.00000000    0.00000000
     atom   29 type  2   force =     0.00000000    0.00000000    0.00000000
     atom   30 type  2   force =     0.00000000    0.00000000    0.00000000
     atom   31 type  2   force =     0.00000000    0.00000000    0.00000000
     atom   32 type  2   force =     0.00000000    0.00000000    0.00000000
     atom   33 type  2   force =     0.00000000    0.00000000    0.00000000
     atom   34 type  2   force =     0.00000000    0.00000000    0.00000000
     atom   35 type  2   force =     0.00000000    0.00000000    0.00000000
     atom   36 type  2   force =     0.00000000    0.00000000    0.00000000
     atom   37 type  2   force =     0.00000000    0.00000000    0.00000000
     atom   38 type  2   force =     0.00000000    0.00000000    0.00000000
     atom   39 type  2   force =     0.00000000    0.00000000    0.00000000
     atom   40 type  2   force =     0.00000000    0.00000000    0.00000000
     atom   41 type  2   force =     0.00000000    0.00000000    0.00000000
     atom   42 type  2   force =     0.00000000    0.00000000    0.00000000
     atom   43 type  2   force =     0.00000000    0.00000000    0.00000000
     atom   44 type  2   force =     0.00000000    0.00000000    0.00000000
     atom   45 type  2   force =     0.00000000    0.00000000    0.00000000
     atom   46 type  2   force =     0.00000000    0.00000000    0.00000000
     atom   47 type  2   force =     0.00000000    0.00000000    0.00000000
     atom   48 type  2   force =     0.00000000    0.00000000    0.00000000
     atom   49 type  2   force =     0.00000000    0.00000000    0.00000000
     atom   50 type  2   force =     0.00000000    0.00000000    0.00000000
     atom   51 type  2   force =     0.00000000    0.00000000    0.00000000
     atom   52 type  2   force =     0.00000000    0.00000000    0.00000000
     atom   53 type  2   force =     0.00000000    0.00000000    0.00000000
     atom   54 type  2   force =     0.00000000    0.00000000    0.00000000
     atom   55 type  2   force =     0.00000000    0.00000000    0.00000000
     atom   56 type  2   force =     0.00000000    0.00000000    0.00000000
     atom   57 type  2   force =     0.00000000    0.00000000    0.00000000
     atom   58 type  2   force =     0.00000000    0.00000000    0.00000000
     atom   59 type  2   force =     0.00000000    0.00000000    0.00000000
     atom   60 type  2   force =     0.00000000    0.00000000    0.00000000
     atom   61 type  2   force =     0.00000000    0.00000000    0.00000000
     atom   62 type  2   force =     0.00000000    0.00000000    0.00000000
     atom   63 type  2   force =     0.00000000    0.00000000    0.00000000
     The Hubbard contrib.    to forces
     atom    1 type  1   force =     0.00000000    0.00000000    0.00000000
     atom    2 type  2   force =     0.00000000    0.00000000    0.00000000
     atom    3 type  2   force =     0.00000000    0.00000000    0.00000000
     atom    4 type  2   force =     0.00000000    0.00000000    0.00000000
     atom    5 type  2   force =     0.00000000    0.00000000    0.00000000
     atom    6 type  2   force =     0.00000000    0.00000000    0.00000000
     atom    7 type  2   force =     0.00000000    0.00000000    0.00000000
     atom    8 type  2   force =     0.00000000    0.00000000    0.00000000
     atom    9 type  2   force =     0.00000000    0.00000000    0.00000000
     atom   10 type  2   force =     0.00000000    0.00000000    0.00000000
     atom   11 type  2   force =     0.00000000    0.00000000    0.00000000
     atom   12 type  2   force =     0.00000000    0.00000000    0.00000000
     atom   13 type  2   force =     0.00000000    0.00000000    0.00000000
     atom   14 type  2   force =     0.00000000    0.00000000    0.00000000
     atom   15 type  2   force =     0.00000000    0.00000000    0.00000000
     atom   16 type  2   force =     0.00000000    0.00000000    0.00000000
     atom   17 type  2   force =     0.00000000    0.00000000    0.00000000
     atom   18 type  2   force =     0.00000000    0.00000000    0.00000000
     atom   19 type  2   force =     0.00000000    0.00000000    0.00000000
     atom   20 type  2   force =     0.00000000    0.00000000    0.00000000
     atom   21 type  2   force =     0.00000000    0.00000000    0.00000000
     atom   22 type  2   force =     0.00000000    0.00000000    0.00000000
     atom   23 type  2   force =     0.00000000    0.00000000    0.00000000
     atom   24 type  2   force =     0.00000000    0.00000000    0.00000000
     atom   25 type  2   force =     0.00000000    0.00000000    0.00000000
     atom   26 type  2   force =     0.00000000    0.00000000    0.00000000
     atom   27 type  2   force =     0.00000000    0.00000000    0.00000000
     atom   28 type  2   force =     0.00000000    0.00000000    0.00000000
     atom   29 type  2   force =     0.00000000    0.00000000    0.00000000
     atom   30 type  2   force =     0.00000000    0.00000000    0.00000000
     atom   31 type  2   force =     0.00000000    0.00000000    0.00000000
     atom   32 type  2   force =     0.00000000    0.00000000    0.00000000
     atom   33 type  2   force =     0.00000000    0.00000000    0.00000000
     atom   34 type  2   force =     0.00000000    0.00000000    0.00000000
     atom   35 type  2   force =     0.00000000    0.00000000    0.00000000
     atom   36 type  2   force =     0.00000000    0.00000000    0.00000000
     atom   37 type  2   force =     0.00000000    0.00000000    0.00000000
     atom   38 type  2   force =     0.00000000    0.00000000    0.00000000
     atom   39 type  2   force =     0.00000000    0.00000000    0.00000000
     atom   40 type  2   force =     0.00000000    0.00000000    0.00000000
     atom   41 type  2   force =     0.00000000    0.00000000    0.00000000
     atom   42 type  2   force =     0.00000000    0.00000000    0.00000000
     atom   43 type  2   force =     0.00000000    0.00000000    0.00000000
     atom   44 type  2   force =     0.00000000    0.00000000    0.00000000
     atom   45 type  2   force =     0.00000000    0.00000000    0.00000000
     atom   46 type  2   force =     0.00000000    0.00000000    0.00000000
     atom   47 type  2   force =     0.00000000    0.00000000    0.00000000
     atom   48 type  2   force =     0.00000000    0.00000000    0.00000000
     atom   49 type  2   force =     0.00000000    0.00000000    0.00000000
     atom   50 type  2   force =     0.00000000    0.00000000    0.00000000
     atom   51 type  2   force =     0.00000000    0.00000000    0.00000000
     atom   52 type  2   force =     0.00000000    0.00000000    0.00000000
     atom   53 type  2   force =     0.00000000    0.00000000    0.00000000
     atom   54 type  2   force =     0.00000000    0.00000000    0.00000000
     atom   55 type  2   force =     0.00000000    0.00000000    0.00000000
     atom   56 type  2   force =     0.00000000    0.00000000    0.00000000
     atom   57 type  2   force =     0.00000000    0.00000000    0.00000000
     atom   58 type  2   force =     0.00000000    0.00000000    0.00000000
     atom   59 type  2   force =     0.00000000    0.00000000    0.00000000
     atom   60 type  2   force =     0.00000000    0.00000000    0.00000000
     atom   61 type  2   force =     0.00000000    0.00000000    0.00000000
     atom   62 type  2   force =     0.00000000    0.00000000    0.00000000
     atom   63 type  2   force =     0.00000000    0.00000000    0.00000000
     The SCF correction term to forces
     atom    1 type  1   force =    -0.00002129   -0.00003272    0.00000816
     atom    2 type  2   force =    -0.00001251   -0.00002023    0.00000049
     atom    3 type  2   force =     0.00001773    0.00001430    0.00000869
     atom    4 type  2   force =     0.00000630   -0.00001913   -0.00000171
     atom    5 type  2   force =     0.00001655   -0.00002475   -0.00001286
     atom    6 type  2   force =     0.00000985   -0.00002230    0.00001062
     atom    7 type  2   force =     0.00002295   -0.00000279    0.00002083
     atom    8 type  2   force =    -0.00001860   -0.00003440   -0.00000719
     atom    9 type  2   force =    -0.00001232   -0.00002750   -0.00000226
     atom   10 type  2   force =    -0.00002801   -0.00001079   -0.00000076
     atom   11 type  2   force =    -0.00001982    0.00000251   -0.00000569
     atom   12 type  2   force =    -0.00000005   -0.00001681   -0.00000292
     atom   13 type  2   force =     0.00001535   -0.00002362    0.00000624
     atom   14 type  2   force =     0.00001945   -0.00001459   -0.00001145
     atom   15 type  2   force =     0.00002629    0.00000481   -0.00002172
     atom   16 type  2   force =    -0.00002142    0.00002684   -0.00000501
     atom   17 type  2   force =    -0.00001182    0.00003717    0.00000822
     atom   18 type  2   force =    -0.00002096    0.00002253    0.00000740
     atom   19 type  2   force =    -0.00000902   -0.00000251   -0.00001048
     atom   20 type  2   force =     0.00001766    0.00002023    0.00000803
     atom   21 type  2   force =     0.00002375    0.00001578   -0.00000140
     atom   22 type  2   force =    -0.00000573    0.00001962    0.00001557
     atom   23 type  2   force =     0.00000353    0.00000770    0.00002244
     atom   24 type  2   force =    -0.00002392    0.00003327    0.00000616
     atom   25 type  2   force =    -0.00001651    0.00002600   -0.00000758
     atom   26 type  2   force =    -0.00001832    0.00001169   -0.00000656
     atom   27 type  2   force =    -0.00001060   -0.00000650    0.00000387
     atom   28 type  2   force =    -0.00000170    0.00001947   -0.00000753
     atom   29 type  2   force =     0.00001038    0.00002397    0.00000019
     atom   30 type  2   force =    -0.00000161    0.00001914   -0.00001414
     atom   31 type  2   force =     0.00001314   -0.00000274   -0.00001295
     atom   32 type  2   force =     0.00001158   -0.00000874    0.00001724
     atom   33 type  2   force =     0.00000046   -0.00002344    0.00000968
     atom   34 type  2   force =     0.00000669   -0.00001542    0.00000778
     atom   35 type  2   force =    -0.00001065    0.00001144    0.00000807
     atom   36 type  2   force =    -0.00001038   -0.00003526    0.00001015
     atom   37 type  2   force =    -0.00002933   -0.00005144    0.00001228
     atom   38 type  2   force =    -0.00001126   -0.00001276   -0.00000906
     atom   39 type  2   force =    -0.00003030    0.00001654   -0.00001652
     atom   40 type  2   force =     0.00001851   -0.00001526   -0.00001835
     atom   41 type  2   force =     0.00001392   -0.00001378   -0.00000812
     atom   42 type  2   force =     0.00002902   -0.00001225   -0.00000781
     atom   43 type  2   force =     0.00002228   -0.00000302   -0.00000679
     atom   44 type  2   force =     0.00000248   -0.00000755   -0.00000782
     atom   45 type  2   force =    -0.00002034   -0.00001424   -0.00000945
     atom   46 type  2   force =    -0.00001779   -0.00001262    0.00001193
     atom   47 type  2   force =    -0.00002703    0.00000749    0.00001223
     atom   48 type  2   force =     0.00002099    0.00001038    0.00001442
     atom   49 type  2   force =     0.00001404    0.00002370    0.00002311
     atom   50 type  2   force =     0.00002328    0.00001678    0.00001211
     atom   51 type  2   force =     0.00001861   -0.00001048   -0.00000389
     atom   52 type  2   force =    -0.00001683    0.00003870    0.00000825
     atom   53 type  2   force =    -0.00002662    0.00004504    0.00000275
     atom   54 type  2   force =     0.00000752    0.00001339    0.00001904
     atom   55 type  2   force =    -0.00001433   -0.00001439    0.00001936
     atom   56 type  2   force =     0.00002265    0.00001338   -0.00001309
     atom   57 type  2   force =     0.00001594    0.00001327   -0.00002292
     atom   58 type  2   force =     0.00001563    0.00001166   -0.00001316
     atom   59 type  2   force =     0.00001368    0.00000308    0.00000131
     atom   60 type  2   force =     0.00000211    0.00000446   -0.00001081
     atom   61 type  2   force =    -0.00000999    0.00001564   -0.00000197
     atom   62 type  2   force =    -0.00000045    0.00001174   -0.00002136
     atom   63 type  2   force =    -0.00001343   -0.00000618   -0.00001923

     Total force =     0.127293     Total SCF correction =     0.000230

     Writing all to output data dir ./pwscf.save/ :
     XML data file, charge density, pseudopotentials, collected wavefunctions
 
     init_run     :      0.62s CPU      1.05s WALL (       1 calls)
     electrons    :     11.04s CPU     11.30s WALL (       1 calls)
     forces       :      4.50s CPU      4.52s WALL (       1 calls)

     Called by init_run:
     wfcinit      :      0.18s CPU      0.26s WALL (       1 calls)
     wfcinit:wfcr :      0.17s CPU      0.24s WALL (       1 calls)
     potinit      :      0.24s CPU      0.26s WALL (       1 calls)
     hinit0       :      0.05s CPU      0.38s WALL (       1 calls)

     Called by electrons:
     c_bands      :      9.19s CPU      9.41s WALL (      14 calls)
     sum_band     :      0.84s CPU      0.84s WALL (      14 calls)
     v_of_rho     :      0.23s CPU      0.24s WALL (      15 calls)
     v_h          :      0.00s CPU      0.01s WALL (      15 calls)
     v_xc         :      0.22s CPU      0.23s WALL (      15 calls)
     mix_rho      :      0.33s CPU      0.33s WALL (      14 calls)

     Called by c_bands:
     init_us_2    :      0.02s CPU      0.02s WALL (      30 calls)
     regterg      :      6.83s CPU      7.04s WALL (      14 calls)

     Called by sum_band:
     sum_band:wei :      0.04s CPU      0.04s WALL (      14 calls)
     sum_band:loo :      0.73s CPU      0.73s WALL (      14 calls)
     sum_band:buf :      0.00s CPU      0.00s WALL (      14 calls)
     sum_band:ini :      0.01s CPU      0.01s WALL (      14 calls)

     Called by *egterg:
     rdiaghg      :      3.90s CPU      4.11s WALL (     271 calls)
     regterg:over :      0.40s CPU      0.41s WALL (     257 calls)
     regterg:upda :      0.20s CPU      0.20s WALL (     257 calls)
     regterg:last :      0.16s CPU      0.16s WALL (      53 calls)
     rdiaghg:chol :      0.13s CPU      0.15s WALL (     271 calls)
     rdiaghg:inve :      0.03s CPU      0.05s WALL (     271 calls)
     rdiaghg:para :      0.39s CPU      0.43s WALL (     542 calls)
     h_psi        :      2.20s CPU      2.24s WALL (     272 calls)
     g_psi        :      0.00s CPU      0.00s WALL (     257 calls)

     Called by h_psi:
     h_psi:calbec :      0.64s CPU      0.66s WALL (     272 calls)
     vloc_psi     :      1.45s CPU      1.47s WALL (     272 calls)
                                        0.00s GPU  (     272 calls)
     add_vuspsi   :      0.11s CPU      0.11s WALL (     272 calls)

     General routines
     calbec       :      0.66s CPU      0.68s WALL (     276 calls)
     fft          :      0.15s CPU      0.46s WALL (     196 calls)
     ffts         :      0.03s CPU      0.03s WALL (      14 calls)
     fftw         :      2.06s CPU      2.09s WALL (   10152 calls)
 
     Parallel routines
 
     PWSCF        :     17.42s CPU     18.88s WALL

 
   This run was terminated on:  15:24:30  16Nov2025            

=------------------------------------------------------------------------------=
   JOB DONE.
=------------------------------------------------------------------------------=
