
     Program PWSCF v.7.5 starts on 16Nov2025 at 17: 8:21 

     This program is part of the open-source Quantum ESPRESSO suite
     for quantum simulation of materials; please cite
         "P. Giannozzi et al., J. Phys.:Condens. Matter 21 395502 (2009);
         "P. Giannozzi et al., J. Phys.:Condens. Matter 29 465901 (2017);
         "P. Giannozzi et al., J. Chem. Phys. 152 154105 (2020);
          URL http://www.quantum-espresso.org", 
     in publications or presentations arising from this work. More details at
     http://www.quantum-espresso.org/quote

     Parallel version (MPI), running on    96 processors

     MPI processes distributed on     2 nodes
     174208 MiB available memory on the printing compute node when the environment starts
 
     Reading input from supercell-331.in

     Current dimensions of program PWSCF are:
     Max number of different atomic species (ntypx) = 10
     Max number of k-points (npk) =  40000
     Max angular momentum in pseudopotentials (lmaxx) =  4

     gamma-point specific algorithms are used
 
     K-points division:     npool     =       2
     R & G space division:  proc/nbgrp/npool/nimage =      48
     Subspace diagonalization in iterative solution of the eigenvalue problem:
     one sub-group per band group will be used
     scalapack distributed-memory algorithm (size of sub-group:  2*  2 procs)

 
     Parallelization info
     --------------------
     sticks:   dense  smooth     PW     G-vecs:    dense   smooth      PW
     Min          59      59     14                 2432     2432     302
     Max          62      62     16                 2442     2442     316
     Sum        2885    2885    725               116921   116921   14771
 
     Using Slab Decomposition
 


     bravais-lattice index     =            0
     lattice parameter (alat)  =      13.4813  a.u.
     unit-cell volume          =    2450.1683 (a.u.)^3
     number of atoms/cell      =           63
     number of atomic types    =            2
     number of electrons       =       254.00 (up: 128.00, down: 126.00)
     number of Kohn-Sham states=          152
     kinetic-energy cutoff     =      50.0000  Ry
     charge density cutoff     =     200.0000  Ry
     scf convergence threshold =      1.0E-08
     mixing beta               =       0.7000
     number of iterations used =            8  plain     mixing
     Exchange-correlation= PBE
                           (   1   4   3   4   0   0   0)

     celldm(1)=  13.481306  celldm(2)=   0.000000  celldm(3)=   0.000000
     celldm(4)=   0.000000  celldm(5)=   0.000000  celldm(6)=   0.000000

     crystal axes: (cart. coord. in units of alat)
               a(1) = (   1.000000   0.000000   0.000000 )  
               a(2) = (   0.000000   1.000000   0.000000 )  
               a(3) = (   0.000000   0.000000   1.000000 )  

     reciprocal axes: (cart. coord. in units 2 pi/alat)
               b(1) = (  1.000000  0.000000  0.000000 )  
               b(2) = (  0.000000  1.000000  0.000000 )  
               b(3) = (  0.000000  0.000000  1.000000 )  


     PseudoPot. # 1 for N  read from file:
     ./N_ONCV_PBE-1.2.upf
     MD5 check sum: 5312fdf34e96954e02a33bdc911c617a
     Pseudo is Norm-conserving, Zval =  5.0
     Generated using ONCVPSP code by D. R. Hamann
     Using radial grid of  602 points,  4 beta functions with: 
                l(1) =   0
                l(2) =   0
                l(3) =   1
                l(4) =   1

     PseudoPot. # 2 for C  read from file:
     ./C_ONCV_PBE-1.2.upf
     MD5 check sum: d60b57d9bdca4133f5fde4b584ee909d
     Pseudo is Norm-conserving, Zval =  4.0
     Generated using ONCVPSP code by D. R. Hamann
     Using radial grid of  602 points,  4 beta functions with: 
                l(1) =   0
                l(2) =   0
                l(3) =   1
                l(4) =   1

     atomic species   valence    mass     pseudopotential
     N                 5.00    14.00670     N ( 1.00)
     C                 4.00    12.01070     C ( 1.00)

     Starting magnetic structure 
     atomic species   magnetization
     N               0.000
     C               0.000

     No symmetry found


                                    s                        frac. trans.

      isym =  1     identity                                     

 cryst.   s( 1) = (     1          0          0      )
                  (     0          1          0      )
                  (     0          0          1      )

 cart.    s( 1) = (  1.0000000  0.0000000  0.0000000 )
                  (  0.0000000  1.0000000  0.0000000 )
                  (  0.0000000  0.0000000  1.0000000 )


   Cartesian axes

     site n.     atom                  positions (alat units)
         1        N      tau(   1) = (   0.9893819   0.9897344   0.9891721  )
         2        C      tau(   2) = (   0.9870277   0.2601210   0.2640728  )
         3        C      tau(   3) = (   0.1231717   0.3731672   0.3742038  )
         4        C      tau(   4) = (   0.2603919   0.9894620   0.2619202  )
         5        C      tau(   5) = (   0.3737632   0.1246771   0.3741571  )
         6        C      tau(   6) = (   0.2640151   0.2616009   0.9853609  )
         7        C      tau(   7) = (   0.3737752   0.3731213   0.1223564  )
         8        C      tau(   8) = (   0.0000049   0.0005840   0.4991361  )
         9        C      tau(   9) = (   0.1251361   0.1251278   0.6250981  )
        10        C      tau(  10) = (   0.0020393   0.2482470   0.7515266  )
        11        C      tau(  11) = (   0.1292009   0.3733021   0.8763303  )
        12        C      tau(  12) = (   0.2487801   0.0017974   0.7514403  )
        13        C      tau(  13) = (   0.3754339   0.1292460   0.8748544  )
        14        C      tau(  14) = (   0.2491579   0.2495268   0.4995755  )
        15        C      tau(  15) = (   0.3750038   0.3749547   0.6244069  )
        16        C      tau(  16) = (   0.0016366   0.4979779   0.0013734  )
        17        C      tau(  17) = (   0.1250869   0.6243147   0.1250807  )
        18        C      tau(  18) = (   0.0014462   0.7520697   0.2483230  )
        19        C      tau(  19) = (   0.1266755   0.8769178   0.3741906  )
        20        C      tau(  20) = (   0.2488290   0.4983596   0.2486760  )
        21        C      tau(  21) = (   0.3741642   0.6242659   0.3742111  )
        22        C      tau(  22) = (   0.2480673   0.7520817   0.0015447  )
        23        C      tau(  23) = (   0.3729914   0.8777475   0.1265606  )
        24        C      tau(  24) = (   0.0000493   0.5010760   0.5011299  )
        25        C      tau(  25) = (   0.1252054   0.6262200   0.6252733  )
        26        C      tau(  26) = (   0.9993969   0.7487112   0.7492532  )
        27        C      tau(  27) = (   0.1217927   0.8768349   0.8763928  )
        28        C      tau(  28) = (   0.2492749   0.5017254   0.7482724  )
        29        C      tau(  29) = (   0.3741000   0.6263042   0.8750769  )
        30        C      tau(  30) = (   0.2487293   0.7486845   0.5007616  )
        31        C      tau(  31) = (   0.3739266   0.8750581   0.6258828  )
        32        C      tau(  32) = (   0.4987543   0.0011228   0.0002828  )
        33        C      tau(  33) = (   0.6248203   0.1251003   0.1251034  )
        34        C      tau(  34) = (   0.4991217   0.2493918   0.2488717  )
        35        C      tau(  35) = (   0.6243080   0.3746888   0.3747831  )
        36        C      tau(  36) = (   0.7516460   0.0016191   0.2487956  )
        37        C      tau(  37) = (   0.8750430   0.1283649   0.3757598  )
        38        C      tau(  38) = (   0.7517475   0.2480080   0.0019610  )
        39        C      tau(  39) = (   0.8773622   0.3724247   0.1282033  )
        40        C      tau(  40) = (   0.5008161   0.9999897   0.5008301  )
        41        C      tau(  41) = (   0.6256173   0.1249721   0.6252590  )
        42        C      tau(  42) = (   0.5022259   0.2488088   0.7478265  )
        43        C      tau(  43) = (   0.6264784   0.3739683   0.8752045  )
        44        C      tau(  44) = (   0.7487945   0.9989046   0.7489691  )
        45        C      tau(  45) = (   0.8764746   0.1216998   0.8763156  )
        46        C      tau(  46) = (   0.7479635   0.2486819   0.5018806  )
        47        C      tau(  47) = (   0.8751980   0.3739245   0.6263738  )
        48        C      tau(  48) = (   0.5012000   0.5011574   0.0001136  )
        49        C      tau(  49) = (   0.6256259   0.6262099   0.1252968  )
        50        C      tau(  50) = (   0.5005188   0.7489091   0.2490095  )
        51        C      tau(  51) = (   0.6258050   0.8750157   0.3740056  )
        52        C      tau(  52) = (   0.7486304   0.5011458   0.2494302  )
        53        C      tau(  53) = (   0.8750247   0.6261269   0.3741365  )
        54        C      tau(  54) = (   0.7492281   0.7488562   0.9996087  )
        55        C      tau(  55) = (   0.8766209   0.8769033   0.1218021  )
        56        C      tau(  56) = (   0.5005654   0.4992903   0.4990317  )
        57        C      tau(  57) = (   0.6247789   0.6244471   0.6249452  )
        58        C      tau(  58) = (   0.4991767   0.7499842   0.7500845  )
        59        C      tau(  59) = (   0.6239946   0.8751464   0.8754130  )
        60        C      tau(  60) = (   0.7505316   0.4989321   0.7505826  )
        61        C      tau(  61) = (   0.8758455   0.6234984   0.8759288  )
        62        C      tau(  62) = (   0.7498244   0.7497799   0.4993198  )
        63        C      tau(  63) = (   0.8750855   0.8749084   0.6242568  )

   Crystallographic axes

     site n.     atom                  positions (cryst. coord.)
         1        N      tau(   1) = (  0.9893819  0.9897344  0.9891721  )
         2        C      tau(   2) = (  0.9870277  0.2601210  0.2640728  )
         3        C      tau(   3) = (  0.1231717  0.3731672  0.3742038  )
         4        C      tau(   4) = (  0.2603919  0.9894620  0.2619202  )
         5        C      tau(   5) = (  0.3737632  0.1246771  0.3741571  )
         6        C      tau(   6) = (  0.2640151  0.2616009  0.9853609  )
         7        C      tau(   7) = (  0.3737752  0.3731213  0.1223564  )
         8        C      tau(   8) = (  0.0000049  0.0005840  0.4991361  )
         9        C      tau(   9) = (  0.1251361  0.1251278  0.6250981  )
        10        C      tau(  10) = (  0.0020393  0.2482470  0.7515266  )
        11        C      tau(  11) = (  0.1292009  0.3733021  0.8763303  )
        12        C      tau(  12) = (  0.2487801  0.0017974  0.7514403  )
        13        C      tau(  13) = (  0.3754339  0.1292460  0.8748544  )
        14        C      tau(  14) = (  0.2491579  0.2495268  0.4995755  )
        15        C      tau(  15) = (  0.3750038  0.3749547  0.6244069  )
        16        C      tau(  16) = (  0.0016366  0.4979779  0.0013734  )
        17        C      tau(  17) = (  0.1250869  0.6243147  0.1250807  )
        18        C      tau(  18) = (  0.0014462  0.7520697  0.2483230  )
        19        C      tau(  19) = (  0.1266755  0.8769178  0.3741906  )
        20        C      tau(  20) = (  0.2488290  0.4983596  0.2486760  )
        21        C      tau(  21) = (  0.3741642  0.6242659  0.3742111  )
        22        C      tau(  22) = (  0.2480673  0.7520817  0.0015447  )
        23        C      tau(  23) = (  0.3729914  0.8777475  0.1265606  )
        24        C      tau(  24) = (  0.0000493  0.5010760  0.5011299  )
        25        C      tau(  25) = (  0.1252054  0.6262200  0.6252733  )
        26        C      tau(  26) = (  0.9993969  0.7487112  0.7492532  )
        27        C      tau(  27) = (  0.1217927  0.8768349  0.8763928  )
        28        C      tau(  28) = (  0.2492749  0.5017254  0.7482724  )
        29        C      tau(  29) = (  0.3741000  0.6263042  0.8750769  )
        30        C      tau(  30) = (  0.2487293  0.7486845  0.5007616  )
        31        C      tau(  31) = (  0.3739266  0.8750581  0.6258828  )
        32        C      tau(  32) = (  0.4987543  0.0011228  0.0002828  )
        33        C      tau(  33) = (  0.6248203  0.1251003  0.1251034  )
        34        C      tau(  34) = (  0.4991217  0.2493918  0.2488717  )
        35        C      tau(  35) = (  0.6243080  0.3746888  0.3747831  )
        36        C      tau(  36) = (  0.7516460  0.0016191  0.2487956  )
        37        C      tau(  37) = (  0.8750430  0.1283649  0.3757598  )
        38        C      tau(  38) = (  0.7517475  0.2480080  0.0019610  )
        39        C      tau(  39) = (  0.8773622  0.3724247  0.1282033  )
        40        C      tau(  40) = (  0.5008161  0.9999897  0.5008301  )
        41        C      tau(  41) = (  0.6256173  0.1249721  0.6252590  )
        42        C      tau(  42) = (  0.5022259  0.2488088  0.7478265  )
        43        C      tau(  43) = (  0.6264784  0.3739683  0.8752045  )
        44        C      tau(  44) = (  0.7487945  0.9989046  0.7489691  )
        45        C      tau(  45) = (  0.8764746  0.1216998  0.8763156  )
        46        C      tau(  46) = (  0.7479635  0.2486819  0.5018806  )
        47        C      tau(  47) = (  0.8751980  0.3739245  0.6263738  )
        48        C      tau(  48) = (  0.5012000  0.5011574  0.0001136  )
        49        C      tau(  49) = (  0.6256259  0.6262099  0.1252968  )
        50        C      tau(  50) = (  0.5005188  0.7489091  0.2490095  )
        51        C      tau(  51) = (  0.6258050  0.8750157  0.3740056  )
        52        C      tau(  52) = (  0.7486304  0.5011458  0.2494302  )
        53        C      tau(  53) = (  0.8750247  0.6261269  0.3741365  )
        54        C      tau(  54) = (  0.7492281  0.7488562  0.9996087  )
        55        C      tau(  55) = (  0.8766209  0.8769033  0.1218021  )
        56        C      tau(  56) = (  0.5005654  0.4992903  0.4990317  )
        57        C      tau(  57) = (  0.6247789  0.6244471  0.6249452  )
        58        C      tau(  58) = (  0.4991767  0.7499842  0.7500845  )
        59        C      tau(  59) = (  0.6239946  0.8751464  0.8754130  )
        60        C      tau(  60) = (  0.7505316  0.4989321  0.7505826  )
        61        C      tau(  61) = (  0.8758455  0.6234984  0.8759288  )
        62        C      tau(  62) = (  0.7498244  0.7497799  0.4993198  )
        63        C      tau(  63) = (  0.8750855  0.8749084  0.6242568  )

     number of k points=     1
                       cart. coord. in units 2pi/alat
        k(    1) = (   0.0000000   0.0000000   0.0000000), wk =   1.0000000

                       cryst. coord.
        k(    1) = (   0.0000000   0.0000000   0.0000000), wk =   1.0000000

     Dense  grid:    58461 G-vectors     FFT dimensions: (  64,  64,  64)

     Dynamical RAM for                 wfc:       0.35 MB

     Dynamical RAM for     wfc (w. buffer):       0.35 MB

     Dynamical RAM for           str. fact:       0.04 MB

     Dynamical RAM for           local pot:       0.00 MB

     Dynamical RAM for          nlocal pot:       1.17 MB

     Dynamical RAM for                qrad:       0.65 MB

     Dynamical RAM for          rho,v,vnew:       0.49 MB

     Dynamical RAM for               rhoin:       0.16 MB

     Dynamical RAM for            rho*nmix:       0.60 MB

     Dynamical RAM for           G-vectors:       0.08 MB

     Dynamical RAM for          h,s,v(r/c):       0.53 MB

     Dynamical RAM for          <psi|beta>:       0.58 MB

     Dynamical RAM for                 psi:       0.71 MB

     Dynamical RAM for                hpsi:       0.71 MB

     Dynamical RAM for      wfcinit/wfcrot:       1.24 MB

     Estimated static dynamical RAM per process >       3.37 MB

     Estimated max dynamical RAM per process >       6.49 MB

     Estimated total dynamical RAM >     594.05 MB
     Generating pointlists ...
     new r_m :   0.0854 (alat units)  1.1518 (a.u.) for type    1
     new r_m :   0.0847 (alat units)  1.1416 (a.u.) for type    2

     Initial potential from superposition of free atoms

     starting charge     252.5655, renormalised to     254.0000
     Starting wfcs are random

     total cpu time spent up to now is        1.1 secs

     Self-consistent Calculation

     iteration #  1     ecut=    50.00 Ry     beta= 0.70
     Davidson diagonalization with overlap

---- Real-time Memory Report at c_bands before calling an iterative solver
           160 MiB given to the printing process from OS
             0 MiB allocation reported by mallinfo(arena+hblkhd)
        173235 MiB available memory on the node where the printing process lives
------------------
     ethr =  1.00E-02,  avg # of iterations = 12.0

     total cpu time spent up to now is        1.8 secs

     total energy              =    -723.26353193 Ry
     estimated scf accuracy    <       3.70709616 Ry

     total magnetization       =     2.00 Bohr mag/cell
     absolute magnetization    =     2.00 Bohr mag/cell

     iteration #  2     ecut=    50.00 Ry     beta= 0.70
     Davidson diagonalization with overlap

---- Real-time Memory Report at c_bands before calling an iterative solver
           165 MiB given to the printing process from OS
             0 MiB allocation reported by mallinfo(arena+hblkhd)
        173180 MiB available memory on the node where the printing process lives
------------------
     ethr =  1.46E-03,  avg # of iterations = 12.0

     total cpu time spent up to now is        2.4 secs

     total energy              =    -723.65913871 Ry
     estimated scf accuracy    <       0.46007195 Ry

     total magnetization       =     2.00 Bohr mag/cell
     absolute magnetization    =     2.07 Bohr mag/cell

     iteration #  3     ecut=    50.00 Ry     beta= 0.70
     Davidson diagonalization with overlap

---- Real-time Memory Report at c_bands before calling an iterative solver
           166 MiB given to the printing process from OS
             0 MiB allocation reported by mallinfo(arena+hblkhd)
        173180 MiB available memory on the node where the printing process lives
------------------
     c_bands:  2 eigenvalues not converged
     ethr =  1.81E-04,  avg # of iterations = 20.0

     total cpu time spent up to now is        2.8 secs

     total energy              =    -723.72567190 Ry
     estimated scf accuracy    <       0.87260259 Ry

     total magnetization       =     2.00 Bohr mag/cell
     absolute magnetization    =     2.12 Bohr mag/cell

     iteration #  4     ecut=    50.00 Ry     beta= 0.70
     Davidson diagonalization with overlap

---- Real-time Memory Report at c_bands before calling an iterative solver
           166 MiB given to the printing process from OS
             0 MiB allocation reported by mallinfo(arena+hblkhd)
        173180 MiB available memory on the node where the printing process lives
------------------
     c_bands:  1 eigenvalues not converged
     ethr =  1.81E-04,  avg # of iterations = 20.0

     total cpu time spent up to now is        3.4 secs

     total energy              =    -723.90116903 Ry
     estimated scf accuracy    <       0.00973416 Ry

     total magnetization       =     2.00 Bohr mag/cell
     absolute magnetization    =     2.19 Bohr mag/cell

     iteration #  5     ecut=    50.00 Ry     beta= 0.70
     Davidson diagonalization with overlap

---- Real-time Memory Report at c_bands before calling an iterative solver
           166 MiB given to the printing process from OS
             0 MiB allocation reported by mallinfo(arena+hblkhd)
        173173 MiB available memory on the node where the printing process lives
------------------
     c_bands:  3 eigenvalues not converged
     ethr =  3.83E-06,  avg # of iterations = 20.0

     total cpu time spent up to now is        4.4 secs

     total energy              =    -723.90616919 Ry
     estimated scf accuracy    <       0.00404725 Ry

     total magnetization       =     2.00 Bohr mag/cell
     absolute magnetization    =     2.23 Bohr mag/cell

     iteration #  6     ecut=    50.00 Ry     beta= 0.70
     Davidson diagonalization with overlap

---- Real-time Memory Report at c_bands before calling an iterative solver
           167 MiB given to the printing process from OS
             0 MiB allocation reported by mallinfo(arena+hblkhd)
        173171 MiB available memory on the node where the printing process lives
------------------
     c_bands:  3 eigenvalues not converged
     ethr =  1.59E-06,  avg # of iterations = 20.0

     total cpu time spent up to now is        5.0 secs

     total energy              =    -723.90691569 Ry
     estimated scf accuracy    <       0.00084936 Ry

     total magnetization       =     2.00 Bohr mag/cell
     absolute magnetization    =     2.25 Bohr mag/cell

     iteration #  7     ecut=    50.00 Ry     beta= 0.70
     Davidson diagonalization with overlap

---- Real-time Memory Report at c_bands before calling an iterative solver
           167 MiB given to the printing process from OS
             0 MiB allocation reported by mallinfo(arena+hblkhd)
        173166 MiB available memory on the node where the printing process lives
------------------
     c_bands:  1 eigenvalues not converged
     ethr =  3.34E-07,  avg # of iterations = 19.5

     total cpu time spent up to now is        5.5 secs

     total energy              =    -723.90713797 Ry
     estimated scf accuracy    <       0.00011856 Ry

     total magnetization       =     2.00 Bohr mag/cell
     absolute magnetization    =     2.27 Bohr mag/cell

     iteration #  8     ecut=    50.00 Ry     beta= 0.70
     Davidson diagonalization with overlap

---- Real-time Memory Report at c_bands before calling an iterative solver
           167 MiB given to the printing process from OS
             0 MiB allocation reported by mallinfo(arena+hblkhd)
        173169 MiB available memory on the node where the printing process lives
------------------
     c_bands:  1 eigenvalues not converged
     ethr =  4.67E-08,  avg # of iterations = 20.0

     total cpu time spent up to now is        6.8 secs

     total energy              =    -723.90717736 Ry
     estimated scf accuracy    <       0.00002802 Ry

     total magnetization       =     2.00 Bohr mag/cell
     absolute magnetization    =     2.28 Bohr mag/cell

     iteration #  9     ecut=    50.00 Ry     beta= 0.70
     Davidson diagonalization with overlap

---- Real-time Memory Report at c_bands before calling an iterative solver
           167 MiB given to the printing process from OS
             0 MiB allocation reported by mallinfo(arena+hblkhd)
        173173 MiB available memory on the node where the printing process lives
------------------
     c_bands:  3 eigenvalues not converged
     ethr =  1.10E-08,  avg # of iterations = 20.0

     total cpu time spent up to now is        7.4 secs

     total energy              =    -723.90718758 Ry
     estimated scf accuracy    <       0.00000774 Ry

     total magnetization       =     2.00 Bohr mag/cell
     absolute magnetization    =     2.29 Bohr mag/cell

     iteration # 10     ecut=    50.00 Ry     beta= 0.70
     Davidson diagonalization with overlap

---- Real-time Memory Report at c_bands before calling an iterative solver
           167 MiB given to the printing process from OS
             0 MiB allocation reported by mallinfo(arena+hblkhd)
        173172 MiB available memory on the node where the printing process lives
------------------
     c_bands:  2 eigenvalues not converged
     ethr =  3.05E-09,  avg # of iterations = 20.0

     total cpu time spent up to now is        8.1 secs

     total energy              =    -723.90719110 Ry
     estimated scf accuracy    <       0.00000086 Ry

     total magnetization       =     2.00 Bohr mag/cell
     absolute magnetization    =     2.29 Bohr mag/cell

     iteration # 11     ecut=    50.00 Ry     beta= 0.70
     Davidson diagonalization with overlap

---- Real-time Memory Report at c_bands before calling an iterative solver
           167 MiB given to the printing process from OS
             0 MiB allocation reported by mallinfo(arena+hblkhd)
        173179 MiB available memory on the node where the printing process lives
------------------
     c_bands:  1 eigenvalues not converged
     ethr =  3.39E-10,  avg # of iterations = 20.0

     total cpu time spent up to now is        9.0 secs

     total energy              =    -723.90719173 Ry
     estimated scf accuracy    <       0.00000025 Ry

     total magnetization       =     2.00 Bohr mag/cell
     absolute magnetization    =     2.30 Bohr mag/cell

     iteration # 12     ecut=    50.00 Ry     beta= 0.70
     Davidson diagonalization with overlap

---- Real-time Memory Report at c_bands before calling an iterative solver
           167 MiB given to the printing process from OS
             0 MiB allocation reported by mallinfo(arena+hblkhd)
        173177 MiB available memory on the node where the printing process lives
------------------
     c_bands:  1 eigenvalues not converged
     ethr =  9.65E-11,  avg # of iterations = 18.0

     total cpu time spent up to now is        9.6 secs

     total energy              =    -723.90719186 Ry
     estimated scf accuracy    <       0.00000009 Ry

     total magnetization       =     2.00 Bohr mag/cell
     absolute magnetization    =     2.30 Bohr mag/cell

     iteration # 13     ecut=    50.00 Ry     beta= 0.70
     Davidson diagonalization with overlap

---- Real-time Memory Report at c_bands before calling an iterative solver
           167 MiB given to the printing process from OS
             0 MiB allocation reported by mallinfo(arena+hblkhd)
        173178 MiB available memory on the node where the printing process lives
------------------
     ethr =  3.71E-11,  avg # of iterations = 19.0

     total cpu time spent up to now is       10.1 secs

     total energy              =    -723.90719190 Ry
     estimated scf accuracy    <       0.00000003 Ry

     total magnetization       =     2.00 Bohr mag/cell
     absolute magnetization    =     2.30 Bohr mag/cell

     iteration # 14     ecut=    50.00 Ry     beta= 0.70
     Davidson diagonalization with overlap

---- Real-time Memory Report at c_bands before calling an iterative solver
           168 MiB given to the printing process from OS
             0 MiB allocation reported by mallinfo(arena+hblkhd)
        173178 MiB available memory on the node where the printing process lives
------------------
     ethr =  1.07E-11,  avg # of iterations = 18.0
 
     Magnetic moment per site  (integrated on atomic sphere of radius R)
     atom   1 (R=0.085)  charge=  2.9143  magn=  0.0042
     atom   2 (R=0.085)  charge=  1.8170  magn=  0.2449
     atom   3 (R=0.085)  charge=  1.7930  magn= -0.0087
     atom   4 (R=0.085)  charge=  1.8051  magn=  0.2455
     atom   5 (R=0.085)  charge=  1.7932  magn= -0.0087
     atom   6 (R=0.085)  charge=  1.8232  magn=  0.2449
     atom   7 (R=0.085)  charge=  1.7933  magn= -0.0087
     atom   8 (R=0.085)  charge=  1.7860  magn=  0.0091
     atom   9 (R=0.085)  charge=  1.7963  magn= -0.0019
     atom  10 (R=0.085)  charge=  1.7834  magn=  0.0060
     atom  11 (R=0.085)  charge=  1.7969  magn= -0.0042
     atom  12 (R=0.085)  charge=  1.7823  magn=  0.0061
     atom  13 (R=0.085)  charge=  1.8040  magn= -0.0039
     atom  14 (R=0.085)  charge=  1.7891  magn=  0.0085
     atom  15 (R=0.085)  charge=  1.7853  magn= -0.0020
     atom  16 (R=0.085)  charge=  1.7820  magn=  0.0089
     atom  17 (R=0.085)  charge=  1.7956  magn= -0.0018
     atom  18 (R=0.085)  charge=  1.7822  magn=  0.0057
     atom  19 (R=0.085)  charge=  1.7952  magn= -0.0035
     atom  20 (R=0.085)  charge=  1.7833  magn=  0.0083
     atom  21 (R=0.085)  charge=  1.7827  magn= -0.0020
     atom  22 (R=0.085)  charge=  1.7829  magn=  0.0057
     atom  23 (R=0.085)  charge=  1.7905  magn= -0.0037
     atom  24 (R=0.085)  charge=  1.7825  magn=  0.0182
     atom  25 (R=0.085)  charge=  1.8067  magn=  0.0094
     atom  26 (R=0.085)  charge=  1.7935  magn=  0.0032
     atom  27 (R=0.085)  charge=  1.7589  magn=  0.0001
     atom  28 (R=0.085)  charge=  1.7895  magn=  0.0221
     atom  29 (R=0.085)  charge=  1.7824  magn= -0.0014
     atom  30 (R=0.085)  charge=  1.7900  magn=  0.0211
     atom  31 (R=0.085)  charge=  1.7823  magn= -0.0013
     atom  32 (R=0.085)  charge=  1.7844  magn=  0.0090
     atom  33 (R=0.085)  charge=  1.7959  magn= -0.0019
     atom  34 (R=0.085)  charge=  1.7868  magn=  0.0084
     atom  35 (R=0.085)  charge=  1.7884  magn= -0.0020
     atom  36 (R=0.085)  charge=  1.7818  magn=  0.0059
     atom  37 (R=0.085)  charge=  1.8033  magn= -0.0036
     atom  38 (R=0.085)  charge=  1.7836  magn=  0.0058
     atom  39 (R=0.085)  charge=  1.7914  magn= -0.0041
     atom  40 (R=0.085)  charge=  1.7835  magn=  0.0181
     atom  41 (R=0.085)  charge=  1.8109  magn=  0.0094
     atom  42 (R=0.085)  charge=  1.7948  magn=  0.0218
     atom  43 (R=0.085)  charge=  1.7819  magn= -0.0013
     atom  44 (R=0.085)  charge=  1.7936  magn=  0.0032
     atom  45 (R=0.085)  charge=  1.7589  magn= -0.0000
     atom  46 (R=0.085)  charge=  1.7949  magn=  0.0215
     atom  47 (R=0.085)  charge=  1.7819  magn= -0.0013
     atom  48 (R=0.085)  charge=  1.7819  magn=  0.0184
     atom  49 (R=0.085)  charge=  1.8043  magn=  0.0094
     atom  50 (R=0.085)  charge=  1.7874  magn=  0.0212
     atom  51 (R=0.085)  charge=  1.7825  magn= -0.0013
     atom  52 (R=0.085)  charge=  1.7870  magn=  0.0218
     atom  53 (R=0.085)  charge=  1.7826  magn= -0.0013
     atom  54 (R=0.085)  charge=  1.7935  magn=  0.0032
     atom  55 (R=0.085)  charge=  1.7588  magn=  0.0001
     atom  56 (R=0.085)  charge=  1.7919  magn=  0.0009
     atom  57 (R=0.085)  charge=  1.7850  magn=  0.0010
     atom  58 (R=0.085)  charge=  1.7913  magn=  0.0018
     atom  59 (R=0.085)  charge=  1.7879  magn= -0.0009
     atom  60 (R=0.085)  charge=  1.7912  magn=  0.0017
     atom  61 (R=0.085)  charge=  1.7855  magn= -0.0009
     atom  62 (R=0.085)  charge=  1.7914  magn=  0.0019
     atom  63 (R=0.085)  charge=  1.7891  magn= -0.0009

     total cpu time spent up to now is       11.0 secs

     End of self-consistent calculation

 ------ SPIN UP ------------


          k = 0.0000 0.0000 0.0000 (  7386 PWs)   bands (ev):

    -8.5510  -6.9222  -6.2858  -6.2701  -6.1944  -6.1577  -5.8837  -4.9097
    -4.1432  -4.1292  -4.1241  -4.0928  -4.0307  -4.0196  -4.0121  -3.9182
    -3.8733  -3.8612  -3.3636  -2.9308  -2.6757  -2.6729  -2.1609  -0.3624
    -0.3542  -0.3258  -0.2843  -0.0763   0.1723   0.1930   0.2819   0.2970
     0.3645   0.6150   0.8363   0.8479   0.9530   0.9729   0.9874   1.0543
     1.0633   1.0646   1.2669   1.2958   3.0713   3.9078   3.9283   4.0630
     4.1898   4.2076   4.2217   4.2752   4.2794   4.2863   4.4214   4.4250
     4.4974   4.5016   4.5671   4.6612   4.6838   4.6898   4.6919   4.7864
     4.7962   4.9221   4.9656   4.9693   5.0489   5.2017   5.2114   5.3006
     5.3582   5.3727   5.3966   5.4032   5.4082   6.0421   6.0478   6.1012
     6.6616   6.6660   6.7265   6.9909   7.0020   7.0337   7.5254   8.3308
     8.3459   8.4106   8.4668   8.4922   8.6874   8.7092   8.7889   8.8316
     8.8464   8.8522   8.8927   8.8993   8.9025   9.2860   9.2894   9.3158
     9.6861   9.7060   9.8996   9.9116   9.9439   9.9603   9.9618   9.9794
     9.9866  10.0269  10.0393  10.0484  10.1275  10.1418  10.2687  10.3297
    10.3311  11.0530  12.2850  12.4183  12.4347  13.9547  14.6919  14.7999
    17.3422  17.3753  17.4086  17.5243  17.5724  17.5793  17.8589  17.9221
    17.9356  18.0335  18.0679  18.3703  18.9939  19.0019  19.0232  20.6937
    20.7970  20.8247  20.8781  20.9371  20.9453  21.0232  21.0292  21.0536

     occupation numbers 
     1.0000   1.0000   1.0000   1.0000   1.0000   1.0000   1.0000   1.0000
     1.0000   1.0000   1.0000   1.0000   1.0000   1.0000   1.0000   1.0000
     1.0000   1.0000   1.0000   1.0000   1.0000   1.0000   1.0000   1.0000
     1.0000   1.0000   1.0000   1.0000   1.0000   1.0000   1.0000   1.0000
     1.0000   1.0000   1.0000   1.0000   1.0000   1.0000   1.0000   1.0000
     1.0000   1.0000   1.0000   1.0000   1.0000   1.0000   1.0000   1.0000
     1.0000   1.0000   1.0000   1.0000   1.0000   1.0000   1.0000   1.0000
     1.0000   1.0000   1.0000   1.0000   1.0000   1.0000   1.0000   1.0000
     1.0000   1.0000   1.0000   1.0000   1.0000   1.0000   1.0000   1.0000
     1.0000   1.0000   1.0000   1.0000   1.0000   1.0000   1.0000   1.0000
     1.0000   1.0000   1.0000   1.0000   1.0000   1.0000   1.0000   1.0000
     1.0000   1.0000   1.0000   1.0000   1.0000   1.0000   1.0000   1.0000
     1.0000   1.0000   1.0000   1.0000   1.0000   1.0000   1.0000   1.0000
     1.0000   1.0000   1.0000   1.0000   1.0000   1.0000   1.0000   1.0000
     1.0000   1.0000   1.0000   1.0000   1.0000   1.0000   1.0000   1.0000
     1.0000   1.0000   1.0000   1.0000   1.0000   1.0000   1.0000   1.0000
     0.0000   0.0000   0.0000   0.0000   0.0000   0.0000   0.0000   0.0000
     0.0000   0.0000   0.0000   0.0000   0.0000   0.0000   0.0000   0.0000
     0.0000   0.0000   0.0000   0.0000   0.0000   0.0000   0.0000   0.0000

 ------ SPIN DOWN ----------


          k = 0.0000 0.0000 0.0000 (  7386 PWs)   bands (ev):

    -8.5256  -6.9078  -6.2636  -6.2467  -6.1497  -6.1154  -5.8464  -4.8932
    -4.1226  -4.1064  -4.0842  -4.0600  -3.9956  -3.9814  -3.9640  -3.9060
    -3.8377  -3.8210  -3.3211  -2.9123  -2.6229  -2.6192  -2.0159  -0.3450
    -0.3361  -0.3042  -0.2672  -0.0109   0.1912   0.2105   0.3190   0.3302
     0.3899   0.6492   0.8485   0.8596   0.9868   1.0033   1.0125   1.0708
     1.0788   1.0818   1.4327   1.4659   3.1856   3.9310   3.9505   4.0889
     4.2245   4.2500   4.2644   4.2895   4.2981   4.3127   4.4705   4.4726
     4.5181   4.5210   4.5908   4.6851   4.7023   4.7061   4.7127   4.8208
     4.8330   4.9355   4.9984   5.0006   5.1306   5.2356   5.2464   5.3242
     5.3729   5.3836   5.4178   5.4547   5.4692   6.1045   6.1072   6.1393
     6.6881   6.6933   6.7608   7.0709   7.0856   7.0998   7.6959   8.3690
     8.3844   8.4477   8.5024   8.5271   8.7213   8.7405   8.8246   8.8763
     8.8831   8.8878   8.9235   8.9306   8.9334   9.3214   9.3262   9.3443
     9.7139   9.7334   9.9300   9.9399   9.9557   9.9738   9.9757   9.9989
    10.0071  10.0562  10.0689  10.0769  10.1554  10.1681  10.3264  10.3838
    10.3858  11.4324  12.5621  12.5651  12.6025  14.4377  16.0172  16.1402
    17.3675  17.3930  17.4257  17.5517  17.6276  17.6358  17.8817  17.9415
    17.9538  18.0734  18.1082  18.4898  19.0450  19.0776  19.1106  20.7441
    20.8113  20.8388  20.8928  20.9541  20.9622  21.0432  21.0574  21.0686

     occupation numbers 
     1.0000   1.0000   1.0000   1.0000   1.0000   1.0000   1.0000   1.0000
     1.0000   1.0000   1.0000   1.0000   1.0000   1.0000   1.0000   1.0000
     1.0000   1.0000   1.0000   1.0000   1.0000   1.0000   1.0000   1.0000
     1.0000   1.0000   1.0000   1.0000   1.0000   1.0000   1.0000   1.0000
     1.0000   1.0000   1.0000   1.0000   1.0000   1.0000   1.0000   1.0000
     1.0000   1.0000   1.0000   1.0000   1.0000   1.0000   1.0000   1.0000
     1.0000   1.0000   1.0000   1.0000   1.0000   1.0000   1.0000   1.0000
     1.0000   1.0000   1.0000   1.0000   1.0000   1.0000   1.0000   1.0000
     1.0000   1.0000   1.0000   1.0000   1.0000   1.0000   1.0000   1.0000
     1.0000   1.0000   1.0000   1.0000   1.0000   1.0000   1.0000   1.0000
     1.0000   1.0000   1.0000   1.0000   1.0000   1.0000   1.0000   1.0000
     1.0000   1.0000   1.0000   1.0000   1.0000   1.0000   1.0000   1.0000
     1.0000   1.0000   1.0000   1.0000   1.0000   1.0000   1.0000   1.0000
     1.0000   1.0000   1.0000   1.0000   1.0000   1.0000   1.0000   1.0000
     1.0000   1.0000   1.0000   1.0000   1.0000   1.0000   1.0000   1.0000
     1.0000   1.0000   1.0000   1.0000   1.0000   1.0000   0.0000   0.0000
     0.0000   0.0000   0.0000   0.0000   0.0000   0.0000   0.0000   0.0000
     0.0000   0.0000   0.0000   0.0000   0.0000   0.0000   0.0000   0.0000
     0.0000   0.0000   0.0000   0.0000   0.0000   0.0000   0.0000   0.0000

     highest occupied, lowest unoccupied level (ev):    14.7999   16.0172

!    total energy              =    -723.90719191 Ry
     estimated scf accuracy    <          5.2E-09 Ry

     The total energy is the sum of the following terms:
     one-electron contribution =     232.27880896 Ry
     hartree contribution      =      70.33854678 Ry
     xc contribution           =    -226.77193330 Ry
     ewald contribution        =    -799.75261435 Ry

     total magnetization       =     2.00 Bohr mag/cell
     absolute magnetization    =     2.30 Bohr mag/cell

     convergence has been achieved in  14 iterations

     Forces acting on atoms (cartesian axes, Ry/au):

     atom    1 type  1   force =    -0.00274690   -0.00390260   -0.00255057
     atom    2 type  2   force =     0.03510205    0.01588409   -0.01258454
     atom    3 type  2   force =    -0.00932557    0.00858639    0.00615027
     atom    4 type  2   force =     0.00880292    0.02477059   -0.00282570
     atom    5 type  2   force =     0.00220378   -0.02128688    0.00163856
     atom    6 type  2   force =    -0.00835797    0.00824438    0.04334460
     atom    7 type  2   force =     0.01013874    0.01202175   -0.00215651
     atom    8 type  2   force =     0.00304886    0.00429148    0.00656058
     atom    9 type  2   force =    -0.00206958   -0.00467723   -0.00287813
     atom   10 type  2   force =     0.00079401    0.00131346    0.00745241
     atom   11 type  2   force =    -0.02860527    0.00582759   -0.00884757
     atom   12 type  2   force =    -0.00006209    0.00389157    0.00340710
     atom   13 type  2   force =    -0.00273826   -0.03998621   -0.00173050
     atom   14 type  2   force =     0.00403432    0.00278622   -0.00471642
     atom   15 type  2   force =     0.00123300   -0.00037862   -0.00665477
     atom   16 type  2   force =     0.00019798   -0.00101734   -0.00100171
     atom   17 type  2   force =    -0.00135169    0.00647911    0.00029116
     atom   18 type  2   force =     0.00282458   -0.00020822    0.00095012
     atom   19 type  2   force =    -0.00911251   -0.00319961   -0.00531979
     atom   20 type  2   force =     0.00354780   -0.00468387    0.00418406
     atom   21 type  2   force =     0.00284047   -0.00498781   -0.00121754
     atom   22 type  2   force =     0.00145350    0.00213791    0.00127740
     atom   23 type  2   force =    -0.00050071   -0.00703227   -0.00174407
     atom   24 type  2   force =     0.00966568    0.00542705    0.00428704
     atom   25 type  2   force =    -0.01236302   -0.01379813   -0.00397918
     atom   26 type  2   force =     0.01481613    0.00609979    0.00167160
     atom   27 type  2   force =    -0.02571578   -0.00863147   -0.00647556
     atom   28 type  2   force =     0.01108507    0.00102837    0.00524926
     atom   29 type  2   force =    -0.00023240   -0.00166602   -0.00122355
     atom   30 type  2   force =     0.00826374    0.00588992    0.00445327
     atom   31 type  2   force =     0.00095709   -0.00154570   -0.00352306
     atom   32 type  2   force =     0.00300184    0.00386925    0.00142272
     atom   33 type  2   force =     0.00067973   -0.00431916   -0.00006248
     atom   34 type  2   force =    -0.00535218    0.00205909    0.00395086
     atom   35 type  2   force =    -0.00086509   -0.00195167   -0.00436432
     atom   36 type  2   force =     0.00062616    0.00433044   -0.00010523
     atom   37 type  2   force =     0.00073493   -0.03270174   -0.00705606
     atom   38 type  2   force =     0.00701471    0.00176038   -0.00031480
     atom   39 type  2   force =    -0.01002727    0.00617717   -0.01380402
     atom   40 type  2   force =     0.00541312    0.01264086    0.00497988
     atom   41 type  2   force =    -0.00748882   -0.01540532   -0.00366969
     atom   42 type  2   force =    -0.00071625    0.01708741    0.00637104
     atom   43 type  2   force =    -0.00100122    0.00074757   -0.00107883
     atom   44 type  2   force =     0.00461360    0.01712118    0.00297981
     atom   45 type  2   force =    -0.00745640   -0.02654678   -0.00661662
     atom   46 type  2   force =     0.00706363    0.01544062    0.00079744
     atom   47 type  2   force =    -0.00125351    0.00132476   -0.00189916
     atom   48 type  2   force =     0.00489556    0.00558010    0.00778508
     atom   49 type  2   force =    -0.00807553   -0.01410141   -0.01009497
     atom   50 type  2   force =     0.00364360    0.00698200    0.00313139
     atom   51 type  2   force =    -0.00404933   -0.00185890    0.00027297
     atom   52 type  2   force =     0.00704331    0.00176364    0.00430701
     atom   53 type  2   force =    -0.00170607   -0.00306855   -0.00034105
     atom   54 type  2   force =     0.00259763    0.00539666    0.01398952
     atom   55 type  2   force =    -0.00715927   -0.00847738   -0.02496414
     atom   56 type  2   force =    -0.01290440    0.00473729    0.00495559
     atom   57 type  2   force =     0.00221617    0.00016246   -0.00141410
     atom   58 type  2   force =     0.00085299    0.00370352    0.00296410
     atom   59 type  2   force =    -0.00110226   -0.00277942   -0.00382942
     atom   60 type  2   force =     0.00318439    0.00230981    0.00295615
     atom   61 type  2   force =    -0.00333593   -0.00191133   -0.00374795
     atom   62 type  2   force =     0.00461549    0.00512394    0.00149768
     atom   63 type  2   force =    -0.00353126   -0.00287420   -0.00048668
     The non-local contrib.  to forces
     atom    1 type  1   force =    -0.76079421   -0.76435348   -0.75886659
     atom    2 type  2   force =    -0.16484582    0.22044216    0.17803877
     atom    3 type  2   force =     0.05656633    0.08106946    0.07246232
     atom    4 type  2   force =     0.21499442   -0.18837751    0.19787301
     atom    5 type  2   force =     0.07310209    0.04265717    0.07001900
     atom    6 type  2   force =     0.17946368    0.20441080   -0.14642974
     atom    7 type  2   force =     0.07747221    0.08298405    0.06441076
     atom    8 type  2   force =    -0.00406211   -0.00460343    0.05673032
     atom    9 type  2   force =    -0.00543673   -0.00753323    0.01315608
     atom   10 type  2   force =    -0.04455962   -0.01406901   -0.01166675
     atom   11 type  2   force =    -0.10381462    0.06767896   -0.08342052
     atom   12 type  2   force =    -0.01737790   -0.04110974   -0.01468248
     atom   13 type  2   force =     0.05188933   -0.11692346   -0.07291724
     atom   14 type  2   force =     0.00337103    0.00106025    0.04555451
     atom   15 type  2   force =     0.01391641    0.00991513   -0.00460957
     atom   16 type  2   force =    -0.01209094    0.04875655   -0.01320143
     atom   17 type  2   force =    -0.00445599    0.02726509   -0.00299310
     atom   18 type  2   force =    -0.04115381   -0.02211846   -0.01571806
     atom   19 type  2   force =    -0.08097998   -0.07927787    0.05525867
     atom   20 type  2   force =     0.00519157    0.04477962    0.00559482
     atom   21 type  2   force =     0.01455089   -0.00398999    0.01204247
     atom   22 type  2   force =    -0.01454851   -0.02033054   -0.04261551
     atom   23 type  2   force =     0.06322381   -0.08409615   -0.07317882
     atom   24 type  2   force =    -0.06483296    0.03322492    0.03415185
     atom   25 type  2   force =    -0.02460905    0.00029581    0.01390574
     atom   26 type  2   force =    -0.04199863   -0.02071495   -0.02355025
     atom   27 type  2   force =    -0.14710153    0.12517503    0.12341517
     atom   28 type  2   force =     0.08071083    0.02347040   -0.01314487
     atom   29 type  2   force =     0.00080703    0.01860142    0.00484360
     atom   30 type  2   force =     0.07732599   -0.01371668    0.02890856
     atom   31 type  2   force =     0.00342907    0.00314536    0.01681237
     atom   32 type  2   force =     0.05326623   -0.00662254   -0.00719542
     atom   33 type  2   force =     0.01793225   -0.00683663   -0.00328700
     atom   34 type  2   force =     0.04516777    0.00218147    0.00486219
     atom   35 type  2   force =     0.00036100    0.00804257    0.00954406
     atom   36 type  2   force =    -0.01844963   -0.04025432   -0.01796714
     atom   37 type  2   force =    -0.07158250   -0.10887923    0.04775316
     atom   38 type  2   force =    -0.01368487   -0.01351580   -0.04516656
     atom   39 type  2   force =    -0.08664123    0.07133298   -0.08780319
     atom   40 type  2   force =     0.03501809   -0.05852327    0.03550981
     atom   41 type  2   force =     0.00909223   -0.02634941    0.01395114
     atom   42 type  2   force =     0.02138593    0.08775213   -0.00869769
     atom   43 type  2   force =     0.01730760    0.00040012    0.00396964
     atom   44 type  2   force =    -0.02268711   -0.03706980   -0.02337597
     atom   45 type  2   force =     0.12489503   -0.14764313    0.12423812
     atom   46 type  2   force =    -0.00919929    0.08657902    0.02315561
     atom   47 type  2   force =     0.00309224    0.00123620    0.01615842
     atom   48 type  2   force =     0.03354906    0.03308878   -0.06837183
     atom   49 type  2   force =     0.00860832   -0.00019124   -0.02297885
     atom   50 type  2   force =     0.03013351   -0.01349857    0.07030316
     atom   51 type  2   force =     0.01717575    0.00374464    0.00348535
     atom   52 type  2   force =    -0.01348584    0.02654667    0.07255534
     atom   53 type  2   force =     0.00457244    0.01785178    0.00167820
     atom   54 type  2   force =    -0.02267021   -0.02051427   -0.04396606
     atom   55 type  2   force =     0.12333881    0.12446440   -0.14648617
     atom   56 type  2   force =     0.00219273    0.02415646    0.02226339
     atom   57 type  2   force =     0.00872814    0.00561352    0.00596868
     atom   58 type  2   force =     0.01655970   -0.00751819   -0.01111099
     atom   59 type  2   force =     0.00764009   -0.01476862   -0.01595328
     atom   60 type  2   force =    -0.00963621    0.01830618   -0.01096552
     atom   61 type  2   force =    -0.01476930    0.00876058   -0.01517105
     atom   62 type  2   force =    -0.00767016   -0.00540248    0.01525691
     atom   63 type  2   force =    -0.01562992   -0.01481017    0.00850413
     The ionic contribution  to forces
     atom    1 type  1   force =     2.98487563    2.95400353    2.99770151
     atom    2 type  2   force =     2.41561600   -2.05979255   -2.21546910
     atom    3 type  2   force =     0.48830084   -0.72773865   -0.85008843
     atom    4 type  2   force =    -2.09005606    2.33344888   -2.15676740
     atom    5 type  2   force =    -0.78087808    0.40348390   -0.82522773
     atom    6 type  2   force =    -2.18662012   -2.09752453    2.45986161
     atom    7 type  2   force =    -0.82617980   -0.74807883    0.53945957
     atom    8 type  2   force =     0.25904091    0.21501250   -0.72706004
     atom    9 type  2   force =     0.06812177    0.02766901   -0.22476406
     atom   10 type  2   force =     0.18295437    0.07109963    0.56559147
     atom   11 type  2   force =    -0.52583540   -0.62673963    0.80205303
     atom   12 type  2   force =     0.02863214    0.16053017    0.54989287
     atom   13 type  2   force =    -0.66419370   -0.56580970    0.76068547
     atom   14 type  2   force =    -0.18990967   -0.17186420   -0.71485519
     atom   15 type  2   force =    -0.16775525   -0.10504922   -0.09399721
     atom   16 type  2   force =     0.20233919   -0.77491780    0.22539424
     atom   17 type  2   force =     0.07351065   -0.15662073    0.09494148
     atom   18 type  2   force =     0.22600296    0.46907243    0.00229488
     atom   19 type  2   force =    -0.35974818    0.74713781   -0.70627065
     atom   20 type  2   force =    -0.17659096   -0.73038920   -0.18222290
     atom   21 type  2   force =    -0.17316968   -0.08345947   -0.17470827
     atom   22 type  2   force =     0.02777655    0.47767675    0.23724826
     atom   23 type  2   force =    -0.68959881    0.77776215   -0.33107747
     atom   24 type  2   force =     0.11500907   -0.13652781   -0.17063255
     atom   25 type  2   force =    -0.01817521   -0.08179006   -0.07281353
     atom   26 type  2   force =     0.13321981   -0.09380341   -0.04911385
     atom   27 type  2   force =     1.14171617    0.24342948    0.24985032
     atom   28 type  2   force =    -0.07760556   -0.13599325    0.10463994
     atom   29 type  2   force =    -0.15662660    0.03026279    0.25455665
     atom   30 type  2   force =    -0.01543865    0.12995718   -0.23484329
     atom   31 type  2   force =    -0.15518842    0.17047486   -0.00925469
     atom   32 type  2   force =    -0.74473652    0.19522206    0.26219752
     atom   33 type  2   force =    -0.20320863    0.02917148    0.09082473
     atom   34 type  2   force =    -0.72310887   -0.17610063   -0.19931418
     atom   35 type  2   force =    -0.06241515   -0.15989420   -0.22385956
     atom   36 type  2   force =     0.51524838    0.17499534    0.00238723
     atom   37 type  2   force =     0.73864552   -0.50136221   -0.69272040
     atom   38 type  2   force =     0.53937403    0.07050624    0.20885574
     atom   39 type  2   force =     0.81038286   -0.63838226   -0.43235447
     atom   40 type  2   force =    -0.19954972    0.06225971   -0.20981290
     atom   41 type  2   force =    -0.07266964   -0.09021976   -0.06749630
     atom   42 type  2   force =    -0.13654404    0.02681809    0.08920152
     atom   43 type  2   force =     0.03079039   -0.11506233    0.25641767
     atom   44 type  2   force =    -0.07156914    0.12275061   -0.05362740
     atom   45 type  2   force =     0.24497302    1.15891405    0.24852616
     atom   46 type  2   force =     0.10413955    0.04228268   -0.16981818
     atom   47 type  2   force =     0.23098779   -0.11677249    0.01905020
     atom   48 type  2   force =    -0.13463873   -0.11081334    0.13769386
     atom   49 type  2   force =    -0.07692850   -0.08045661    0.00480861
     atom   50 type  2   force =    -0.24196325    0.15300900   -0.08293731
     atom   51 type  2   force =    -0.01189686    0.17682211   -0.18134782
     atom   52 type  2   force =     0.14331737   -0.17701514   -0.12993567
     atom   53 type  2   force =     0.23561788    0.01595892   -0.18447640
     atom   54 type  2   force =    -0.06306680   -0.09001323    0.13893677
     atom   55 type  2   force =     0.24597701    0.24311426    1.13160269
     atom   56 type  2   force =    -0.15917416   -0.02868640   -0.12295136
     atom   57 type  2   force =    -0.02162629   -0.00927578    0.00596766
     atom   58 type  2   force =    -0.08202126    0.04804794    0.04011538
     atom   59 type  2   force =    -0.28590318    0.07746192    0.15445742
     atom   60 type  2   force =     0.06436557   -0.03587004    0.06704866
     atom   61 type  2   force =     0.13359193   -0.30232067    0.15996235
     atom   62 type  2   force =     0.03448189    0.04511927   -0.09934148
     atom   63 type  2   force =     0.12558166    0.07486934   -0.27306569
     The local contribution  to forces
     atom    1 type  1   force =    -2.22687327   -2.19355661   -2.24144525
     atom    2 type  2   force =    -2.21572000    1.85522059    2.02479015
     atom    3 type  2   force =    -0.55427378    0.65521045    0.78371088
     atom    4 type  2   force =     1.88379329   -2.12031741    1.95601616
     atom    5 type  2   force =     0.70989393   -0.46744254    0.75680209
     atom    6 type  2   force =     1.99872447    1.90134577   -2.27015076
     atom    7 type  2   force =     0.75875588    0.67708832   -0.60610144
     atom    8 type  2   force =    -0.25197477   -0.20611879    0.67683719
     atom    9 type  2   force =    -0.06480520   -0.02482155    0.20867107
     atom   10 type  2   force =    -0.13763955   -0.05573974   -0.54652949
     atom   11 type  2   force =     0.60099933    0.56485524   -0.72752961
     atom   12 type  2   force =    -0.01137931   -0.11554652   -0.53185935
     atom   13 type  2   force =     0.60948560    0.64273442   -0.68956080
     atom   14 type  2   force =     0.19048892    0.17356873    0.66453592
     atom   15 type  2   force =     0.15497939    0.09471728    0.09191470
     atom   16 type  2   force =    -0.19009465    0.72508890   -0.21324375
     atom   17 type  2   force =    -0.07045756    0.13577081   -0.09171879
     atom   18 type  2   force =    -0.18206758   -0.44721228    0.01431092
     atom   19 type  2   force =     0.43156386   -0.67108703    0.64564359
     atom   20 type  2   force =     0.17486450    0.68087760    0.18074825
     atom   21 type  2   force =     0.16136793    0.08242042    0.16139008
     atom   22 type  2   force =    -0.01183343   -0.45525665   -0.19342250
     atom   23 type  2   force =     0.62580228   -0.70073702    0.40243933
     atom   24 type  2   force =    -0.04055321    0.10866849    0.14070291
     atom   25 type  2   force =     0.03037097    0.06764312    0.05487672
     atom   26 type  2   force =    -0.07645396    0.12057706    0.07428461
     atom   27 type  2   force =    -1.02038472   -0.37726243   -0.37979973
     atom   28 type  2   force =     0.00791608    0.11350276   -0.08629531
     atom   29 type  2   force =     0.15550977   -0.05058207   -0.26067705
     atom   30 type  2   force =    -0.05368738   -0.11039522    0.21034022
     atom   31 type  2   force =     0.15263591   -0.17519226   -0.01112912
     atom   32 type  2   force =     0.69439166   -0.18475584   -0.25364994
     atom   33 type  2   force =     0.18588425   -0.02666767   -0.08766478
     atom   34 type  2   force =     0.67251163    0.17595743    0.19833906
     atom   35 type  2   force =     0.06112873    0.14985746    0.20988666
     atom   36 type  2   force =    -0.49623370   -0.13041039    0.01540757
     atom   37 type  2   force =    -0.66636718    0.57755400    0.63784182
     atom   38 type  2   force =    -0.51873499   -0.05525262   -0.16405011
     atom   39 type  2   force =    -0.73380716    0.57317932    0.50631431
     atom   40 type  2   force =     0.16985418    0.00888524    0.17924199
     atom   41 type  2   force =     0.05600265    0.10114164    0.04982614
     atom   42 type  2   force =     0.11434420   -0.09750576   -0.07418242
     atom   43 type  2   force =    -0.04919235    0.11538055   -0.26151562
     atom   44 type  2   force =     0.09879548   -0.06858663    0.07993458
     atom   45 type  2   force =    -0.37737484   -1.03783938   -0.37942692
     atom   46 type  2   force =    -0.08792999   -0.11344220    0.14739063
     atom   47 type  2   force =    -0.23537516    0.11682355   -0.03717885
     atom   48 type  2   force =     0.10589455    0.08326609   -0.06160526
     atom   49 type  2   force =     0.06015899    0.06649672    0.00799790
     atom   50 type  2   force =     0.21537854   -0.13257281    0.01569745
     atom   51 type  2   force =    -0.00941924   -0.18244707    0.17808131
     atom   52 type  2   force =    -0.12284203    0.15216627    0.06162401
     atom   53 type  2   force =    -0.24193817   -0.03695172    0.18239859
     atom   54 type  2   force =     0.08825648    0.11588300   -0.08105449
     atom   55 type  2   force =    -0.37652964   -0.37607351   -1.01015447
     atom   56 type  2   force =     0.14398608    0.00922503    0.10559770
     atom   57 type  2   force =     0.01502997    0.00378363   -0.01338694
     atom   58 type  2   force =     0.06623073   -0.03686558   -0.02608434
     atom   59 type  2   force =     0.27707778   -0.06550616   -0.14238952
     atom   60 type  2   force =    -0.05161749    0.01984069   -0.05317424
     atom   61 type  2   force =    -0.12221723    0.29160648   -0.14859362
     atom   62 type  2   force =    -0.02226589   -0.03463475    0.08554538
     atom   63 type  2   force =    -0.11353841   -0.06296036    0.26403593
     The core correction contribution to forces
     atom    1 type  1   force =     0.00000000    0.00000000    0.00000000
     atom    2 type  2   force =     0.00000000    0.00000000    0.00000000
     atom    3 type  2   force =     0.00000000    0.00000000    0.00000000
     atom    4 type  2   force =     0.00000000    0.00000000    0.00000000
     atom    5 type  2   force =     0.00000000    0.00000000    0.00000000
     atom    6 type  2   force =     0.00000000    0.00000000    0.00000000
     atom    7 type  2   force =     0.00000000    0.00000000    0.00000000
     atom    8 type  2   force =     0.00000000    0.00000000    0.00000000
     atom    9 type  2   force =     0.00000000    0.00000000    0.00000000
     atom   10 type  2   force =     0.00000000    0.00000000    0.00000000
     atom   11 type  2   force =     0.00000000    0.00000000    0.00000000
     atom   12 type  2   force =     0.00000000    0.00000000    0.00000000
     atom   13 type  2   force =     0.00000000    0.00000000    0.00000000
     atom   14 type  2   force =     0.00000000    0.00000000    0.00000000
     atom   15 type  2   force =     0.00000000    0.00000000    0.00000000
     atom   16 type  2   force =     0.00000000    0.00000000    0.00000000
     atom   17 type  2   force =     0.00000000    0.00000000    0.00000000
     atom   18 type  2   force =     0.00000000    0.00000000    0.00000000
     atom   19 type  2   force =     0.00000000    0.00000000    0.00000000
     atom   20 type  2   force =     0.00000000    0.00000000    0.00000000
     atom   21 type  2   force =     0.00000000    0.00000000    0.00000000
     atom   22 type  2   force =     0.00000000    0.00000000    0.00000000
     atom   23 type  2   force =     0.00000000    0.00000000    0.00000000
     atom   24 type  2   force =     0.00000000    0.00000000    0.00000000
     atom   25 type  2   force =     0.00000000    0.00000000    0.00000000
     atom   26 type  2   force =     0.00000000    0.00000000    0.00000000
     atom   27 type  2   force =     0.00000000    0.00000000    0.00000000
     atom   28 type  2   force =     0.00000000    0.00000000    0.00000000
     atom   29 type  2   force =     0.00000000    0.00000000    0.00000000
     atom   30 type  2   force =     0.00000000    0.00000000    0.00000000
     atom   31 type  2   force =     0.00000000    0.00000000    0.00000000
     atom   32 type  2   force =     0.00000000    0.00000000    0.00000000
     atom   33 type  2   force =     0.00000000    0.00000000    0.00000000
     atom   34 type  2   force =     0.00000000    0.00000000    0.00000000
     atom   35 type  2   force =     0.00000000    0.00000000    0.00000000
     atom   36 type  2   force =     0.00000000    0.00000000    0.00000000
     atom   37 type  2   force =     0.00000000    0.00000000    0.00000000
     atom   38 type  2   force =     0.00000000    0.00000000    0.00000000
     atom   39 type  2   force =     0.00000000    0.00000000    0.00000000
     atom   40 type  2   force =     0.00000000    0.00000000    0.00000000
     atom   41 type  2   force =     0.00000000    0.00000000    0.00000000
     atom   42 type  2   force =     0.00000000    0.00000000    0.00000000
     atom   43 type  2   force =     0.00000000    0.00000000    0.00000000
     atom   44 type  2   force =     0.00000000    0.00000000    0.00000000
     atom   45 type  2   force =     0.00000000    0.00000000    0.00000000
     atom   46 type  2   force =     0.00000000    0.00000000    0.00000000
     atom   47 type  2   force =     0.00000000    0.00000000    0.00000000
     atom   48 type  2   force =     0.00000000    0.00000000    0.00000000
     atom   49 type  2   force =     0.00000000    0.00000000    0.00000000
     atom   50 type  2   force =     0.00000000    0.00000000    0.00000000
     atom   51 type  2   force =     0.00000000    0.00000000    0.00000000
     atom   52 type  2   force =     0.00000000    0.00000000    0.00000000
     atom   53 type  2   force =     0.00000000    0.00000000    0.00000000
     atom   54 type  2   force =     0.00000000    0.00000000    0.00000000
     atom   55 type  2   force =     0.00000000    0.00000000    0.00000000
     atom   56 type  2   force =     0.00000000    0.00000000    0.00000000
     atom   57 type  2   force =     0.00000000    0.00000000    0.00000000
     atom   58 type  2   force =     0.00000000    0.00000000    0.00000000
     atom   59 type  2   force =     0.00000000    0.00000000    0.00000000
     atom   60 type  2   force =     0.00000000    0.00000000    0.00000000
     atom   61 type  2   force =     0.00000000    0.00000000    0.00000000
     atom   62 type  2   force =     0.00000000    0.00000000    0.00000000
     atom   63 type  2   force =     0.00000000    0.00000000    0.00000000
     The Hubbard contrib.    to forces
     atom    1 type  1   force =     0.00000000    0.00000000    0.00000000
     atom    2 type  2   force =     0.00000000    0.00000000    0.00000000
     atom    3 type  2   force =     0.00000000    0.00000000    0.00000000
     atom    4 type  2   force =     0.00000000    0.00000000    0.00000000
     atom    5 type  2   force =     0.00000000    0.00000000    0.00000000
     atom    6 type  2   force =     0.00000000    0.00000000    0.00000000
     atom    7 type  2   force =     0.00000000    0.00000000    0.00000000
     atom    8 type  2   force =     0.00000000    0.00000000    0.00000000
     atom    9 type  2   force =     0.00000000    0.00000000    0.00000000
     atom   10 type  2   force =     0.00000000    0.00000000    0.00000000
     atom   11 type  2   force =     0.00000000    0.00000000    0.00000000
     atom   12 type  2   force =     0.00000000    0.00000000    0.00000000
     atom   13 type  2   force =     0.00000000    0.00000000    0.00000000
     atom   14 type  2   force =     0.00000000    0.00000000    0.00000000
     atom   15 type  2   force =     0.00000000    0.00000000    0.00000000
     atom   16 type  2   force =     0.00000000    0.00000000    0.00000000
     atom   17 type  2   force =     0.00000000    0.00000000    0.00000000
     atom   18 type  2   force =     0.00000000    0.00000000    0.00000000
     atom   19 type  2   force =     0.00000000    0.00000000    0.00000000
     atom   20 type  2   force =     0.00000000    0.00000000    0.00000000
     atom   21 type  2   force =     0.00000000    0.00000000    0.00000000
     atom   22 type  2   force =     0.00000000    0.00000000    0.00000000
     atom   23 type  2   force =     0.00000000    0.00000000    0.00000000
     atom   24 type  2   force =     0.00000000    0.00000000    0.00000000
     atom   25 type  2   force =     0.00000000    0.00000000    0.00000000
     atom   26 type  2   force =     0.00000000    0.00000000    0.00000000
     atom   27 type  2   force =     0.00000000    0.00000000    0.00000000
     atom   28 type  2   force =     0.00000000    0.00000000    0.00000000
     atom   29 type  2   force =     0.00000000    0.00000000    0.00000000
     atom   30 type  2   force =     0.00000000    0.00000000    0.00000000
     atom   31 type  2   force =     0.00000000    0.00000000    0.00000000
     atom   32 type  2   force =     0.00000000    0.00000000    0.00000000
     atom   33 type  2   force =     0.00000000    0.00000000    0.00000000
     atom   34 type  2   force =     0.00000000    0.00000000    0.00000000
     atom   35 type  2   force =     0.00000000    0.00000000    0.00000000
     atom   36 type  2   force =     0.00000000    0.00000000    0.00000000
     atom   37 type  2   force =     0.00000000    0.00000000    0.00000000
     atom   38 type  2   force =     0.00000000    0.00000000    0.00000000
     atom   39 type  2   force =     0.00000000    0.00000000    0.00000000
     atom   40 type  2   force =     0.00000000    0.00000000    0.00000000
     atom   41 type  2   force =     0.00000000    0.00000000    0.00000000
     atom   42 type  2   force =     0.00000000    0.00000000    0.00000000
     atom   43 type  2   force =     0.00000000    0.00000000    0.00000000
     atom   44 type  2   force =     0.00000000    0.00000000    0.00000000
     atom   45 type  2   force =     0.00000000    0.00000000    0.00000000
     atom   46 type  2   force =     0.00000000    0.00000000    0.00000000
     atom   47 type  2   force =     0.00000000    0.00000000    0.00000000
     atom   48 type  2   force =     0.00000000    0.00000000    0.00000000
     atom   49 type  2   force =     0.00000000    0.00000000    0.00000000
     atom   50 type  2   force =     0.00000000    0.00000000    0.00000000
     atom   51 type  2   force =     0.00000000    0.00000000    0.00000000
     atom   52 type  2   force =     0.00000000    0.00000000    0.00000000
     atom   53 type  2   force =     0.00000000    0.00000000    0.00000000
     atom   54 type  2   force =     0.00000000    0.00000000    0.00000000
     atom   55 type  2   force =     0.00000000    0.00000000    0.00000000
     atom   56 type  2   force =     0.00000000    0.00000000    0.00000000
     atom   57 type  2   force =     0.00000000    0.00000000    0.00000000
     atom   58 type  2   force =     0.00000000    0.00000000    0.00000000
     atom   59 type  2   force =     0.00000000    0.00000000    0.00000000
     atom   60 type  2   force =     0.00000000    0.00000000    0.00000000
     atom   61 type  2   force =     0.00000000    0.00000000    0.00000000
     atom   62 type  2   force =     0.00000000    0.00000000    0.00000000
     atom   63 type  2   force =     0.00000000    0.00000000    0.00000000
     The SCF correction term to forces
     atom    1 type  1   force =    -0.00002273   -0.00002761    0.00000331
     atom    2 type  2   force =    -0.00001583   -0.00001768   -0.00000082
     atom    3 type  2   force =     0.00001335    0.00001355    0.00000906
     atom    4 type  2   force =     0.00000359   -0.00001494   -0.00000392
     atom    5 type  2   force =     0.00001817   -0.00001699   -0.00001125
     atom    6 type  2   force =     0.00000632   -0.00001924    0.00000704
     atom    7 type  2   force =     0.00002276   -0.00000336    0.00001814
     atom    8 type  2   force =    -0.00002285   -0.00003037   -0.00000335
     atom    9 type  2   force =    -0.00001711   -0.00002304    0.00000232
     atom   10 type  2   force =    -0.00002888   -0.00000898    0.00000072
     atom   11 type  2   force =    -0.00002227    0.00000146   -0.00000693
     atom   12 type  2   force =    -0.00000470   -0.00001391   -0.00000040
     atom   13 type  2   force =     0.00001283   -0.00001904    0.00000563
     atom   14 type  2   force =     0.00001634   -0.00001012   -0.00000811
     atom   15 type  2   force =     0.00002476    0.00000662   -0.00001914
     atom   16 type  2   force =    -0.00002330    0.00002344   -0.00000722
     atom   17 type  2   force =    -0.00001648    0.00003237    0.00000513
     atom   18 type  2   force =    -0.00002468    0.00001853    0.00000593
     atom   19 type  2   force =    -0.00001588   -0.00000409   -0.00000785
     atom   20 type  2   force =     0.00001501    0.00001654    0.00000744
     atom   21 type  2   force =     0.00002363    0.00000966    0.00000173
     atom   22 type  2   force =    -0.00000879    0.00001679    0.00001070
     atom   23 type  2   force =     0.00000434    0.00000719    0.00001643
     atom   24 type  2   force =    -0.00002490    0.00002987    0.00000838
     atom   25 type  2   force =    -0.00001741    0.00002143   -0.00000457
     atom   26 type  2   force =    -0.00001877    0.00000951   -0.00000537
     atom   27 type  2   force =    -0.00001338   -0.00000511    0.00000223
     atom   28 type  2   force =    -0.00000396    0.00001689   -0.00000695
     atom   29 type  2   force =     0.00000972    0.00002027   -0.00000319
     atom   30 type  2   force =    -0.00000390    0.00001307   -0.00000866
     atom   31 type  2   force =     0.00001283   -0.00000522   -0.00000807
     atom   32 type  2   force =     0.00001278   -0.00000601    0.00001411
     atom   33 type  2   force =     0.00000417   -0.00001791    0.00000811
     atom   34 type  2   force =     0.00000961   -0.00001076    0.00000734
     atom   35 type  2   force =    -0.00000736    0.00001093    0.00000806
     atom   36 type  2   force =    -0.00000658   -0.00003176    0.00001067
     atom   37 type  2   force =    -0.00002859   -0.00004588    0.00001290
     atom   38 type  2   force =    -0.00000715   -0.00000901   -0.00001032
     atom   39 type  2   force =    -0.00002943    0.00001555   -0.00001712
     atom   40 type  2   force =     0.00002289   -0.00001239   -0.00001547
     atom   41 type  2   force =     0.00001825   -0.00000935   -0.00000713
     atom   42 type  2   force =     0.00002998   -0.00000861   -0.00000682
     atom   43 type  2   force =     0.00002545   -0.00000234   -0.00000696
     atom   44 type  2   force =     0.00000669   -0.00000458   -0.00000784
     atom   45 type  2   force =    -0.00001729   -0.00000989   -0.00001043
     atom   46 type  2   force =    -0.00001433   -0.00001045    0.00001293
     atom   47 type  2   force =    -0.00002607    0.00000592    0.00001462
     atom   48 type  2   force =     0.00002299    0.00000701    0.00001186
     atom   49 type  2   force =     0.00001797    0.00001815    0.00002093
     atom   50 type  2   force =     0.00002711    0.00001281    0.00001164
     atom   51 type  2   force =     0.00002334   -0.00001016   -0.00000232
     atom   52 type  2   force =    -0.00001387    0.00003426    0.00000687
     atom   53 type  2   force =    -0.00002590    0.00004089    0.00000210
     atom   54 type  2   force =     0.00001048    0.00000960    0.00001684
     atom   55 type  2   force =    -0.00001313   -0.00001410    0.00001736
     atom   56 type  2   force =     0.00002326    0.00001063   -0.00001059
     atom   57 type  2   force =     0.00001666    0.00000951   -0.00001994
     atom   58 type  2   force =     0.00001614    0.00000777   -0.00001241
     atom   59 type  2   force =     0.00001538    0.00000186   -0.00000048
     atom   60 type  2   force =     0.00000484    0.00000142   -0.00000920
     atom   61 type  2   force =    -0.00000902    0.00001071   -0.00000207
     atom   62 type  2   force =     0.00000198    0.00001033   -0.00001958
     atom   63 type  2   force =    -0.00001228   -0.00000457   -0.00001750

     Total force =     0.127360     Total SCF correction =     0.000212

     Writing all to output data dir ./pwscf.save/ :
     XML data file, charge density, pseudopotentials, collected wavefunctions
 
     init_run     :      0.60s CPU      0.64s WALL (       1 calls)
     electrons    :      9.95s CPU     10.15s WALL (       1 calls)
     forces       :      2.01s CPU      2.02s WALL (       1 calls)

     Called by init_run:
     wfcinit      :      0.14s CPU      0.15s WALL (       1 calls)
     wfcinit:wfcr :      0.14s CPU      0.14s WALL (       1 calls)
     potinit      :      0.32s CPU      0.32s WALL (       1 calls)
     hinit0       :      0.03s CPU      0.06s WALL (       1 calls)

     Called by electrons:
     c_bands      :      7.21s CPU      7.35s WALL (      14 calls)
     sum_band     :      1.75s CPU      1.76s WALL (      14 calls)
     v_of_rho     :      0.15s CPU      0.15s WALL (      15 calls)
     v_h          :      0.00s CPU      0.00s WALL (      15 calls)
     v_xc         :      0.15s CPU      0.15s WALL (      15 calls)
     mix_rho      :      0.02s CPU      0.02s WALL (      14 calls)

     Called by c_bands:
     init_us_2    :      0.02s CPU      0.02s WALL (      30 calls)
     regterg      :      6.71s CPU      6.85s WALL (      14 calls)

     Called by sum_band:
     sum_band:wei :      0.04s CPU      0.04s WALL (      14 calls)
     sum_band:loo :      0.20s CPU      0.20s WALL (      14 calls)
     sum_band:buf :      0.00s CPU      0.00s WALL (      14 calls)
     sum_band:ini :      0.01s CPU      0.01s WALL (      14 calls)

     Called by *egterg:
     rdiaghg      :      3.75s CPU      3.85s WALL (     276 calls)
     regterg:over :      0.50s CPU      0.50s WALL (     262 calls)
     regterg:upda :      0.17s CPU      0.17s WALL (     262 calls)
     regterg:last :      0.23s CPU      0.23s WALL (      51 calls)
     rdiaghg:chol :      0.14s CPU      0.14s WALL (     276 calls)
     rdiaghg:inve :      0.03s CPU      0.03s WALL (     276 calls)
     rdiaghg:para :      0.36s CPU      0.38s WALL (     552 calls)
     h_psi        :      2.06s CPU      2.09s WALL (     277 calls)
     g_psi        :      0.00s CPU      0.00s WALL (     262 calls)

     Called by h_psi:
     h_psi:calbec :      0.34s CPU      0.35s WALL (     277 calls)
     vloc_psi     :      1.60s CPU      1.63s WALL (     277 calls)
                                        0.00s GPU  (     277 calls)
     add_vuspsi   :      0.11s CPU      0.11s WALL (     277 calls)

     General routines
     calbec       :      0.40s CPU      0.40s WALL (     281 calls)
     fft          :      0.07s CPU      0.09s WALL (     196 calls)
     ffts         :      0.00s CPU      0.00s WALL (      14 calls)
     fftw         :      1.69s CPU      1.72s WALL (   10110 calls)
 
     Parallel routines
 
     PWSCF        :     15.14s CPU     15.94s WALL

 
   This run was terminated on:  17: 8:37  16Nov2025            

=------------------------------------------------------------------------------=
   JOB DONE.
=------------------------------------------------------------------------------=
