
     Program PWSCF v.7.5 starts on 16Nov2025 at 16:34:39 

     This program is part of the open-source Quantum ESPRESSO suite
     for quantum simulation of materials; please cite
         "P. Giannozzi et al., J. Phys.:Condens. Matter 21 395502 (2009);
         "P. Giannozzi et al., J. Phys.:Condens. Matter 29 465901 (2017);
         "P. Giannozzi et al., J. Chem. Phys. 152 154105 (2020);
          URL http://www.quantum-espresso.org", 
     in publications or presentations arising from this work. More details at
     http://www.quantum-espresso.org/quote

     Parallel version (MPI), running on    96 processors

     MPI processes distributed on     2 nodes
     174530 MiB available memory on the printing compute node when the environment starts
 
     Reading input from supercell-223.in

     Current dimensions of program PWSCF are:
     Max number of different atomic species (ntypx) = 10
     Max number of k-points (npk) =  40000
     Max angular momentum in pseudopotentials (lmaxx) =  4

     gamma-point specific algorithms are used
 
     K-points division:     npool     =       2
     R & G space division:  proc/nbgrp/npool/nimage =      48
     Subspace diagonalization in iterative solution of the eigenvalue problem:
     one sub-group per band group will be used
     scalapack distributed-memory algorithm (size of sub-group:  2*  2 procs)

 
     Parallelization info
     --------------------
     sticks:   dense  smooth     PW     G-vecs:    dense   smooth      PW
     Min          59      59     14                 2432     2432     302
     Max          62      62     16                 2442     2442     316
     Sum        2885    2885    725               116921   116921   14771
 
     Using Slab Decomposition
 


     bravais-lattice index     =            0
     lattice parameter (alat)  =      13.4813  a.u.
     unit-cell volume          =    2450.1683 (a.u.)^3
     number of atoms/cell      =           63
     number of atomic types    =            2
     number of electrons       =       254.00 (up: 128.00, down: 126.00)
     number of Kohn-Sham states=          152
     kinetic-energy cutoff     =      50.0000  Ry
     charge density cutoff     =     200.0000  Ry
     scf convergence threshold =      1.0E-08
     mixing beta               =       0.7000
     number of iterations used =            8  plain     mixing
     Exchange-correlation= PBE
                           (   1   4   3   4   0   0   0)

     celldm(1)=  13.481306  celldm(2)=   0.000000  celldm(3)=   0.000000
     celldm(4)=   0.000000  celldm(5)=   0.000000  celldm(6)=   0.000000

     crystal axes: (cart. coord. in units of alat)
               a(1) = (   1.000000   0.000000   0.000000 )  
               a(2) = (   0.000000   1.000000   0.000000 )  
               a(3) = (   0.000000   0.000000   1.000000 )  

     reciprocal axes: (cart. coord. in units 2 pi/alat)
               b(1) = (  1.000000  0.000000  0.000000 )  
               b(2) = (  0.000000  1.000000  0.000000 )  
               b(3) = (  0.000000  0.000000  1.000000 )  


     PseudoPot. # 1 for N  read from file:
     ./N_ONCV_PBE-1.2.upf
     MD5 check sum: 5312fdf34e96954e02a33bdc911c617a
     Pseudo is Norm-conserving, Zval =  5.0
     Generated using ONCVPSP code by D. R. Hamann
     Using radial grid of  602 points,  4 beta functions with: 
                l(1) =   0
                l(2) =   0
                l(3) =   1
                l(4) =   1

     PseudoPot. # 2 for C  read from file:
     ./C_ONCV_PBE-1.2.upf
     MD5 check sum: d60b57d9bdca4133f5fde4b584ee909d
     Pseudo is Norm-conserving, Zval =  4.0
     Generated using ONCVPSP code by D. R. Hamann
     Using radial grid of  602 points,  4 beta functions with: 
                l(1) =   0
                l(2) =   0
                l(3) =   1
                l(4) =   1

     atomic species   valence    mass     pseudopotential
     N                 5.00    14.00670     N ( 1.00)
     C                 4.00    12.01070     C ( 1.00)

     Starting magnetic structure 
     atomic species   magnetization
     N               0.000
     C               0.000

     No symmetry found


                                    s                        frac. trans.

      isym =  1     identity                                     

 cryst.   s( 1) = (     1          0          0      )
                  (     0          1          0      )
                  (     0          0          1      )

 cart.    s( 1) = (  1.0000000  0.0000000  0.0000000 )
                  (  0.0000000  1.0000000  0.0000000 )
                  (  0.0000000  0.0000000  1.0000000 )


   Cartesian axes

     site n.     atom                  positions (alat units)
         1        N      tau(   1) = (   0.9893819   0.9897344   0.9891721  )
         2        C      tau(   2) = (   0.9870277   0.2601210   0.2640728  )
         3        C      tau(   3) = (   0.1231717   0.3731672   0.3742038  )
         4        C      tau(   4) = (   0.2603919   0.9894620   0.2619202  )
         5        C      tau(   5) = (   0.3737632   0.1246771   0.3741571  )
         6        C      tau(   6) = (   0.2640151   0.2616009   0.9853609  )
         7        C      tau(   7) = (   0.3737752   0.3731213   0.1223564  )
         8        C      tau(   8) = (   0.0000049   0.0005840   0.4991361  )
         9        C      tau(   9) = (   0.1251361   0.1251278   0.6250981  )
        10        C      tau(  10) = (   0.0020393   0.2482470   0.7515266  )
        11        C      tau(  11) = (   0.1292009   0.3733021   0.8763303  )
        12        C      tau(  12) = (   0.2487801   0.0017974   0.7514403  )
        13        C      tau(  13) = (   0.3754339   0.1292460   0.8748544  )
        14        C      tau(  14) = (   0.2491579   0.2495268   0.4995755  )
        15        C      tau(  15) = (   0.3750038   0.3749547   0.6244069  )
        16        C      tau(  16) = (   0.0016366   0.4979779   0.0013734  )
        17        C      tau(  17) = (   0.1250869   0.6243147   0.1250807  )
        18        C      tau(  18) = (   0.0014462   0.7520697   0.2483230  )
        19        C      tau(  19) = (   0.1266755   0.8769178   0.3741906  )
        20        C      tau(  20) = (   0.2488290   0.4983596   0.2486760  )
        21        C      tau(  21) = (   0.3741642   0.6242659   0.3742111  )
        22        C      tau(  22) = (   0.2480673   0.7520817   0.0015447  )
        23        C      tau(  23) = (   0.3729914   0.8777475   0.1265606  )
        24        C      tau(  24) = (   0.0000493   0.5010760   0.5011299  )
        25        C      tau(  25) = (   0.1252054   0.6262200   0.6252733  )
        26        C      tau(  26) = (   0.9993969   0.7487112   0.7492532  )
        27        C      tau(  27) = (   0.1217927   0.8768349   0.8763928  )
        28        C      tau(  28) = (   0.2492749   0.5017254   0.7482724  )
        29        C      tau(  29) = (   0.3741000   0.6263042   0.8750769  )
        30        C      tau(  30) = (   0.2487293   0.7486845   0.5007616  )
        31        C      tau(  31) = (   0.3739266   0.8750581   0.6258828  )
        32        C      tau(  32) = (   0.4987543   0.0011228   0.0002828  )
        33        C      tau(  33) = (   0.6248203   0.1251003   0.1251034  )
        34        C      tau(  34) = (   0.4991217   0.2493918   0.2488717  )
        35        C      tau(  35) = (   0.6243080   0.3746888   0.3747831  )
        36        C      tau(  36) = (   0.7516460   0.0016191   0.2487956  )
        37        C      tau(  37) = (   0.8750430   0.1283649   0.3757598  )
        38        C      tau(  38) = (   0.7532310   0.2480080   0.0019610  )
        39        C      tau(  39) = (   0.8773622   0.3724247   0.1282033  )
        40        C      tau(  40) = (   0.5008161   0.9999897   0.5008301  )
        41        C      tau(  41) = (   0.6256173   0.1249721   0.6252590  )
        42        C      tau(  42) = (   0.5022259   0.2488088   0.7478265  )
        43        C      tau(  43) = (   0.6264784   0.3739683   0.8752045  )
        44        C      tau(  44) = (   0.7487945   0.9989046   0.7489691  )
        45        C      tau(  45) = (   0.8764746   0.1216998   0.8763156  )
        46        C      tau(  46) = (   0.7479635   0.2486819   0.5018806  )
        47        C      tau(  47) = (   0.8751980   0.3739245   0.6263738  )
        48        C      tau(  48) = (   0.5012000   0.5011574   0.0001136  )
        49        C      tau(  49) = (   0.6256259   0.6262099   0.1252968  )
        50        C      tau(  50) = (   0.5005188   0.7489091   0.2490095  )
        51        C      tau(  51) = (   0.6258050   0.8750157   0.3740056  )
        52        C      tau(  52) = (   0.7486304   0.5011458   0.2494302  )
        53        C      tau(  53) = (   0.8750247   0.6261269   0.3741365  )
        54        C      tau(  54) = (   0.7492281   0.7488562   0.9996087  )
        55        C      tau(  55) = (   0.8766209   0.8769033   0.1218021  )
        56        C      tau(  56) = (   0.4990819   0.4992903   0.4990317  )
        57        C      tau(  57) = (   0.6247789   0.6244471   0.6249452  )
        58        C      tau(  58) = (   0.4991767   0.7499842   0.7500845  )
        59        C      tau(  59) = (   0.6239946   0.8751464   0.8754130  )
        60        C      tau(  60) = (   0.7505316   0.4989321   0.7505826  )
        61        C      tau(  61) = (   0.8758455   0.6234984   0.8759288  )
        62        C      tau(  62) = (   0.7498244   0.7497799   0.4993198  )
        63        C      tau(  63) = (   0.8750855   0.8749084   0.6242568  )

   Crystallographic axes

     site n.     atom                  positions (cryst. coord.)
         1        N      tau(   1) = (  0.9893819  0.9897344  0.9891721  )
         2        C      tau(   2) = (  0.9870277  0.2601210  0.2640728  )
         3        C      tau(   3) = (  0.1231717  0.3731672  0.3742038  )
         4        C      tau(   4) = (  0.2603919  0.9894620  0.2619202  )
         5        C      tau(   5) = (  0.3737632  0.1246771  0.3741571  )
         6        C      tau(   6) = (  0.2640151  0.2616009  0.9853609  )
         7        C      tau(   7) = (  0.3737752  0.3731213  0.1223564  )
         8        C      tau(   8) = (  0.0000049  0.0005840  0.4991361  )
         9        C      tau(   9) = (  0.1251361  0.1251278  0.6250981  )
        10        C      tau(  10) = (  0.0020393  0.2482470  0.7515266  )
        11        C      tau(  11) = (  0.1292009  0.3733021  0.8763303  )
        12        C      tau(  12) = (  0.2487801  0.0017974  0.7514403  )
        13        C      tau(  13) = (  0.3754339  0.1292460  0.8748544  )
        14        C      tau(  14) = (  0.2491579  0.2495268  0.4995755  )
        15        C      tau(  15) = (  0.3750038  0.3749547  0.6244069  )
        16        C      tau(  16) = (  0.0016366  0.4979779  0.0013734  )
        17        C      tau(  17) = (  0.1250869  0.6243147  0.1250807  )
        18        C      tau(  18) = (  0.0014462  0.7520697  0.2483230  )
        19        C      tau(  19) = (  0.1266755  0.8769178  0.3741906  )
        20        C      tau(  20) = (  0.2488290  0.4983596  0.2486760  )
        21        C      tau(  21) = (  0.3741642  0.6242659  0.3742111  )
        22        C      tau(  22) = (  0.2480673  0.7520817  0.0015447  )
        23        C      tau(  23) = (  0.3729914  0.8777475  0.1265606  )
        24        C      tau(  24) = (  0.0000493  0.5010760  0.5011299  )
        25        C      tau(  25) = (  0.1252054  0.6262200  0.6252733  )
        26        C      tau(  26) = (  0.9993969  0.7487112  0.7492532  )
        27        C      tau(  27) = (  0.1217927  0.8768349  0.8763928  )
        28        C      tau(  28) = (  0.2492749  0.5017254  0.7482724  )
        29        C      tau(  29) = (  0.3741000  0.6263042  0.8750769  )
        30        C      tau(  30) = (  0.2487293  0.7486845  0.5007616  )
        31        C      tau(  31) = (  0.3739266  0.8750581  0.6258828  )
        32        C      tau(  32) = (  0.4987543  0.0011228  0.0002828  )
        33        C      tau(  33) = (  0.6248203  0.1251003  0.1251034  )
        34        C      tau(  34) = (  0.4991217  0.2493918  0.2488717  )
        35        C      tau(  35) = (  0.6243080  0.3746888  0.3747831  )
        36        C      tau(  36) = (  0.7516460  0.0016191  0.2487956  )
        37        C      tau(  37) = (  0.8750430  0.1283649  0.3757598  )
        38        C      tau(  38) = (  0.7532310  0.2480080  0.0019610  )
        39        C      tau(  39) = (  0.8773622  0.3724247  0.1282033  )
        40        C      tau(  40) = (  0.5008161  0.9999897  0.5008301  )
        41        C      tau(  41) = (  0.6256173  0.1249721  0.6252590  )
        42        C      tau(  42) = (  0.5022259  0.2488088  0.7478265  )
        43        C      tau(  43) = (  0.6264784  0.3739683  0.8752045  )
        44        C      tau(  44) = (  0.7487945  0.9989046  0.7489691  )
        45        C      tau(  45) = (  0.8764746  0.1216998  0.8763156  )
        46        C      tau(  46) = (  0.7479635  0.2486819  0.5018806  )
        47        C      tau(  47) = (  0.8751980  0.3739245  0.6263738  )
        48        C      tau(  48) = (  0.5012000  0.5011574  0.0001136  )
        49        C      tau(  49) = (  0.6256259  0.6262099  0.1252968  )
        50        C      tau(  50) = (  0.5005188  0.7489091  0.2490095  )
        51        C      tau(  51) = (  0.6258050  0.8750157  0.3740056  )
        52        C      tau(  52) = (  0.7486304  0.5011458  0.2494302  )
        53        C      tau(  53) = (  0.8750247  0.6261269  0.3741365  )
        54        C      tau(  54) = (  0.7492281  0.7488562  0.9996087  )
        55        C      tau(  55) = (  0.8766209  0.8769033  0.1218021  )
        56        C      tau(  56) = (  0.4990819  0.4992903  0.4990317  )
        57        C      tau(  57) = (  0.6247789  0.6244471  0.6249452  )
        58        C      tau(  58) = (  0.4991767  0.7499842  0.7500845  )
        59        C      tau(  59) = (  0.6239946  0.8751464  0.8754130  )
        60        C      tau(  60) = (  0.7505316  0.4989321  0.7505826  )
        61        C      tau(  61) = (  0.8758455  0.6234984  0.8759288  )
        62        C      tau(  62) = (  0.7498244  0.7497799  0.4993198  )
        63        C      tau(  63) = (  0.8750855  0.8749084  0.6242568  )

     number of k points=     1
                       cart. coord. in units 2pi/alat
        k(    1) = (   0.0000000   0.0000000   0.0000000), wk =   1.0000000

                       cryst. coord.
        k(    1) = (   0.0000000   0.0000000   0.0000000), wk =   1.0000000

     Dense  grid:    58461 G-vectors     FFT dimensions: (  64,  64,  64)

     Dynamical RAM for                 wfc:       0.35 MB

     Dynamical RAM for     wfc (w. buffer):       0.35 MB

     Dynamical RAM for           str. fact:       0.04 MB

     Dynamical RAM for           local pot:       0.00 MB

     Dynamical RAM for          nlocal pot:       1.17 MB

     Dynamical RAM for                qrad:       0.65 MB

     Dynamical RAM for          rho,v,vnew:       0.49 MB

     Dynamical RAM for               rhoin:       0.16 MB

     Dynamical RAM for            rho*nmix:       0.60 MB

     Dynamical RAM for           G-vectors:       0.08 MB

     Dynamical RAM for          h,s,v(r/c):       0.53 MB

     Dynamical RAM for          <psi|beta>:       0.58 MB

     Dynamical RAM for                 psi:       0.71 MB

     Dynamical RAM for                hpsi:       0.71 MB

     Dynamical RAM for      wfcinit/wfcrot:       1.24 MB

     Estimated static dynamical RAM per process >       3.37 MB

     Estimated max dynamical RAM per process >       6.49 MB

     Estimated total dynamical RAM >     594.05 MB
     Generating pointlists ...
     new r_m :   0.0854 (alat units)  1.1518 (a.u.) for type    1
     new r_m :   0.0847 (alat units)  1.1416 (a.u.) for type    2

     Initial potential from superposition of free atoms

     starting charge     252.5655, renormalised to     254.0000
     Starting wfcs are random

     total cpu time spent up to now is        1.9 secs

     Self-consistent Calculation

     iteration #  1     ecut=    50.00 Ry     beta= 0.70
     Davidson diagonalization with overlap

---- Real-time Memory Report at c_bands before calling an iterative solver
           158 MiB given to the printing process from OS
             0 MiB allocation reported by mallinfo(arena+hblkhd)
        173525 MiB available memory on the node where the printing process lives
------------------
     ethr =  1.00E-02,  avg # of iterations = 12.0

     total cpu time spent up to now is        2.6 secs

     total energy              =    -723.26959255 Ry
     estimated scf accuracy    <       3.70765501 Ry

     total magnetization       =     2.00 Bohr mag/cell
     absolute magnetization    =     2.00 Bohr mag/cell

     iteration #  2     ecut=    50.00 Ry     beta= 0.70
     Davidson diagonalization with overlap

---- Real-time Memory Report at c_bands before calling an iterative solver
           164 MiB given to the printing process from OS
             0 MiB allocation reported by mallinfo(arena+hblkhd)
        173469 MiB available memory on the node where the printing process lives
------------------
     ethr =  1.46E-03,  avg # of iterations = 13.5

     total cpu time spent up to now is        2.9 secs

     total energy              =    -723.66128991 Ry
     estimated scf accuracy    <       0.45691852 Ry

     total magnetization       =     2.00 Bohr mag/cell
     absolute magnetization    =     2.08 Bohr mag/cell

     iteration #  3     ecut=    50.00 Ry     beta= 0.70
     Davidson diagonalization with overlap

---- Real-time Memory Report at c_bands before calling an iterative solver
           165 MiB given to the printing process from OS
             0 MiB allocation reported by mallinfo(arena+hblkhd)
        173474 MiB available memory on the node where the printing process lives
------------------
     c_bands:  1 eigenvalues not converged
     ethr =  1.80E-04,  avg # of iterations = 20.0

     total cpu time spent up to now is        3.6 secs

     total energy              =    -723.72700395 Ry
     estimated scf accuracy    <       0.86737023 Ry

     total magnetization       =     2.00 Bohr mag/cell
     absolute magnetization    =     2.12 Bohr mag/cell

     iteration #  4     ecut=    50.00 Ry     beta= 0.70
     Davidson diagonalization with overlap

---- Real-time Memory Report at c_bands before calling an iterative solver
           165 MiB given to the printing process from OS
             0 MiB allocation reported by mallinfo(arena+hblkhd)
        173476 MiB available memory on the node where the printing process lives
------------------
     c_bands:  1 eigenvalues not converged
     ethr =  1.80E-04,  avg # of iterations = 20.0

     total cpu time spent up to now is        6.1 secs

     total energy              =    -723.90121539 Ry
     estimated scf accuracy    <       0.00958795 Ry

     total magnetization       =     2.00 Bohr mag/cell
     absolute magnetization    =     2.19 Bohr mag/cell

     iteration #  5     ecut=    50.00 Ry     beta= 0.70
     Davidson diagonalization with overlap

---- Real-time Memory Report at c_bands before calling an iterative solver
           165 MiB given to the printing process from OS
             0 MiB allocation reported by mallinfo(arena+hblkhd)
        173477 MiB available memory on the node where the printing process lives
------------------
     c_bands:  4 eigenvalues not converged
     ethr =  3.77E-06,  avg # of iterations = 20.0

     total cpu time spent up to now is        6.6 secs

     total energy              =    -723.90620659 Ry
     estimated scf accuracy    <       0.00410841 Ry

     total magnetization       =     2.00 Bohr mag/cell
     absolute magnetization    =     2.23 Bohr mag/cell

     iteration #  6     ecut=    50.00 Ry     beta= 0.70
     Davidson diagonalization with overlap

---- Real-time Memory Report at c_bands before calling an iterative solver
           165 MiB given to the printing process from OS
             0 MiB allocation reported by mallinfo(arena+hblkhd)
        173480 MiB available memory on the node where the printing process lives
------------------
     c_bands:  3 eigenvalues not converged
     ethr =  1.62E-06,  avg # of iterations = 20.0

     total cpu time spent up to now is        8.3 secs

     total energy              =    -723.90695081 Ry
     estimated scf accuracy    <       0.00088324 Ry

     total magnetization       =     2.00 Bohr mag/cell
     absolute magnetization    =     2.25 Bohr mag/cell

     iteration #  7     ecut=    50.00 Ry     beta= 0.70
     Davidson diagonalization with overlap

---- Real-time Memory Report at c_bands before calling an iterative solver
           165 MiB given to the printing process from OS
             0 MiB allocation reported by mallinfo(arena+hblkhd)
        173473 MiB available memory on the node where the printing process lives
------------------
     c_bands:  1 eigenvalues not converged
     ethr =  3.48E-07,  avg # of iterations = 19.0

     total cpu time spent up to now is        9.3 secs

     total energy              =    -723.90717924 Ry
     estimated scf accuracy    <       0.00011752 Ry

     total magnetization       =     2.00 Bohr mag/cell
     absolute magnetization    =     2.27 Bohr mag/cell

     iteration #  8     ecut=    50.00 Ry     beta= 0.70
     Davidson diagonalization with overlap

---- Real-time Memory Report at c_bands before calling an iterative solver
           166 MiB given to the printing process from OS
             0 MiB allocation reported by mallinfo(arena+hblkhd)
        173471 MiB available memory on the node where the printing process lives
------------------
     c_bands:  2 eigenvalues not converged
     ethr =  4.63E-08,  avg # of iterations = 20.0

     total cpu time spent up to now is       10.1 secs

     total energy              =    -723.90721832 Ry
     estimated scf accuracy    <       0.00002813 Ry

     total magnetization       =     2.00 Bohr mag/cell
     absolute magnetization    =     2.28 Bohr mag/cell

     iteration #  9     ecut=    50.00 Ry     beta= 0.70
     Davidson diagonalization with overlap

---- Real-time Memory Report at c_bands before calling an iterative solver
           166 MiB given to the printing process from OS
             0 MiB allocation reported by mallinfo(arena+hblkhd)
        173472 MiB available memory on the node where the printing process lives
------------------
     c_bands:  3 eigenvalues not converged
     ethr =  1.11E-08,  avg # of iterations = 20.0

     total cpu time spent up to now is       10.9 secs

     total energy              =    -723.90722862 Ry
     estimated scf accuracy    <       0.00000800 Ry

     total magnetization       =     2.00 Bohr mag/cell
     absolute magnetization    =     2.29 Bohr mag/cell

     iteration # 10     ecut=    50.00 Ry     beta= 0.70
     Davidson diagonalization with overlap

---- Real-time Memory Report at c_bands before calling an iterative solver
           166 MiB given to the printing process from OS
             0 MiB allocation reported by mallinfo(arena+hblkhd)
        173466 MiB available memory on the node where the printing process lives
------------------
     c_bands:  2 eigenvalues not converged
     ethr =  3.15E-09,  avg # of iterations = 20.0

     total cpu time spent up to now is       11.5 secs

     total energy              =    -723.90723218 Ry
     estimated scf accuracy    <       0.00000082 Ry

     total magnetization       =     2.00 Bohr mag/cell
     absolute magnetization    =     2.29 Bohr mag/cell

     iteration # 11     ecut=    50.00 Ry     beta= 0.70
     Davidson diagonalization with overlap

---- Real-time Memory Report at c_bands before calling an iterative solver
           166 MiB given to the printing process from OS
             0 MiB allocation reported by mallinfo(arena+hblkhd)
        173473 MiB available memory on the node where the printing process lives
------------------
     c_bands:  1 eigenvalues not converged
     ethr =  3.25E-10,  avg # of iterations = 20.0

     total cpu time spent up to now is       12.1 secs

     total energy              =    -723.90723282 Ry
     estimated scf accuracy    <       0.00000024 Ry

     total magnetization       =     2.00 Bohr mag/cell
     absolute magnetization    =     2.30 Bohr mag/cell

     iteration # 12     ecut=    50.00 Ry     beta= 0.70
     Davidson diagonalization with overlap

---- Real-time Memory Report at c_bands before calling an iterative solver
           166 MiB given to the printing process from OS
             0 MiB allocation reported by mallinfo(arena+hblkhd)
        173470 MiB available memory on the node where the printing process lives
------------------
     c_bands:  1 eigenvalues not converged
     ethr =  9.43E-11,  avg # of iterations = 19.5

     total cpu time spent up to now is       12.6 secs

     total energy              =    -723.90723294 Ry
     estimated scf accuracy    <       0.00000010 Ry

     total magnetization       =     2.00 Bohr mag/cell
     absolute magnetization    =     2.30 Bohr mag/cell

     iteration # 13     ecut=    50.00 Ry     beta= 0.70
     Davidson diagonalization with overlap

---- Real-time Memory Report at c_bands before calling an iterative solver
           166 MiB given to the printing process from OS
             0 MiB allocation reported by mallinfo(arena+hblkhd)
        173475 MiB available memory on the node where the printing process lives
------------------
     ethr =  3.98E-11,  avg # of iterations = 17.5

     total cpu time spent up to now is       13.2 secs

     total energy              =    -723.90723298 Ry
     estimated scf accuracy    <       0.00000002 Ry

     total magnetization       =     2.00 Bohr mag/cell
     absolute magnetization    =     2.30 Bohr mag/cell

     iteration # 14     ecut=    50.00 Ry     beta= 0.70
     Davidson diagonalization with overlap

---- Real-time Memory Report at c_bands before calling an iterative solver
           166 MiB given to the printing process from OS
             0 MiB allocation reported by mallinfo(arena+hblkhd)
        173476 MiB available memory on the node where the printing process lives
------------------
     ethr =  9.61E-12,  avg # of iterations = 17.5
 
     Magnetic moment per site  (integrated on atomic sphere of radius R)
     atom   1 (R=0.085)  charge=  2.9144  magn=  0.0042
     atom   2 (R=0.085)  charge=  1.8171  magn=  0.2450
     atom   3 (R=0.085)  charge=  1.7930  magn= -0.0087
     atom   4 (R=0.085)  charge=  1.8051  magn=  0.2455
     atom   5 (R=0.085)  charge=  1.7932  magn= -0.0087
     atom   6 (R=0.085)  charge=  1.8232  magn=  0.2449
     atom   7 (R=0.085)  charge=  1.7933  magn= -0.0087
     atom   8 (R=0.085)  charge=  1.7860  magn=  0.0091
     atom   9 (R=0.085)  charge=  1.7963  magn= -0.0019
     atom  10 (R=0.085)  charge=  1.7835  magn=  0.0060
     atom  11 (R=0.085)  charge=  1.7969  magn= -0.0042
     atom  12 (R=0.085)  charge=  1.7823  magn=  0.0061
     atom  13 (R=0.085)  charge=  1.8039  magn= -0.0039
     atom  14 (R=0.085)  charge=  1.7892  magn=  0.0085
     atom  15 (R=0.085)  charge=  1.7872  magn= -0.0020
     atom  16 (R=0.085)  charge=  1.7821  magn=  0.0089
     atom  17 (R=0.085)  charge=  1.7956  magn= -0.0018
     atom  18 (R=0.085)  charge=  1.7822  magn=  0.0057
     atom  19 (R=0.085)  charge=  1.7953  magn= -0.0035
     atom  20 (R=0.085)  charge=  1.7834  magn=  0.0083
     atom  21 (R=0.085)  charge=  1.7847  magn= -0.0020
     atom  22 (R=0.085)  charge=  1.7829  magn=  0.0057
     atom  23 (R=0.085)  charge=  1.7905  magn= -0.0037
     atom  24 (R=0.085)  charge=  1.7825  magn=  0.0182
     atom  25 (R=0.085)  charge=  1.8068  magn=  0.0094
     atom  26 (R=0.085)  charge=  1.7935  magn=  0.0032
     atom  27 (R=0.085)  charge=  1.7589  magn=  0.0000
     atom  28 (R=0.085)  charge=  1.7896  magn=  0.0221
     atom  29 (R=0.085)  charge=  1.7824  magn= -0.0014
     atom  30 (R=0.085)  charge=  1.7901  magn=  0.0211
     atom  31 (R=0.085)  charge=  1.7823  magn= -0.0013
     atom  32 (R=0.085)  charge=  1.7843  magn=  0.0090
     atom  33 (R=0.085)  charge=  1.7940  magn= -0.0019
     atom  34 (R=0.085)  charge=  1.7867  magn=  0.0085
     atom  35 (R=0.085)  charge=  1.7865  magn= -0.0020
     atom  36 (R=0.085)  charge=  1.7819  magn=  0.0059
     atom  37 (R=0.085)  charge=  1.8033  magn= -0.0036
     atom  38 (R=0.085)  charge=  1.7839  magn=  0.0058
     atom  39 (R=0.085)  charge=  1.7933  magn= -0.0041
     atom  40 (R=0.085)  charge=  1.7835  magn=  0.0181
     atom  41 (R=0.085)  charge=  1.8109  magn=  0.0094
     atom  42 (R=0.085)  charge=  1.7947  magn=  0.0218
     atom  43 (R=0.085)  charge=  1.7801  magn= -0.0013
     atom  44 (R=0.085)  charge=  1.7936  magn=  0.0032
     atom  45 (R=0.085)  charge=  1.7608  magn= -0.0000
     atom  46 (R=0.085)  charge=  1.7948  magn=  0.0215
     atom  47 (R=0.085)  charge=  1.7819  magn= -0.0013
     atom  48 (R=0.085)  charge=  1.7818  magn=  0.0184
     atom  49 (R=0.085)  charge=  1.8043  magn=  0.0094
     atom  50 (R=0.085)  charge=  1.7873  magn=  0.0212
     atom  51 (R=0.085)  charge=  1.7826  magn= -0.0013
     atom  52 (R=0.085)  charge=  1.7868  magn=  0.0217
     atom  53 (R=0.085)  charge=  1.7826  magn= -0.0013
     atom  54 (R=0.085)  charge=  1.7935  magn=  0.0032
     atom  55 (R=0.085)  charge=  1.7588  magn=  0.0001
     atom  56 (R=0.085)  charge=  1.7914  magn=  0.0009
     atom  57 (R=0.085)  charge=  1.7832  magn=  0.0010
     atom  58 (R=0.085)  charge=  1.7914  magn=  0.0018
     atom  59 (R=0.085)  charge=  1.7879  magn= -0.0009
     atom  60 (R=0.085)  charge=  1.7911  magn=  0.0017
     atom  61 (R=0.085)  charge=  1.7855  magn= -0.0009
     atom  62 (R=0.085)  charge=  1.7913  magn=  0.0019
     atom  63 (R=0.085)  charge=  1.7891  magn= -0.0009

     total cpu time spent up to now is       13.7 secs

     End of self-consistent calculation

 ------ SPIN UP ------------


          k = 0.0000 0.0000 0.0000 (  7386 PWs)   bands (ev):

    -8.5508  -6.9239  -6.2850  -6.2693  -6.1920  -6.1593  -5.8807  -4.9113
    -4.1419  -4.1294  -4.1213  -4.0958  -4.0298  -4.0191  -4.0120  -3.9193
    -3.8722  -3.8651  -3.3598  -2.9312  -2.6776  -2.6740  -2.1582  -0.3604
    -0.3519  -0.3271  -0.2837  -0.0776   0.1700   0.1927   0.2810   0.2947
     0.3679   0.6180   0.8349   0.8465   0.9545   0.9759   0.9871   1.0538
     1.0596   1.0638   1.2667   1.2971   3.0718   3.9071   3.9248   4.0671
     4.1907   4.2074   4.2229   4.2756   4.2823   4.2867   4.4222   4.4266
     4.4958   4.4981   4.5697   4.6606   4.6809   4.6891   4.6913   4.7850
     4.7965   4.9235   4.9703   4.9730   5.0462   5.1988   5.2072   5.2991
     5.3585   5.3707   5.3980   5.4024   5.4101   6.0439   6.0457   6.1013
     6.6614   6.6659   6.7267   6.9893   7.0033   7.0398   7.5301   8.3328
     8.3384   8.4100   8.4689   8.4904   8.6864   8.7096   8.7897   8.8281
     8.8445   8.8504   8.8911   8.9002   8.9032   9.2901   9.2907   9.3234
     9.6815   9.7034   9.8984   9.9128   9.9432   9.9622   9.9689   9.9776
     9.9895  10.0272  10.0366  10.0568  10.1231  10.1361  10.2685  10.3239
    10.3357  11.0523  12.2853  12.4192  12.4342  13.9540  14.6912  14.7981
    17.3374  17.3778  17.4104  17.5244  17.5768  17.5824  17.8514  17.9247
    17.9417  18.0293  18.0675  18.3636  18.9895  19.0061  19.0235  20.6934
    20.8017  20.8241  20.8792  20.9409  20.9490  21.0251  21.0317  21.0453

     occupation numbers 
     1.0000   1.0000   1.0000   1.0000   1.0000   1.0000   1.0000   1.0000
     1.0000   1.0000   1.0000   1.0000   1.0000   1.0000   1.0000   1.0000
     1.0000   1.0000   1.0000   1.0000   1.0000   1.0000   1.0000   1.0000
     1.0000   1.0000   1.0000   1.0000   1.0000   1.0000   1.0000   1.0000
     1.0000   1.0000   1.0000   1.0000   1.0000   1.0000   1.0000   1.0000
     1.0000   1.0000   1.0000   1.0000   1.0000   1.0000   1.0000   1.0000
     1.0000   1.0000   1.0000   1.0000   1.0000   1.0000   1.0000   1.0000
     1.0000   1.0000   1.0000   1.0000   1.0000   1.0000   1.0000   1.0000
     1.0000   1.0000   1.0000   1.0000   1.0000   1.0000   1.0000   1.0000
     1.0000   1.0000   1.0000   1.0000   1.0000   1.0000   1.0000   1.0000
     1.0000   1.0000   1.0000   1.0000   1.0000   1.0000   1.0000   1.0000
     1.0000   1.0000   1.0000   1.0000   1.0000   1.0000   1.0000   1.0000
     1.0000   1.0000   1.0000   1.0000   1.0000   1.0000   1.0000   1.0000
     1.0000   1.0000   1.0000   1.0000   1.0000   1.0000   1.0000   1.0000
     1.0000   1.0000   1.0000   1.0000   1.0000   1.0000   1.0000   1.0000
     1.0000   1.0000   1.0000   1.0000   1.0000   1.0000   1.0000   1.0000
     0.0000   0.0000   0.0000   0.0000   0.0000   0.0000   0.0000   0.0000
     0.0000   0.0000   0.0000   0.0000   0.0000   0.0000   0.0000   0.0000
     0.0000   0.0000   0.0000   0.0000   0.0000   0.0000   0.0000   0.0000

 ------ SPIN DOWN ----------


          k = 0.0000 0.0000 0.0000 (  7386 PWs)   bands (ev):

    -8.5254  -6.9095  -6.2628  -6.2456  -6.1476  -6.1170  -5.8435  -4.8945
    -4.1213  -4.1027  -4.0848  -4.0642  -3.9930  -3.9820  -3.9643  -3.9073
    -3.8368  -3.8240  -3.3175  -2.9126  -2.6247  -2.6208  -2.0134  -0.3428
    -0.3338  -0.3057  -0.2664  -0.0121   0.1890   0.2100   0.3186   0.3278
     0.3930   0.6526   0.8468   0.8583   0.9875   1.0064   1.0126   1.0688
     1.0766   1.0812   1.4326   1.4672   3.1856   3.9302   3.9469   4.0932
     4.2248   4.2505   4.2657   4.2900   4.3003   4.3141   4.4685   4.4746
     4.5184   4.5190   4.5933   4.6848   4.7022   4.7034   4.7121   4.8196
     4.8330   4.9368   5.0019   5.0042   5.1275   5.2329   5.2422   5.3231
     5.3738   5.3814   5.4180   5.4557   5.4698   6.1050   6.1063   6.1393
     6.6879   6.6932   6.7610   7.0760   7.0854   7.1008   7.6998   8.3710
     8.3772   8.4472   8.5048   8.5252   8.7201   8.7409   8.8252   8.8716
     8.8777   8.8882   8.9246   8.9311   8.9352   9.3262   9.3274   9.3510
     9.7088   9.7308   9.9304   9.9391   9.9548   9.9762   9.9840   9.9967
    10.0093  10.0615  10.0697  10.0765  10.1509  10.1619  10.3262  10.3783
    10.3907  11.4322  12.5625  12.5656  12.6015  14.4373  16.0172  16.1383
    17.3631  17.3953  17.4273  17.5516  17.6322  17.6391  17.8742  17.9441
    17.9601  18.0694  18.1079  18.4829  19.0510  19.0715  19.1103  20.7440
    20.8160  20.8382  20.8939  20.9589  20.9672  21.0437  21.0582  21.0609

     occupation numbers 
     1.0000   1.0000   1.0000   1.0000   1.0000   1.0000   1.0000   1.0000
     1.0000   1.0000   1.0000   1.0000   1.0000   1.0000   1.0000   1.0000
     1.0000   1.0000   1.0000   1.0000   1.0000   1.0000   1.0000   1.0000
     1.0000   1.0000   1.0000   1.0000   1.0000   1.0000   1.0000   1.0000
     1.0000   1.0000   1.0000   1.0000   1.0000   1.0000   1.0000   1.0000
     1.0000   1.0000   1.0000   1.0000   1.0000   1.0000   1.0000   1.0000
     1.0000   1.0000   1.0000   1.0000   1.0000   1.0000   1.0000   1.0000
     1.0000   1.0000   1.0000   1.0000   1.0000   1.0000   1.0000   1.0000
     1.0000   1.0000   1.0000   1.0000   1.0000   1.0000   1.0000   1.0000
     1.0000   1.0000   1.0000   1.0000   1.0000   1.0000   1.0000   1.0000
     1.0000   1.0000   1.0000   1.0000   1.0000   1.0000   1.0000   1.0000
     1.0000   1.0000   1.0000   1.0000   1.0000   1.0000   1.0000   1.0000
     1.0000   1.0000   1.0000   1.0000   1.0000   1.0000   1.0000   1.0000
     1.0000   1.0000   1.0000   1.0000   1.0000   1.0000   1.0000   1.0000
     1.0000   1.0000   1.0000   1.0000   1.0000   1.0000   1.0000   1.0000
     1.0000   1.0000   1.0000   1.0000   1.0000   1.0000   0.0000   0.0000
     0.0000   0.0000   0.0000   0.0000   0.0000   0.0000   0.0000   0.0000
     0.0000   0.0000   0.0000   0.0000   0.0000   0.0000   0.0000   0.0000
     0.0000   0.0000   0.0000   0.0000   0.0000   0.0000   0.0000   0.0000

     highest occupied, lowest unoccupied level (ev):    14.7981   16.0172

!    total energy              =    -723.90723299 Ry
     estimated scf accuracy    <          5.2E-09 Ry

     The total energy is the sum of the following terms:
     one-electron contribution =     232.30280740 Ry
     hartree contribution      =      70.32707953 Ry
     xc contribution           =    -226.77182762 Ry
     ewald contribution        =    -799.76529230 Ry

     total magnetization       =     2.00 Bohr mag/cell
     absolute magnetization    =     2.30 Bohr mag/cell

     convergence has been achieved in  14 iterations

     Forces acting on atoms (cartesian axes, Ry/au):

     atom    1 type  1   force =    -0.00210263   -0.00454487   -0.00284942
     atom    2 type  2   force =     0.03577958    0.01611615   -0.01193521
     atom    3 type  2   force =    -0.00927604    0.00859853    0.00634195
     atom    4 type  2   force =     0.00877485    0.02477862   -0.00278751
     atom    5 type  2   force =     0.00235944   -0.02135816    0.00156179
     atom    6 type  2   force =    -0.00831968    0.00829765    0.04333672
     atom    7 type  2   force =     0.01019751    0.01204258   -0.00205093
     atom    8 type  2   force =     0.00304761    0.00431860    0.00654671
     atom    9 type  2   force =    -0.00203620   -0.00466615   -0.00305547
     atom   10 type  2   force =     0.00138135    0.00099585    0.00680261
     atom   11 type  2   force =    -0.02865834    0.00585157   -0.00872292
     atom   12 type  2   force =    -0.00010058    0.00389508    0.00338846
     atom   13 type  2   force =    -0.00287768   -0.03995657   -0.00186028
     atom   14 type  2   force =     0.00346637    0.00212384   -0.00437937
     atom   15 type  2   force =    -0.00273367   -0.00124479   -0.00560234
     atom   16 type  2   force =     0.00070846   -0.00043300   -0.00065321
     atom   17 type  2   force =    -0.00131218    0.00647595    0.00014374
     atom   18 type  2   force =     0.00291490   -0.00021614    0.00094188
     atom   19 type  2   force =    -0.00918298   -0.00317236   -0.00520289
     atom   20 type  2   force =     0.00292415   -0.00436938    0.00352176
     atom   21 type  2   force =    -0.00113964   -0.00411298   -0.00213232
     atom   22 type  2   force =     0.00147196    0.00210982    0.00126587
     atom   23 type  2   force =    -0.00054121   -0.00705733   -0.00155916
     atom   24 type  2   force =     0.00968542    0.00540495    0.00431009
     atom   25 type  2   force =    -0.01235713   -0.01380976   -0.00405163
     atom   26 type  2   force =     0.01492839    0.00608922    0.00170816
     atom   27 type  2   force =    -0.02568367   -0.00871857   -0.00638908
     atom   28 type  2   force =     0.01048857    0.00070844    0.00587207
     atom   29 type  2   force =    -0.00008646   -0.00173326   -0.00135889
     atom   30 type  2   force =     0.00772067    0.00652379    0.00412439
     atom   31 type  2   force =     0.00104329   -0.00157705   -0.00348551
     atom   32 type  2   force =     0.00383362    0.00451014    0.00110118
     atom   33 type  2   force =     0.00459130   -0.00342955   -0.00114346
     atom   34 type  2   force =    -0.00409691    0.00201246    0.00293925
     atom   35 type  2   force =    -0.00505765   -0.00090784   -0.00325573
     atom   36 type  2   force =    -0.00000319    0.00401488    0.00019599
     atom   37 type  2   force =     0.00064358   -0.03265723   -0.00721586
     atom   38 type  2   force =    -0.01107717    0.00143852   -0.00010471
     atom   39 type  2   force =    -0.00623944    0.00710965   -0.01293395
     atom   40 type  2   force =     0.00542005    0.01261116    0.00496608
     atom   41 type  2   force =    -0.00746069   -0.01545629   -0.00374668
     atom   42 type  2   force =     0.00046467    0.01709788    0.00665560
     atom   43 type  2   force =     0.00278273    0.00006615   -0.00039003
     atom   44 type  2   force =     0.00402646    0.01744995    0.00336557
     atom   45 type  2   force =    -0.00365443   -0.02722596   -0.00751904
     atom   46 type  2   force =     0.00651793    0.01608155    0.00114411
     atom   47 type  2   force =    -0.00129020    0.00129415   -0.00181349
     atom   48 type  2   force =     0.00543039    0.00496205    0.00808498
     atom   49 type  2   force =    -0.00804367   -0.01404459   -0.01014958
     atom   50 type  2   force =     0.00428968    0.00665152    0.00349123
     atom   51 type  2   force =    -0.00381713   -0.00190505    0.00037416
     atom   52 type  2   force =     0.00591842    0.00175277    0.00458763
     atom   53 type  2   force =    -0.00152723   -0.00310488   -0.00046976
     atom   54 type  2   force =     0.00263563    0.00542201    0.01398643
     atom   55 type  2   force =    -0.00718502   -0.00848247   -0.02492572
     atom   56 type  2   force =     0.00479999    0.00464456    0.00473650
     atom   57 type  2   force =    -0.00160450   -0.00058353   -0.00234324
     atom   58 type  2   force =     0.00149802    0.00404045    0.00329222
     atom   59 type  2   force =    -0.00129939   -0.00274573   -0.00371747
     atom   60 type  2   force =     0.00204064    0.00228655    0.00200376
     atom   61 type  2   force =    -0.00345809   -0.00187297   -0.00382755
     atom   62 type  2   force =     0.00386413    0.00447915    0.00115339
     atom   63 type  2   force =    -0.00342698   -0.00286972   -0.00031190
     The non-local contrib.  to forces
     atom    1 type  1   force =    -0.76019056   -0.76581452   -0.75914173
     atom    2 type  2   force =    -0.16417983    0.22067300    0.17885064
     atom    3 type  2   force =     0.05696148    0.08127209    0.07290879
     atom    4 type  2   force =     0.21496570   -0.18841684    0.19779820
     atom    5 type  2   force =     0.07305967    0.04257103    0.06989806
     atom    6 type  2   force =     0.17928190    0.20427768   -0.14643554
     atom    7 type  2   force =     0.07719608    0.08321861    0.06437718
     atom    8 type  2   force =    -0.00443035   -0.00469282    0.05679062
     atom    9 type  2   force =    -0.00542139   -0.00778657    0.01291743
     atom   10 type  2   force =    -0.04379459   -0.01408459   -0.01218333
     atom   11 type  2   force =    -0.10409701    0.06755613   -0.08307574
     atom   12 type  2   force =    -0.01741361   -0.04099216   -0.01466756
     atom   13 type  2   force =     0.05196633   -0.11654245   -0.07343466
     atom   14 type  2   force =     0.00290556    0.00051788    0.04556033
     atom   15 type  2   force =     0.01023468    0.00900270   -0.00349394
     atom   16 type  2   force =    -0.01182376    0.04920263   -0.01318349
     atom   17 type  2   force =    -0.00439433    0.02758060   -0.00319567
     atom   18 type  2   force =    -0.04101278   -0.02215152   -0.01565251
     atom   19 type  2   force =    -0.08109094   -0.07902352    0.05522737
     atom   20 type  2   force =     0.00438160    0.04486555    0.00503703
     atom   21 type  2   force =     0.01074403   -0.00321435    0.01121042
     atom   22 type  2   force =    -0.01423898   -0.02022801   -0.04252452
     atom   23 type  2   force =     0.06358898   -0.08428762   -0.07276534
     atom   24 type  2   force =    -0.06468802    0.03329645    0.03408651
     atom   25 type  2   force =    -0.02440736    0.00024874    0.01387700
     atom   26 type  2   force =    -0.04188669   -0.02069106   -0.02366842
     atom   27 type  2   force =    -0.14691055    0.12477566    0.12327763
     atom   28 type  2   force =     0.07995209    0.02347375   -0.01264075
     atom   29 type  2   force =     0.00077719    0.01816555    0.00498887
     atom   30 type  2   force =     0.07660954   -0.01318517    0.02889287
     atom   31 type  2   force =     0.00328224    0.00324957    0.01662797
     atom   32 type  2   force =     0.05359604   -0.00604512   -0.00715374
     atom   33 type  2   force =     0.02199489   -0.00643114   -0.00463064
     atom   34 type  2   force =     0.04544365    0.00113368    0.00326023
     atom   35 type  2   force =    -0.00343311    0.00902558    0.01028812
     atom   36 type  2   force =    -0.01803303   -0.04128370   -0.01693158
     atom   37 type  2   force =    -0.07156596   -0.10845563    0.04786910
     atom   38 type  2   force =    -0.03600933   -0.01366726   -0.04524292
     atom   39 type  2   force =    -0.08309474    0.07235776   -0.08673715
     atom   40 type  2   force =     0.03500032   -0.05840886    0.03558409
     atom   41 type  2   force =     0.00909391   -0.02645181    0.01413804
     atom   42 type  2   force =     0.02160831    0.08883496   -0.00917494
     atom   43 type  2   force =     0.02068881   -0.00034315    0.00443562
     atom   44 type  2   force =    -0.02207409   -0.03583560   -0.02228329
     atom   45 type  2   force =     0.12812267   -0.14804490    0.12239676
     atom   46 type  2   force =    -0.00991718    0.08707418    0.02318295
     atom   47 type  2   force =     0.00342088    0.00102357    0.01608864
     atom   48 type  2   force =     0.03413709    0.03240000   -0.06831240
     atom   49 type  2   force =     0.00860539   -0.00005172   -0.02272017
     atom   50 type  2   force =     0.02965084   -0.01464208    0.07129739
     atom   51 type  2   force =     0.01673967    0.00314436    0.00382363
     atom   52 type  2   force =    -0.01370320    0.02546327    0.07201374
     atom   53 type  2   force =     0.00450710    0.01744494    0.00120015
     atom   54 type  2   force =    -0.02267516   -0.02064796   -0.04389400
     atom   55 type  2   force =     0.12348901    0.12432631   -0.14659761
     atom   56 type  2   force =     0.02279906    0.02397865    0.02201047
     atom   57 type  2   force =     0.00493812    0.00541326    0.00492148
     atom   58 type  2   force =     0.01611865   -0.00635211   -0.00993187
     atom   59 type  2   force =     0.00801386   -0.01419240   -0.01565381
     atom   60 type  2   force =    -0.00989258    0.01930351   -0.01247759
     atom   61 type  2   force =    -0.01479829    0.00881512   -0.01529173
     atom   62 type  2   force =    -0.00794145   -0.00591562    0.01525773
     atom   63 type  2   force =    -0.01603373   -0.01459015    0.00893503
     The ionic contribution  to forces
     atom    1 type  1   force =     2.98790538    2.94347830    2.99716608
     atom    2 type  2   force =     2.41559571   -2.05925796   -2.20703055
     atom    3 type  2   force =     0.48293286   -0.72958974   -0.85122301
     atom    4 type  2   force =    -2.08725993    2.33363088   -2.15753905
     atom    5 type  2   force =    -0.77648710    0.40153803   -0.82738058
     atom    6 type  2   force =    -2.17767593   -2.09825651    2.46004957
     atom    7 type  2   force =    -0.81640193   -0.75142741    0.53477393
     atom    8 type  2   force =     0.25692720    0.21432945   -0.72703107
     atom    9 type  2   force =     0.06809362    0.02596037   -0.22541815
     atom   10 type  2   force =     0.18426333    0.07108566    0.55737947
     atom   11 type  2   force =    -0.52041346   -0.62489058    0.80085031
     atom   12 type  2   force =     0.03152496    0.16046775    0.55053106
     atom   13 type  2   force =    -0.65540467   -0.56405020    0.76368623
     atom   14 type  2   force =    -0.19202596   -0.18007342   -0.71483627
     atom   15 type  2   force =    -0.16666634   -0.13114449   -0.06708063
     atom   16 type  2   force =     0.20441030   -0.76663538    0.22537401
     atom   17 type  2   force =     0.07347972   -0.15489612    0.09427933
     atom   18 type  2   force =     0.22316007    0.46904687    0.00296171
     atom   19 type  2   force =    -0.36078912    0.74790728   -0.70639769
     atom   20 type  2   force =    -0.17787103   -0.73038270   -0.19034427
     atom   21 type  2   force =    -0.17335679   -0.05826490   -0.20062108
     atom   22 type  2   force =     0.02984844    0.47835054    0.23722334
     atom   23 type  2   force =    -0.68625445    0.77946566   -0.33213030
     atom   24 type  2   force =     0.10616680   -0.13584951   -0.17062417
     atom   25 type  2   force =    -0.02463437   -0.07895975   -0.07074811
     atom   26 type  2   force =     0.13031102   -0.09381473   -0.04979716
     atom   27 type  2   force =     1.14280121    0.24252008    0.24964595
     atom   28 type  2   force =    -0.07904063   -0.13587951    0.11285222
     atom   29 type  2   force =    -0.15232663    0.03013132    0.25746106
     atom   30 type  2   force =    -0.01871664    0.13816247   -0.23478511
     atom   31 type  2   force =    -0.15194483    0.17325764   -0.00790632
     atom   32 type  2   force =    -0.73899871    0.20341465    0.26225429
     atom   33 type  2   force =    -0.19970597    0.05583427    0.06517978
     atom   34 type  2   force =    -0.71320476   -0.17617115   -0.20755015
     atom   35 type  2   force =    -0.06562539   -0.13492643   -0.20046207
     atom   36 type  2   force =     0.50950979    0.17504870    0.00303454
     atom   37 type  2   force =     0.73415298   -0.50109480   -0.68968252
     atom   38 type  2   force =     0.47834273    0.06932839    0.21252181
     atom   39 type  2   force =     0.80911029   -0.61258079   -0.40553216
     atom   40 type  2   force =    -0.19655768    0.06293896   -0.20982444
     atom   41 type  2   force =    -0.07263515   -0.08681048   -0.06605578
     atom   42 type  2   force =    -0.12707783    0.02687385    0.09711134
     atom   43 type  2   force =     0.03390328   -0.13883102    0.27889304
     atom   44 type  2   force =    -0.07696933    0.12286782   -0.05418434
     atom   45 type  2   force =     0.24443230    1.13395076    0.22296490
     atom   46 type  2   force =     0.09706837    0.05058366   -0.16991459
     atom   47 type  2   force =     0.22125436   -0.11340141    0.01421073
     atom   48 type  2   force =    -0.12763309   -0.11880299    0.13775376
     atom   49 type  2   force =    -0.07687752   -0.08383845    0.00632852
     atom   50 type  2   force =    -0.23644276    0.15299475   -0.08359340
     atom   51 type  2   force =    -0.01085678    0.17494385   -0.18092845
     atom   52 type  2   force =     0.13368504   -0.17720861   -0.12174155
     atom   53 type  2   force =     0.22694834    0.01402299   -0.18154041
     atom   54 type  2   force =    -0.06603207   -0.09069243    0.13894292
     atom   55 type  2   force =     0.24264435    0.24015474    1.13295578
     atom   56 type  2   force =    -0.09088390   -0.03078226   -0.12471346
     atom   57 type  2   force =    -0.02362234   -0.03506499   -0.01893207
     atom   58 type  2   force =    -0.07656076    0.04808894    0.04081152
     atom   59 type  2   force =    -0.28690150    0.07946043    0.15495689
     atom   60 type  2   force =     0.05485125   -0.03592273    0.05900461
     atom   61 type  2   force =     0.12921958   -0.30043438    0.15784624
     atom   62 type  2   force =     0.02902449    0.03691333   -0.09935130
     atom   63 type  2   force =     0.12228760    0.07318341   -0.27410471
     The local contribution  to forces
     atom    1 type  1   force =    -2.22987913   -2.18221400   -2.24093339
     atom    2 type  2   force =    -2.21570799    1.85469206    2.01618398
     atom    3 type  2   force =    -0.54927346    0.65687927    0.78458795
     atom    4 type  2   force =     1.88097331   -2.12045257    1.95689535
     atom    5 type  2   force =     0.70567834   -0.46547952    0.75899478
     atom    6 type  2   force =     1.98997320    1.90226766   -2.27034218
     atom    7 type  2   force =     0.74928846    0.68022947   -0.60127631
     atom    8 type  2   force =    -0.24951249   -0.20531830    0.67673118
     atom    9 type  2   force =    -0.06478092   -0.02284515    0.20938792
     atom   10 type  2   force =    -0.13914534   -0.05602271   -0.53844873
     atom   11 type  2   force =     0.59578305    0.56316059   -0.72654867
     atom   12 type  2   force =    -0.01430026   -0.11559935   -0.53252882
     atom   13 type  2   force =     0.60045434    0.64062385   -0.69217434
     atom   14 type  2   force =     0.19248023    0.18166491    0.66484573
     atom   15 type  2   force =     0.15358324    0.12086951    0.06493263
     atom   16 type  2   force =    -0.19194111    0.71695257   -0.21289405
     atom   17 type  2   force =    -0.07047293    0.13373502   -0.09100406
     atom   18 type  2   force =    -0.17929381   -0.44715958    0.01356387
     atom   19 type  2   force =     0.43262533   -0.67208446    0.64591243
     atom   20 type  2   force =     0.17630590    0.68110776    0.18876375
     atom   21 type  2   force =     0.16135911    0.05733048    0.18722078
     atom   22 type  2   force =    -0.01422376   -0.45605673   -0.19350200
     atom   23 type  2   force =     0.62202629   -0.70227229    0.40326233
     atom   24 type  2   force =    -0.03185577    0.10790341    0.14078073
     atom   25 type  2   force =     0.03661532    0.06485247    0.05276768
     atom   26 type  2   force =    -0.07356213    0.12055607    0.07512523
     atom   27 type  2   force =    -1.02165275   -0.37603901   -0.37936792
     atom   28 type  2   force =     0.00949001    0.11307490   -0.09439063
     atom   29 type  2   force =     0.15136016   -0.05007585   -0.26386729
     atom   30 type  2   force =    -0.05025726   -0.11849779    0.20996769
     atom   31 type  2   force =     0.14960177   -0.17811435   -0.01225674
     atom   32 type  2   force =     0.68913333   -0.19288552   -0.25406948
     atom   33 type  2   force =     0.18221464   -0.05284477   -0.06175756
     atom   34 type  2   force =     0.66356683    0.17703351    0.20716519
     atom   35 type  2   force =     0.06392405    0.12495899    0.18685366
     atom   36 type  2   force =    -0.49155586   -0.12974915    0.01402111
     atom   37 type  2   force =    -0.66199985    0.57691202    0.63452281
     atom   38 type  2   force =    -0.45348241   -0.05424126   -0.16743014
     atom   39 type  2   force =    -0.73230896    0.54729186    0.47929444
     atom   40 type  2   force =     0.16686507    0.00806090    0.17916116
     atom   41 type  2   force =     0.05597707    0.09778940    0.04811846
     atom   42 type  2   force =     0.10581589   -0.09862594   -0.08133312
     atom   43 type  2   force =    -0.05191781    0.13921935   -0.28377173
     atom   44 type  2   force =     0.10298253   -0.06960936    0.07978656
     atom   45 type  2   force =    -0.37627165   -1.01315267   -0.35292318
     atom   46 type  2   force =    -0.08070330   -0.12158820    0.14780315
     atom   47 type  2   force =    -0.22602534    0.11364258   -0.03218531
     atom   48 type  2   force =     0.09881504    0.09133401   -0.06142803
     atom   49 type  2   force =     0.06012776    0.06980154    0.00616509
     atom   50 type  2   force =     0.21096588   -0.13174174    0.01571934
     atom   51 type  2   force =    -0.00981012   -0.18001601    0.17742112
     atom   52 type  2   force =    -0.11413159    0.15343889    0.05425237
     atom   53 type  2   force =    -0.23304223   -0.03464195    0.17980784
     atom   54 type  2   force =     0.09125275    0.11672480   -0.08113677
     atom   55 type  2   force =    -0.37338495   -0.37297899   -1.01136298
     atom   56 type  2   force =     0.07277432    0.01141370    0.10739295
     atom   57 type  2   force =     0.01697588    0.02902995    0.01162813
     atom   58 type  2   force =     0.06183352   -0.03773593   -0.02763453
     atom   59 type  2   force =     0.27748782   -0.06804848   -0.14307690
     atom   60 type  2   force =    -0.04300677    0.01887928   -0.04457347
     atom   61 type  2   force =    -0.11795281    0.28970956   -0.14643669
     atom   62 type  2   force =    -0.01730653   -0.02656179    0.08520706
     atom   63 type  2   force =    -0.10975225   -0.06149147    0.26481967
     The core correction contribution to forces
     atom    1 type  1   force =     0.00000000    0.00000000    0.00000000
     atom    2 type  2   force =     0.00000000    0.00000000    0.00000000
     atom    3 type  2   force =     0.00000000    0.00000000    0.00000000
     atom    4 type  2   force =     0.00000000    0.00000000    0.00000000
     atom    5 type  2   force =     0.00000000    0.00000000    0.00000000
     atom    6 type  2   force =     0.00000000    0.00000000    0.00000000
     atom    7 type  2   force =     0.00000000    0.00000000    0.00000000
     atom    8 type  2   force =     0.00000000    0.00000000    0.00000000
     atom    9 type  2   force =     0.00000000    0.00000000    0.00000000
     atom   10 type  2   force =     0.00000000    0.00000000    0.00000000
     atom   11 type  2   force =     0.00000000    0.00000000    0.00000000
     atom   12 type  2   force =     0.00000000    0.00000000    0.00000000
     atom   13 type  2   force =     0.00000000    0.00000000    0.00000000
     atom   14 type  2   force =     0.00000000    0.00000000    0.00000000
     atom   15 type  2   force =     0.00000000    0.00000000    0.00000000
     atom   16 type  2   force =     0.00000000    0.00000000    0.00000000
     atom   17 type  2   force =     0.00000000    0.00000000    0.00000000
     atom   18 type  2   force =     0.00000000    0.00000000    0.00000000
     atom   19 type  2   force =     0.00000000    0.00000000    0.00000000
     atom   20 type  2   force =     0.00000000    0.00000000    0.00000000
     atom   21 type  2   force =     0.00000000    0.00000000    0.00000000
     atom   22 type  2   force =     0.00000000    0.00000000    0.00000000
     atom   23 type  2   force =     0.00000000    0.00000000    0.00000000
     atom   24 type  2   force =     0.00000000    0.00000000    0.00000000
     atom   25 type  2   force =     0.00000000    0.00000000    0.00000000
     atom   26 type  2   force =     0.00000000    0.00000000    0.00000000
     atom   27 type  2   force =     0.00000000    0.00000000    0.00000000
     atom   28 type  2   force =     0.00000000    0.00000000    0.00000000
     atom   29 type  2   force =     0.00000000    0.00000000    0.00000000
     atom   30 type  2   force =     0.00000000    0.00000000    0.00000000
     atom   31 type  2   force =     0.00000000    0.00000000    0.00000000
     atom   32 type  2   force =     0.00000000    0.00000000    0.00000000
     atom   33 type  2   force =     0.00000000    0.00000000    0.00000000
     atom   34 type  2   force =     0.00000000    0.00000000    0.00000000
     atom   35 type  2   force =     0.00000000    0.00000000    0.00000000
     atom   36 type  2   force =     0.00000000    0.00000000    0.00000000
     atom   37 type  2   force =     0.00000000    0.00000000    0.00000000
     atom   38 type  2   force =     0.00000000    0.00000000    0.00000000
     atom   39 type  2   force =     0.00000000    0.00000000    0.00000000
     atom   40 type  2   force =     0.00000000    0.00000000    0.00000000
     atom   41 type  2   force =     0.00000000    0.00000000    0.00000000
     atom   42 type  2   force =     0.00000000    0.00000000    0.00000000
     atom   43 type  2   force =     0.00000000    0.00000000    0.00000000
     atom   44 type  2   force =     0.00000000    0.00000000    0.00000000
     atom   45 type  2   force =     0.00000000    0.00000000    0.00000000
     atom   46 type  2   force =     0.00000000    0.00000000    0.00000000
     atom   47 type  2   force =     0.00000000    0.00000000    0.00000000
     atom   48 type  2   force =     0.00000000    0.00000000    0.00000000
     atom   49 type  2   force =     0.00000000    0.00000000    0.00000000
     atom   50 type  2   force =     0.00000000    0.00000000    0.00000000
     atom   51 type  2   force =     0.00000000    0.00000000    0.00000000
     atom   52 type  2   force =     0.00000000    0.00000000    0.00000000
     atom   53 type  2   force =     0.00000000    0.00000000    0.00000000
     atom   54 type  2   force =     0.00000000    0.00000000    0.00000000
     atom   55 type  2   force =     0.00000000    0.00000000    0.00000000
     atom   56 type  2   force =     0.00000000    0.00000000    0.00000000
     atom   57 type  2   force =     0.00000000    0.00000000    0.00000000
     atom   58 type  2   force =     0.00000000    0.00000000    0.00000000
     atom   59 type  2   force =     0.00000000    0.00000000    0.00000000
     atom   60 type  2   force =     0.00000000    0.00000000    0.00000000
     atom   61 type  2   force =     0.00000000    0.00000000    0.00000000
     atom   62 type  2   force =     0.00000000    0.00000000    0.00000000
     atom   63 type  2   force =     0.00000000    0.00000000    0.00000000
     The Hubbard contrib.    to forces
     atom    1 type  1   force =     0.00000000    0.00000000    0.00000000
     atom    2 type  2   force =     0.00000000    0.00000000    0.00000000
     atom    3 type  2   force =     0.00000000    0.00000000    0.00000000
     atom    4 type  2   force =     0.00000000    0.00000000    0.00000000
     atom    5 type  2   force =     0.00000000    0.00000000    0.00000000
     atom    6 type  2   force =     0.00000000    0.00000000    0.00000000
     atom    7 type  2   force =     0.00000000    0.00000000    0.00000000
     atom    8 type  2   force =     0.00000000    0.00000000    0.00000000
     atom    9 type  2   force =     0.00000000    0.00000000    0.00000000
     atom   10 type  2   force =     0.00000000    0.00000000    0.00000000
     atom   11 type  2   force =     0.00000000    0.00000000    0.00000000
     atom   12 type  2   force =     0.00000000    0.00000000    0.00000000
     atom   13 type  2   force =     0.00000000    0.00000000    0.00000000
     atom   14 type  2   force =     0.00000000    0.00000000    0.00000000
     atom   15 type  2   force =     0.00000000    0.00000000    0.00000000
     atom   16 type  2   force =     0.00000000    0.00000000    0.00000000
     atom   17 type  2   force =     0.00000000    0.00000000    0.00000000
     atom   18 type  2   force =     0.00000000    0.00000000    0.00000000
     atom   19 type  2   force =     0.00000000    0.00000000    0.00000000
     atom   20 type  2   force =     0.00000000    0.00000000    0.00000000
     atom   21 type  2   force =     0.00000000    0.00000000    0.00000000
     atom   22 type  2   force =     0.00000000    0.00000000    0.00000000
     atom   23 type  2   force =     0.00000000    0.00000000    0.00000000
     atom   24 type  2   force =     0.00000000    0.00000000    0.00000000
     atom   25 type  2   force =     0.00000000    0.00000000    0.00000000
     atom   26 type  2   force =     0.00000000    0.00000000    0.00000000
     atom   27 type  2   force =     0.00000000    0.00000000    0.00000000
     atom   28 type  2   force =     0.00000000    0.00000000    0.00000000
     atom   29 type  2   force =     0.00000000    0.00000000    0.00000000
     atom   30 type  2   force =     0.00000000    0.00000000    0.00000000
     atom   31 type  2   force =     0.00000000    0.00000000    0.00000000
     atom   32 type  2   force =     0.00000000    0.00000000    0.00000000
     atom   33 type  2   force =     0.00000000    0.00000000    0.00000000
     atom   34 type  2   force =     0.00000000    0.00000000    0.00000000
     atom   35 type  2   force =     0.00000000    0.00000000    0.00000000
     atom   36 type  2   force =     0.00000000    0.00000000    0.00000000
     atom   37 type  2   force =     0.00000000    0.00000000    0.00000000
     atom   38 type  2   force =     0.00000000    0.00000000    0.00000000
     atom   39 type  2   force =     0.00000000    0.00000000    0.00000000
     atom   40 type  2   force =     0.00000000    0.00000000    0.00000000
     atom   41 type  2   force =     0.00000000    0.00000000    0.00000000
     atom   42 type  2   force =     0.00000000    0.00000000    0.00000000
     atom   43 type  2   force =     0.00000000    0.00000000    0.00000000
     atom   44 type  2   force =     0.00000000    0.00000000    0.00000000
     atom   45 type  2   force =     0.00000000    0.00000000    0.00000000
     atom   46 type  2   force =     0.00000000    0.00000000    0.00000000
     atom   47 type  2   force =     0.00000000    0.00000000    0.00000000
     atom   48 type  2   force =     0.00000000    0.00000000    0.00000000
     atom   49 type  2   force =     0.00000000    0.00000000    0.00000000
     atom   50 type  2   force =     0.00000000    0.00000000    0.00000000
     atom   51 type  2   force =     0.00000000    0.00000000    0.00000000
     atom   52 type  2   force =     0.00000000    0.00000000    0.00000000
     atom   53 type  2   force =     0.00000000    0.00000000    0.00000000
     atom   54 type  2   force =     0.00000000    0.00000000    0.00000000
     atom   55 type  2   force =     0.00000000    0.00000000    0.00000000
     atom   56 type  2   force =     0.00000000    0.00000000    0.00000000
     atom   57 type  2   force =     0.00000000    0.00000000    0.00000000
     atom   58 type  2   force =     0.00000000    0.00000000    0.00000000
     atom   59 type  2   force =     0.00000000    0.00000000    0.00000000
     atom   60 type  2   force =     0.00000000    0.00000000    0.00000000
     atom   61 type  2   force =     0.00000000    0.00000000    0.00000000
     atom   62 type  2   force =     0.00000000    0.00000000    0.00000000
     atom   63 type  2   force =     0.00000000    0.00000000    0.00000000
     The SCF correction term to forces
     atom    1 type  1   force =    -0.00002576   -0.00002254    0.00000147
     atom    2 type  2   force =    -0.00001575   -0.00001884    0.00000257
     atom    3 type  2   force =     0.00001565    0.00000903    0.00001008
     atom    4 type  2   force =     0.00000833   -0.00001074   -0.00000015
     atom    5 type  2   force =     0.00002110   -0.00001559   -0.00000862
     atom    6 type  2   force =     0.00001372   -0.00001907    0.00000673
     atom    7 type  2   force =     0.00002747   -0.00000598    0.00001612
     atom    8 type  2   force =    -0.00002418   -0.00002761   -0.00000217
     atom    9 type  2   force =    -0.00001493   -0.00002269   -0.00000082
     atom   10 type  2   force =    -0.00002948   -0.00001041   -0.00000296
     atom   11 type  2   force =    -0.00001835   -0.00000245   -0.00000697
     atom   12 type  2   force =     0.00000091   -0.00000905   -0.00000437
     atom   13 type  2   force =     0.00001889   -0.00001566    0.00000434
     atom   14 type  2   force =     0.00001912   -0.00001341   -0.00000730
     atom   15 type  2   force =     0.00002731   -0.00000039   -0.00001856
     atom   16 type  2   force =    -0.00002439    0.00001930   -0.00000783
     atom   17 type  2   force =    -0.00001207    0.00002855    0.00000599
     atom   18 type  2   force =    -0.00002601    0.00002021    0.00001066
     atom   19 type  2   force =    -0.00001568    0.00000045   -0.00000316
     atom   20 type  2   force =     0.00002026    0.00001212    0.00000709
     atom   21 type  2   force =     0.00002658    0.00000791   -0.00000059
     atom   22 type  2   force =    -0.00000116    0.00001613    0.00001089
     atom   23 type  2   force =     0.00001054    0.00000903    0.00001601
     atom   24 type  2   force =    -0.00002502    0.00002671    0.00000888
     atom   25 type  2   force =    -0.00001816    0.00002089   -0.00000635
     atom   26 type  2   force =    -0.00002124    0.00001105   -0.00000965
     atom   27 type  2   force =    -0.00000901   -0.00000318   -0.00000288
     atom   28 type  2   force =    -0.00000032    0.00001141   -0.00000692
     atom   29 type  2   force =     0.00001539    0.00001783    0.00000032
     atom   30 type  2   force =    -0.00000241    0.00001640   -0.00000921
     atom   31 type  2   force =     0.00001667    0.00000220   -0.00000858
     atom   32 type  2   force =     0.00001553   -0.00000175    0.00001196
     atom   33 type  2   force =     0.00000030   -0.00001580    0.00000680
     atom   34 type  2   force =     0.00000995   -0.00001146    0.00000583
     atom   35 type  2   force =    -0.00001062    0.00000614    0.00000641
     atom   36 type  2   force =    -0.00001151   -0.00002885    0.00001377
     atom   37 type  2   force =    -0.00003101   -0.00004670    0.00001660
     atom   38 type  2   force =    -0.00001559   -0.00000924   -0.00001160
     atom   39 type  2   force =    -0.00003346    0.00001293   -0.00001723
     atom   40 type  2   force =     0.00002492   -0.00000772   -0.00001287
     atom   41 type  2   force =     0.00001604   -0.00001129   -0.00000555
     atom   42 type  2   force =     0.00003087   -0.00001288   -0.00000583
     atom   43 type  2   force =     0.00002101   -0.00000692   -0.00000511
     atom   44 type  2   force =    -0.00000009   -0.00000079   -0.00001151
     atom   45 type  2   force =    -0.00002517   -0.00000704   -0.00001567
     atom   46 type  2   force =    -0.00001738   -0.00001597    0.00001444
     atom   47 type  2   force =    -0.00002752    0.00000152    0.00001429
     atom   48 type  2   force =     0.00002392    0.00000314    0.00001349
     atom   49 type  2   force =     0.00001327    0.00001615    0.00001883
     atom   50 type  2   force =     0.00002828    0.00001271    0.00000975
     atom   51 type  2   force =     0.00002267   -0.00000514   -0.00000028
     atom   52 type  2   force =    -0.00001926    0.00003134    0.00000491
     atom   53 type  2   force =    -0.00002786    0.00004125    0.00000452
     atom   54 type  2   force =     0.00000268    0.00000972    0.00001613
     atom   55 type  2   force =    -0.00002086   -0.00001241    0.00002095
     atom   56 type  2   force =     0.00002308    0.00000659   -0.00001160
     atom   57 type  2   force =     0.00001641    0.00001036   -0.00001893
     atom   58 type  2   force =     0.00001919    0.00001166   -0.00001107
     atom   59 type  2   force =     0.00001299    0.00000682   -0.00000181
     atom   60 type  2   force =     0.00000131   -0.00000140   -0.00000794
     atom   61 type  2   force =    -0.00001400    0.00000883   -0.00000353
     atom   62 type  2   force =     0.00000020    0.00001535   -0.00001824
     atom   63 type  2   force =    -0.00001603    0.00000060   -0.00002003

     Total force =     0.126872     Total SCF correction =     0.000216

     Writing all to output data dir ./pwscf.save/ :
     XML data file, charge density, pseudopotentials, collected wavefunctions
 
     init_run     :      0.74s CPU      0.80s WALL (       1 calls)
     electrons    :     12.11s CPU     12.35s WALL (       1 calls)
     forces       :      0.12s CPU      0.13s WALL (       1 calls)

     Called by init_run:
     wfcinit      :      0.08s CPU      0.08s WALL (       1 calls)
     wfcinit:wfcr :      0.07s CPU      0.08s WALL (       1 calls)
     potinit      :      0.45s CPU      0.46s WALL (       1 calls)
     hinit0       :      0.08s CPU      0.12s WALL (       1 calls)

     Called by electrons:
     c_bands      :      8.98s CPU      9.16s WALL (      14 calls)
     sum_band     :      1.23s CPU      1.25s WALL (      14 calls)
     v_of_rho     :      0.14s CPU      0.14s WALL (      15 calls)
     v_h          :      0.00s CPU      0.00s WALL (      15 calls)
     v_xc         :      0.13s CPU      0.14s WALL (      15 calls)
     mix_rho      :      0.26s CPU      0.26s WALL (      14 calls)

     Called by c_bands:
     init_us_2    :      0.02s CPU      0.03s WALL (      30 calls)
     regterg      :      8.80s CPU      8.98s WALL (      14 calls)

     Called by sum_band:
     sum_band:wei :      0.05s CPU      0.05s WALL (      14 calls)
     sum_band:loo :      0.30s CPU      0.32s WALL (      14 calls)
     sum_band:buf :      0.00s CPU      0.00s WALL (      14 calls)
     sum_band:ini :      0.01s CPU      0.01s WALL (      14 calls)

     Called by *egterg:
     rdiaghg      :      4.15s CPU      4.27s WALL (     275 calls)
     regterg:over :      0.46s CPU      0.47s WALL (     261 calls)
     regterg:upda :      0.30s CPU      0.30s WALL (     261 calls)
     regterg:last :      0.13s CPU      0.14s WALL (      51 calls)
     rdiaghg:chol :      0.15s CPU      0.16s WALL (     275 calls)
     rdiaghg:inve :      0.03s CPU      0.03s WALL (     275 calls)
     rdiaghg:para :      0.41s CPU      0.43s WALL (     550 calls)
     h_psi        :      3.57s CPU      3.61s WALL (     276 calls)
     g_psi        :      0.00s CPU      0.00s WALL (     261 calls)

     Called by h_psi:
     h_psi:calbec :      0.91s CPU      0.92s WALL (     276 calls)
     vloc_psi     :      2.54s CPU      2.57s WALL (     276 calls)
                                        0.00s GPU  (     276 calls)
     add_vuspsi   :      0.11s CPU      0.11s WALL (     276 calls)

     General routines
     calbec       :      0.93s CPU      0.94s WALL (     280 calls)
     fft          :      0.12s CPU      0.16s WALL (     196 calls)
     ffts         :      0.00s CPU      0.01s WALL (      14 calls)
     fftw         :      2.73s CPU      2.76s WALL (   10120 calls)
 
     Parallel routines
 
     PWSCF        :     17.61s CPU     18.10s WALL

 
   This run was terminated on:  16:34:57  16Nov2025            

=------------------------------------------------------------------------------=
   JOB DONE.
=------------------------------------------------------------------------------=
