
     Program PWSCF v.7.5 starts on 16Nov2025 at 16:20:57 

     This program is part of the open-source Quantum ESPRESSO suite
     for quantum simulation of materials; please cite
         "P. Giannozzi et al., J. Phys.:Condens. Matter 21 395502 (2009);
         "P. Giannozzi et al., J. Phys.:Condens. Matter 29 465901 (2017);
         "P. Giannozzi et al., J. Chem. Phys. 152 154105 (2020);
          URL http://www.quantum-espresso.org", 
     in publications or presentations arising from this work. More details at
     http://www.quantum-espresso.org/quote

     Parallel version (MPI), running on    96 processors

     MPI processes distributed on     2 nodes
     174647 MiB available memory on the printing compute node when the environment starts
 
     Reading input from supercell-181.in

     Current dimensions of program PWSCF are:
     Max number of different atomic species (ntypx) = 10
     Max number of k-points (npk) =  40000
     Max angular momentum in pseudopotentials (lmaxx) =  4

     gamma-point specific algorithms are used
 
     K-points division:     npool     =       2
     R & G space division:  proc/nbgrp/npool/nimage =      48
     Subspace diagonalization in iterative solution of the eigenvalue problem:
     one sub-group per band group will be used
     scalapack distributed-memory algorithm (size of sub-group:  2*  2 procs)

 
     Parallelization info
     --------------------
     sticks:   dense  smooth     PW     G-vecs:    dense   smooth      PW
     Min          59      59     14                 2432     2432     302
     Max          62      62     16                 2442     2442     316
     Sum        2885    2885    725               116921   116921   14771
 
     Using Slab Decomposition
 


     bravais-lattice index     =            0
     lattice parameter (alat)  =      13.4813  a.u.
     unit-cell volume          =    2450.1683 (a.u.)^3
     number of atoms/cell      =           63
     number of atomic types    =            2
     number of electrons       =       254.00 (up: 128.00, down: 126.00)
     number of Kohn-Sham states=          152
     kinetic-energy cutoff     =      50.0000  Ry
     charge density cutoff     =     200.0000  Ry
     scf convergence threshold =      1.0E-08
     mixing beta               =       0.7000
     number of iterations used =            8  plain     mixing
     Exchange-correlation= PBE
                           (   1   4   3   4   0   0   0)

     celldm(1)=  13.481306  celldm(2)=   0.000000  celldm(3)=   0.000000
     celldm(4)=   0.000000  celldm(5)=   0.000000  celldm(6)=   0.000000

     crystal axes: (cart. coord. in units of alat)
               a(1) = (   1.000000   0.000000   0.000000 )  
               a(2) = (   0.000000   1.000000   0.000000 )  
               a(3) = (   0.000000   0.000000   1.000000 )  

     reciprocal axes: (cart. coord. in units 2 pi/alat)
               b(1) = (  1.000000  0.000000  0.000000 )  
               b(2) = (  0.000000  1.000000  0.000000 )  
               b(3) = (  0.000000  0.000000  1.000000 )  


     PseudoPot. # 1 for N  read from file:
     ./N_ONCV_PBE-1.2.upf
     MD5 check sum: 5312fdf34e96954e02a33bdc911c617a
     Pseudo is Norm-conserving, Zval =  5.0
     Generated using ONCVPSP code by D. R. Hamann
     Using radial grid of  602 points,  4 beta functions with: 
                l(1) =   0
                l(2) =   0
                l(3) =   1
                l(4) =   1

     PseudoPot. # 2 for C  read from file:
     ./C_ONCV_PBE-1.2.upf
     MD5 check sum: d60b57d9bdca4133f5fde4b584ee909d
     Pseudo is Norm-conserving, Zval =  4.0
     Generated using ONCVPSP code by D. R. Hamann
     Using radial grid of  602 points,  4 beta functions with: 
                l(1) =   0
                l(2) =   0
                l(3) =   1
                l(4) =   1

     atomic species   valence    mass     pseudopotential
     N                 5.00    14.00670     N ( 1.00)
     C                 4.00    12.01070     C ( 1.00)

     Starting magnetic structure 
     atomic species   magnetization
     N               0.000
     C               0.000

     No symmetry found


                                    s                        frac. trans.

      isym =  1     identity                                     

 cryst.   s( 1) = (     1          0          0      )
                  (     0          1          0      )
                  (     0          0          1      )

 cart.    s( 1) = (  1.0000000  0.0000000  0.0000000 )
                  (  0.0000000  1.0000000  0.0000000 )
                  (  0.0000000  0.0000000  1.0000000 )


   Cartesian axes

     site n.     atom                  positions (alat units)
         1        N      tau(   1) = (   0.9893819   0.9897344   0.9891721  )
         2        C      tau(   2) = (   0.9870277   0.2601210   0.2640728  )
         3        C      tau(   3) = (   0.1231717   0.3731672   0.3742038  )
         4        C      tau(   4) = (   0.2603919   0.9894620   0.2619202  )
         5        C      tau(   5) = (   0.3737632   0.1246771   0.3741571  )
         6        C      tau(   6) = (   0.2640151   0.2616009   0.9853609  )
         7        C      tau(   7) = (   0.3737752   0.3731213   0.1223564  )
         8        C      tau(   8) = (   0.0000049   0.0005840   0.4991361  )
         9        C      tau(   9) = (   0.1251361   0.1251278   0.6250981  )
        10        C      tau(  10) = (   0.0020393   0.2482470   0.7515266  )
        11        C      tau(  11) = (   0.1292009   0.3733021   0.8763303  )
        12        C      tau(  12) = (   0.2487801   0.0017974   0.7514403  )
        13        C      tau(  13) = (   0.3754339   0.1292460   0.8748544  )
        14        C      tau(  14) = (   0.2491579   0.2495268   0.4995755  )
        15        C      tau(  15) = (   0.3750038   0.3749547   0.6244069  )
        16        C      tau(  16) = (   0.0016366   0.4979779   0.0013734  )
        17        C      tau(  17) = (   0.1250869   0.6243147   0.1250807  )
        18        C      tau(  18) = (   0.0014462   0.7520697   0.2483230  )
        19        C      tau(  19) = (   0.1266755   0.8769178   0.3741906  )
        20        C      tau(  20) = (   0.2488290   0.4983596   0.2486760  )
        21        C      tau(  21) = (   0.3741642   0.6242659   0.3742111  )
        22        C      tau(  22) = (   0.2480673   0.7520817   0.0015447  )
        23        C      tau(  23) = (   0.3729914   0.8777475   0.1265606  )
        24        C      tau(  24) = (   0.0000493   0.5010760   0.5011299  )
        25        C      tau(  25) = (   0.1252054   0.6262200   0.6252733  )
        26        C      tau(  26) = (   0.9993969   0.7487112   0.7492532  )
        27        C      tau(  27) = (   0.1217927   0.8768349   0.8763928  )
        28        C      tau(  28) = (   0.2492749   0.5017254   0.7482724  )
        29        C      tau(  29) = (   0.3741000   0.6263042   0.8750769  )
        30        C      tau(  30) = (   0.2487293   0.7486845   0.5007616  )
        31        C      tau(  31) = (   0.3754102   0.8750581   0.6258828  )
        32        C      tau(  32) = (   0.4987543   0.0011228   0.0002828  )
        33        C      tau(  33) = (   0.6248203   0.1251003   0.1251034  )
        34        C      tau(  34) = (   0.4991217   0.2493918   0.2488717  )
        35        C      tau(  35) = (   0.6243080   0.3746888   0.3747831  )
        36        C      tau(  36) = (   0.7516460   0.0016191   0.2487956  )
        37        C      tau(  37) = (   0.8750430   0.1283649   0.3757598  )
        38        C      tau(  38) = (   0.7517475   0.2480080   0.0019610  )
        39        C      tau(  39) = (   0.8773622   0.3724247   0.1282033  )
        40        C      tau(  40) = (   0.5008161   0.9999897   0.5008301  )
        41        C      tau(  41) = (   0.6256173   0.1249721   0.6252590  )
        42        C      tau(  42) = (   0.5022259   0.2488088   0.7478265  )
        43        C      tau(  43) = (   0.6264784   0.3739683   0.8752045  )
        44        C      tau(  44) = (   0.7487945   0.9989046   0.7489691  )
        45        C      tau(  45) = (   0.8764746   0.1216998   0.8763156  )
        46        C      tau(  46) = (   0.7479635   0.2486819   0.5018806  )
        47        C      tau(  47) = (   0.8751980   0.3739245   0.6263738  )
        48        C      tau(  48) = (   0.5012000   0.5011574   0.0001136  )
        49        C      tau(  49) = (   0.6256259   0.6262099   0.1252968  )
        50        C      tau(  50) = (   0.5005188   0.7489091   0.2490095  )
        51        C      tau(  51) = (   0.6258050   0.8750157   0.3740056  )
        52        C      tau(  52) = (   0.7486304   0.5011458   0.2494302  )
        53        C      tau(  53) = (   0.8750247   0.6261269   0.3741365  )
        54        C      tau(  54) = (   0.7492281   0.7488562   0.9996087  )
        55        C      tau(  55) = (   0.8766209   0.8769033   0.1218021  )
        56        C      tau(  56) = (   0.4990819   0.4992903   0.4990317  )
        57        C      tau(  57) = (   0.6247789   0.6244471   0.6249452  )
        58        C      tau(  58) = (   0.4991767   0.7499842   0.7500845  )
        59        C      tau(  59) = (   0.6239946   0.8751464   0.8754130  )
        60        C      tau(  60) = (   0.7505316   0.4989321   0.7505826  )
        61        C      tau(  61) = (   0.8758455   0.6234984   0.8759288  )
        62        C      tau(  62) = (   0.7498244   0.7497799   0.4993198  )
        63        C      tau(  63) = (   0.8750855   0.8749084   0.6242568  )

   Crystallographic axes

     site n.     atom                  positions (cryst. coord.)
         1        N      tau(   1) = (  0.9893819  0.9897344  0.9891721  )
         2        C      tau(   2) = (  0.9870277  0.2601210  0.2640728  )
         3        C      tau(   3) = (  0.1231717  0.3731672  0.3742038  )
         4        C      tau(   4) = (  0.2603919  0.9894620  0.2619202  )
         5        C      tau(   5) = (  0.3737632  0.1246771  0.3741571  )
         6        C      tau(   6) = (  0.2640151  0.2616009  0.9853609  )
         7        C      tau(   7) = (  0.3737752  0.3731213  0.1223564  )
         8        C      tau(   8) = (  0.0000049  0.0005840  0.4991361  )
         9        C      tau(   9) = (  0.1251361  0.1251278  0.6250981  )
        10        C      tau(  10) = (  0.0020393  0.2482470  0.7515266  )
        11        C      tau(  11) = (  0.1292009  0.3733021  0.8763303  )
        12        C      tau(  12) = (  0.2487801  0.0017974  0.7514403  )
        13        C      tau(  13) = (  0.3754339  0.1292460  0.8748544  )
        14        C      tau(  14) = (  0.2491579  0.2495268  0.4995755  )
        15        C      tau(  15) = (  0.3750038  0.3749547  0.6244069  )
        16        C      tau(  16) = (  0.0016366  0.4979779  0.0013734  )
        17        C      tau(  17) = (  0.1250869  0.6243147  0.1250807  )
        18        C      tau(  18) = (  0.0014462  0.7520697  0.2483230  )
        19        C      tau(  19) = (  0.1266755  0.8769178  0.3741906  )
        20        C      tau(  20) = (  0.2488290  0.4983596  0.2486760  )
        21        C      tau(  21) = (  0.3741642  0.6242659  0.3742111  )
        22        C      tau(  22) = (  0.2480673  0.7520817  0.0015447  )
        23        C      tau(  23) = (  0.3729914  0.8777475  0.1265606  )
        24        C      tau(  24) = (  0.0000493  0.5010760  0.5011299  )
        25        C      tau(  25) = (  0.1252054  0.6262200  0.6252733  )
        26        C      tau(  26) = (  0.9993969  0.7487112  0.7492532  )
        27        C      tau(  27) = (  0.1217927  0.8768349  0.8763928  )
        28        C      tau(  28) = (  0.2492749  0.5017254  0.7482724  )
        29        C      tau(  29) = (  0.3741000  0.6263042  0.8750769  )
        30        C      tau(  30) = (  0.2487293  0.7486845  0.5007616  )
        31        C      tau(  31) = (  0.3754102  0.8750581  0.6258828  )
        32        C      tau(  32) = (  0.4987543  0.0011228  0.0002828  )
        33        C      tau(  33) = (  0.6248203  0.1251003  0.1251034  )
        34        C      tau(  34) = (  0.4991217  0.2493918  0.2488717  )
        35        C      tau(  35) = (  0.6243080  0.3746888  0.3747831  )
        36        C      tau(  36) = (  0.7516460  0.0016191  0.2487956  )
        37        C      tau(  37) = (  0.8750430  0.1283649  0.3757598  )
        38        C      tau(  38) = (  0.7517475  0.2480080  0.0019610  )
        39        C      tau(  39) = (  0.8773622  0.3724247  0.1282033  )
        40        C      tau(  40) = (  0.5008161  0.9999897  0.5008301  )
        41        C      tau(  41) = (  0.6256173  0.1249721  0.6252590  )
        42        C      tau(  42) = (  0.5022259  0.2488088  0.7478265  )
        43        C      tau(  43) = (  0.6264784  0.3739683  0.8752045  )
        44        C      tau(  44) = (  0.7487945  0.9989046  0.7489691  )
        45        C      tau(  45) = (  0.8764746  0.1216998  0.8763156  )
        46        C      tau(  46) = (  0.7479635  0.2486819  0.5018806  )
        47        C      tau(  47) = (  0.8751980  0.3739245  0.6263738  )
        48        C      tau(  48) = (  0.5012000  0.5011574  0.0001136  )
        49        C      tau(  49) = (  0.6256259  0.6262099  0.1252968  )
        50        C      tau(  50) = (  0.5005188  0.7489091  0.2490095  )
        51        C      tau(  51) = (  0.6258050  0.8750157  0.3740056  )
        52        C      tau(  52) = (  0.7486304  0.5011458  0.2494302  )
        53        C      tau(  53) = (  0.8750247  0.6261269  0.3741365  )
        54        C      tau(  54) = (  0.7492281  0.7488562  0.9996087  )
        55        C      tau(  55) = (  0.8766209  0.8769033  0.1218021  )
        56        C      tau(  56) = (  0.4990819  0.4992903  0.4990317  )
        57        C      tau(  57) = (  0.6247789  0.6244471  0.6249452  )
        58        C      tau(  58) = (  0.4991767  0.7499842  0.7500845  )
        59        C      tau(  59) = (  0.6239946  0.8751464  0.8754130  )
        60        C      tau(  60) = (  0.7505316  0.4989321  0.7505826  )
        61        C      tau(  61) = (  0.8758455  0.6234984  0.8759288  )
        62        C      tau(  62) = (  0.7498244  0.7497799  0.4993198  )
        63        C      tau(  63) = (  0.8750855  0.8749084  0.6242568  )

     number of k points=     1
                       cart. coord. in units 2pi/alat
        k(    1) = (   0.0000000   0.0000000   0.0000000), wk =   1.0000000

                       cryst. coord.
        k(    1) = (   0.0000000   0.0000000   0.0000000), wk =   1.0000000

     Dense  grid:    58461 G-vectors     FFT dimensions: (  64,  64,  64)

     Dynamical RAM for                 wfc:       0.35 MB

     Dynamical RAM for     wfc (w. buffer):       0.35 MB

     Dynamical RAM for           str. fact:       0.04 MB

     Dynamical RAM for           local pot:       0.00 MB

     Dynamical RAM for          nlocal pot:       1.17 MB

     Dynamical RAM for                qrad:       0.65 MB

     Dynamical RAM for          rho,v,vnew:       0.49 MB

     Dynamical RAM for               rhoin:       0.16 MB

     Dynamical RAM for            rho*nmix:       0.60 MB

     Dynamical RAM for           G-vectors:       0.08 MB

     Dynamical RAM for          h,s,v(r/c):       0.53 MB

     Dynamical RAM for          <psi|beta>:       0.58 MB

     Dynamical RAM for                 psi:       0.71 MB

     Dynamical RAM for                hpsi:       0.71 MB

     Dynamical RAM for      wfcinit/wfcrot:       1.24 MB

     Estimated static dynamical RAM per process >       3.37 MB

     Estimated max dynamical RAM per process >       6.49 MB

     Estimated total dynamical RAM >     594.05 MB
     Generating pointlists ...
     new r_m :   0.0854 (alat units)  1.1518 (a.u.) for type    1
     new r_m :   0.0847 (alat units)  1.1416 (a.u.) for type    2

     Initial potential from superposition of free atoms

     starting charge     252.5655, renormalised to     254.0000
     Starting wfcs are random

     total cpu time spent up to now is        2.3 secs

     Self-consistent Calculation

     iteration #  1     ecut=    50.00 Ry     beta= 0.70
     Davidson diagonalization with overlap

---- Real-time Memory Report at c_bands before calling an iterative solver
           157 MiB given to the printing process from OS
             0 MiB allocation reported by mallinfo(arena+hblkhd)
        173675 MiB available memory on the node where the printing process lives
------------------
     ethr =  1.00E-02,  avg # of iterations = 12.0

     total cpu time spent up to now is        3.0 secs

     total energy              =    -723.26899252 Ry
     estimated scf accuracy    <       3.70844613 Ry

     total magnetization       =     2.00 Bohr mag/cell
     absolute magnetization    =     2.00 Bohr mag/cell

     iteration #  2     ecut=    50.00 Ry     beta= 0.70
     Davidson diagonalization with overlap

---- Real-time Memory Report at c_bands before calling an iterative solver
           164 MiB given to the printing process from OS
             0 MiB allocation reported by mallinfo(arena+hblkhd)
        173627 MiB available memory on the node where the printing process lives
------------------
     ethr =  1.46E-03,  avg # of iterations = 12.5

     total cpu time spent up to now is        3.8 secs

     total energy              =    -723.66102231 Ry
     estimated scf accuracy    <       0.45668628 Ry

     total magnetization       =     2.00 Bohr mag/cell
     absolute magnetization    =     2.07 Bohr mag/cell

     iteration #  3     ecut=    50.00 Ry     beta= 0.70
     Davidson diagonalization with overlap

---- Real-time Memory Report at c_bands before calling an iterative solver
           165 MiB given to the printing process from OS
             0 MiB allocation reported by mallinfo(arena+hblkhd)
        173610 MiB available memory on the node where the printing process lives
------------------
     c_bands:  2 eigenvalues not converged
     ethr =  1.80E-04,  avg # of iterations = 20.0

     total cpu time spent up to now is        6.0 secs

     total energy              =    -723.72669037 Ry
     estimated scf accuracy    <       0.86701050 Ry

     total magnetization       =     2.00 Bohr mag/cell
     absolute magnetization    =     2.12 Bohr mag/cell

     iteration #  4     ecut=    50.00 Ry     beta= 0.70
     Davidson diagonalization with overlap

---- Real-time Memory Report at c_bands before calling an iterative solver
           167 MiB given to the printing process from OS
             0 MiB allocation reported by mallinfo(arena+hblkhd)
        173609 MiB available memory on the node where the printing process lives
------------------
     c_bands:  1 eigenvalues not converged
     ethr =  1.80E-04,  avg # of iterations = 20.0

     total cpu time spent up to now is        6.4 secs

     total energy              =    -723.90114007 Ry
     estimated scf accuracy    <       0.00970971 Ry

     total magnetization       =     2.00 Bohr mag/cell
     absolute magnetization    =     2.19 Bohr mag/cell

     iteration #  5     ecut=    50.00 Ry     beta= 0.70
     Davidson diagonalization with overlap

---- Real-time Memory Report at c_bands before calling an iterative solver
           169 MiB given to the printing process from OS
             0 MiB allocation reported by mallinfo(arena+hblkhd)
        173607 MiB available memory on the node where the printing process lives
------------------
     c_bands:  3 eigenvalues not converged
     ethr =  3.82E-06,  avg # of iterations = 20.0

     total cpu time spent up to now is        7.6 secs

     total energy              =    -723.90608733 Ry
     estimated scf accuracy    <       0.00411532 Ry

     total magnetization       =     2.00 Bohr mag/cell
     absolute magnetization    =     2.23 Bohr mag/cell

     iteration #  6     ecut=    50.00 Ry     beta= 0.70
     Davidson diagonalization with overlap

---- Real-time Memory Report at c_bands before calling an iterative solver
           169 MiB given to the printing process from OS
             0 MiB allocation reported by mallinfo(arena+hblkhd)
        173613 MiB available memory on the node where the printing process lives
------------------
     c_bands:  3 eigenvalues not converged
     ethr =  1.62E-06,  avg # of iterations = 20.0

     total cpu time spent up to now is        9.4 secs

     total energy              =    -723.90684197 Ry
     estimated scf accuracy    <       0.00086761 Ry

     total magnetization       =     2.00 Bohr mag/cell
     absolute magnetization    =     2.25 Bohr mag/cell

     iteration #  7     ecut=    50.00 Ry     beta= 0.70
     Davidson diagonalization with overlap

---- Real-time Memory Report at c_bands before calling an iterative solver
           169 MiB given to the printing process from OS
             0 MiB allocation reported by mallinfo(arena+hblkhd)
        173615 MiB available memory on the node where the printing process lives
------------------
     ethr =  3.42E-07,  avg # of iterations = 18.0

     total cpu time spent up to now is        9.8 secs

     total energy              =    -723.90706772 Ry
     estimated scf accuracy    <       0.00011994 Ry

     total magnetization       =     2.00 Bohr mag/cell
     absolute magnetization    =     2.27 Bohr mag/cell

     iteration #  8     ecut=    50.00 Ry     beta= 0.70
     Davidson diagonalization with overlap

---- Real-time Memory Report at c_bands before calling an iterative solver
           169 MiB given to the printing process from OS
             0 MiB allocation reported by mallinfo(arena+hblkhd)
        173614 MiB available memory on the node where the printing process lives
------------------
     c_bands:  1 eigenvalues not converged
     ethr =  4.72E-08,  avg # of iterations = 20.0

     total cpu time spent up to now is       10.4 secs

     total energy              =    -723.90710736 Ry
     estimated scf accuracy    <       0.00002861 Ry

     total magnetization       =     2.00 Bohr mag/cell
     absolute magnetization    =     2.28 Bohr mag/cell

     iteration #  9     ecut=    50.00 Ry     beta= 0.70
     Davidson diagonalization with overlap

---- Real-time Memory Report at c_bands before calling an iterative solver
           169 MiB given to the printing process from OS
             0 MiB allocation reported by mallinfo(arena+hblkhd)
        173605 MiB available memory on the node where the printing process lives
------------------
     c_bands:  3 eigenvalues not converged
     ethr =  1.13E-08,  avg # of iterations = 20.0

     total cpu time spent up to now is       11.1 secs

     total energy              =    -723.90711765 Ry
     estimated scf accuracy    <       0.00000782 Ry

     total magnetization       =     2.00 Bohr mag/cell
     absolute magnetization    =     2.29 Bohr mag/cell

     iteration # 10     ecut=    50.00 Ry     beta= 0.70
     Davidson diagonalization with overlap

---- Real-time Memory Report at c_bands before calling an iterative solver
           169 MiB given to the printing process from OS
             0 MiB allocation reported by mallinfo(arena+hblkhd)
        173606 MiB available memory on the node where the printing process lives
------------------
     c_bands:  3 eigenvalues not converged
     ethr =  3.08E-09,  avg # of iterations = 20.0

     total cpu time spent up to now is       11.6 secs

     total energy              =    -723.90712119 Ry
     estimated scf accuracy    <       0.00000085 Ry

     total magnetization       =     2.00 Bohr mag/cell
     absolute magnetization    =     2.29 Bohr mag/cell

     iteration # 11     ecut=    50.00 Ry     beta= 0.70
     Davidson diagonalization with overlap

---- Real-time Memory Report at c_bands before calling an iterative solver
           170 MiB given to the printing process from OS
             0 MiB allocation reported by mallinfo(arena+hblkhd)
        173615 MiB available memory on the node where the printing process lives
------------------
     c_bands:  1 eigenvalues not converged
     ethr =  3.34E-10,  avg # of iterations = 20.0

     total cpu time spent up to now is       12.3 secs

     total energy              =    -723.90712183 Ry
     estimated scf accuracy    <       0.00000026 Ry

     total magnetization       =     2.00 Bohr mag/cell
     absolute magnetization    =     2.30 Bohr mag/cell

     iteration # 12     ecut=    50.00 Ry     beta= 0.70
     Davidson diagonalization with overlap

---- Real-time Memory Report at c_bands before calling an iterative solver
           170 MiB given to the printing process from OS
             0 MiB allocation reported by mallinfo(arena+hblkhd)
        173607 MiB available memory on the node where the printing process lives
------------------
     ethr =  1.01E-10,  avg # of iterations = 18.5

     total cpu time spent up to now is       12.8 secs

     total energy              =    -723.90712195 Ry
     estimated scf accuracy    <       0.00000011 Ry

     total magnetization       =     2.00 Bohr mag/cell
     absolute magnetization    =     2.30 Bohr mag/cell

     iteration # 13     ecut=    50.00 Ry     beta= 0.70
     Davidson diagonalization with overlap

---- Real-time Memory Report at c_bands before calling an iterative solver
           170 MiB given to the printing process from OS
             0 MiB allocation reported by mallinfo(arena+hblkhd)
        173610 MiB available memory on the node where the printing process lives
------------------
     ethr =  4.16E-11,  avg # of iterations = 15.0

     total cpu time spent up to now is       13.3 secs

     total energy              =    -723.90712200 Ry
     estimated scf accuracy    <       0.00000003 Ry

     total magnetization       =     2.00 Bohr mag/cell
     absolute magnetization    =     2.30 Bohr mag/cell

     iteration # 14     ecut=    50.00 Ry     beta= 0.70
     Davidson diagonalization with overlap

---- Real-time Memory Report at c_bands before calling an iterative solver
           170 MiB given to the printing process from OS
             0 MiB allocation reported by mallinfo(arena+hblkhd)
        173613 MiB available memory on the node where the printing process lives
------------------
     ethr =  1.02E-11,  avg # of iterations = 18.5
 
     Magnetic moment per site  (integrated on atomic sphere of radius R)
     atom   1 (R=0.085)  charge=  2.9142  magn=  0.0042
     atom   2 (R=0.085)  charge=  1.8170  magn=  0.2449
     atom   3 (R=0.085)  charge=  1.7930  magn= -0.0087
     atom   4 (R=0.085)  charge=  1.8051  magn=  0.2455
     atom   5 (R=0.085)  charge=  1.7931  magn= -0.0087
     atom   6 (R=0.085)  charge=  1.8233  magn=  0.2451
     atom   7 (R=0.085)  charge=  1.7933  magn= -0.0087
     atom   8 (R=0.085)  charge=  1.7860  magn=  0.0091
     atom   9 (R=0.085)  charge=  1.7962  magn= -0.0019
     atom  10 (R=0.085)  charge=  1.7834  magn=  0.0060
     atom  11 (R=0.085)  charge=  1.7969  magn= -0.0042
     atom  12 (R=0.085)  charge=  1.7805  magn=  0.0061
     atom  13 (R=0.085)  charge=  1.8040  magn= -0.0039
     atom  14 (R=0.085)  charge=  1.7892  magn=  0.0085
     atom  15 (R=0.085)  charge=  1.7873  magn= -0.0020
     atom  16 (R=0.085)  charge=  1.7820  magn=  0.0089
     atom  17 (R=0.085)  charge=  1.7956  magn= -0.0018
     atom  18 (R=0.085)  charge=  1.7822  magn=  0.0057
     atom  19 (R=0.085)  charge=  1.7952  magn= -0.0035
     atom  20 (R=0.085)  charge=  1.7834  magn=  0.0083
     atom  21 (R=0.085)  charge=  1.7847  magn= -0.0020
     atom  22 (R=0.085)  charge=  1.7829  magn=  0.0057
     atom  23 (R=0.085)  charge=  1.7905  magn= -0.0037
     atom  24 (R=0.085)  charge=  1.7825  magn=  0.0182
     atom  25 (R=0.085)  charge=  1.8067  magn=  0.0094
     atom  26 (R=0.085)  charge=  1.7935  magn=  0.0032
     atom  27 (R=0.085)  charge=  1.7588  magn=  0.0001
     atom  28 (R=0.085)  charge=  1.7896  magn=  0.0221
     atom  29 (R=0.085)  charge=  1.7824  magn= -0.0014
     atom  30 (R=0.085)  charge=  1.7882  magn=  0.0211
     atom  31 (R=0.085)  charge=  1.7829  magn= -0.0013
     atom  32 (R=0.085)  charge=  1.7844  magn=  0.0090
     atom  33 (R=0.085)  charge=  1.7960  magn= -0.0019
     atom  34 (R=0.085)  charge=  1.7868  magn=  0.0084
     atom  35 (R=0.085)  charge=  1.7865  magn= -0.0020
     atom  36 (R=0.085)  charge=  1.7818  magn=  0.0059
     atom  37 (R=0.085)  charge=  1.8033  magn= -0.0036
     atom  38 (R=0.085)  charge=  1.7836  magn=  0.0058
     atom  39 (R=0.085)  charge=  1.7914  magn= -0.0041
     atom  40 (R=0.085)  charge=  1.7855  magn=  0.0180
     atom  41 (R=0.085)  charge=  1.8110  magn=  0.0094
     atom  42 (R=0.085)  charge=  1.7948  magn=  0.0218
     atom  43 (R=0.085)  charge=  1.7819  magn= -0.0013
     atom  44 (R=0.085)  charge=  1.7937  magn=  0.0032
     atom  45 (R=0.085)  charge=  1.7589  magn= -0.0000
     atom  46 (R=0.085)  charge=  1.7948  magn=  0.0214
     atom  47 (R=0.085)  charge=  1.7819  magn= -0.0013
     atom  48 (R=0.085)  charge=  1.7819  magn=  0.0184
     atom  49 (R=0.085)  charge=  1.8043  magn=  0.0094
     atom  50 (R=0.085)  charge=  1.7873  magn=  0.0212
     atom  51 (R=0.085)  charge=  1.7826  magn= -0.0013
     atom  52 (R=0.085)  charge=  1.7869  magn=  0.0218
     atom  53 (R=0.085)  charge=  1.7826  magn= -0.0013
     atom  54 (R=0.085)  charge=  1.7935  magn=  0.0032
     atom  55 (R=0.085)  charge=  1.7588  magn=  0.0001
     atom  56 (R=0.085)  charge=  1.7914  magn=  0.0009
     atom  57 (R=0.085)  charge=  1.7833  magn=  0.0010
     atom  58 (R=0.085)  charge=  1.7933  magn=  0.0018
     atom  59 (R=0.085)  charge=  1.7880  magn= -0.0009
     atom  60 (R=0.085)  charge=  1.7911  magn=  0.0017
     atom  61 (R=0.085)  charge=  1.7854  magn= -0.0009
     atom  62 (R=0.085)  charge=  1.7913  magn=  0.0018
     atom  63 (R=0.085)  charge=  1.7891  magn= -0.0009

     total cpu time spent up to now is       13.8 secs

     End of self-consistent calculation

 ------ SPIN UP ------------


          k = 0.0000 0.0000 0.0000 (  7386 PWs)   bands (ev):

    -8.5509  -6.9231  -6.2857  -6.2672  -6.1944  -6.1596  -5.8835  -4.9112
    -4.1430  -4.1282  -4.1231  -4.0925  -4.0320  -4.0157  -4.0135  -3.9172
    -3.8728  -3.8665  -3.3610  -2.9349  -2.6755  -2.6728  -2.1592  -0.3632
    -0.3535  -0.3271  -0.2809  -0.0765   0.1729   0.1918   0.2822   0.2958
     0.3662   0.6165   0.8365   0.8437   0.9543   0.9730   0.9883   1.0540
     1.0608   1.0659   1.2669   1.2943   3.0710   3.9075   3.9279   4.0697
     4.1883   4.2082   4.2194   4.2728   4.2805   4.2887   4.4231   4.4271
     4.4944   4.4979   4.5669   4.6607   4.6855   4.6912   4.6931   4.7849
     4.7972   4.9239   4.9660   4.9676   5.0465   5.2010   5.2102   5.3002
     5.3571   5.3742   5.3963   5.3997   5.4083   6.0436   6.0478   6.1018
     6.6603   6.6653   6.7263   6.9908   7.0041   7.0395   7.5281   8.3344
     8.3364   8.4083   8.4640   8.4890   8.6851   8.7113   8.7861   8.8296
     8.8455   8.8565   8.8915   8.8986   8.9047   9.2872   9.2913   9.3252
     9.6846   9.7036   9.8944   9.9171   9.9437   9.9620   9.9644   9.9773
     9.9880  10.0261  10.0368  10.0564  10.1243  10.1405  10.2681  10.3229
    10.3341  11.0532  12.2898  12.4178  12.4296  13.9566  14.6913  14.7992
    17.3424  17.3783  17.4068  17.5219  17.5749  17.5811  17.8478  17.9247
    17.9381  18.0357  18.0656  18.3698  18.9936  19.0033  19.0238  20.6913
    20.7955  20.8266  20.8774  20.9383  20.9478  21.0238  21.0353  21.0474

     occupation numbers 
     1.0000   1.0000   1.0000   1.0000   1.0000   1.0000   1.0000   1.0000
     1.0000   1.0000   1.0000   1.0000   1.0000   1.0000   1.0000   1.0000
     1.0000   1.0000   1.0000   1.0000   1.0000   1.0000   1.0000   1.0000
     1.0000   1.0000   1.0000   1.0000   1.0000   1.0000   1.0000   1.0000
     1.0000   1.0000   1.0000   1.0000   1.0000   1.0000   1.0000   1.0000
     1.0000   1.0000   1.0000   1.0000   1.0000   1.0000   1.0000   1.0000
     1.0000   1.0000   1.0000   1.0000   1.0000   1.0000   1.0000   1.0000
     1.0000   1.0000   1.0000   1.0000   1.0000   1.0000   1.0000   1.0000
     1.0000   1.0000   1.0000   1.0000   1.0000   1.0000   1.0000   1.0000
     1.0000   1.0000   1.0000   1.0000   1.0000   1.0000   1.0000   1.0000
     1.0000   1.0000   1.0000   1.0000   1.0000   1.0000   1.0000   1.0000
     1.0000   1.0000   1.0000   1.0000   1.0000   1.0000   1.0000   1.0000
     1.0000   1.0000   1.0000   1.0000   1.0000   1.0000   1.0000   1.0000
     1.0000   1.0000   1.0000   1.0000   1.0000   1.0000   1.0000   1.0000
     1.0000   1.0000   1.0000   1.0000   1.0000   1.0000   1.0000   1.0000
     1.0000   1.0000   1.0000   1.0000   1.0000   1.0000   1.0000   1.0000
     0.0000   0.0000   0.0000   0.0000   0.0000   0.0000   0.0000   0.0000
     0.0000   0.0000   0.0000   0.0000   0.0000   0.0000   0.0000   0.0000
     0.0000   0.0000   0.0000   0.0000   0.0000   0.0000   0.0000   0.0000

 ------ SPIN DOWN ----------


          k = 0.0000 0.0000 0.0000 (  7386 PWs)   bands (ev):

    -8.5255  -6.9088  -6.2636  -6.2438  -6.1499  -6.1172  -5.8463  -4.8944
    -4.1222  -4.1050  -4.0835  -4.0601  -3.9926  -3.9820  -3.9658  -3.9049
    -3.8367  -3.8264  -3.3187  -2.9163  -2.6227  -2.6192  -2.0141  -0.3456
    -0.3354  -0.3056  -0.2637  -0.0113   0.1917   0.2096   0.3192   0.3287
     0.3912   0.6513   0.8486   0.8554   0.9873   1.0034   1.0138   1.0697
     1.0793   1.0811   1.4328   1.4646   3.1848   3.9307   3.9500   4.0958
     4.2222   4.2513   4.2620   4.2880   4.3020   4.3118   4.4713   4.4732
     4.5156   4.5195   4.5907   4.6847   4.7037   4.7095   4.7133   4.8192
     4.8338   4.9372   4.9975   4.9997   5.1280   5.2351   5.2453   5.3240
     5.3718   5.3854   5.4176   5.4539   5.4659   6.1058   6.1069   6.1397
     6.6869   6.6926   6.7606   7.0768   7.0875   7.0999   7.6982   8.3736
     8.3756   8.4451   8.4996   8.5235   8.7196   8.7425   8.8212   8.8754
     8.8859   8.8878   8.9257   8.9288   8.9329   9.3233   9.3282   9.3525
     9.7123   9.7308   9.9271   9.9432   9.9547   9.9760   9.9784   9.9962
    10.0081  10.0596  10.0705  10.0775  10.1521  10.1664  10.3261  10.3774
    10.3888  11.4332  12.5545  12.5698  12.6042  14.4388  16.0175  16.1400
    17.3680  17.3961  17.4241  17.5488  17.6294  17.6379  17.8704  17.9442
    17.9564  18.0758  18.1060  18.4890  19.0442  19.0794  19.1110  20.7419
    20.8097  20.8408  20.8922  20.9564  20.9654  21.0400  21.0583  21.0688

     occupation numbers 
     1.0000   1.0000   1.0000   1.0000   1.0000   1.0000   1.0000   1.0000
     1.0000   1.0000   1.0000   1.0000   1.0000   1.0000   1.0000   1.0000
     1.0000   1.0000   1.0000   1.0000   1.0000   1.0000   1.0000   1.0000
     1.0000   1.0000   1.0000   1.0000   1.0000   1.0000   1.0000   1.0000
     1.0000   1.0000   1.0000   1.0000   1.0000   1.0000   1.0000   1.0000
     1.0000   1.0000   1.0000   1.0000   1.0000   1.0000   1.0000   1.0000
     1.0000   1.0000   1.0000   1.0000   1.0000   1.0000   1.0000   1.0000
     1.0000   1.0000   1.0000   1.0000   1.0000   1.0000   1.0000   1.0000
     1.0000   1.0000   1.0000   1.0000   1.0000   1.0000   1.0000   1.0000
     1.0000   1.0000   1.0000   1.0000   1.0000   1.0000   1.0000   1.0000
     1.0000   1.0000   1.0000   1.0000   1.0000   1.0000   1.0000   1.0000
     1.0000   1.0000   1.0000   1.0000   1.0000   1.0000   1.0000   1.0000
     1.0000   1.0000   1.0000   1.0000   1.0000   1.0000   1.0000   1.0000
     1.0000   1.0000   1.0000   1.0000   1.0000   1.0000   1.0000   1.0000
     1.0000   1.0000   1.0000   1.0000   1.0000   1.0000   1.0000   1.0000
     1.0000   1.0000   1.0000   1.0000   1.0000   1.0000   0.0000   0.0000
     0.0000   0.0000   0.0000   0.0000   0.0000   0.0000   0.0000   0.0000
     0.0000   0.0000   0.0000   0.0000   0.0000   0.0000   0.0000   0.0000
     0.0000   0.0000   0.0000   0.0000   0.0000   0.0000   0.0000   0.0000

     highest occupied, lowest unoccupied level (ev):    14.7992   16.0175

!    total energy              =    -723.90712201 Ry
     estimated scf accuracy    <          5.4E-09 Ry

     The total energy is the sum of the following terms:
     one-electron contribution =     232.27699139 Ry
     hartree contribution      =      70.33942220 Ry
     xc contribution           =    -226.77217459 Ry
     ewald contribution        =    -799.75136102 Ry

     total magnetization       =     2.00 Bohr mag/cell
     absolute magnetization    =     2.30 Bohr mag/cell

     convergence has been achieved in  14 iterations

     Forces acting on atoms (cartesian axes, Ry/au):

     atom    1 type  1   force =    -0.00271806   -0.00378854   -0.00265381
     atom    2 type  2   force =     0.03513340    0.01584877   -0.01258733
     atom    3 type  2   force =    -0.00926841    0.00865071    0.00617808
     atom    4 type  2   force =     0.00874158    0.02482911   -0.00287785
     atom    5 type  2   force =     0.00172189   -0.02160949    0.00195478
     atom    6 type  2   force =    -0.00825015    0.00833296    0.04345197
     atom    7 type  2   force =     0.01008381    0.01206040   -0.00208926
     atom    8 type  2   force =     0.00298266    0.00434382    0.00650033
     atom    9 type  2   force =    -0.00154296   -0.00538592   -0.00331376
     atom   10 type  2   force =     0.00090870    0.00124162    0.00753097
     atom   11 type  2   force =    -0.02866180    0.00590768   -0.00876346
     atom   12 type  2   force =     0.00372692    0.00317503    0.00264955
     atom   13 type  2   force =    -0.00344115   -0.03958413   -0.00151744
     atom   14 type  2   force =     0.00334924    0.00219325   -0.00437559
     atom   15 type  2   force =    -0.00276874   -0.00133608   -0.00568090
     atom   16 type  2   force =     0.00013827   -0.00099673   -0.00101991
     atom   17 type  2   force =    -0.00139014    0.00635656    0.00023029
     atom   18 type  2   force =     0.00293236   -0.00030336    0.00104448
     atom   19 type  2   force =    -0.00861675   -0.00287588   -0.00454399
     atom   20 type  2   force =     0.00309040   -0.00444630    0.00345363
     atom   21 type  2   force =    -0.00172738   -0.00442088   -0.00244670
     atom   22 type  2   force =     0.00136778    0.00213007    0.00129279
     atom   23 type  2   force =    -0.00058096   -0.00712131   -0.00166488
     atom   24 type  2   force =     0.00967883    0.00549453    0.00418295
     atom   25 type  2   force =    -0.01173607   -0.01318825   -0.00367444
     atom   26 type  2   force =     0.01484631    0.00607390    0.00174633
     atom   27 type  2   force =    -0.02515420   -0.00898504   -0.00701397
     atom   28 type  2   force =     0.01043242    0.00065541    0.00587338
     atom   29 type  2   force =    -0.00075679   -0.00130483   -0.00164271
     atom   30 type  2   force =     0.01148948    0.00730063    0.00482550
     atom   31 type  2   force =    -0.01616936   -0.00142867   -0.00372418
     atom   32 type  2   force =     0.00310918    0.00387323    0.00136424
     atom   33 type  2   force =     0.00055635   -0.00443139   -0.00016652
     atom   34 type  2   force =    -0.00461519    0.00161108    0.00367978
     atom   35 type  2   force =    -0.00497909   -0.00088014   -0.00328924
     atom   36 type  2   force =     0.00065540    0.00424042   -0.00020738
     atom   37 type  2   force =     0.00062797   -0.03264997   -0.00713086
     atom   38 type  2   force =     0.00698116    0.00175375   -0.00028404
     atom   39 type  2   force =    -0.01006699    0.00608662   -0.01372980
     atom   40 type  2   force =     0.00932482    0.01350033    0.00416109
     atom   41 type  2   force =    -0.00682309   -0.01483617   -0.00400077
     atom   42 type  2   force =    -0.00019072    0.01736013    0.00604282
     atom   43 type  2   force =    -0.00090176    0.00073583   -0.00105468
     atom   44 type  2   force =     0.00456486    0.01706439    0.00293778
     atom   45 type  2   force =    -0.00747604   -0.02651553   -0.00662239
     atom   46 type  2   force =     0.00652983    0.01615085    0.00122061
     atom   47 type  2   force =    -0.00119544    0.00128551   -0.00185754
     atom   48 type  2   force =     0.00498526    0.00565696    0.00770993
     atom   49 type  2   force =    -0.00796935   -0.01407933   -0.01013164
     atom   50 type  2   force =     0.00416240    0.00663492    0.00349907
     atom   51 type  2   force =    -0.00340346   -0.00147604   -0.00033195
     atom   52 type  2   force =     0.00641854    0.00208566    0.00491730
     atom   53 type  2   force =    -0.00173136   -0.00303375   -0.00041079
     atom   54 type  2   force =     0.00265441    0.00550812    0.01404973
     atom   55 type  2   force =    -0.00712238   -0.00850371   -0.02491354
     atom   56 type  2   force =     0.00467858    0.00466806    0.00471262
     atom   57 type  2   force =    -0.00117770   -0.00129767   -0.00192772
     atom   58 type  2   force =     0.00554412    0.00303975    0.00434004
     atom   59 type  2   force =    -0.00065016   -0.00303484   -0.00308760
     atom   60 type  2   force =     0.00266444    0.00189694    0.00223359
     atom   61 type  2   force =    -0.00344541   -0.00181604   -0.00384101
     atom   62 type  2   force =     0.00401535    0.00453599    0.00119679
     atom   63 type  2   force =    -0.00356569   -0.00295300   -0.00040277
     The non-local contrib.  to forces
     atom    1 type  1   force =    -0.76054315   -0.76434504   -0.75918033
     atom    2 type  2   force =    -0.16472539    0.22051230    0.17808940
     atom    3 type  2   force =     0.05670865    0.08109071    0.07261433
     atom    4 type  2   force =     0.21516326   -0.18820945    0.19786772
     atom    5 type  2   force =     0.07336991    0.04152757    0.07123718
     atom    6 type  2   force =     0.17925825    0.20483522   -0.14605269
     atom    7 type  2   force =     0.07775512    0.08316600    0.06431373
     atom    8 type  2   force =    -0.00458194   -0.00454301    0.05669406
     atom    9 type  2   force =    -0.00496564   -0.00824165    0.01314025
     atom   10 type  2   force =    -0.04423725   -0.01435082   -0.01166279
     atom   11 type  2   force =    -0.10395723    0.06767070   -0.08321526
     atom   12 type  2   force =    -0.01374595   -0.04172754   -0.01506209
     atom   13 type  2   force =     0.05246712   -0.11548060   -0.07237946
     atom   14 type  2   force =     0.00277679    0.00043099    0.04544335
     atom   15 type  2   force =     0.01006902    0.00904881   -0.00374858
     atom   16 type  2   force =    -0.01241166    0.04873948   -0.01319397
     atom   17 type  2   force =    -0.00463926    0.02735364   -0.00330322
     atom   18 type  2   force =    -0.04084457   -0.02207785   -0.01548913
     atom   19 type  2   force =    -0.08044063   -0.07905566    0.05573721
     atom   20 type  2   force =     0.00427824    0.04435535    0.00461152
     atom   21 type  2   force =     0.01114571   -0.00423109    0.01016340
     atom   22 type  2   force =    -0.01436717   -0.02043349   -0.04266974
     atom   23 type  2   force =     0.06344285   -0.08455925   -0.07274632
     atom   24 type  2   force =    -0.06452583    0.03351460    0.03420811
     atom   25 type  2   force =    -0.02377185    0.00076745    0.01391620
     atom   26 type  2   force =    -0.04201703   -0.02078767   -0.02352501
     atom   27 type  2   force =    -0.14643459    0.12530932    0.12288435
     atom   28 type  2   force =     0.08015418    0.02359341   -0.01249696
     atom   29 type  2   force =     0.00108314    0.01945947    0.00385233
     atom   30 type  2   force =     0.08027622   -0.01264565    0.02954418
     atom   31 type  2   force =    -0.01727148    0.00338870    0.01651930
     atom   32 type  2   force =     0.05299138   -0.00678483   -0.00713019
     atom   33 type  2   force =     0.01813076   -0.00722388   -0.00368793
     atom   34 type  2   force =     0.04449729    0.00063837    0.00427318
     atom   35 type  2   force =    -0.00359825    0.00881882    0.01031296
     atom   36 type  2   force =    -0.01827815   -0.04029809   -0.01815382
     atom   37 type  2   force =    -0.07187132   -0.10858924    0.04775659
     atom   38 type  2   force =    -0.01364136   -0.01344553   -0.04523937
     atom   39 type  2   force =    -0.08683245    0.07138231   -0.08754731
     atom   40 type  2   force =     0.03890897   -0.05773986    0.03476421
     atom   41 type  2   force =     0.00959504   -0.02576196    0.01409057
     atom   42 type  2   force =     0.02103888    0.08888239   -0.00989624
     atom   43 type  2   force =     0.01711941    0.00029596    0.00395936
     atom   44 type  2   force =    -0.02281326   -0.03704155   -0.02350318
     atom   45 type  2   force =     0.12477293   -0.14768288    0.12419488
     atom   46 type  2   force =    -0.00972242    0.08735409    0.02311003
     atom   47 type  2   force =     0.00362770    0.00120229    0.01621638
     atom   48 type  2   force =     0.03323181    0.03357936   -0.06885816
     atom   49 type  2   force =     0.00843494   -0.00010073   -0.02296672
     atom   50 type  2   force =     0.02983286   -0.01441960    0.07132569
     atom   51 type  2   force =     0.01767762    0.00366564    0.00280407
     atom   52 type  2   force =    -0.01417605    0.02654518    0.07307446
     atom   53 type  2   force =     0.00462942    0.01792296    0.00165407
     atom   54 type  2   force =    -0.02245530   -0.02063348   -0.04362673
     atom   55 type  2   force =     0.12364180    0.12444017   -0.14646648
     atom   56 type  2   force =     0.02297614    0.02396550    0.02223268
     atom   57 type  2   force =     0.00582193    0.00447883    0.00538388
     atom   58 type  2   force =     0.01986814   -0.00720309   -0.00915604
     atom   59 type  2   force =     0.00857029   -0.01431549   -0.01494997
     atom   60 type  2   force =    -0.01017945    0.01802475   -0.01147995
     atom   61 type  2   force =    -0.01505398    0.00868574   -0.01540642
     atom   62 type  2   force =    -0.00851083   -0.00588724    0.01528864
     atom   63 type  2   force =    -0.01594297   -0.01508120    0.00847585
     The ionic contribution  to forces
     atom    1 type  1   force =     2.98654018    2.95338780    2.99618169
     atom    2 type  2   force =     2.41350987   -2.05999140   -2.21496921
     atom    3 type  2   force =     0.48090194   -0.73016361   -0.85179372
     atom    4 type  2   force =    -2.09268309    2.33256184   -2.15470849
     atom    5 type  2   force =    -0.78403813    0.40099260   -0.82617859
     atom    6 type  2   force =    -2.18783226   -2.09871030    2.45950607
     atom    7 type  2   force =    -0.82523166   -0.74904449    0.53706788
     atom    8 type  2   force =     0.26436586    0.21257632   -0.72460045
     atom    9 type  2   force =     0.07023269    0.01822944   -0.22420384
     atom   10 type  2   force =     0.18216887    0.06986163    0.56506883
     atom   11 type  2   force =    -0.52787673   -0.62729753    0.80256382
     atom   12 type  2   force =     0.02950878    0.13545903    0.52575614
     atom   13 type  2   force =    -0.66832469   -0.56632744    0.76124847
     atom   14 type  2   force =    -0.19640233   -0.18251935   -0.71385088
     atom   15 type  2   force =    -0.17167332   -0.13063128   -0.06820150
     atom   16 type  2   force =     0.20118903   -0.77453827    0.22501272
     atom   17 type  2   force =     0.07144678   -0.15541067    0.09374411
     atom   18 type  2   force =     0.22518906    0.46960873    0.00345360
     atom   19 type  2   force =    -0.35772214    0.74824434   -0.69854743
     atom   20 type  2   force =    -0.18198328   -0.72990549   -0.18986712
     atom   21 type  2   force =    -0.17973826   -0.05787519   -0.20022767
     atom   22 type  2   force =     0.02549542    0.47931692    0.23476739
     atom   23 type  2   force =    -0.69135774    0.77828720   -0.33160810
     atom   24 type  2   force =     0.10825438   -0.13533664   -0.17010141
     atom   25 type  2   force =    -0.02133450   -0.07100648   -0.07035065
     atom   26 type  2   force =     0.13781923   -0.09134698   -0.05152153
     atom   27 type  2   force =     1.14496669    0.24373267    0.24216581
     atom   28 type  2   force =    -0.08415328   -0.13339467    0.11190268
     atom   29 type  2   force =    -0.15991496    0.03125606    0.25693467
     atom   30 type  2   force =    -0.01866551    0.16339752   -0.20979998
     atom   31 type  2   force =    -0.22252033    0.17234196   -0.00932489
     atom   32 type  2   force =    -0.74575217    0.19620202    0.26463434
     atom   33 type  2   force =    -0.20197073    0.03038399    0.09136653
     atom   34 type  2   force =    -0.71885828   -0.17560282   -0.19985667
     atom   35 type  2   force =    -0.06339265   -0.13390768   -0.19862856
     atom   36 type  2   force =     0.51726605    0.17553450    0.00193312
     atom   37 type  2   force =     0.73938014   -0.50014549   -0.69218208
     atom   38 type  2   force =     0.54032483    0.07156150    0.20926081
     atom   39 type  2   force =     0.80923724   -0.63784754   -0.43116898
     atom   40 type  2   force =    -0.19530489    0.08768605   -0.23526377
     atom   41 type  2   force =    -0.06618423   -0.07958110   -0.06850557
     atom   42 type  2   force =    -0.13329894    0.02942848    0.09010385
     atom   43 type  2   force =     0.03306010   -0.11408176    0.25467656
     atom   44 type  2   force =    -0.06398596    0.12521897   -0.05184995
     atom   45 type  2   force =     0.24691974    1.15926101    0.24814214
     atom   46 type  2   force =     0.10209501    0.05179432   -0.17045027
     atom   47 type  2   force =     0.22568775   -0.11436330    0.01660340
     atom   48 type  2   force =    -0.13288969   -0.11135163    0.13823204
     atom   49 type  2   force =    -0.07463184   -0.08213280    0.00727705
     atom   50 type  2   force =    -0.23872545    0.15202276   -0.08529852
     atom   51 type  2   force =    -0.00552751    0.17439241   -0.18844512
     atom   52 type  2   force =     0.14009473   -0.17746241   -0.12199562
     atom   53 type  2   force =     0.23106192    0.01351066   -0.18205808
     atom   54 type  2   force =    -0.06100598   -0.09122915    0.14013195
     atom   55 type  2   force =     0.24711297    0.24274931    1.13196726
     atom   56 type  2   force =    -0.09321927   -0.03250167   -0.12565504
     atom   57 type  2   force =    -0.01827796   -0.04273680   -0.01948413
     atom   58 type  2   force =    -0.07567553    0.02214082    0.06588476
     atom   59 type  2   force =    -0.28048298    0.07694859    0.16223882
     atom   60 type  2   force =     0.06230493   -0.03701595    0.05945860
     atom   61 type  2   force =     0.13440307   -0.30282293    0.15880043
     atom   62 type  2   force =     0.03774851    0.03449098   -0.10179791
     atom   63 type  2   force =     0.13235051    0.07370245   -0.27358975
     The local contribution  to forces
     atom    1 type  1   force =    -2.22875558   -2.19283787   -2.23970817
     atom    2 type  2   force =    -2.21370167    1.85531462    2.02423829
     atom    3 type  2   force =    -0.54696015    0.65768015    0.78529166
     atom    4 type  2   force =     1.88618945   -2.11954143    1.95391052
     atom    5 type  2   force =     0.71230343   -0.46414536    0.75685136
     atom    6 type  2   force =     2.00024802    1.90219528   -2.27005987
     atom    7 type  2   force =     0.75746777    0.67791254   -0.60353974
     atom    8 type  2   force =    -0.25684488   -0.20368994    0.67435319
     atom    9 type  2   force =    -0.06685926   -0.01538252    0.20769358
     atom   10 type  2   force =    -0.13705903   -0.05429166   -0.54592850
     atom   11 type  2   force =     0.60312675    0.56550358   -0.72815685
     atom   12 type  2   force =    -0.01209919   -0.09057624   -0.50809565
     atom   13 type  2   force =     0.61233262    0.64220815   -0.69044417
     atom   14 type  2   force =     0.19689006    0.18426159    0.66398353
     atom   15 type  2   force =     0.15874128    0.12021154    0.06623253
     atom   16 type  2   force =    -0.18868146    0.72475051   -0.21288153
     atom   17 type  2   force =    -0.06824884    0.13435315   -0.09026858
     atom   18 type  2   force =    -0.18145280   -0.44788304    0.01301719
     atom   19 type  2   force =     0.42949641   -0.67209208    0.63821622
     atom   20 type  2   force =     0.18071078    0.68105867    0.18864772
     atom   21 type  2   force =     0.16677227    0.05764756    0.18756133
     atom   22 type  2   force =    -0.00982030   -0.45679876   -0.19086760
     atom   23 type  2   force =     0.62725954   -0.70088775    0.40261984
     atom   24 type  2   force =    -0.03409028    0.10725656    0.14001026
     atom   25 type  2   force =     0.03332319    0.05700045    0.05270993
     atom   26 type  2   force =    -0.08100186    0.11816975    0.07674740
     atom   27 type  2   force =    -1.02373889   -0.37805285   -0.37211641
     atom   28 type  2   force =     0.01436826    0.11041236   -0.09357892
     atom   29 type  2   force =     0.15799559   -0.05206722   -0.26247948
     atom   30 type  2   force =    -0.05018326   -0.14349445    0.18503471
     atom   31 type  2   force =     0.22354073   -0.17718680   -0.01096503
     atom   32 type  2   force =     0.69578587   -0.18557214   -0.25620488
     atom   33 type  2   force =     0.18432345   -0.02760640   -0.08790376
     atom   34 type  2   force =     0.66966739    0.17655487    0.19920255
     atom   35 type  2   force =     0.06195097    0.12416770    0.18496286
     atom   36 type  2   force =    -0.49839271   -0.13099617    0.01594859
     atom   37 type  2   force =    -0.66691811    0.57610019    0.63722452
     atom   38 type  2   force =    -0.51976038   -0.05638424   -0.16434448
     atom   39 type  2   force =    -0.73250654    0.57250628    0.50495297
     atom   40 type  2   force =     0.16562858   -0.01646748    0.20461955
     atom   41 type  2   force =     0.04967883    0.09048307    0.05036400
     atom   42 type  2   force =     0.11196859   -0.10097275   -0.07421231
     atom   43 type  2   force =    -0.05117481    0.11449641   -0.25973631
     atom   44 type  2   force =     0.09129055   -0.07114263    0.07824529
     atom   45 type  2   force =    -0.37921457   -1.03811732   -0.37899960
     atom   46 type  2   force =    -0.08589519   -0.12301795    0.14848969
     atom   47 type  2   force =    -0.23055092    0.11441085   -0.03474774
     atom   48 type  2   force =     0.10455066    0.08339539   -0.06172775
     atom   49 type  2   force =     0.05814131    0.06810839    0.00548468
     atom   50 type  2   force =     0.21295844   -0.13100953    0.01740607
     atom   51 type  2   force =    -0.01564674   -0.17955527    0.18525617
     atom   52 type  2   force =    -0.11955240    0.15293906    0.05377739
     atom   53 type  2   force =    -0.23746275   -0.03453798    0.17993389
     atom   54 type  2   force =     0.08603852    0.11733138   -0.08252351
     atom   55 type  2   force =    -0.37792813   -0.37571042   -1.01048512
     atom   56 type  2   force =     0.07482872    0.01316538    0.10809010
     atom   57 type  2   force =     0.01119163    0.03692250    0.01213760
     atom   58 type  2   force =     0.06126477   -0.01193566   -0.05242990
     atom   59 type  2   force =     0.27117741   -0.06570294   -0.15042817
     atom   60 type  2   force =    -0.04953360    0.02085875   -0.04578926
     atom   61 type  2   force =    -0.12285110    0.29228176   -0.14728349
     atom   62 type  2   force =    -0.02529364   -0.02410761    0.08766951
     atom   63 type  2   force =    -0.12002830   -0.06160088    0.26467428
     The core correction contribution to forces
     atom    1 type  1   force =     0.00000000    0.00000000    0.00000000
     atom    2 type  2   force =     0.00000000    0.00000000    0.00000000
     atom    3 type  2   force =     0.00000000    0.00000000    0.00000000
     atom    4 type  2   force =     0.00000000    0.00000000    0.00000000
     atom    5 type  2   force =     0.00000000    0.00000000    0.00000000
     atom    6 type  2   force =     0.00000000    0.00000000    0.00000000
     atom    7 type  2   force =     0.00000000    0.00000000    0.00000000
     atom    8 type  2   force =     0.00000000    0.00000000    0.00000000
     atom    9 type  2   force =     0.00000000    0.00000000    0.00000000
     atom   10 type  2   force =     0.00000000    0.00000000    0.00000000
     atom   11 type  2   force =     0.00000000    0.00000000    0.00000000
     atom   12 type  2   force =     0.00000000    0.00000000    0.00000000
     atom   13 type  2   force =     0.00000000    0.00000000    0.00000000
     atom   14 type  2   force =     0.00000000    0.00000000    0.00000000
     atom   15 type  2   force =     0.00000000    0.00000000    0.00000000
     atom   16 type  2   force =     0.00000000    0.00000000    0.00000000
     atom   17 type  2   force =     0.00000000    0.00000000    0.00000000
     atom   18 type  2   force =     0.00000000    0.00000000    0.00000000
     atom   19 type  2   force =     0.00000000    0.00000000    0.00000000
     atom   20 type  2   force =     0.00000000    0.00000000    0.00000000
     atom   21 type  2   force =     0.00000000    0.00000000    0.00000000
     atom   22 type  2   force =     0.00000000    0.00000000    0.00000000
     atom   23 type  2   force =     0.00000000    0.00000000    0.00000000
     atom   24 type  2   force =     0.00000000    0.00000000    0.00000000
     atom   25 type  2   force =     0.00000000    0.00000000    0.00000000
     atom   26 type  2   force =     0.00000000    0.00000000    0.00000000
     atom   27 type  2   force =     0.00000000    0.00000000    0.00000000
     atom   28 type  2   force =     0.00000000    0.00000000    0.00000000
     atom   29 type  2   force =     0.00000000    0.00000000    0.00000000
     atom   30 type  2   force =     0.00000000    0.00000000    0.00000000
     atom   31 type  2   force =     0.00000000    0.00000000    0.00000000
     atom   32 type  2   force =     0.00000000    0.00000000    0.00000000
     atom   33 type  2   force =     0.00000000    0.00000000    0.00000000
     atom   34 type  2   force =     0.00000000    0.00000000    0.00000000
     atom   35 type  2   force =     0.00000000    0.00000000    0.00000000
     atom   36 type  2   force =     0.00000000    0.00000000    0.00000000
     atom   37 type  2   force =     0.00000000    0.00000000    0.00000000
     atom   38 type  2   force =     0.00000000    0.00000000    0.00000000
     atom   39 type  2   force =     0.00000000    0.00000000    0.00000000
     atom   40 type  2   force =     0.00000000    0.00000000    0.00000000
     atom   41 type  2   force =     0.00000000    0.00000000    0.00000000
     atom   42 type  2   force =     0.00000000    0.00000000    0.00000000
     atom   43 type  2   force =     0.00000000    0.00000000    0.00000000
     atom   44 type  2   force =     0.00000000    0.00000000    0.00000000
     atom   45 type  2   force =     0.00000000    0.00000000    0.00000000
     atom   46 type  2   force =     0.00000000    0.00000000    0.00000000
     atom   47 type  2   force =     0.00000000    0.00000000    0.00000000
     atom   48 type  2   force =     0.00000000    0.00000000    0.00000000
     atom   49 type  2   force =     0.00000000    0.00000000    0.00000000
     atom   50 type  2   force =     0.00000000    0.00000000    0.00000000
     atom   51 type  2   force =     0.00000000    0.00000000    0.00000000
     atom   52 type  2   force =     0.00000000    0.00000000    0.00000000
     atom   53 type  2   force =     0.00000000    0.00000000    0.00000000
     atom   54 type  2   force =     0.00000000    0.00000000    0.00000000
     atom   55 type  2   force =     0.00000000    0.00000000    0.00000000
     atom   56 type  2   force =     0.00000000    0.00000000    0.00000000
     atom   57 type  2   force =     0.00000000    0.00000000    0.00000000
     atom   58 type  2   force =     0.00000000    0.00000000    0.00000000
     atom   59 type  2   force =     0.00000000    0.00000000    0.00000000
     atom   60 type  2   force =     0.00000000    0.00000000    0.00000000
     atom   61 type  2   force =     0.00000000    0.00000000    0.00000000
     atom   62 type  2   force =     0.00000000    0.00000000    0.00000000
     atom   63 type  2   force =     0.00000000    0.00000000    0.00000000
     The Hubbard contrib.    to forces
     atom    1 type  1   force =     0.00000000    0.00000000    0.00000000
     atom    2 type  2   force =     0.00000000    0.00000000    0.00000000
     atom    3 type  2   force =     0.00000000    0.00000000    0.00000000
     atom    4 type  2   force =     0.00000000    0.00000000    0.00000000
     atom    5 type  2   force =     0.00000000    0.00000000    0.00000000
     atom    6 type  2   force =     0.00000000    0.00000000    0.00000000
     atom    7 type  2   force =     0.00000000    0.00000000    0.00000000
     atom    8 type  2   force =     0.00000000    0.00000000    0.00000000
     atom    9 type  2   force =     0.00000000    0.00000000    0.00000000
     atom   10 type  2   force =     0.00000000    0.00000000    0.00000000
     atom   11 type  2   force =     0.00000000    0.00000000    0.00000000
     atom   12 type  2   force =     0.00000000    0.00000000    0.00000000
     atom   13 type  2   force =     0.00000000    0.00000000    0.00000000
     atom   14 type  2   force =     0.00000000    0.00000000    0.00000000
     atom   15 type  2   force =     0.00000000    0.00000000    0.00000000
     atom   16 type  2   force =     0.00000000    0.00000000    0.00000000
     atom   17 type  2   force =     0.00000000    0.00000000    0.00000000
     atom   18 type  2   force =     0.00000000    0.00000000    0.00000000
     atom   19 type  2   force =     0.00000000    0.00000000    0.00000000
     atom   20 type  2   force =     0.00000000    0.00000000    0.00000000
     atom   21 type  2   force =     0.00000000    0.00000000    0.00000000
     atom   22 type  2   force =     0.00000000    0.00000000    0.00000000
     atom   23 type  2   force =     0.00000000    0.00000000    0.00000000
     atom   24 type  2   force =     0.00000000    0.00000000    0.00000000
     atom   25 type  2   force =     0.00000000    0.00000000    0.00000000
     atom   26 type  2   force =     0.00000000    0.00000000    0.00000000
     atom   27 type  2   force =     0.00000000    0.00000000    0.00000000
     atom   28 type  2   force =     0.00000000    0.00000000    0.00000000
     atom   29 type  2   force =     0.00000000    0.00000000    0.00000000
     atom   30 type  2   force =     0.00000000    0.00000000    0.00000000
     atom   31 type  2   force =     0.00000000    0.00000000    0.00000000
     atom   32 type  2   force =     0.00000000    0.00000000    0.00000000
     atom   33 type  2   force =     0.00000000    0.00000000    0.00000000
     atom   34 type  2   force =     0.00000000    0.00000000    0.00000000
     atom   35 type  2   force =     0.00000000    0.00000000    0.00000000
     atom   36 type  2   force =     0.00000000    0.00000000    0.00000000
     atom   37 type  2   force =     0.00000000    0.00000000    0.00000000
     atom   38 type  2   force =     0.00000000    0.00000000    0.00000000
     atom   39 type  2   force =     0.00000000    0.00000000    0.00000000
     atom   40 type  2   force =     0.00000000    0.00000000    0.00000000
     atom   41 type  2   force =     0.00000000    0.00000000    0.00000000
     atom   42 type  2   force =     0.00000000    0.00000000    0.00000000
     atom   43 type  2   force =     0.00000000    0.00000000    0.00000000
     atom   44 type  2   force =     0.00000000    0.00000000    0.00000000
     atom   45 type  2   force =     0.00000000    0.00000000    0.00000000
     atom   46 type  2   force =     0.00000000    0.00000000    0.00000000
     atom   47 type  2   force =     0.00000000    0.00000000    0.00000000
     atom   48 type  2   force =     0.00000000    0.00000000    0.00000000
     atom   49 type  2   force =     0.00000000    0.00000000    0.00000000
     atom   50 type  2   force =     0.00000000    0.00000000    0.00000000
     atom   51 type  2   force =     0.00000000    0.00000000    0.00000000
     atom   52 type  2   force =     0.00000000    0.00000000    0.00000000
     atom   53 type  2   force =     0.00000000    0.00000000    0.00000000
     atom   54 type  2   force =     0.00000000    0.00000000    0.00000000
     atom   55 type  2   force =     0.00000000    0.00000000    0.00000000
     atom   56 type  2   force =     0.00000000    0.00000000    0.00000000
     atom   57 type  2   force =     0.00000000    0.00000000    0.00000000
     atom   58 type  2   force =     0.00000000    0.00000000    0.00000000
     atom   59 type  2   force =     0.00000000    0.00000000    0.00000000
     atom   60 type  2   force =     0.00000000    0.00000000    0.00000000
     atom   61 type  2   force =     0.00000000    0.00000000    0.00000000
     atom   62 type  2   force =     0.00000000    0.00000000    0.00000000
     atom   63 type  2   force =     0.00000000    0.00000000    0.00000000
     The SCF correction term to forces
     atom    1 type  1   force =    -0.00002717   -0.00002397   -0.00000079
     atom    2 type  2   force =    -0.00001706   -0.00001728    0.00000041
     atom    3 type  2   force =     0.00001350    0.00001293    0.00001202
     atom    4 type  2   force =     0.00000430   -0.00001238   -0.00000138
     atom    5 type  2   force =     0.00001903   -0.00001483   -0.00000895
     atom    6 type  2   force =     0.00000820   -0.00001776    0.00000467
     atom    7 type  2   force =     0.00002493   -0.00000418    0.00001509
     atom    8 type  2   force =    -0.00002404   -0.00003008   -0.00000025
     atom    9 type  2   force =    -0.00001840   -0.00002173    0.00000247
     atom   10 type  2   force =    -0.00003154   -0.00000807   -0.00000036
     atom   11 type  2   force =    -0.00002223    0.00000040   -0.00000896
     atom   12 type  2   force =    -0.00000437   -0.00001075   -0.00000263
     atom   13 type  2   force =     0.00001615   -0.00001478    0.00000393
     atom   14 type  2   force =     0.00001707   -0.00001051   -0.00000537
     atom   15 type  2   force =     0.00002664    0.00000433   -0.00001713
     atom   16 type  2   force =    -0.00002530    0.00002101   -0.00001091
     atom   17 type  2   force =    -0.00001648    0.00002990    0.00000419
     atom   18 type  2   force =    -0.00002698    0.00001827    0.00000904
     atom   19 type  2   force =    -0.00001804   -0.00000302   -0.00000378
     atom   20 type  2   force =     0.00001702    0.00001463    0.00000773
     atom   21 type  2   force =     0.00002525    0.00000730    0.00000245
     atom   22 type  2   force =    -0.00000782    0.00001485    0.00000895
     atom   23 type  2   force =     0.00000674    0.00000797    0.00001591
     atom   24 type  2   force =    -0.00002708    0.00002947    0.00001221
     atom   25 type  2   force =    -0.00002055    0.00001981   -0.00000371
     atom   26 type  2   force =    -0.00002168    0.00000827   -0.00000831
     atom   27 type  2   force =    -0.00001507   -0.00000472   -0.00000150
     atom   28 type  2   force =    -0.00000439    0.00001378   -0.00000720
     atom   29 type  2   force =     0.00001179    0.00001632   -0.00000401
     atom   30 type  2   force =    -0.00000562    0.00001267   -0.00000720
     atom   31 type  2   force =     0.00001407   -0.00000306   -0.00000734
     atom   32 type  2   force =     0.00001645   -0.00000236    0.00001118
     atom   33 type  2   force =     0.00000522   -0.00001564    0.00000484
     atom   34 type  2   force =     0.00001076   -0.00000988    0.00000694
     atom   35 type  2   force =    -0.00000681    0.00001049    0.00000972
     atom   36 type  2   force =    -0.00000744   -0.00003035    0.00001094
     atom   37 type  2   force =    -0.00003038   -0.00004596    0.00001632
     atom   38 type  2   force =    -0.00000958   -0.00000852   -0.00001479
     atom   39 type  2   force =    -0.00003289    0.00001504   -0.00002026
     atom   40 type  2   force =     0.00002451   -0.00000892   -0.00001269
     atom   41 type  2   force =     0.00001962   -0.00000671   -0.00000356
     atom   42 type  2   force =     0.00003310   -0.00000852   -0.00000626
     atom   43 type  2   force =     0.00002590   -0.00000531   -0.00000807
     atom   44 type  2   force =     0.00000588   -0.00000094   -0.00000816
     atom   45 type  2   force =    -0.00002180   -0.00000688   -0.00001360
     atom   46 type  2   force =    -0.00001522   -0.00001015    0.00001737
     atom   47 type  2   force =    -0.00002762    0.00000513    0.00001662
     atom   48 type  2   force =     0.00002483    0.00000331    0.00001002
     atom   49 type  2   force =     0.00001860    0.00001527    0.00001956
     atom   50 type  2   force =     0.00002889    0.00001076    0.00001204
     atom   51 type  2   force =     0.00002552   -0.00000936   -0.00000087
     atom   52 type  2   force =    -0.00001538    0.00003329    0.00000728
     atom   53 type  2   force =    -0.00002760    0.00004007    0.00000554
     atom   54 type  2   force =     0.00000952    0.00000884    0.00001423
     atom   55 type  2   force =    -0.00001668   -0.00001331    0.00001701
     atom   56 type  2   force =     0.00002533    0.00000832   -0.00000890
     atom   57 type  2   force =     0.00001906    0.00000726   -0.00001887
     atom   58 type  2   force =     0.00001909    0.00000715   -0.00001255
     atom   59 type  2   force =     0.00001748    0.00000447   -0.00000206
     atom   60 type  2   force =     0.00000491   -0.00000113   -0.00000958
     atom   61 type  2   force =    -0.00001105    0.00000885   -0.00000530
     atom   62 type  2   force =     0.00000365    0.00000933   -0.00001724
     atom   63 type  2   force =    -0.00001258   -0.00000390   -0.00001693

     Total force =     0.128042     Total SCF correction =     0.000216

     Writing all to output data dir ./pwscf.save/ :
     XML data file, charge density, pseudopotentials, collected wavefunctions
 
     init_run     :      0.37s CPU      0.69s WALL (       1 calls)
     electrons    :     11.53s CPU     11.75s WALL (       1 calls)
     forces       :      4.76s CPU      4.77s WALL (       1 calls)

     Called by init_run:
     wfcinit      :      0.11s CPU      0.12s WALL (       1 calls)
     wfcinit:wfcr :      0.11s CPU      0.12s WALL (       1 calls)
     potinit      :      0.10s CPU      0.21s WALL (       1 calls)
     hinit0       :      0.05s CPU      0.26s WALL (       1 calls)

     Called by electrons:
     c_bands      :      9.66s CPU      9.85s WALL (      14 calls)
     sum_band     :      0.77s CPU      0.78s WALL (      14 calls)
     v_of_rho     :      0.67s CPU      0.68s WALL (      15 calls)
     v_h          :      0.03s CPU      0.03s WALL (      15 calls)
     v_xc         :      0.64s CPU      0.65s WALL (      15 calls)
     mix_rho      :      0.13s CPU      0.14s WALL (      14 calls)

     Called by c_bands:
     init_us_2    :      0.02s CPU      0.03s WALL (      30 calls)
     regterg      :      9.51s CPU      9.69s WALL (      14 calls)

     Called by sum_band:
     sum_band:wei :      0.01s CPU      0.01s WALL (      14 calls)
     sum_band:loo :      0.70s CPU      0.71s WALL (      14 calls)
     sum_band:buf :      0.00s CPU      0.00s WALL (      14 calls)
     sum_band:ini :      0.01s CPU      0.01s WALL (      14 calls)

     Called by *egterg:
     rdiaghg      :      4.07s CPU      4.18s WALL (     266 calls)
     regterg:over :      0.27s CPU      0.27s WALL (     252 calls)
     regterg:upda :      0.32s CPU      0.32s WALL (     252 calls)
     regterg:last :      0.51s CPU      0.52s WALL (      51 calls)
     rdiaghg:chol :      0.14s CPU      0.15s WALL (     266 calls)
     rdiaghg:inve :      0.03s CPU      0.03s WALL (     266 calls)
     rdiaghg:para :      0.36s CPU      0.39s WALL (     532 calls)
     h_psi        :      4.32s CPU      4.37s WALL (     267 calls)
     g_psi        :      0.00s CPU      0.00s WALL (     252 calls)

     Called by h_psi:
     h_psi:calbec :      0.66s CPU      0.67s WALL (     267 calls)
     vloc_psi     :      3.55s CPU      3.59s WALL (     267 calls)
                                        0.00s GPU  (     267 calls)
     add_vuspsi   :      0.11s CPU      0.11s WALL (     267 calls)

     General routines
     calbec       :      0.90s CPU      0.91s WALL (     271 calls)
     fft          :      0.47s CPU      0.52s WALL (     196 calls)
     ffts         :      0.03s CPU      0.03s WALL (      14 calls)
     fftw         :      4.14s CPU      4.18s WALL (   10094 calls)
 
     Parallel routines
 
     PWSCF        :     20.84s CPU     21.66s WALL

 
   This run was terminated on:  16:21:19  16Nov2025            

=------------------------------------------------------------------------------=
   JOB DONE.
=------------------------------------------------------------------------------=
