
     Program PWSCF v.7.5 starts on 16Nov2025 at 15:54:53 

     This program is part of the open-source Quantum ESPRESSO suite
     for quantum simulation of materials; please cite
         "P. Giannozzi et al., J. Phys.:Condens. Matter 21 395502 (2009);
         "P. Giannozzi et al., J. Phys.:Condens. Matter 29 465901 (2017);
         "P. Giannozzi et al., J. Chem. Phys. 152 154105 (2020);
          URL http://www.quantum-espresso.org", 
     in publications or presentations arising from this work. More details at
     http://www.quantum-espresso.org/quote

     Parallel version (MPI), running on    96 processors

     MPI processes distributed on     2 nodes
     174873 MiB available memory on the printing compute node when the environment starts
 
     Reading input from supercell-097.in

     Current dimensions of program PWSCF are:
     Max number of different atomic species (ntypx) = 10
     Max number of k-points (npk) =  40000
     Max angular momentum in pseudopotentials (lmaxx) =  4

     gamma-point specific algorithms are used
 
     K-points division:     npool     =       2
     R & G space division:  proc/nbgrp/npool/nimage =      48
     Subspace diagonalization in iterative solution of the eigenvalue problem:
     one sub-group per band group will be used
     scalapack distributed-memory algorithm (size of sub-group:  2*  2 procs)

 
     Parallelization info
     --------------------
     sticks:   dense  smooth     PW     G-vecs:    dense   smooth      PW
     Min          59      59     14                 2432     2432     302
     Max          62      62     16                 2442     2442     316
     Sum        2885    2885    725               116921   116921   14771
 
     Using Slab Decomposition
 


     bravais-lattice index     =            0
     lattice parameter (alat)  =      13.4813  a.u.
     unit-cell volume          =    2450.1683 (a.u.)^3
     number of atoms/cell      =           63
     number of atomic types    =            2
     number of electrons       =       254.00 (up: 128.00, down: 126.00)
     number of Kohn-Sham states=          152
     kinetic-energy cutoff     =      50.0000  Ry
     charge density cutoff     =     200.0000  Ry
     scf convergence threshold =      1.0E-08
     mixing beta               =       0.7000
     number of iterations used =            8  plain     mixing
     Exchange-correlation= PBE
                           (   1   4   3   4   0   0   0)

     celldm(1)=  13.481306  celldm(2)=   0.000000  celldm(3)=   0.000000
     celldm(4)=   0.000000  celldm(5)=   0.000000  celldm(6)=   0.000000

     crystal axes: (cart. coord. in units of alat)
               a(1) = (   1.000000   0.000000   0.000000 )  
               a(2) = (   0.000000   1.000000   0.000000 )  
               a(3) = (   0.000000   0.000000   1.000000 )  

     reciprocal axes: (cart. coord. in units 2 pi/alat)
               b(1) = (  1.000000  0.000000  0.000000 )  
               b(2) = (  0.000000  1.000000  0.000000 )  
               b(3) = (  0.000000  0.000000  1.000000 )  


     PseudoPot. # 1 for N  read from file:
     ./N_ONCV_PBE-1.2.upf
     MD5 check sum: 5312fdf34e96954e02a33bdc911c617a
     Pseudo is Norm-conserving, Zval =  5.0
     Generated using ONCVPSP code by D. R. Hamann
     Using radial grid of  602 points,  4 beta functions with: 
                l(1) =   0
                l(2) =   0
                l(3) =   1
                l(4) =   1

     PseudoPot. # 2 for C  read from file:
     ./C_ONCV_PBE-1.2.upf
     MD5 check sum: d60b57d9bdca4133f5fde4b584ee909d
     Pseudo is Norm-conserving, Zval =  4.0
     Generated using ONCVPSP code by D. R. Hamann
     Using radial grid of  602 points,  4 beta functions with: 
                l(1) =   0
                l(2) =   0
                l(3) =   1
                l(4) =   1

     atomic species   valence    mass     pseudopotential
     N                 5.00    14.00670     N ( 1.00)
     C                 4.00    12.01070     C ( 1.00)

     Starting magnetic structure 
     atomic species   magnetization
     N               0.000
     C               0.000

     No symmetry found


                                    s                        frac. trans.

      isym =  1     identity                                     

 cryst.   s( 1) = (     1          0          0      )
                  (     0          1          0      )
                  (     0          0          1      )

 cart.    s( 1) = (  1.0000000  0.0000000  0.0000000 )
                  (  0.0000000  1.0000000  0.0000000 )
                  (  0.0000000  0.0000000  1.0000000 )


   Cartesian axes

     site n.     atom                  positions (alat units)
         1        N      tau(   1) = (   0.9893819   0.9897344   0.9891721  )
         2        C      tau(   2) = (   0.9870277   0.2601210   0.2640728  )
         3        C      tau(   3) = (   0.1231717   0.3731672   0.3742038  )
         4        C      tau(   4) = (   0.2603919   0.9894620   0.2619202  )
         5        C      tau(   5) = (   0.3737632   0.1246771   0.3741571  )
         6        C      tau(   6) = (   0.2640151   0.2616009   0.9853609  )
         7        C      tau(   7) = (   0.3737752   0.3731213   0.1223564  )
         8        C      tau(   8) = (   0.0000049   0.0005840   0.4991361  )
         9        C      tau(   9) = (   0.1251361   0.1251278   0.6250981  )
        10        C      tau(  10) = (   0.0020393   0.2482470   0.7515266  )
        11        C      tau(  11) = (   0.1292009   0.3733021   0.8763303  )
        12        C      tau(  12) = (   0.2487801   0.0017974   0.7514403  )
        13        C      tau(  13) = (   0.3754339   0.1292460   0.8748544  )
        14        C      tau(  14) = (   0.2491579   0.2495268   0.4995755  )
        15        C      tau(  15) = (   0.3750038   0.3749547   0.6244069  )
        16        C      tau(  16) = (   0.0016366   0.4979779   0.0013734  )
        17        C      tau(  17) = (   0.1265704   0.6243147   0.1250807  )
        18        C      tau(  18) = (   0.0014462   0.7520697   0.2483230  )
        19        C      tau(  19) = (   0.1266755   0.8769178   0.3741906  )
        20        C      tau(  20) = (   0.2488290   0.4983596   0.2486760  )
        21        C      tau(  21) = (   0.3741642   0.6242659   0.3742111  )
        22        C      tau(  22) = (   0.2480673   0.7520817   0.0015447  )
        23        C      tau(  23) = (   0.3729914   0.8777475   0.1265606  )
        24        C      tau(  24) = (   0.0000493   0.5010760   0.5011299  )
        25        C      tau(  25) = (   0.1252054   0.6262200   0.6252733  )
        26        C      tau(  26) = (   0.9993969   0.7487112   0.7492532  )
        27        C      tau(  27) = (   0.1217927   0.8768349   0.8763928  )
        28        C      tau(  28) = (   0.2492749   0.5017254   0.7482724  )
        29        C      tau(  29) = (   0.3741000   0.6263042   0.8750769  )
        30        C      tau(  30) = (   0.2487293   0.7486845   0.5007616  )
        31        C      tau(  31) = (   0.3739266   0.8750581   0.6258828  )
        32        C      tau(  32) = (   0.4987543   0.0011228   0.0002828  )
        33        C      tau(  33) = (   0.6248203   0.1251003   0.1251034  )
        34        C      tau(  34) = (   0.4991217   0.2493918   0.2488717  )
        35        C      tau(  35) = (   0.6243080   0.3746888   0.3747831  )
        36        C      tau(  36) = (   0.7516460   0.0016191   0.2487956  )
        37        C      tau(  37) = (   0.8750430   0.1283649   0.3757598  )
        38        C      tau(  38) = (   0.7517475   0.2480080   0.0019610  )
        39        C      tau(  39) = (   0.8773622   0.3724247   0.1282033  )
        40        C      tau(  40) = (   0.5008161   0.9999897   0.5008301  )
        41        C      tau(  41) = (   0.6256173   0.1249721   0.6252590  )
        42        C      tau(  42) = (   0.5022259   0.2488088   0.7478265  )
        43        C      tau(  43) = (   0.6264784   0.3739683   0.8752045  )
        44        C      tau(  44) = (   0.7487945   0.9989046   0.7489691  )
        45        C      tau(  45) = (   0.8764746   0.1216998   0.8763156  )
        46        C      tau(  46) = (   0.7479635   0.2486819   0.5018806  )
        47        C      tau(  47) = (   0.8751980   0.3739245   0.6263738  )
        48        C      tau(  48) = (   0.5012000   0.5011574   0.0001136  )
        49        C      tau(  49) = (   0.6256259   0.6262099   0.1252968  )
        50        C      tau(  50) = (   0.5005188   0.7489091   0.2490095  )
        51        C      tau(  51) = (   0.6258050   0.8750157   0.3740056  )
        52        C      tau(  52) = (   0.7486304   0.5011458   0.2494302  )
        53        C      tau(  53) = (   0.8750247   0.6261269   0.3741365  )
        54        C      tau(  54) = (   0.7492281   0.7488562   0.9996087  )
        55        C      tau(  55) = (   0.8766209   0.8769033   0.1218021  )
        56        C      tau(  56) = (   0.4990819   0.4992903   0.4990317  )
        57        C      tau(  57) = (   0.6247789   0.6244471   0.6249452  )
        58        C      tau(  58) = (   0.4991767   0.7499842   0.7500845  )
        59        C      tau(  59) = (   0.6239946   0.8751464   0.8754130  )
        60        C      tau(  60) = (   0.7505316   0.4989321   0.7505826  )
        61        C      tau(  61) = (   0.8758455   0.6234984   0.8759288  )
        62        C      tau(  62) = (   0.7498244   0.7497799   0.4993198  )
        63        C      tau(  63) = (   0.8750855   0.8749084   0.6242568  )

   Crystallographic axes

     site n.     atom                  positions (cryst. coord.)
         1        N      tau(   1) = (  0.9893819  0.9897344  0.9891721  )
         2        C      tau(   2) = (  0.9870277  0.2601210  0.2640728  )
         3        C      tau(   3) = (  0.1231717  0.3731672  0.3742038  )
         4        C      tau(   4) = (  0.2603919  0.9894620  0.2619202  )
         5        C      tau(   5) = (  0.3737632  0.1246771  0.3741571  )
         6        C      tau(   6) = (  0.2640151  0.2616009  0.9853609  )
         7        C      tau(   7) = (  0.3737752  0.3731213  0.1223564  )
         8        C      tau(   8) = (  0.0000049  0.0005840  0.4991361  )
         9        C      tau(   9) = (  0.1251361  0.1251278  0.6250981  )
        10        C      tau(  10) = (  0.0020393  0.2482470  0.7515266  )
        11        C      tau(  11) = (  0.1292009  0.3733021  0.8763303  )
        12        C      tau(  12) = (  0.2487801  0.0017974  0.7514403  )
        13        C      tau(  13) = (  0.3754339  0.1292460  0.8748544  )
        14        C      tau(  14) = (  0.2491579  0.2495268  0.4995755  )
        15        C      tau(  15) = (  0.3750038  0.3749547  0.6244069  )
        16        C      tau(  16) = (  0.0016366  0.4979779  0.0013734  )
        17        C      tau(  17) = (  0.1265704  0.6243147  0.1250807  )
        18        C      tau(  18) = (  0.0014462  0.7520697  0.2483230  )
        19        C      tau(  19) = (  0.1266755  0.8769178  0.3741906  )
        20        C      tau(  20) = (  0.2488290  0.4983596  0.2486760  )
        21        C      tau(  21) = (  0.3741642  0.6242659  0.3742111  )
        22        C      tau(  22) = (  0.2480673  0.7520817  0.0015447  )
        23        C      tau(  23) = (  0.3729914  0.8777475  0.1265606  )
        24        C      tau(  24) = (  0.0000493  0.5010760  0.5011299  )
        25        C      tau(  25) = (  0.1252054  0.6262200  0.6252733  )
        26        C      tau(  26) = (  0.9993969  0.7487112  0.7492532  )
        27        C      tau(  27) = (  0.1217927  0.8768349  0.8763928  )
        28        C      tau(  28) = (  0.2492749  0.5017254  0.7482724  )
        29        C      tau(  29) = (  0.3741000  0.6263042  0.8750769  )
        30        C      tau(  30) = (  0.2487293  0.7486845  0.5007616  )
        31        C      tau(  31) = (  0.3739266  0.8750581  0.6258828  )
        32        C      tau(  32) = (  0.4987543  0.0011228  0.0002828  )
        33        C      tau(  33) = (  0.6248203  0.1251003  0.1251034  )
        34        C      tau(  34) = (  0.4991217  0.2493918  0.2488717  )
        35        C      tau(  35) = (  0.6243080  0.3746888  0.3747831  )
        36        C      tau(  36) = (  0.7516460  0.0016191  0.2487956  )
        37        C      tau(  37) = (  0.8750430  0.1283649  0.3757598  )
        38        C      tau(  38) = (  0.7517475  0.2480080  0.0019610  )
        39        C      tau(  39) = (  0.8773622  0.3724247  0.1282033  )
        40        C      tau(  40) = (  0.5008161  0.9999897  0.5008301  )
        41        C      tau(  41) = (  0.6256173  0.1249721  0.6252590  )
        42        C      tau(  42) = (  0.5022259  0.2488088  0.7478265  )
        43        C      tau(  43) = (  0.6264784  0.3739683  0.8752045  )
        44        C      tau(  44) = (  0.7487945  0.9989046  0.7489691  )
        45        C      tau(  45) = (  0.8764746  0.1216998  0.8763156  )
        46        C      tau(  46) = (  0.7479635  0.2486819  0.5018806  )
        47        C      tau(  47) = (  0.8751980  0.3739245  0.6263738  )
        48        C      tau(  48) = (  0.5012000  0.5011574  0.0001136  )
        49        C      tau(  49) = (  0.6256259  0.6262099  0.1252968  )
        50        C      tau(  50) = (  0.5005188  0.7489091  0.2490095  )
        51        C      tau(  51) = (  0.6258050  0.8750157  0.3740056  )
        52        C      tau(  52) = (  0.7486304  0.5011458  0.2494302  )
        53        C      tau(  53) = (  0.8750247  0.6261269  0.3741365  )
        54        C      tau(  54) = (  0.7492281  0.7488562  0.9996087  )
        55        C      tau(  55) = (  0.8766209  0.8769033  0.1218021  )
        56        C      tau(  56) = (  0.4990819  0.4992903  0.4990317  )
        57        C      tau(  57) = (  0.6247789  0.6244471  0.6249452  )
        58        C      tau(  58) = (  0.4991767  0.7499842  0.7500845  )
        59        C      tau(  59) = (  0.6239946  0.8751464  0.8754130  )
        60        C      tau(  60) = (  0.7505316  0.4989321  0.7505826  )
        61        C      tau(  61) = (  0.8758455  0.6234984  0.8759288  )
        62        C      tau(  62) = (  0.7498244  0.7497799  0.4993198  )
        63        C      tau(  63) = (  0.8750855  0.8749084  0.6242568  )

     number of k points=     1
                       cart. coord. in units 2pi/alat
        k(    1) = (   0.0000000   0.0000000   0.0000000), wk =   1.0000000

                       cryst. coord.
        k(    1) = (   0.0000000   0.0000000   0.0000000), wk =   1.0000000

     Dense  grid:    58461 G-vectors     FFT dimensions: (  64,  64,  64)

     Dynamical RAM for                 wfc:       0.35 MB

     Dynamical RAM for     wfc (w. buffer):       0.35 MB

     Dynamical RAM for           str. fact:       0.04 MB

     Dynamical RAM for           local pot:       0.00 MB

     Dynamical RAM for          nlocal pot:       1.17 MB

     Dynamical RAM for                qrad:       0.65 MB

     Dynamical RAM for          rho,v,vnew:       0.49 MB

     Dynamical RAM for               rhoin:       0.16 MB

     Dynamical RAM for            rho*nmix:       0.60 MB

     Dynamical RAM for           G-vectors:       0.08 MB

     Dynamical RAM for          h,s,v(r/c):       0.53 MB

     Dynamical RAM for          <psi|beta>:       0.58 MB

     Dynamical RAM for                 psi:       0.71 MB

     Dynamical RAM for                hpsi:       0.71 MB

     Dynamical RAM for      wfcinit/wfcrot:       1.24 MB

     Estimated static dynamical RAM per process >       3.37 MB

     Estimated max dynamical RAM per process >       6.49 MB

     Estimated total dynamical RAM >     594.05 MB
     Generating pointlists ...
     new r_m :   0.0854 (alat units)  1.1518 (a.u.) for type    1
     new r_m :   0.0847 (alat units)  1.1416 (a.u.) for type    2

     Initial potential from superposition of free atoms

     starting charge     252.5655, renormalised to     254.0000
     Starting wfcs are random

     total cpu time spent up to now is        1.4 secs

     Self-consistent Calculation

     iteration #  1     ecut=    50.00 Ry     beta= 0.70
     Davidson diagonalization with overlap

---- Real-time Memory Report at c_bands before calling an iterative solver
           158 MiB given to the printing process from OS
             0 MiB allocation reported by mallinfo(arena+hblkhd)
        173910 MiB available memory on the node where the printing process lives
------------------
     ethr =  1.00E-02,  avg # of iterations = 12.0

     total cpu time spent up to now is        2.1 secs

     total energy              =    -723.26701174 Ry
     estimated scf accuracy    <       3.70841395 Ry

     total magnetization       =     2.00 Bohr mag/cell
     absolute magnetization    =     2.00 Bohr mag/cell

     iteration #  2     ecut=    50.00 Ry     beta= 0.70
     Davidson diagonalization with overlap

---- Real-time Memory Report at c_bands before calling an iterative solver
           163 MiB given to the printing process from OS
             0 MiB allocation reported by mallinfo(arena+hblkhd)
        173842 MiB available memory on the node where the printing process lives
------------------
     ethr =  1.46E-03,  avg # of iterations = 12.0

     total cpu time spent up to now is        2.9 secs

     total energy              =    -723.66053876 Ry
     estimated scf accuracy    <       0.45758510 Ry

     total magnetization       =     2.00 Bohr mag/cell
     absolute magnetization    =     2.07 Bohr mag/cell

     iteration #  3     ecut=    50.00 Ry     beta= 0.70
     Davidson diagonalization with overlap

---- Real-time Memory Report at c_bands before calling an iterative solver
           163 MiB given to the printing process from OS
             0 MiB allocation reported by mallinfo(arena+hblkhd)
        173844 MiB available memory on the node where the printing process lives
------------------
     c_bands:  2 eigenvalues not converged
     ethr =  1.80E-04,  avg # of iterations = 20.0

     total cpu time spent up to now is        3.5 secs

     total energy              =    -723.72631430 Ry
     estimated scf accuracy    <       0.86783045 Ry

     total magnetization       =     2.00 Bohr mag/cell
     absolute magnetization    =     2.12 Bohr mag/cell

     iteration #  4     ecut=    50.00 Ry     beta= 0.70
     Davidson diagonalization with overlap

---- Real-time Memory Report at c_bands before calling an iterative solver
           165 MiB given to the printing process from OS
             0 MiB allocation reported by mallinfo(arena+hblkhd)
        173844 MiB available memory on the node where the printing process lives
------------------
     c_bands:  1 eigenvalues not converged
     ethr =  1.80E-04,  avg # of iterations = 20.0

     total cpu time spent up to now is        4.3 secs

     total energy              =    -723.90114731 Ry
     estimated scf accuracy    <       0.00989876 Ry

     total magnetization       =     2.00 Bohr mag/cell
     absolute magnetization    =     2.19 Bohr mag/cell

     iteration #  5     ecut=    50.00 Ry     beta= 0.70
     Davidson diagonalization with overlap

---- Real-time Memory Report at c_bands before calling an iterative solver
           165 MiB given to the printing process from OS
             0 MiB allocation reported by mallinfo(arena+hblkhd)
        173838 MiB available memory on the node where the printing process lives
------------------
     c_bands:  3 eigenvalues not converged
     ethr =  3.90E-06,  avg # of iterations = 20.0

     total cpu time spent up to now is        4.8 secs

     total energy              =    -723.90604543 Ry
     estimated scf accuracy    <       0.00396971 Ry

     total magnetization       =     2.00 Bohr mag/cell
     absolute magnetization    =     2.23 Bohr mag/cell

     iteration #  6     ecut=    50.00 Ry     beta= 0.70
     Davidson diagonalization with overlap

---- Real-time Memory Report at c_bands before calling an iterative solver
           165 MiB given to the printing process from OS
             0 MiB allocation reported by mallinfo(arena+hblkhd)
        173829 MiB available memory on the node where the printing process lives
------------------
     c_bands:  3 eigenvalues not converged
     ethr =  1.56E-06,  avg # of iterations = 20.0

     total cpu time spent up to now is        5.2 secs

     total energy              =    -723.90679098 Ry
     estimated scf accuracy    <       0.00085831 Ry

     total magnetization       =     2.00 Bohr mag/cell
     absolute magnetization    =     2.25 Bohr mag/cell

     iteration #  7     ecut=    50.00 Ry     beta= 0.70
     Davidson diagonalization with overlap

---- Real-time Memory Report at c_bands before calling an iterative solver
           165 MiB given to the printing process from OS
             0 MiB allocation reported by mallinfo(arena+hblkhd)
        173833 MiB available memory on the node where the printing process lives
------------------
     c_bands:  1 eigenvalues not converged
     ethr =  3.38E-07,  avg # of iterations = 20.0

     total cpu time spent up to now is        5.6 secs

     total energy              =    -723.90701337 Ry
     estimated scf accuracy    <       0.00011633 Ry

     total magnetization       =     2.00 Bohr mag/cell
     absolute magnetization    =     2.27 Bohr mag/cell

     iteration #  8     ecut=    50.00 Ry     beta= 0.70
     Davidson diagonalization with overlap

---- Real-time Memory Report at c_bands before calling an iterative solver
           165 MiB given to the printing process from OS
             0 MiB allocation reported by mallinfo(arena+hblkhd)
        173824 MiB available memory on the node where the printing process lives
------------------
     c_bands:  1 eigenvalues not converged
     ethr =  4.58E-08,  avg # of iterations = 20.0

     total cpu time spent up to now is        6.2 secs

     total energy              =    -723.90705266 Ry
     estimated scf accuracy    <       0.00002860 Ry

     total magnetization       =     2.00 Bohr mag/cell
     absolute magnetization    =     2.28 Bohr mag/cell

     iteration #  9     ecut=    50.00 Ry     beta= 0.70
     Davidson diagonalization with overlap

---- Real-time Memory Report at c_bands before calling an iterative solver
           165 MiB given to the printing process from OS
             0 MiB allocation reported by mallinfo(arena+hblkhd)
        173830 MiB available memory on the node where the printing process lives
------------------
     c_bands:  3 eigenvalues not converged
     ethr =  1.13E-08,  avg # of iterations = 20.0

     total cpu time spent up to now is        6.7 secs

     total energy              =    -723.90706301 Ry
     estimated scf accuracy    <       0.00000766 Ry

     total magnetization       =     2.00 Bohr mag/cell
     absolute magnetization    =     2.29 Bohr mag/cell

     iteration # 10     ecut=    50.00 Ry     beta= 0.70
     Davidson diagonalization with overlap

---- Real-time Memory Report at c_bands before calling an iterative solver
           165 MiB given to the printing process from OS
             0 MiB allocation reported by mallinfo(arena+hblkhd)
        173828 MiB available memory on the node where the printing process lives
------------------
     c_bands:  2 eigenvalues not converged
     ethr =  3.02E-09,  avg # of iterations = 20.0

     total cpu time spent up to now is        7.3 secs

     total energy              =    -723.90706652 Ry
     estimated scf accuracy    <       0.00000085 Ry

     total magnetization       =     2.00 Bohr mag/cell
     absolute magnetization    =     2.29 Bohr mag/cell

     iteration # 11     ecut=    50.00 Ry     beta= 0.70
     Davidson diagonalization with overlap

---- Real-time Memory Report at c_bands before calling an iterative solver
           165 MiB given to the printing process from OS
             0 MiB allocation reported by mallinfo(arena+hblkhd)
        173842 MiB available memory on the node where the printing process lives
------------------
     c_bands:  2 eigenvalues not converged
     ethr =  3.34E-10,  avg # of iterations = 20.0

     total cpu time spent up to now is        7.9 secs

     total energy              =    -723.90706716 Ry
     estimated scf accuracy    <       0.00000023 Ry

     total magnetization       =     2.00 Bohr mag/cell
     absolute magnetization    =     2.30 Bohr mag/cell

     iteration # 12     ecut=    50.00 Ry     beta= 0.70
     Davidson diagonalization with overlap

---- Real-time Memory Report at c_bands before calling an iterative solver
           165 MiB given to the printing process from OS
             0 MiB allocation reported by mallinfo(arena+hblkhd)
        173840 MiB available memory on the node where the printing process lives
------------------
     ethr =  9.21E-11,  avg # of iterations = 17.5

     total cpu time spent up to now is        8.5 secs

     total energy              =    -723.90706727 Ry
     estimated scf accuracy    <       0.00000009 Ry

     total magnetization       =     2.00 Bohr mag/cell
     absolute magnetization    =     2.30 Bohr mag/cell

     iteration # 13     ecut=    50.00 Ry     beta= 0.70
     Davidson diagonalization with overlap

---- Real-time Memory Report at c_bands before calling an iterative solver
           165 MiB given to the printing process from OS
             0 MiB allocation reported by mallinfo(arena+hblkhd)
        173837 MiB available memory on the node where the printing process lives
------------------
     ethr =  3.59E-11,  avg # of iterations = 18.0

     total cpu time spent up to now is        9.0 secs

     total energy              =    -723.90706732 Ry
     estimated scf accuracy    <       0.00000003 Ry

     total magnetization       =     2.00 Bohr mag/cell
     absolute magnetization    =     2.30 Bohr mag/cell

     iteration # 14     ecut=    50.00 Ry     beta= 0.70
     Davidson diagonalization with overlap

---- Real-time Memory Report at c_bands before calling an iterative solver
           165 MiB given to the printing process from OS
             0 MiB allocation reported by mallinfo(arena+hblkhd)
        173841 MiB available memory on the node where the printing process lives
------------------
     ethr =  1.07E-11,  avg # of iterations = 18.0
 
     Magnetic moment per site  (integrated on atomic sphere of radius R)
     atom   1 (R=0.085)  charge=  2.9143  magn=  0.0042
     atom   2 (R=0.085)  charge=  1.8170  magn=  0.2450
     atom   3 (R=0.085)  charge=  1.7929  magn= -0.0087
     atom   4 (R=0.085)  charge=  1.8051  magn=  0.2455
     atom   5 (R=0.085)  charge=  1.7932  magn= -0.0087
     atom   6 (R=0.085)  charge=  1.8232  magn=  0.2449
     atom   7 (R=0.085)  charge=  1.7934  magn= -0.0087
     atom   8 (R=0.085)  charge=  1.7861  magn=  0.0091
     atom   9 (R=0.085)  charge=  1.7963  magn= -0.0019
     atom  10 (R=0.085)  charge=  1.7834  magn=  0.0060
     atom  11 (R=0.085)  charge=  1.7970  magn= -0.0042
     atom  12 (R=0.085)  charge=  1.7823  magn=  0.0061
     atom  13 (R=0.085)  charge=  1.8040  magn= -0.0039
     atom  14 (R=0.085)  charge=  1.7892  magn=  0.0085
     atom  15 (R=0.085)  charge=  1.7873  magn= -0.0020
     atom  16 (R=0.085)  charge=  1.7801  magn=  0.0090
     atom  17 (R=0.085)  charge=  1.7947  magn= -0.0018
     atom  18 (R=0.085)  charge=  1.7804  magn=  0.0058
     atom  19 (R=0.085)  charge=  1.7953  magn= -0.0035
     atom  20 (R=0.085)  charge=  1.7853  magn=  0.0083
     atom  21 (R=0.085)  charge=  1.7848  magn= -0.0020
     atom  22 (R=0.085)  charge=  1.7848  magn=  0.0057
     atom  23 (R=0.085)  charge=  1.7906  magn= -0.0037
     atom  24 (R=0.085)  charge=  1.7825  magn=  0.0182
     atom  25 (R=0.085)  charge=  1.8068  magn=  0.0094
     atom  26 (R=0.085)  charge=  1.7935  magn=  0.0032
     atom  27 (R=0.085)  charge=  1.7588  magn=  0.0001
     atom  28 (R=0.085)  charge=  1.7896  magn=  0.0221
     atom  29 (R=0.085)  charge=  1.7825  magn= -0.0014
     atom  30 (R=0.085)  charge=  1.7901  magn=  0.0211
     atom  31 (R=0.085)  charge=  1.7823  magn= -0.0013
     atom  32 (R=0.085)  charge=  1.7844  magn=  0.0090
     atom  33 (R=0.085)  charge=  1.7960  magn= -0.0019
     atom  34 (R=0.085)  charge=  1.7869  magn=  0.0084
     atom  35 (R=0.085)  charge=  1.7865  magn= -0.0020
     atom  36 (R=0.085)  charge=  1.7818  magn=  0.0059
     atom  37 (R=0.085)  charge=  1.8033  magn= -0.0036
     atom  38 (R=0.085)  charge=  1.7836  magn=  0.0059
     atom  39 (R=0.085)  charge=  1.7913  magn= -0.0041
     atom  40 (R=0.085)  charge=  1.7835  magn=  0.0181
     atom  41 (R=0.085)  charge=  1.8109  magn=  0.0094
     atom  42 (R=0.085)  charge=  1.7948  magn=  0.0218
     atom  43 (R=0.085)  charge=  1.7819  magn= -0.0013
     atom  44 (R=0.085)  charge=  1.7936  magn=  0.0032
     atom  45 (R=0.085)  charge=  1.7589  magn= -0.0000
     atom  46 (R=0.085)  charge=  1.7948  magn=  0.0215
     atom  47 (R=0.085)  charge=  1.7819  magn= -0.0013
     atom  48 (R=0.085)  charge=  1.7820  magn=  0.0184
     atom  49 (R=0.085)  charge=  1.8043  magn=  0.0094
     atom  50 (R=0.085)  charge=  1.7873  magn=  0.0212
     atom  51 (R=0.085)  charge=  1.7825  magn= -0.0013
     atom  52 (R=0.085)  charge=  1.7869  magn=  0.0218
     atom  53 (R=0.085)  charge=  1.7825  magn= -0.0013
     atom  54 (R=0.085)  charge=  1.7935  magn=  0.0032
     atom  55 (R=0.085)  charge=  1.7587  magn=  0.0001
     atom  56 (R=0.085)  charge=  1.7914  magn=  0.0009
     atom  57 (R=0.085)  charge=  1.7832  magn=  0.0010
     atom  58 (R=0.085)  charge=  1.7914  magn=  0.0018
     atom  59 (R=0.085)  charge=  1.7879  magn= -0.0009
     atom  60 (R=0.085)  charge=  1.7911  magn=  0.0017
     atom  61 (R=0.085)  charge=  1.7853  magn= -0.0009
     atom  62 (R=0.085)  charge=  1.7913  magn=  0.0019
     atom  63 (R=0.085)  charge=  1.7891  magn= -0.0009

     total cpu time spent up to now is        9.6 secs

     End of self-consistent calculation

 ------ SPIN UP ------------


          k = 0.0000 0.0000 0.0000 (  7386 PWs)   bands (ev):

    -8.5506  -6.9228  -6.2875  -6.2696  -6.1946  -6.1559  -5.8825  -4.9103
    -4.1445  -4.1289  -4.1232  -4.0960  -4.0310  -4.0199  -4.0118  -3.9192
    -3.8725  -3.8589  -3.3601  -2.9304  -2.6775  -2.6741  -2.1619  -0.3632
    -0.3548  -0.3287  -0.2791  -0.0741   0.1728   0.1931   0.2813   0.2960
     0.3668   0.6173   0.8359   0.8444   0.9536   0.9727   0.9840   1.0545
     1.0627   1.0660   1.2670   1.2961   3.0717   3.9083   3.9236   4.0701
     4.1904   4.2086   4.2228   4.2759   4.2818   4.2857   4.4224   4.4251
     4.4903   4.4975   4.5671   4.6593   4.6842   4.6897   4.6934   4.7882
     4.7972   4.9221   4.9681   4.9722   5.0482   5.1989   5.2091   5.2976
     5.3561   5.3718   5.3978   5.4048   5.4085   6.0418   6.0482   6.1001
     6.6618   6.6661   6.7263   6.9909   7.0038   7.0411   7.5262   8.3333
     8.3354   8.4060   8.4669   8.4939   8.6903   8.7096   8.7886   8.8291
     8.8461   8.8515   8.8930   8.8964   8.9022   9.2815   9.2928   9.3278
     9.6856   9.7042   9.8991   9.9103   9.9464   9.9616   9.9628   9.9772
     9.9888  10.0260  10.0360  10.0569  10.1248  10.1402  10.2692  10.3228
    10.3342  11.0533  12.2914  12.4161  12.4295  13.9565  14.6911  14.7991
    17.3396  17.3770  17.4094  17.5241  17.5760  17.5810  17.8531  17.9236
    17.9365  18.0331  18.0663  18.3694  18.9905  19.0006  19.0276  20.6949
    20.7967  20.8234  20.8776  20.9437  20.9472  21.0262  21.0316  21.0457

     occupation numbers 
     1.0000   1.0000   1.0000   1.0000   1.0000   1.0000   1.0000   1.0000
     1.0000   1.0000   1.0000   1.0000   1.0000   1.0000   1.0000   1.0000
     1.0000   1.0000   1.0000   1.0000   1.0000   1.0000   1.0000   1.0000
     1.0000   1.0000   1.0000   1.0000   1.0000   1.0000   1.0000   1.0000
     1.0000   1.0000   1.0000   1.0000   1.0000   1.0000   1.0000   1.0000
     1.0000   1.0000   1.0000   1.0000   1.0000   1.0000   1.0000   1.0000
     1.0000   1.0000   1.0000   1.0000   1.0000   1.0000   1.0000   1.0000
     1.0000   1.0000   1.0000   1.0000   1.0000   1.0000   1.0000   1.0000
     1.0000   1.0000   1.0000   1.0000   1.0000   1.0000   1.0000   1.0000
     1.0000   1.0000   1.0000   1.0000   1.0000   1.0000   1.0000   1.0000
     1.0000   1.0000   1.0000   1.0000   1.0000   1.0000   1.0000   1.0000
     1.0000   1.0000   1.0000   1.0000   1.0000   1.0000   1.0000   1.0000
     1.0000   1.0000   1.0000   1.0000   1.0000   1.0000   1.0000   1.0000
     1.0000   1.0000   1.0000   1.0000   1.0000   1.0000   1.0000   1.0000
     1.0000   1.0000   1.0000   1.0000   1.0000   1.0000   1.0000   1.0000
     1.0000   1.0000   1.0000   1.0000   1.0000   1.0000   1.0000   1.0000
     0.0000   0.0000   0.0000   0.0000   0.0000   0.0000   0.0000   0.0000
     0.0000   0.0000   0.0000   0.0000   0.0000   0.0000   0.0000   0.0000
     0.0000   0.0000   0.0000   0.0000   0.0000   0.0000   0.0000   0.0000

 ------ SPIN DOWN ----------


          k = 0.0000 0.0000 0.0000 (  7386 PWs)   bands (ev):

    -8.5251  -6.9083  -6.2651  -6.2464  -6.1498  -6.1138  -5.8454  -4.8934
    -4.1233  -4.1065  -4.0835  -4.0645  -3.9955  -3.9814  -3.9628  -3.9070
    -3.8369  -3.8191  -3.3179  -2.9118  -2.6246  -2.6208  -2.0168  -0.3458
    -0.3366  -0.3069  -0.2623  -0.0088   0.1915   0.2106   0.3189   0.3292
     0.3919   0.6520   0.8482   0.8560   0.9870   1.0033   1.0093   1.0711
     1.0787   1.0826   1.4327   1.4659   3.1855   3.9314   3.9457   4.0960
     4.2252   4.2506   4.2656   4.2916   4.2990   4.3133   4.4691   4.4711
     4.5132   4.5193   4.5907   4.6835   4.7020   4.7073   4.7143   4.8227
     4.8339   4.9352   4.9998   5.0042   5.1296   5.2331   5.2441   5.3214
     5.3713   5.3828   5.4176   5.4551   5.4708   6.1039   6.1072   6.1381
     6.6883   6.6934   6.7606   7.0783   7.0886   7.0990   7.6961   8.3717
     8.3745   8.4431   8.5025   8.5287   8.7243   8.7409   8.8244   8.8758
     8.8820   8.8870   8.9225   8.9273   8.9336   9.3179   9.3300   9.3547
     9.7132   9.7315   9.9278   9.9403   9.9581   9.9755   9.9769   9.9964
    10.0085  10.0617  10.0693  10.0764  10.1524  10.1662  10.3269  10.3771
    10.3888  11.4339  12.5528  12.5712  12.6041  14.4386  16.0164  16.1393
    17.3645  17.3944  17.4264  17.5518  17.6313  17.6385  17.8759  17.9433
    17.9547  18.0731  18.1064  18.4888  19.0395  19.0781  19.1150  20.7452
    20.8109  20.8375  20.8924  20.9608  20.9650  21.0439  21.0586  21.0625

     occupation numbers 
     1.0000   1.0000   1.0000   1.0000   1.0000   1.0000   1.0000   1.0000
     1.0000   1.0000   1.0000   1.0000   1.0000   1.0000   1.0000   1.0000
     1.0000   1.0000   1.0000   1.0000   1.0000   1.0000   1.0000   1.0000
     1.0000   1.0000   1.0000   1.0000   1.0000   1.0000   1.0000   1.0000
     1.0000   1.0000   1.0000   1.0000   1.0000   1.0000   1.0000   1.0000
     1.0000   1.0000   1.0000   1.0000   1.0000   1.0000   1.0000   1.0000
     1.0000   1.0000   1.0000   1.0000   1.0000   1.0000   1.0000   1.0000
     1.0000   1.0000   1.0000   1.0000   1.0000   1.0000   1.0000   1.0000
     1.0000   1.0000   1.0000   1.0000   1.0000   1.0000   1.0000   1.0000
     1.0000   1.0000   1.0000   1.0000   1.0000   1.0000   1.0000   1.0000
     1.0000   1.0000   1.0000   1.0000   1.0000   1.0000   1.0000   1.0000
     1.0000   1.0000   1.0000   1.0000   1.0000   1.0000   1.0000   1.0000
     1.0000   1.0000   1.0000   1.0000   1.0000   1.0000   1.0000   1.0000
     1.0000   1.0000   1.0000   1.0000   1.0000   1.0000   1.0000   1.0000
     1.0000   1.0000   1.0000   1.0000   1.0000   1.0000   1.0000   1.0000
     1.0000   1.0000   1.0000   1.0000   1.0000   1.0000   0.0000   0.0000
     0.0000   0.0000   0.0000   0.0000   0.0000   0.0000   0.0000   0.0000
     0.0000   0.0000   0.0000   0.0000   0.0000   0.0000   0.0000   0.0000
     0.0000   0.0000   0.0000   0.0000   0.0000   0.0000   0.0000   0.0000

     highest occupied, lowest unoccupied level (ev):    14.7991   16.0164

!    total energy              =    -723.90706733 Ry
     estimated scf accuracy    <          5.3E-09 Ry

     The total energy is the sum of the following terms:
     one-electron contribution =     232.28535201 Ry
     hartree contribution      =      70.33544213 Ry
     xc contribution           =    -226.77201617 Ry
     ewald contribution        =    -799.75584530 Ry

     total magnetization       =     2.00 Bohr mag/cell
     absolute magnetization    =     2.30 Bohr mag/cell

     convergence has been achieved in  14 iterations

     Forces acting on atoms (cartesian axes, Ry/au):

     atom    1 type  1   force =    -0.00278506   -0.00381261   -0.00258964
     atom    2 type  2   force =     0.03509775    0.01579603   -0.01256930
     atom    3 type  2   force =    -0.00991053    0.00896451    0.00585588
     atom    4 type  2   force =     0.00873504    0.02471283   -0.00283670
     atom    5 type  2   force =     0.00231690   -0.02124680    0.00159634
     atom    6 type  2   force =    -0.00843518    0.00833783    0.04340021
     atom    7 type  2   force =     0.01083036    0.01135324   -0.00180992
     atom    8 type  2   force =     0.00314294    0.00437979    0.00663501
     atom    9 type  2   force =    -0.00230820   -0.00474406   -0.00297982
     atom   10 type  2   force =     0.00098687    0.00124834    0.00736440
     atom   11 type  2   force =    -0.02929547    0.00559468   -0.00913338
     atom   12 type  2   force =     0.00006056    0.00378910    0.00346319
     atom   13 type  2   force =    -0.00282120   -0.03990017   -0.00180404
     atom   14 type  2   force =     0.00357888    0.00221634   -0.00445920
     atom   15 type  2   force =    -0.00277917   -0.00131117   -0.00566520
     atom   16 type  2   force =     0.00418162   -0.00008422   -0.00006453
     atom   17 type  2   force =    -0.01946279    0.00637867    0.00003465
     atom   18 type  2   force =     0.00685320   -0.00110016    0.00016580
     atom   19 type  2   force =    -0.00980415   -0.00283412   -0.00490111
     atom   20 type  2   force =     0.00709284   -0.00540265    0.00456463
     atom   21 type  2   force =    -0.00054261   -0.00442065   -0.00146640
     atom   22 type  2   force =     0.00550976    0.00309951    0.00034015
     atom   23 type  2   force =    -0.00003723   -0.00647378   -0.00196632
     atom   24 type  2   force =     0.00956308    0.00544889    0.00432944
     atom   25 type  2   force =    -0.01231094   -0.01384237   -0.00402506
     atom   26 type  2   force =     0.01480532    0.00609340    0.00164760
     atom   27 type  2   force =    -0.02636090   -0.00892480   -0.00610516
     atom   28 type  2   force =     0.01044011    0.00068693    0.00593139
     atom   29 type  2   force =     0.00044304   -0.00131242   -0.00193314
     atom   30 type  2   force =     0.00761847    0.00654290    0.00408390
     atom   31 type  2   force =     0.00105975   -0.00162801   -0.00353147
     atom   32 type  2   force =     0.00326694    0.00394879    0.00150731
     atom   33 type  2   force =     0.00056333   -0.00440820   -0.00014986
     atom   34 type  2   force =    -0.00466019    0.00161198    0.00350981
     atom   35 type  2   force =    -0.00504628   -0.00088038   -0.00332966
     atom   36 type  2   force =     0.00067741    0.00426070   -0.00005393
     atom   37 type  2   force =     0.00069266   -0.03264123   -0.00710765
     atom   38 type  2   force =     0.00707334    0.00181471   -0.00039230
     atom   39 type  2   force =    -0.00950944    0.00675158   -0.01344579
     atom   40 type  2   force =     0.00536093    0.01266481    0.00500048
     atom   41 type  2   force =    -0.00739669   -0.01545637   -0.00368077
     atom   42 type  2   force =    -0.00013624    0.01738397    0.00601665
     atom   43 type  2   force =    -0.00096518    0.00074204   -0.00104324
     atom   44 type  2   force =     0.00458723    0.01708441    0.00302414
     atom   45 type  2   force =    -0.00742315   -0.02650788   -0.00668518
     atom   46 type  2   force =     0.00645442    0.01609942    0.00111646
     atom   47 type  2   force =    -0.00120486    0.00125287   -0.00183972
     atom   48 type  2   force =     0.00484209    0.00563665    0.00783980
     atom   49 type  2   force =    -0.00793819   -0.01411223   -0.01015001
     atom   50 type  2   force =     0.00422900    0.00659476    0.00340991
     atom   51 type  2   force =    -0.00401282   -0.00179890    0.00029450
     atom   52 type  2   force =     0.00642661    0.00205023    0.00499451
     atom   53 type  2   force =    -0.00108857   -0.00335909   -0.00103111
     atom   54 type  2   force =     0.00256084    0.00547466    0.01393437
     atom   55 type  2   force =    -0.00656295   -0.00917470   -0.02525308
     atom   56 type  2   force =     0.00482332    0.00470977    0.00479628
     atom   57 type  2   force =    -0.00171265   -0.00067139   -0.00225890
     atom   58 type  2   force =     0.00152319    0.00396829    0.00324857
     atom   59 type  2   force =    -0.00129047   -0.00269594   -0.00371971
     atom   60 type  2   force =     0.00267406    0.00187993    0.00239671
     atom   61 type  2   force =    -0.00279900   -0.00147785   -0.00318663
     atom   62 type  2   force =     0.00409789    0.00457351    0.00108297
     atom   63 type  2   force =    -0.00356969   -0.00292392   -0.00041714
     The non-local contrib.  to forces
     atom    1 type  1   force =    -0.76072209   -0.76449817   -0.75925337
     atom    2 type  2   force =    -0.16456975    0.22060602    0.17831625
     atom    3 type  2   force =     0.05715468    0.08219831    0.07144049
     atom    4 type  2   force =     0.21512518   -0.18823772    0.19749787
     atom    5 type  2   force =     0.07290868    0.04259987    0.07023611
     atom    6 type  2   force =     0.17964236    0.20421422   -0.14621650
     atom    7 type  2   force =     0.07790358    0.08257755    0.06434066
     atom    8 type  2   force =    -0.00464583   -0.00413860    0.05716380
     atom    9 type  2   force =    -0.00518763   -0.00776753    0.01318051
     atom   10 type  2   force =    -0.04463319   -0.01454607   -0.01208039
     atom   11 type  2   force =    -0.10351956    0.06659274   -0.08418930
     atom   12 type  2   force =    -0.01755807   -0.04147739   -0.01416273
     atom   13 type  2   force =     0.05205865   -0.11653409   -0.07341981
     atom   14 type  2   force =     0.00242126    0.00095836    0.04515651
     atom   15 type  2   force =     0.01004466    0.00896364   -0.00382850
     atom   16 type  2   force =    -0.00862901    0.04952408   -0.01253599
     atom   17 type  2   force =    -0.02616758    0.02723599   -0.00340365
     atom   18 type  2   force =    -0.03727115   -0.02278671   -0.01632177
     atom   19 type  2   force =    -0.08069675   -0.07796191    0.05625593
     atom   20 type  2   force =     0.00847554    0.04390109    0.00584091
     atom   21 type  2   force =     0.01143876   -0.00321393    0.01173546
     atom   22 type  2   force =    -0.01078512   -0.01946730   -0.04317267
     atom   23 type  2   force =     0.06404422   -0.08398678   -0.07275487
     atom   24 type  2   force =    -0.06450250    0.03305440    0.03403729
     atom   25 type  2   force =    -0.02444650    0.00025199    0.01386832
     atom   26 type  2   force =    -0.04169031   -0.02057750   -0.02345775
     atom   27 type  2   force =    -0.14666323    0.12407345    0.12442904
     atom   28 type  2   force =     0.08019003    0.02364003   -0.01271437
     atom   29 type  2   force =     0.00135076    0.01840851    0.00439704
     atom   30 type  2   force =     0.07682063   -0.01336301    0.02902303
     atom   31 type  2   force =     0.00323393    0.00333129    0.01668276
     atom   32 type  2   force =     0.05302788   -0.00630791   -0.00725012
     atom   33 type  2   force =     0.01849323   -0.00729023   -0.00373281
     atom   34 type  2   force =     0.04493149    0.00078613    0.00385580
     atom   35 type  2   force =    -0.00368890    0.00884590    0.01041051
     atom   36 type  2   force =    -0.01825911   -0.04061779   -0.01793630
     atom   37 type  2   force =    -0.07178844   -0.10855600    0.04773531
     atom   38 type  2   force =    -0.01347203   -0.01313623   -0.04519290
     atom   39 type  2   force =    -0.08621602    0.07191742   -0.08749659
     atom   40 type  2   force =     0.03500805   -0.05848685    0.03548162
     atom   41 type  2   force =     0.00892325   -0.02626937    0.01411433
     atom   42 type  2   force =     0.02093767    0.08883733   -0.00974179
     atom   43 type  2   force =     0.01703256    0.00025736    0.00390678
     atom   44 type  2   force =    -0.02264850   -0.03700917   -0.02347515
     atom   45 type  2   force =     0.12482982   -0.14769768    0.12430005
     atom   46 type  2   force =    -0.00988415    0.08708736    0.02315798
     atom   47 type  2   force =     0.00324071    0.00126791    0.01614331
     atom   48 type  2   force =     0.03343911    0.03318565   -0.06835695
     atom   49 type  2   force =     0.00834069   -0.00002727   -0.02289784
     atom   50 type  2   force =     0.02959553   -0.01468177    0.07141127
     atom   51 type  2   force =     0.01689576    0.00362732    0.00327244
     atom   52 type  2   force =    -0.01427377    0.02643418    0.07305908
     atom   53 type  2   force =     0.00545072    0.01788908    0.00109148
     atom   54 type  2   force =    -0.02275540   -0.02052179   -0.04391220
     atom   55 type  2   force =     0.12385704    0.12386535   -0.14649529
     atom   56 type  2   force =     0.02296699    0.02406347    0.02229199
     atom   57 type  2   force =     0.00547582    0.00496841    0.00535614
     atom   58 type  2   force =     0.01630464   -0.00639324   -0.01024814
     atom   59 type  2   force =     0.00775149   -0.01426562   -0.01549916
     atom   60 type  2   force =    -0.01016691    0.01829628   -0.01124809
     atom   61 type  2   force =    -0.01421808    0.00871466   -0.01488671
     atom   62 type  2   force =    -0.00820553   -0.00593758    0.01500872
     atom   63 type  2   force =    -0.01581435   -0.01515652    0.00853429
     The ionic contribution  to forces
     atom    1 type  1   force =     2.98110586    2.95064406    2.99915418
     atom    2 type  2   force =     2.41047842   -2.05695065   -2.21652749
     atom    3 type  2   force =     0.47541325   -0.73005534   -0.85255890
     atom    4 type  2   force =    -2.09205326    2.33622455   -2.15630053
     atom    5 type  2   force =    -0.77862061    0.40101889   -0.82552754
     atom    6 type  2   force =    -2.18849236   -2.10095479    2.45879503
     atom    7 type  2   force =    -0.81986017   -0.75732316    0.53697628
     atom    8 type  2   force =     0.25572913    0.21448577   -0.72758879
     atom    9 type  2   force =     0.06476239    0.02648483   -0.22423028
     atom   10 type  2   force =     0.17887809    0.07160126    0.56613944
     atom   11 type  2   force =    -0.53331684   -0.62739379    0.80313272
     atom   12 type  2   force =     0.02737762    0.16102028    0.55005058
     atom   13 type  2   force =    -0.66295009   -0.56640239    0.76054398
     atom   14 type  2   force =    -0.19536148   -0.18059817   -0.71431206
     atom   15 type  2   force =    -0.16870956   -0.13131138   -0.06819466
     atom   16 type  2   force =     0.20097327   -0.74895740    0.25081461
     atom   17 type  2   force =     0.00154968   -0.15517451    0.09249330
     atom   18 type  2   force =     0.22381168    0.44320674   -0.02268990
     atom   19 type  2   force =    -0.36718687    0.74833483   -0.70676812
     atom   20 type  2   force =    -0.18031845   -0.75664074   -0.16465144
     atom   21 type  2   force =    -0.17014705   -0.05789344   -0.19186870
     atom   22 type  2   force =     0.02775641    0.50441781    0.21201987
     atom   23 type  2   force =    -0.68446185    0.78648243   -0.33155942
     atom   24 type  2   force =     0.10391636   -0.13556878   -0.17306766
     atom   25 type  2   force =    -0.02853701   -0.07933489   -0.07037144
     atom   26 type  2   force =     0.12808529   -0.09477613   -0.04668235
     atom   27 type  2   force =     1.13531639    0.24365578    0.25034527
     atom   28 type  2   force =    -0.08416587   -0.13685069    0.11048487
     atom   29 type  2   force =    -0.15022318    0.03130428    0.24862528
     atom   30 type  2   force =    -0.02201874    0.13911814   -0.23237796
     atom   31 type  2   force =    -0.15294483    0.17356288   -0.00828610
     atom   32 type  2   force =    -0.74141061    0.19640136    0.26166863
     atom   33 type  2   force =    -0.19988382    0.02970514    0.09135868
     atom   34 type  2   force =    -0.71558253   -0.17732233   -0.19880700
     atom   35 type  2   force =    -0.06051161   -0.13392674   -0.19793489
     atom   36 type  2   force =     0.51725585    0.17385304    0.00254559
     atom   37 type  2   force =     0.73655317   -0.50010115   -0.69286394
     atom   38 type  2   force =     0.54139277    0.07236134    0.20940597
     atom   39 type  2   force =     0.81231802   -0.62963701   -0.43127307
     atom   40 type  2   force =    -0.19562502    0.06263757   -0.20943533
     atom   41 type  2   force =    -0.06943018   -0.08776639   -0.06848471
     atom   42 type  2   force =    -0.13007982    0.02652797    0.08875059
     atom   43 type  2   force =     0.03590714   -0.11408620    0.25400510
     atom   44 type  2   force =    -0.07059224    0.12237234   -0.05393424
     atom   45 type  2   force =     0.24401478    1.15925274    0.24884122
     atom   46 type  2   force =     0.10100452    0.05095185   -0.17028146
     atom   47 type  2   force =     0.22360572   -0.11368511    0.01661639
     atom   48 type  2   force =    -0.12415161   -0.11322578    0.13524676
     atom   49 type  2   force =    -0.06582937   -0.08145367    0.00727114
     atom   50 type  2   force =    -0.22894972    0.15544074   -0.08047166
     atom   51 type  2   force =    -0.00675312    0.17439404   -0.18037737
     atom   52 type  2   force =     0.14664223   -0.17470960   -0.12400506
     atom   53 type  2   force =     0.23244619    0.01344590   -0.19030187
     atom   54 type  2   force =    -0.05562034   -0.09307982    0.14134708
     atom   55 type  2   force =     0.24904008    0.23461855    1.13207578
     atom   56 type  2   force =    -0.08887174   -0.03064474   -0.12348017
     atom   57 type  2   force =    -0.02033499   -0.03454367   -0.01945281
     atom   58 type  2   force =    -0.07455948    0.04860492    0.03894630
     atom   59 type  2   force =    -0.28180693    0.07696407    0.15392318
     atom   60 type  2   force =     0.06231411   -0.03533007    0.06011712
     atom   61 type  2   force =     0.13577375   -0.30280706    0.16709361
     atom   62 type  2   force =     0.03239500    0.03638695   -0.10052346
     atom   63 type  2   force =     0.12354416    0.07302457   -0.27359815
     The local contribution  to forces
     atom    1 type  1   force =    -2.22321998   -2.18996121   -2.24254704
     atom    2 type  2   force =    -2.21086853    1.85212740    2.02558489
     atom    3 type  2   force =    -0.54256352    0.65677539    0.78690707
     atom    4 type  2   force =     1.88558776   -2.12328931    1.95591418
     atom    5 type  2   force =     0.70793968   -0.46487854    0.75684246
     atom    6 type  2   force =     2.00033578    1.90506746   -2.26923986
     atom    7 type  2   force =     0.75269327    0.68607138   -0.60319968
     atom    8 type  2   force =    -0.24798974   -0.20596576    0.67700638
     atom    9 type  2   force =    -0.06193793   -0.02346869    0.20801348
     atom   10 type  2   force =    -0.13330219   -0.05582924   -0.54674729
     atom   11 type  2   force =     0.60748970    0.56636310   -0.72812252
     atom   12 type  2   force =    -0.00982677   -0.11577051   -0.53247786
     atom   13 type  2   force =     0.60798518    0.64302520   -0.68898819
     atom   14 type  2   force =     0.19643181    0.18183568    0.66464704
     atom   15 type  2   force =     0.15579076    0.12099948    0.06632124
     atom   16 type  2   force =    -0.18821248    0.69929427   -0.23838885
     atom   17 type  2   force =     0.00509723    0.13425305   -0.08911681
     atom   18 type  2   force =    -0.17973539   -0.42157074    0.03911160
     atom   19 type  2   force =     0.43802400   -0.67323305    0.64556053
     atom   20 type  2   force =     0.17884835    0.70728838    0.16331134
     atom   21 type  2   force =     0.15807198    0.05664462    0.17860918
     atom   22 type  2   force =    -0.01152633   -0.48190028   -0.16857222
     atom   23 type  2   force =     0.62030486   -0.70900809    0.40227715
     atom   24 type  2   force =    -0.02989686    0.10790006    0.14329428
     atom   25 type  2   force =     0.04062044    0.06518694    0.05242934
     atom   26 type  2   force =    -0.07164195    0.12140621    0.07174250
     atom   27 type  2   force =    -1.01507394   -0.37667992   -0.38093421
     atom   28 type  2   force =     0.01434879    0.11384979   -0.09188579
     atom   29 type  2   force =     0.14923434   -0.05107726   -0.25500681
     atom   30 type  2   force =    -0.04724943   -0.11925739    0.20739172
     atom   31 type  2   force =     0.15068670   -0.17854874   -0.01197486
     atom   32 type  2   force =     0.69156667   -0.18616941   -0.25297859
     atom   33 type  2   force =     0.18188111   -0.02683522   -0.08783781
     atom   34 type  2   force =     0.66591146    0.17812856    0.19839876
     atom   35 type  2   force =     0.05909049    0.12415775    0.18412957
     atom   36 type  2   force =    -0.49838242   -0.12897270    0.01526880
     atom   37 type  2   force =    -0.66411495    0.57603249    0.63794937
     atom   38 type  2   force =    -0.52090823   -0.05743146   -0.16464828
     atom   39 type  2   force =    -0.73565304    0.56442414    0.50528548
     atom   40 type  2   force =     0.16588389    0.00849629    0.17891243
     atom   41 type  2   force =     0.05302143    0.09855943    0.05064098
     atom   42 type  2   force =     0.10890554   -0.09800247   -0.07304016
     atom   43 type  2   force =    -0.05399919    0.11454298   -0.25900197
     atom   44 type  2   force =     0.09775195   -0.06830400    0.08038867
     atom   45 type  2   force =    -0.37632035   -1.03808317   -0.37986809
     atom   46 type  2   force =    -0.08472268   -0.12196029    0.14816963
     atom   47 type  2   force =    -0.22809789    0.11363122   -0.03466703
     atom   48 type  2   force =     0.09546189    0.08563835   -0.05911595
     atom   49 type  2   force =     0.04946369    0.06731856    0.00540031
     atom   50 type  2   force =     0.20348621   -0.13420854    0.01240272
     atom   51 type  2   force =    -0.01424991   -0.17984117    0.17734383
     atom   52 type  2   force =    -0.12599812    0.15025875    0.05587518
     atom   53 type  2   force =    -0.23903179   -0.03476700    0.18811673
     atom   54 type  2   force =     0.08085744    0.11903449   -0.08357004
     atom   55 type  2   force =    -0.37951789   -0.36767593   -1.01090766
     atom   56 type  2   force =     0.07063366    0.01124838    0.10593898
     atom   57 type  2   force =     0.01305733    0.02886142    0.01180325
     atom   58 type  2   force =     0.05969060   -0.03828416   -0.02549158
     atom   59 type  2   force =     0.27268022   -0.06542861   -0.14219631
     atom   60 type  2   force =    -0.04954928    0.01887942   -0.04651544
     atom   61 type  2   force =    -0.12441691    0.29257133   -0.15544182
     atom   62 type  2   force =    -0.02016645   -0.02591769    0.08656002
     atom   63 type  2   force =    -0.11135885   -0.06081689    0.26461050
     The core correction contribution to forces
     atom    1 type  1   force =     0.00000000    0.00000000    0.00000000
     atom    2 type  2   force =     0.00000000    0.00000000    0.00000000
     atom    3 type  2   force =     0.00000000    0.00000000    0.00000000
     atom    4 type  2   force =     0.00000000    0.00000000    0.00000000
     atom    5 type  2   force =     0.00000000    0.00000000    0.00000000
     atom    6 type  2   force =     0.00000000    0.00000000    0.00000000
     atom    7 type  2   force =     0.00000000    0.00000000    0.00000000
     atom    8 type  2   force =     0.00000000    0.00000000    0.00000000
     atom    9 type  2   force =     0.00000000    0.00000000    0.00000000
     atom   10 type  2   force =     0.00000000    0.00000000    0.00000000
     atom   11 type  2   force =     0.00000000    0.00000000    0.00000000
     atom   12 type  2   force =     0.00000000    0.00000000    0.00000000
     atom   13 type  2   force =     0.00000000    0.00000000    0.00000000
     atom   14 type  2   force =     0.00000000    0.00000000    0.00000000
     atom   15 type  2   force =     0.00000000    0.00000000    0.00000000
     atom   16 type  2   force =     0.00000000    0.00000000    0.00000000
     atom   17 type  2   force =     0.00000000    0.00000000    0.00000000
     atom   18 type  2   force =     0.00000000    0.00000000    0.00000000
     atom   19 type  2   force =     0.00000000    0.00000000    0.00000000
     atom   20 type  2   force =     0.00000000    0.00000000    0.00000000
     atom   21 type  2   force =     0.00000000    0.00000000    0.00000000
     atom   22 type  2   force =     0.00000000    0.00000000    0.00000000
     atom   23 type  2   force =     0.00000000    0.00000000    0.00000000
     atom   24 type  2   force =     0.00000000    0.00000000    0.00000000
     atom   25 type  2   force =     0.00000000    0.00000000    0.00000000
     atom   26 type  2   force =     0.00000000    0.00000000    0.00000000
     atom   27 type  2   force =     0.00000000    0.00000000    0.00000000
     atom   28 type  2   force =     0.00000000    0.00000000    0.00000000
     atom   29 type  2   force =     0.00000000    0.00000000    0.00000000
     atom   30 type  2   force =     0.00000000    0.00000000    0.00000000
     atom   31 type  2   force =     0.00000000    0.00000000    0.00000000
     atom   32 type  2   force =     0.00000000    0.00000000    0.00000000
     atom   33 type  2   force =     0.00000000    0.00000000    0.00000000
     atom   34 type  2   force =     0.00000000    0.00000000    0.00000000
     atom   35 type  2   force =     0.00000000    0.00000000    0.00000000
     atom   36 type  2   force =     0.00000000    0.00000000    0.00000000
     atom   37 type  2   force =     0.00000000    0.00000000    0.00000000
     atom   38 type  2   force =     0.00000000    0.00000000    0.00000000
     atom   39 type  2   force =     0.00000000    0.00000000    0.00000000
     atom   40 type  2   force =     0.00000000    0.00000000    0.00000000
     atom   41 type  2   force =     0.00000000    0.00000000    0.00000000
     atom   42 type  2   force =     0.00000000    0.00000000    0.00000000
     atom   43 type  2   force =     0.00000000    0.00000000    0.00000000
     atom   44 type  2   force =     0.00000000    0.00000000    0.00000000
     atom   45 type  2   force =     0.00000000    0.00000000    0.00000000
     atom   46 type  2   force =     0.00000000    0.00000000    0.00000000
     atom   47 type  2   force =     0.00000000    0.00000000    0.00000000
     atom   48 type  2   force =     0.00000000    0.00000000    0.00000000
     atom   49 type  2   force =     0.00000000    0.00000000    0.00000000
     atom   50 type  2   force =     0.00000000    0.00000000    0.00000000
     atom   51 type  2   force =     0.00000000    0.00000000    0.00000000
     atom   52 type  2   force =     0.00000000    0.00000000    0.00000000
     atom   53 type  2   force =     0.00000000    0.00000000    0.00000000
     atom   54 type  2   force =     0.00000000    0.00000000    0.00000000
     atom   55 type  2   force =     0.00000000    0.00000000    0.00000000
     atom   56 type  2   force =     0.00000000    0.00000000    0.00000000
     atom   57 type  2   force =     0.00000000    0.00000000    0.00000000
     atom   58 type  2   force =     0.00000000    0.00000000    0.00000000
     atom   59 type  2   force =     0.00000000    0.00000000    0.00000000
     atom   60 type  2   force =     0.00000000    0.00000000    0.00000000
     atom   61 type  2   force =     0.00000000    0.00000000    0.00000000
     atom   62 type  2   force =     0.00000000    0.00000000    0.00000000
     atom   63 type  2   force =     0.00000000    0.00000000    0.00000000
     The Hubbard contrib.    to forces
     atom    1 type  1   force =     0.00000000    0.00000000    0.00000000
     atom    2 type  2   force =     0.00000000    0.00000000    0.00000000
     atom    3 type  2   force =     0.00000000    0.00000000    0.00000000
     atom    4 type  2   force =     0.00000000    0.00000000    0.00000000
     atom    5 type  2   force =     0.00000000    0.00000000    0.00000000
     atom    6 type  2   force =     0.00000000    0.00000000    0.00000000
     atom    7 type  2   force =     0.00000000    0.00000000    0.00000000
     atom    8 type  2   force =     0.00000000    0.00000000    0.00000000
     atom    9 type  2   force =     0.00000000    0.00000000    0.00000000
     atom   10 type  2   force =     0.00000000    0.00000000    0.00000000
     atom   11 type  2   force =     0.00000000    0.00000000    0.00000000
     atom   12 type  2   force =     0.00000000    0.00000000    0.00000000
     atom   13 type  2   force =     0.00000000    0.00000000    0.00000000
     atom   14 type  2   force =     0.00000000    0.00000000    0.00000000
     atom   15 type  2   force =     0.00000000    0.00000000    0.00000000
     atom   16 type  2   force =     0.00000000    0.00000000    0.00000000
     atom   17 type  2   force =     0.00000000    0.00000000    0.00000000
     atom   18 type  2   force =     0.00000000    0.00000000    0.00000000
     atom   19 type  2   force =     0.00000000    0.00000000    0.00000000
     atom   20 type  2   force =     0.00000000    0.00000000    0.00000000
     atom   21 type  2   force =     0.00000000    0.00000000    0.00000000
     atom   22 type  2   force =     0.00000000    0.00000000    0.00000000
     atom   23 type  2   force =     0.00000000    0.00000000    0.00000000
     atom   24 type  2   force =     0.00000000    0.00000000    0.00000000
     atom   25 type  2   force =     0.00000000    0.00000000    0.00000000
     atom   26 type  2   force =     0.00000000    0.00000000    0.00000000
     atom   27 type  2   force =     0.00000000    0.00000000    0.00000000
     atom   28 type  2   force =     0.00000000    0.00000000    0.00000000
     atom   29 type  2   force =     0.00000000    0.00000000    0.00000000
     atom   30 type  2   force =     0.00000000    0.00000000    0.00000000
     atom   31 type  2   force =     0.00000000    0.00000000    0.00000000
     atom   32 type  2   force =     0.00000000    0.00000000    0.00000000
     atom   33 type  2   force =     0.00000000    0.00000000    0.00000000
     atom   34 type  2   force =     0.00000000    0.00000000    0.00000000
     atom   35 type  2   force =     0.00000000    0.00000000    0.00000000
     atom   36 type  2   force =     0.00000000    0.00000000    0.00000000
     atom   37 type  2   force =     0.00000000    0.00000000    0.00000000
     atom   38 type  2   force =     0.00000000    0.00000000    0.00000000
     atom   39 type  2   force =     0.00000000    0.00000000    0.00000000
     atom   40 type  2   force =     0.00000000    0.00000000    0.00000000
     atom   41 type  2   force =     0.00000000    0.00000000    0.00000000
     atom   42 type  2   force =     0.00000000    0.00000000    0.00000000
     atom   43 type  2   force =     0.00000000    0.00000000    0.00000000
     atom   44 type  2   force =     0.00000000    0.00000000    0.00000000
     atom   45 type  2   force =     0.00000000    0.00000000    0.00000000
     atom   46 type  2   force =     0.00000000    0.00000000    0.00000000
     atom   47 type  2   force =     0.00000000    0.00000000    0.00000000
     atom   48 type  2   force =     0.00000000    0.00000000    0.00000000
     atom   49 type  2   force =     0.00000000    0.00000000    0.00000000
     atom   50 type  2   force =     0.00000000    0.00000000    0.00000000
     atom   51 type  2   force =     0.00000000    0.00000000    0.00000000
     atom   52 type  2   force =     0.00000000    0.00000000    0.00000000
     atom   53 type  2   force =     0.00000000    0.00000000    0.00000000
     atom   54 type  2   force =     0.00000000    0.00000000    0.00000000
     atom   55 type  2   force =     0.00000000    0.00000000    0.00000000
     atom   56 type  2   force =     0.00000000    0.00000000    0.00000000
     atom   57 type  2   force =     0.00000000    0.00000000    0.00000000
     atom   58 type  2   force =     0.00000000    0.00000000    0.00000000
     atom   59 type  2   force =     0.00000000    0.00000000    0.00000000
     atom   60 type  2   force =     0.00000000    0.00000000    0.00000000
     atom   61 type  2   force =     0.00000000    0.00000000    0.00000000
     atom   62 type  2   force =     0.00000000    0.00000000    0.00000000
     atom   63 type  2   force =     0.00000000    0.00000000    0.00000000
     The SCF correction term to forces
     atom    1 type  1   force =    -0.00002010   -0.00002847    0.00000143
     atom    2 type  2   force =    -0.00001363   -0.00001792    0.00000189
     atom    3 type  2   force =     0.00001380    0.00001497    0.00001208
     atom    4 type  2   force =     0.00000410   -0.00001587   -0.00000337
     atom    5 type  2   force =     0.00001789   -0.00001820   -0.00000984
     atom    6 type  2   force =     0.00000779   -0.00002024    0.00000639
     atom    7 type  2   force =     0.00002242   -0.00000371    0.00001767
     atom    8 type  2   force =    -0.00002187   -0.00003280   -0.00000153
     atom    9 type  2   force =    -0.00001629   -0.00002385    0.00000134
     atom   10 type  2   force =    -0.00002710   -0.00000879   -0.00000252
     atom   11 type  2   force =    -0.00002004    0.00000144   -0.00000943
     atom   12 type  2   force =    -0.00000348   -0.00001446   -0.00000196
     atom   13 type  2   force =     0.00001380   -0.00002007    0.00000484
     atom   14 type  2   force =     0.00001603   -0.00001071   -0.00000583
     atom   15 type  2   force =     0.00002371    0.00000591   -0.00001843
     atom   16 type  2   force =    -0.00002142    0.00002364   -0.00000945
     atom   17 type  2   force =    -0.00001338    0.00003296    0.00000666
     atom   18 type  2   force =    -0.00002320    0.00001937    0.00001072
     atom   19 type  2   force =    -0.00001579   -0.00000517   -0.00000459
     atom   20 type  2   force =     0.00001613    0.00001745    0.00000867
     atom   21 type  2   force =     0.00002244    0.00001093    0.00000251
     atom   22 type  2   force =    -0.00000646    0.00001809    0.00001003
     atom   23 type  2   force =     0.00000429    0.00000748    0.00001567
     atom   24 type  2   force =    -0.00002518    0.00003203    0.00001039
     atom   25 type  2   force =    -0.00001913    0.00002241   -0.00000644
     atom   26 type  2   force =    -0.00001896    0.00000964   -0.00000995
     atom   27 type  2   force =    -0.00001138   -0.00000529   -0.00000042
     atom   28 type  2   force =    -0.00000410    0.00001662   -0.00000848
     atom   29 type  2   force =     0.00000986    0.00002087   -0.00000379
     atom   30 type  2   force =    -0.00000525    0.00001398   -0.00000803
     atom   31 type  2   force =     0.00001270   -0.00000463   -0.00000842
     atom   32 type  2   force =     0.00001174   -0.00000643    0.00001224
     atom   33 type  2   force =     0.00000155   -0.00001907    0.00000693
     atom   34 type  2   force =     0.00000813   -0.00001156    0.00000710
     atom   35 type  2   force =    -0.00000751    0.00001153    0.00001000
     atom   36 type  2   force =    -0.00000816   -0.00003303    0.00001283
     atom   37 type  2   force =    -0.00002837   -0.00004777    0.00001646
     atom   38 type  2   force =    -0.00001043   -0.00001012   -0.00001224
     atom   39 type  2   force =    -0.00002967    0.00001584   -0.00001676
     atom   40 type  2   force =     0.00002276   -0.00001338   -0.00001339
     atom   41 type  2   force =     0.00001755   -0.00001122   -0.00000652
     atom   42 type  2   force =     0.00002910   -0.00001003   -0.00000715
     atom   43 type  2   force =     0.00002305   -0.00000328   -0.00000829
     atom   44 type  2   force =     0.00000476   -0.00000593   -0.00001029
     atom   45 type  2   force =    -0.00001867   -0.00001095   -0.00001351
     atom   46 type  2   force =    -0.00001453   -0.00001067    0.00001516
     atom   47 type  2   force =    -0.00002466    0.00000766    0.00001245
     atom   48 type  2   force =     0.00002144    0.00000723    0.00001080
     atom   49 type  2   force =     0.00001555    0.00001897    0.00002123
     atom   50 type  2   force =     0.00002572    0.00001316    0.00001243
     atom   51 type  2   force =     0.00002320   -0.00001026    0.00000045
     atom   52 type  2   force =    -0.00001498    0.00003573    0.00001015
     atom   53 type  2   force =    -0.00002494    0.00004175    0.00000741
     atom   54 type  2   force =     0.00000788    0.00001059    0.00001439
     atom   55 type  2   force =    -0.00001343   -0.00001385    0.00001893
     atom   56 type  2   force =     0.00002315    0.00001148   -0.00000966
     atom   57 type  2   force =     0.00001794    0.00001127   -0.00002063
     atom   58 type  2   force =     0.00001617    0.00000959   -0.00001317
     atom   59 type  2   force =     0.00001349    0.00000303   -0.00000257
     atom   60 type  2   force =     0.00000489    0.00000311   -0.00001203
     atom   61 type  2   force =    -0.00000901    0.00001204   -0.00000686
     atom   62 type  2   force =     0.00000361    0.00001065   -0.00001746
     atom   63 type  2   force =    -0.00001191   -0.00000626   -0.00001893

     Total force =     0.128979     Total SCF correction =     0.000215

     Writing all to output data dir ./pwscf.save/ :
     XML data file, charge density, pseudopotentials, collected wavefunctions
 
     init_run     :      0.55s CPU      0.60s WALL (       1 calls)
     electrons    :      8.07s CPU      8.26s WALL (       1 calls)
     forces       :      0.34s CPU      0.34s WALL (       1 calls)

     Called by init_run:
     wfcinit      :      0.07s CPU      0.11s WALL (       1 calls)
     wfcinit:wfcr :      0.07s CPU      0.08s WALL (       1 calls)
     potinit      :      0.39s CPU      0.40s WALL (       1 calls)
     hinit0       :      0.02s CPU      0.04s WALL (       1 calls)

     Called by electrons:
     c_bands      :      7.48s CPU      7.64s WALL (      14 calls)
     sum_band     :      0.25s CPU      0.26s WALL (      14 calls)
     v_of_rho     :      0.14s CPU      0.15s WALL (      15 calls)
     v_h          :      0.01s CPU      0.01s WALL (      15 calls)
     v_xc         :      0.14s CPU      0.14s WALL (      15 calls)
     mix_rho      :      0.02s CPU      0.02s WALL (      14 calls)

     Called by c_bands:
     init_us_2    :      0.02s CPU      0.03s WALL (      30 calls)
     regterg      :      6.89s CPU      7.04s WALL (      14 calls)

     Called by sum_band:
     sum_band:wei :      0.02s CPU      0.02s WALL (      14 calls)
     sum_band:loo :      0.17s CPU      0.18s WALL (      14 calls)
     sum_band:buf :      0.00s CPU      0.00s WALL (      14 calls)
     sum_band:ini :      0.01s CPU      0.01s WALL (      14 calls)

     Called by *egterg:
     rdiaghg      :      4.17s CPU      4.26s WALL (     270 calls)
     regterg:over :      0.26s CPU      0.27s WALL (     256 calls)
     regterg:upda :      0.20s CPU      0.21s WALL (     256 calls)
     regterg:last :      0.12s CPU      0.12s WALL (      51 calls)
     rdiaghg:chol :      0.14s CPU      0.14s WALL (     270 calls)
     rdiaghg:inve :      0.03s CPU      0.03s WALL (     270 calls)
     rdiaghg:para :      0.39s CPU      0.41s WALL (     540 calls)
     h_psi        :      2.09s CPU      2.15s WALL (     271 calls)
     g_psi        :      0.00s CPU      0.00s WALL (     256 calls)

     Called by h_psi:
     h_psi:calbec :      0.34s CPU      0.36s WALL (     271 calls)
     vloc_psi     :      1.64s CPU      1.67s WALL (     271 calls)
                                        0.00s GPU  (     271 calls)
     add_vuspsi   :      0.10s CPU      0.11s WALL (     271 calls)

     General routines
     calbec       :      0.42s CPU      0.43s WALL (     275 calls)
     fft          :      0.11s CPU      0.13s WALL (     196 calls)
     ffts         :      0.01s CPU      0.01s WALL (      14 calls)
     fftw         :      1.71s CPU      1.74s WALL (   10094 calls)
 
     Parallel routines
 
     PWSCF        :     10.65s CPU     11.06s WALL

 
   This run was terminated on:  15:55: 4  16Nov2025            

=------------------------------------------------------------------------------=
   JOB DONE.
=------------------------------------------------------------------------------=
