
     Program PWSCF v.7.5 starts on 16Nov2025 at 15:59: 5 

     This program is part of the open-source Quantum ESPRESSO suite
     for quantum simulation of materials; please cite
         "P. Giannozzi et al., J. Phys.:Condens. Matter 21 395502 (2009);
         "P. Giannozzi et al., J. Phys.:Condens. Matter 29 465901 (2017);
         "P. Giannozzi et al., J. Chem. Phys. 152 154105 (2020);
          URL http://www.quantum-espresso.org", 
     in publications or presentations arising from this work. More details at
     http://www.quantum-espresso.org/quote

     Parallel version (MPI), running on    96 processors

     MPI processes distributed on     2 nodes
     174840 MiB available memory on the printing compute node when the environment starts
 
     Reading input from supercell-110.in

     Current dimensions of program PWSCF are:
     Max number of different atomic species (ntypx) = 10
     Max number of k-points (npk) =  40000
     Max angular momentum in pseudopotentials (lmaxx) =  4

     gamma-point specific algorithms are used
 
     K-points division:     npool     =       2
     R & G space division:  proc/nbgrp/npool/nimage =      48
     Subspace diagonalization in iterative solution of the eigenvalue problem:
     one sub-group per band group will be used
     scalapack distributed-memory algorithm (size of sub-group:  2*  2 procs)

 
     Parallelization info
     --------------------
     sticks:   dense  smooth     PW     G-vecs:    dense   smooth      PW
     Min          59      59     14                 2432     2432     302
     Max          62      62     16                 2442     2442     316
     Sum        2885    2885    725               116921   116921   14771
 
     Using Slab Decomposition
 


     bravais-lattice index     =            0
     lattice parameter (alat)  =      13.4813  a.u.
     unit-cell volume          =    2450.1683 (a.u.)^3
     number of atoms/cell      =           63
     number of atomic types    =            2
     number of electrons       =       254.00 (up: 128.00, down: 126.00)
     number of Kohn-Sham states=          152
     kinetic-energy cutoff     =      50.0000  Ry
     charge density cutoff     =     200.0000  Ry
     scf convergence threshold =      1.0E-08
     mixing beta               =       0.7000
     number of iterations used =            8  plain     mixing
     Exchange-correlation= PBE
                           (   1   4   3   4   0   0   0)

     celldm(1)=  13.481306  celldm(2)=   0.000000  celldm(3)=   0.000000
     celldm(4)=   0.000000  celldm(5)=   0.000000  celldm(6)=   0.000000

     crystal axes: (cart. coord. in units of alat)
               a(1) = (   1.000000   0.000000   0.000000 )  
               a(2) = (   0.000000   1.000000   0.000000 )  
               a(3) = (   0.000000   0.000000   1.000000 )  

     reciprocal axes: (cart. coord. in units 2 pi/alat)
               b(1) = (  1.000000  0.000000  0.000000 )  
               b(2) = (  0.000000  1.000000  0.000000 )  
               b(3) = (  0.000000  0.000000  1.000000 )  


     PseudoPot. # 1 for N  read from file:
     ./N_ONCV_PBE-1.2.upf
     MD5 check sum: 5312fdf34e96954e02a33bdc911c617a
     Pseudo is Norm-conserving, Zval =  5.0
     Generated using ONCVPSP code by D. R. Hamann
     Using radial grid of  602 points,  4 beta functions with: 
                l(1) =   0
                l(2) =   0
                l(3) =   1
                l(4) =   1

     PseudoPot. # 2 for C  read from file:
     ./C_ONCV_PBE-1.2.upf
     MD5 check sum: d60b57d9bdca4133f5fde4b584ee909d
     Pseudo is Norm-conserving, Zval =  4.0
     Generated using ONCVPSP code by D. R. Hamann
     Using radial grid of  602 points,  4 beta functions with: 
                l(1) =   0
                l(2) =   0
                l(3) =   1
                l(4) =   1

     atomic species   valence    mass     pseudopotential
     N                 5.00    14.00670     N ( 1.00)
     C                 4.00    12.01070     C ( 1.00)

     Starting magnetic structure 
     atomic species   magnetization
     N               0.000
     C               0.000

     No symmetry found


                                    s                        frac. trans.

      isym =  1     identity                                     

 cryst.   s( 1) = (     1          0          0      )
                  (     0          1          0      )
                  (     0          0          1      )

 cart.    s( 1) = (  1.0000000  0.0000000  0.0000000 )
                  (  0.0000000  1.0000000  0.0000000 )
                  (  0.0000000  0.0000000  1.0000000 )


   Cartesian axes

     site n.     atom                  positions (alat units)
         1        N      tau(   1) = (   0.9893819   0.9897344   0.9891721  )
         2        C      tau(   2) = (   0.9870277   0.2601210   0.2640728  )
         3        C      tau(   3) = (   0.1231717   0.3731672   0.3742038  )
         4        C      tau(   4) = (   0.2603919   0.9894620   0.2619202  )
         5        C      tau(   5) = (   0.3737632   0.1246771   0.3741571  )
         6        C      tau(   6) = (   0.2640151   0.2616009   0.9853609  )
         7        C      tau(   7) = (   0.3737752   0.3731213   0.1223564  )
         8        C      tau(   8) = (   0.0000049   0.0005840   0.4991361  )
         9        C      tau(   9) = (   0.1251361   0.1251278   0.6250981  )
        10        C      tau(  10) = (   0.0020393   0.2482470   0.7515266  )
        11        C      tau(  11) = (   0.1292009   0.3733021   0.8763303  )
        12        C      tau(  12) = (   0.2487801   0.0017974   0.7514403  )
        13        C      tau(  13) = (   0.3754339   0.1292460   0.8748544  )
        14        C      tau(  14) = (   0.2491579   0.2495268   0.4995755  )
        15        C      tau(  15) = (   0.3750038   0.3749547   0.6244069  )
        16        C      tau(  16) = (   0.0016366   0.4979779   0.0013734  )
        17        C      tau(  17) = (   0.1250869   0.6243147   0.1250807  )
        18        C      tau(  18) = (   0.0014462   0.7520697   0.2483230  )
        19        C      tau(  19) = (   0.1251920   0.8769178   0.3741906  )
        20        C      tau(  20) = (   0.2488290   0.4983596   0.2486760  )
        21        C      tau(  21) = (   0.3741642   0.6242659   0.3742111  )
        22        C      tau(  22) = (   0.2480673   0.7520817   0.0015447  )
        23        C      tau(  23) = (   0.3729914   0.8777475   0.1265606  )
        24        C      tau(  24) = (   0.0000493   0.5010760   0.5011299  )
        25        C      tau(  25) = (   0.1252054   0.6262200   0.6252733  )
        26        C      tau(  26) = (   0.9993969   0.7487112   0.7492532  )
        27        C      tau(  27) = (   0.1217927   0.8768349   0.8763928  )
        28        C      tau(  28) = (   0.2492749   0.5017254   0.7482724  )
        29        C      tau(  29) = (   0.3741000   0.6263042   0.8750769  )
        30        C      tau(  30) = (   0.2487293   0.7486845   0.5007616  )
        31        C      tau(  31) = (   0.3739266   0.8750581   0.6258828  )
        32        C      tau(  32) = (   0.4987543   0.0011228   0.0002828  )
        33        C      tau(  33) = (   0.6248203   0.1251003   0.1251034  )
        34        C      tau(  34) = (   0.4991217   0.2493918   0.2488717  )
        35        C      tau(  35) = (   0.6243080   0.3746888   0.3747831  )
        36        C      tau(  36) = (   0.7516460   0.0016191   0.2487956  )
        37        C      tau(  37) = (   0.8750430   0.1283649   0.3757598  )
        38        C      tau(  38) = (   0.7517475   0.2480080   0.0019610  )
        39        C      tau(  39) = (   0.8773622   0.3724247   0.1282033  )
        40        C      tau(  40) = (   0.5008161   0.9999897   0.5008301  )
        41        C      tau(  41) = (   0.6256173   0.1249721   0.6252590  )
        42        C      tau(  42) = (   0.5022259   0.2488088   0.7478265  )
        43        C      tau(  43) = (   0.6264784   0.3739683   0.8752045  )
        44        C      tau(  44) = (   0.7487945   0.9989046   0.7489691  )
        45        C      tau(  45) = (   0.8764746   0.1216998   0.8763156  )
        46        C      tau(  46) = (   0.7479635   0.2486819   0.5018806  )
        47        C      tau(  47) = (   0.8751980   0.3739245   0.6263738  )
        48        C      tau(  48) = (   0.5012000   0.5011574   0.0001136  )
        49        C      tau(  49) = (   0.6256259   0.6262099   0.1252968  )
        50        C      tau(  50) = (   0.5005188   0.7489091   0.2490095  )
        51        C      tau(  51) = (   0.6258050   0.8750157   0.3740056  )
        52        C      tau(  52) = (   0.7486304   0.5011458   0.2494302  )
        53        C      tau(  53) = (   0.8750247   0.6261269   0.3741365  )
        54        C      tau(  54) = (   0.7492281   0.7488562   0.9996087  )
        55        C      tau(  55) = (   0.8766209   0.8769033   0.1218021  )
        56        C      tau(  56) = (   0.4990819   0.4992903   0.4990317  )
        57        C      tau(  57) = (   0.6247789   0.6244471   0.6249452  )
        58        C      tau(  58) = (   0.4991767   0.7499842   0.7500845  )
        59        C      tau(  59) = (   0.6239946   0.8751464   0.8754130  )
        60        C      tau(  60) = (   0.7505316   0.4989321   0.7505826  )
        61        C      tau(  61) = (   0.8758455   0.6234984   0.8759288  )
        62        C      tau(  62) = (   0.7498244   0.7497799   0.4993198  )
        63        C      tau(  63) = (   0.8750855   0.8749084   0.6242568  )

   Crystallographic axes

     site n.     atom                  positions (cryst. coord.)
         1        N      tau(   1) = (  0.9893819  0.9897344  0.9891721  )
         2        C      tau(   2) = (  0.9870277  0.2601210  0.2640728  )
         3        C      tau(   3) = (  0.1231717  0.3731672  0.3742038  )
         4        C      tau(   4) = (  0.2603919  0.9894620  0.2619202  )
         5        C      tau(   5) = (  0.3737632  0.1246771  0.3741571  )
         6        C      tau(   6) = (  0.2640151  0.2616009  0.9853609  )
         7        C      tau(   7) = (  0.3737752  0.3731213  0.1223564  )
         8        C      tau(   8) = (  0.0000049  0.0005840  0.4991361  )
         9        C      tau(   9) = (  0.1251361  0.1251278  0.6250981  )
        10        C      tau(  10) = (  0.0020393  0.2482470  0.7515266  )
        11        C      tau(  11) = (  0.1292009  0.3733021  0.8763303  )
        12        C      tau(  12) = (  0.2487801  0.0017974  0.7514403  )
        13        C      tau(  13) = (  0.3754339  0.1292460  0.8748544  )
        14        C      tau(  14) = (  0.2491579  0.2495268  0.4995755  )
        15        C      tau(  15) = (  0.3750038  0.3749547  0.6244069  )
        16        C      tau(  16) = (  0.0016366  0.4979779  0.0013734  )
        17        C      tau(  17) = (  0.1250869  0.6243147  0.1250807  )
        18        C      tau(  18) = (  0.0014462  0.7520697  0.2483230  )
        19        C      tau(  19) = (  0.1251920  0.8769178  0.3741906  )
        20        C      tau(  20) = (  0.2488290  0.4983596  0.2486760  )
        21        C      tau(  21) = (  0.3741642  0.6242659  0.3742111  )
        22        C      tau(  22) = (  0.2480673  0.7520817  0.0015447  )
        23        C      tau(  23) = (  0.3729914  0.8777475  0.1265606  )
        24        C      tau(  24) = (  0.0000493  0.5010760  0.5011299  )
        25        C      tau(  25) = (  0.1252054  0.6262200  0.6252733  )
        26        C      tau(  26) = (  0.9993969  0.7487112  0.7492532  )
        27        C      tau(  27) = (  0.1217927  0.8768349  0.8763928  )
        28        C      tau(  28) = (  0.2492749  0.5017254  0.7482724  )
        29        C      tau(  29) = (  0.3741000  0.6263042  0.8750769  )
        30        C      tau(  30) = (  0.2487293  0.7486845  0.5007616  )
        31        C      tau(  31) = (  0.3739266  0.8750581  0.6258828  )
        32        C      tau(  32) = (  0.4987543  0.0011228  0.0002828  )
        33        C      tau(  33) = (  0.6248203  0.1251003  0.1251034  )
        34        C      tau(  34) = (  0.4991217  0.2493918  0.2488717  )
        35        C      tau(  35) = (  0.6243080  0.3746888  0.3747831  )
        36        C      tau(  36) = (  0.7516460  0.0016191  0.2487956  )
        37        C      tau(  37) = (  0.8750430  0.1283649  0.3757598  )
        38        C      tau(  38) = (  0.7517475  0.2480080  0.0019610  )
        39        C      tau(  39) = (  0.8773622  0.3724247  0.1282033  )
        40        C      tau(  40) = (  0.5008161  0.9999897  0.5008301  )
        41        C      tau(  41) = (  0.6256173  0.1249721  0.6252590  )
        42        C      tau(  42) = (  0.5022259  0.2488088  0.7478265  )
        43        C      tau(  43) = (  0.6264784  0.3739683  0.8752045  )
        44        C      tau(  44) = (  0.7487945  0.9989046  0.7489691  )
        45        C      tau(  45) = (  0.8764746  0.1216998  0.8763156  )
        46        C      tau(  46) = (  0.7479635  0.2486819  0.5018806  )
        47        C      tau(  47) = (  0.8751980  0.3739245  0.6263738  )
        48        C      tau(  48) = (  0.5012000  0.5011574  0.0001136  )
        49        C      tau(  49) = (  0.6256259  0.6262099  0.1252968  )
        50        C      tau(  50) = (  0.5005188  0.7489091  0.2490095  )
        51        C      tau(  51) = (  0.6258050  0.8750157  0.3740056  )
        52        C      tau(  52) = (  0.7486304  0.5011458  0.2494302  )
        53        C      tau(  53) = (  0.8750247  0.6261269  0.3741365  )
        54        C      tau(  54) = (  0.7492281  0.7488562  0.9996087  )
        55        C      tau(  55) = (  0.8766209  0.8769033  0.1218021  )
        56        C      tau(  56) = (  0.4990819  0.4992903  0.4990317  )
        57        C      tau(  57) = (  0.6247789  0.6244471  0.6249452  )
        58        C      tau(  58) = (  0.4991767  0.7499842  0.7500845  )
        59        C      tau(  59) = (  0.6239946  0.8751464  0.8754130  )
        60        C      tau(  60) = (  0.7505316  0.4989321  0.7505826  )
        61        C      tau(  61) = (  0.8758455  0.6234984  0.8759288  )
        62        C      tau(  62) = (  0.7498244  0.7497799  0.4993198  )
        63        C      tau(  63) = (  0.8750855  0.8749084  0.6242568  )

     number of k points=     1
                       cart. coord. in units 2pi/alat
        k(    1) = (   0.0000000   0.0000000   0.0000000), wk =   1.0000000

                       cryst. coord.
        k(    1) = (   0.0000000   0.0000000   0.0000000), wk =   1.0000000

     Dense  grid:    58461 G-vectors     FFT dimensions: (  64,  64,  64)

     Dynamical RAM for                 wfc:       0.35 MB

     Dynamical RAM for     wfc (w. buffer):       0.35 MB

     Dynamical RAM for           str. fact:       0.04 MB

     Dynamical RAM for           local pot:       0.00 MB

     Dynamical RAM for          nlocal pot:       1.17 MB

     Dynamical RAM for                qrad:       0.65 MB

     Dynamical RAM for          rho,v,vnew:       0.49 MB

     Dynamical RAM for               rhoin:       0.16 MB

     Dynamical RAM for            rho*nmix:       0.60 MB

     Dynamical RAM for           G-vectors:       0.08 MB

     Dynamical RAM for          h,s,v(r/c):       0.53 MB

     Dynamical RAM for          <psi|beta>:       0.58 MB

     Dynamical RAM for                 psi:       0.71 MB

     Dynamical RAM for                hpsi:       0.71 MB

     Dynamical RAM for      wfcinit/wfcrot:       1.24 MB

     Estimated static dynamical RAM per process >       3.37 MB

     Estimated max dynamical RAM per process >       6.49 MB

     Estimated total dynamical RAM >     594.05 MB
     Generating pointlists ...
     new r_m :   0.0854 (alat units)  1.1518 (a.u.) for type    1
     new r_m :   0.0847 (alat units)  1.1416 (a.u.) for type    2

     Initial potential from superposition of free atoms

     starting charge     252.5655, renormalised to     254.0000
     Starting wfcs are random

     total cpu time spent up to now is        1.2 secs

     Self-consistent Calculation

     iteration #  1     ecut=    50.00 Ry     beta= 0.70
     Davidson diagonalization with overlap

---- Real-time Memory Report at c_bands before calling an iterative solver
           158 MiB given to the printing process from OS
             0 MiB allocation reported by mallinfo(arena+hblkhd)
        173868 MiB available memory on the node where the printing process lives
------------------
     ethr =  1.00E-02,  avg # of iterations = 12.0

     total cpu time spent up to now is        2.0 secs

     total energy              =    -723.26740726 Ry
     estimated scf accuracy    <       3.70734928 Ry

     total magnetization       =     2.00 Bohr mag/cell
     absolute magnetization    =     2.00 Bohr mag/cell

     iteration #  2     ecut=    50.00 Ry     beta= 0.70
     Davidson diagonalization with overlap

---- Real-time Memory Report at c_bands before calling an iterative solver
           164 MiB given to the printing process from OS
             0 MiB allocation reported by mallinfo(arena+hblkhd)
        173808 MiB available memory on the node where the printing process lives
------------------
     ethr =  1.46E-03,  avg # of iterations = 11.5

     total cpu time spent up to now is        2.5 secs

     total energy              =    -723.66051769 Ry
     estimated scf accuracy    <       0.45743768 Ry

     total magnetization       =     2.00 Bohr mag/cell
     absolute magnetization    =     2.07 Bohr mag/cell

     iteration #  3     ecut=    50.00 Ry     beta= 0.70
     Davidson diagonalization with overlap

---- Real-time Memory Report at c_bands before calling an iterative solver
           164 MiB given to the printing process from OS
             0 MiB allocation reported by mallinfo(arena+hblkhd)
        173813 MiB available memory on the node where the printing process lives
------------------
     c_bands:  2 eigenvalues not converged
     ethr =  1.80E-04,  avg # of iterations = 20.0

     total cpu time spent up to now is        3.0 secs

     total energy              =    -723.72659961 Ry
     estimated scf accuracy    <       0.86871225 Ry

     total magnetization       =     2.00 Bohr mag/cell
     absolute magnetization    =     2.12 Bohr mag/cell

     iteration #  4     ecut=    50.00 Ry     beta= 0.70
     Davidson diagonalization with overlap

---- Real-time Memory Report at c_bands before calling an iterative solver
           165 MiB given to the printing process from OS
             0 MiB allocation reported by mallinfo(arena+hblkhd)
        173810 MiB available memory on the node where the printing process lives
------------------
     c_bands:  1 eigenvalues not converged
     ethr =  1.80E-04,  avg # of iterations = 20.0

     total cpu time spent up to now is        3.8 secs

     total energy              =    -723.90128591 Ry
     estimated scf accuracy    <       0.00970812 Ry

     total magnetization       =     2.00 Bohr mag/cell
     absolute magnetization    =     2.19 Bohr mag/cell

     iteration #  5     ecut=    50.00 Ry     beta= 0.70
     Davidson diagonalization with overlap

---- Real-time Memory Report at c_bands before calling an iterative solver
           165 MiB given to the printing process from OS
             0 MiB allocation reported by mallinfo(arena+hblkhd)
        173805 MiB available memory on the node where the printing process lives
------------------
     c_bands:  3 eigenvalues not converged
     ethr =  3.82E-06,  avg # of iterations = 20.0

     total cpu time spent up to now is        5.2 secs

     total energy              =    -723.90623091 Ry
     estimated scf accuracy    <       0.00411214 Ry

     total magnetization       =     2.00 Bohr mag/cell
     absolute magnetization    =     2.23 Bohr mag/cell

     iteration #  6     ecut=    50.00 Ry     beta= 0.70
     Davidson diagonalization with overlap

---- Real-time Memory Report at c_bands before calling an iterative solver
           165 MiB given to the printing process from OS
             0 MiB allocation reported by mallinfo(arena+hblkhd)
        173801 MiB available memory on the node where the printing process lives
------------------
     c_bands:  3 eigenvalues not converged
     ethr =  1.62E-06,  avg # of iterations = 20.0

     total cpu time spent up to now is        8.5 secs

     total energy              =    -723.90698643 Ry
     estimated scf accuracy    <       0.00088322 Ry

     total magnetization       =     2.00 Bohr mag/cell
     absolute magnetization    =     2.25 Bohr mag/cell

     iteration #  7     ecut=    50.00 Ry     beta= 0.70
     Davidson diagonalization with overlap

---- Real-time Memory Report at c_bands before calling an iterative solver
           165 MiB given to the printing process from OS
             0 MiB allocation reported by mallinfo(arena+hblkhd)
        173809 MiB available memory on the node where the printing process lives
------------------
     c_bands:  1 eigenvalues not converged
     ethr =  3.48E-07,  avg # of iterations = 20.0

     total cpu time spent up to now is        8.9 secs

     total energy              =    -723.90721459 Ry
     estimated scf accuracy    <       0.00011926 Ry

     total magnetization       =     2.00 Bohr mag/cell
     absolute magnetization    =     2.27 Bohr mag/cell

     iteration #  8     ecut=    50.00 Ry     beta= 0.70
     Davidson diagonalization with overlap

---- Real-time Memory Report at c_bands before calling an iterative solver
           165 MiB given to the printing process from OS
             0 MiB allocation reported by mallinfo(arena+hblkhd)
        173800 MiB available memory on the node where the printing process lives
------------------
     c_bands:  2 eigenvalues not converged
     ethr =  4.70E-08,  avg # of iterations = 20.0

     total cpu time spent up to now is        9.5 secs

     total energy              =    -723.90725450 Ry
     estimated scf accuracy    <       0.00002879 Ry

     total magnetization       =     2.00 Bohr mag/cell
     absolute magnetization    =     2.28 Bohr mag/cell

     iteration #  9     ecut=    50.00 Ry     beta= 0.70
     Davidson diagonalization with overlap

---- Real-time Memory Report at c_bands before calling an iterative solver
           166 MiB given to the printing process from OS
             0 MiB allocation reported by mallinfo(arena+hblkhd)
        173809 MiB available memory on the node where the printing process lives
------------------
     c_bands:  3 eigenvalues not converged
     ethr =  1.13E-08,  avg # of iterations = 20.0

     total cpu time spent up to now is       10.0 secs

     total energy              =    -723.90726491 Ry
     estimated scf accuracy    <       0.00000788 Ry

     total magnetization       =     2.00 Bohr mag/cell
     absolute magnetization    =     2.29 Bohr mag/cell

     iteration # 10     ecut=    50.00 Ry     beta= 0.70
     Davidson diagonalization with overlap

---- Real-time Memory Report at c_bands before calling an iterative solver
           166 MiB given to the printing process from OS
             0 MiB allocation reported by mallinfo(arena+hblkhd)
        173798 MiB available memory on the node where the printing process lives
------------------
     c_bands:  1 eigenvalues not converged
     ethr =  3.10E-09,  avg # of iterations = 20.0

     total cpu time spent up to now is       10.6 secs

     total energy              =    -723.90726847 Ry
     estimated scf accuracy    <       0.00000085 Ry

     total magnetization       =     2.00 Bohr mag/cell
     absolute magnetization    =     2.29 Bohr mag/cell

     iteration # 11     ecut=    50.00 Ry     beta= 0.70
     Davidson diagonalization with overlap

---- Real-time Memory Report at c_bands before calling an iterative solver
           166 MiB given to the printing process from OS
             0 MiB allocation reported by mallinfo(arena+hblkhd)
        173809 MiB available memory on the node where the printing process lives
------------------
     c_bands:  1 eigenvalues not converged
     ethr =  3.36E-10,  avg # of iterations = 20.0

     total cpu time spent up to now is       11.2 secs

     total energy              =    -723.90726911 Ry
     estimated scf accuracy    <       0.00000028 Ry

     total magnetization       =     2.00 Bohr mag/cell
     absolute magnetization    =     2.30 Bohr mag/cell

     iteration # 12     ecut=    50.00 Ry     beta= 0.70
     Davidson diagonalization with overlap

---- Real-time Memory Report at c_bands before calling an iterative solver
           166 MiB given to the printing process from OS
             0 MiB allocation reported by mallinfo(arena+hblkhd)
        173806 MiB available memory on the node where the printing process lives
------------------
     ethr =  1.11E-10,  avg # of iterations = 18.0

     total cpu time spent up to now is       11.8 secs

     total energy              =    -723.90726924 Ry
     estimated scf accuracy    <       0.00000011 Ry

     total magnetization       =     2.00 Bohr mag/cell
     absolute magnetization    =     2.30 Bohr mag/cell

     iteration # 13     ecut=    50.00 Ry     beta= 0.70
     Davidson diagonalization with overlap

---- Real-time Memory Report at c_bands before calling an iterative solver
           166 MiB given to the printing process from OS
             0 MiB allocation reported by mallinfo(arena+hblkhd)
        173805 MiB available memory on the node where the printing process lives
------------------
     ethr =  4.49E-11,  avg # of iterations = 17.0

     total cpu time spent up to now is       12.3 secs

     total energy              =    -723.90726929 Ry
     estimated scf accuracy    <       0.00000002 Ry

     total magnetization       =     2.00 Bohr mag/cell
     absolute magnetization    =     2.30 Bohr mag/cell

     iteration # 14     ecut=    50.00 Ry     beta= 0.70
     Davidson diagonalization with overlap

---- Real-time Memory Report at c_bands before calling an iterative solver
           166 MiB given to the printing process from OS
             0 MiB allocation reported by mallinfo(arena+hblkhd)
        173808 MiB available memory on the node where the printing process lives
------------------
     ethr =  9.81E-12,  avg # of iterations = 17.5
 
     Magnetic moment per site  (integrated on atomic sphere of radius R)
     atom   1 (R=0.085)  charge=  2.9143  magn=  0.0042
     atom   2 (R=0.085)  charge=  1.8171  magn=  0.2447
     atom   3 (R=0.085)  charge=  1.7930  magn= -0.0086
     atom   4 (R=0.085)  charge=  1.8023  magn=  0.2468
     atom   5 (R=0.085)  charge=  1.7931  magn= -0.0088
     atom   6 (R=0.085)  charge=  1.8233  magn=  0.2443
     atom   7 (R=0.085)  charge=  1.7933  magn= -0.0087
     atom   8 (R=0.085)  charge=  1.7879  magn=  0.0089
     atom   9 (R=0.085)  charge=  1.7962  magn= -0.0019
     atom  10 (R=0.085)  charge=  1.7833  magn=  0.0060
     atom  11 (R=0.085)  charge=  1.7969  magn= -0.0042
     atom  12 (R=0.085)  charge=  1.7823  magn=  0.0061
     atom  13 (R=0.085)  charge=  1.8039  magn= -0.0039
     atom  14 (R=0.085)  charge=  1.7892  magn=  0.0085
     atom  15 (R=0.085)  charge=  1.7873  magn= -0.0020
     atom  16 (R=0.085)  charge=  1.7820  magn=  0.0089
     atom  17 (R=0.085)  charge=  1.7955  magn= -0.0018
     atom  18 (R=0.085)  charge=  1.7841  magn=  0.0056
     atom  19 (R=0.085)  charge=  1.7950  magn= -0.0035
     atom  20 (R=0.085)  charge=  1.7834  magn=  0.0083
     atom  21 (R=0.085)  charge=  1.7846  magn= -0.0020
     atom  22 (R=0.085)  charge=  1.7829  magn=  0.0057
     atom  23 (R=0.085)  charge=  1.7904  magn= -0.0038
     atom  24 (R=0.085)  charge=  1.7825  magn=  0.0182
     atom  25 (R=0.085)  charge=  1.8068  magn=  0.0094
     atom  26 (R=0.085)  charge=  1.7935  magn=  0.0032
     atom  27 (R=0.085)  charge=  1.7589  magn=  0.0000
     atom  28 (R=0.085)  charge=  1.7896  magn=  0.0221
     atom  29 (R=0.085)  charge=  1.7824  magn= -0.0013
     atom  30 (R=0.085)  charge=  1.7882  magn=  0.0210
     atom  31 (R=0.085)  charge=  1.7822  magn= -0.0013
     atom  32 (R=0.085)  charge=  1.7844  magn=  0.0091
     atom  33 (R=0.085)  charge=  1.7959  magn= -0.0019
     atom  34 (R=0.085)  charge=  1.7868  magn=  0.0085
     atom  35 (R=0.085)  charge=  1.7865  magn= -0.0020
     atom  36 (R=0.085)  charge=  1.7818  magn=  0.0059
     atom  37 (R=0.085)  charge=  1.8034  magn= -0.0036
     atom  38 (R=0.085)  charge=  1.7836  magn=  0.0059
     atom  39 (R=0.085)  charge=  1.7913  magn= -0.0041
     atom  40 (R=0.085)  charge=  1.7835  magn=  0.0182
     atom  41 (R=0.085)  charge=  1.8109  magn=  0.0094
     atom  42 (R=0.085)  charge=  1.7948  magn=  0.0218
     atom  43 (R=0.085)  charge=  1.7819  magn= -0.0013
     atom  44 (R=0.085)  charge=  1.7937  magn=  0.0032
     atom  45 (R=0.085)  charge=  1.7589  magn= -0.0000
     atom  46 (R=0.085)  charge=  1.7948  magn=  0.0214
     atom  47 (R=0.085)  charge=  1.7819  magn= -0.0013
     atom  48 (R=0.085)  charge=  1.7819  magn=  0.0184
     atom  49 (R=0.085)  charge=  1.8043  magn=  0.0093
     atom  50 (R=0.085)  charge=  1.7873  magn=  0.0213
     atom  51 (R=0.085)  charge=  1.7825  magn= -0.0013
     atom  52 (R=0.085)  charge=  1.7869  magn=  0.0218
     atom  53 (R=0.085)  charge=  1.7827  magn= -0.0013
     atom  54 (R=0.085)  charge=  1.7935  magn=  0.0032
     atom  55 (R=0.085)  charge=  1.7589  magn=  0.0001
     atom  56 (R=0.085)  charge=  1.7914  magn=  0.0009
     atom  57 (R=0.085)  charge=  1.7832  magn=  0.0010
     atom  58 (R=0.085)  charge=  1.7913  magn=  0.0018
     atom  59 (R=0.085)  charge=  1.7879  magn= -0.0009
     atom  60 (R=0.085)  charge=  1.7911  magn=  0.0017
     atom  61 (R=0.085)  charge=  1.7854  magn= -0.0009
     atom  62 (R=0.085)  charge=  1.7913  magn=  0.0019
     atom  63 (R=0.085)  charge=  1.7892  magn= -0.0009

     total cpu time spent up to now is       12.9 secs

     End of self-consistent calculation

 ------ SPIN UP ------------


          k = 0.0000 0.0000 0.0000 (  7386 PWs)   bands (ev):

    -8.5510  -6.9224  -6.2858  -6.2699  -6.1972  -6.1551  -5.8805  -4.9130
    -4.1436  -4.1308  -4.1257  -4.0883  -4.0324  -4.0184  -4.0113  -3.9179
    -3.8770  -3.8611  -3.3590  -2.9327  -2.6754  -2.6736  -2.1566  -0.3625
    -0.3538  -0.3298  -0.2839  -0.0784   0.1729   0.1931   0.2807   0.2964
     0.3675   0.6192   0.8360   0.8435   0.9535   0.9743   0.9870   1.0523
     1.0601   1.0653   1.2684   1.3018   3.0729   3.9080   3.9265   4.0681
     4.1900   4.2118   4.2229   4.2741   4.2814   4.2851   4.4220   4.4235
     4.4954   4.4974   4.5670   4.6562   4.6831   4.6884   4.6885   4.7865
     4.7973   4.9223   4.9679   4.9711   5.0486   5.2003   5.2105   5.3012
     5.3567   5.3709   5.3985   5.4003   5.4084   6.0432   6.0481   6.1020
     6.6601   6.6651   6.7282   6.9933   7.0051   7.0403   7.5280   8.3321
     8.3366   8.4112   8.4660   8.4917   8.6852   8.7083   8.7874   8.8308
     8.8446   8.8551   8.8927   8.8997   8.9027   9.2846   9.2878   9.3199
     9.6848   9.7030   9.8980   9.9126   9.9400   9.9615   9.9628   9.9787
     9.9878  10.0273  10.0380  10.0565  10.1258  10.1398  10.2757  10.3261
    10.3312  11.0570  12.2847  12.4169  12.4332  13.9558  14.6972  14.8047
    17.3397  17.3784  17.4125  17.5228  17.5764  17.5806  17.8530  17.9252
    17.9370  18.0319  18.0629  18.3669  18.9935  19.0000  19.0228  20.6898
    20.7963  20.8311  20.8812  20.9420  20.9474  21.0262  21.0279  21.0443

     occupation numbers 
     1.0000   1.0000   1.0000   1.0000   1.0000   1.0000   1.0000   1.0000
     1.0000   1.0000   1.0000   1.0000   1.0000   1.0000   1.0000   1.0000
     1.0000   1.0000   1.0000   1.0000   1.0000   1.0000   1.0000   1.0000
     1.0000   1.0000   1.0000   1.0000   1.0000   1.0000   1.0000   1.0000
     1.0000   1.0000   1.0000   1.0000   1.0000   1.0000   1.0000   1.0000
     1.0000   1.0000   1.0000   1.0000   1.0000   1.0000   1.0000   1.0000
     1.0000   1.0000   1.0000   1.0000   1.0000   1.0000   1.0000   1.0000
     1.0000   1.0000   1.0000   1.0000   1.0000   1.0000   1.0000   1.0000
     1.0000   1.0000   1.0000   1.0000   1.0000   1.0000   1.0000   1.0000
     1.0000   1.0000   1.0000   1.0000   1.0000   1.0000   1.0000   1.0000
     1.0000   1.0000   1.0000   1.0000   1.0000   1.0000   1.0000   1.0000
     1.0000   1.0000   1.0000   1.0000   1.0000   1.0000   1.0000   1.0000
     1.0000   1.0000   1.0000   1.0000   1.0000   1.0000   1.0000   1.0000
     1.0000   1.0000   1.0000   1.0000   1.0000   1.0000   1.0000   1.0000
     1.0000   1.0000   1.0000   1.0000   1.0000   1.0000   1.0000   1.0000
     1.0000   1.0000   1.0000   1.0000   1.0000   1.0000   1.0000   1.0000
     0.0000   0.0000   0.0000   0.0000   0.0000   0.0000   0.0000   0.0000
     0.0000   0.0000   0.0000   0.0000   0.0000   0.0000   0.0000   0.0000
     0.0000   0.0000   0.0000   0.0000   0.0000   0.0000   0.0000   0.0000

 ------ SPIN DOWN ----------


          k = 0.0000 0.0000 0.0000 (  7386 PWs)   bands (ev):

    -8.5256  -6.9080  -6.2638  -6.2467  -6.1529  -6.1128  -5.8434  -4.8963
    -4.1231  -4.1062  -4.0873  -4.0579  -3.9969  -3.9824  -3.9618  -3.9055
    -3.8400  -3.8203  -3.3168  -2.9141  -2.6229  -2.6199  -2.0118  -0.3450
    -0.3358  -0.3087  -0.2665  -0.0125   0.1916   0.2102   0.3184   0.3295
     0.3926   0.6539   0.8482   0.8552   0.9862   1.0060   1.0111   1.0686
     1.0763   1.0819   1.4337   1.4732   3.1866   3.9310   3.9486   4.0941
     4.2248   4.2531   4.2657   4.2888   4.2983   4.3135   4.4681   4.4704
     4.5184   4.5192   4.5910   4.6807   4.7002   4.7061   4.7093   4.8208
     4.8336   4.9356   5.0002   5.0018   5.1298   5.2340   5.2458   5.3251
     5.3707   5.3819   5.4154   5.4568   5.4697   6.1051   6.1072   6.1399
     6.6866   6.6923   6.7624   7.0784   7.0888   7.1011   7.6984   8.3705
     8.3756   8.4483   8.5020   8.5262   8.7191   8.7390   8.8232   8.8738
     8.8832   8.8878   8.9239   8.9310   8.9358   9.3208   9.3242   9.3476
     9.7125   9.7307   9.9289   9.9397   9.9521   9.9753   9.9765   9.9980
    10.0079  10.0619  10.0708  10.0770  10.1533  10.1659  10.3343  10.3800
    10.3865  11.4341  12.5603  12.5641  12.6037  14.4398  16.0193  16.1501
    17.3650  17.3961  17.4297  17.5499  17.6313  17.6377  17.8757  17.9448
    17.9551  18.0722  18.1032  18.4863  19.0450  19.0756  19.1097  20.7404
    20.8105  20.8452  20.8960  20.9596  20.9654  21.0435  21.0557  21.0607

     occupation numbers 
     1.0000   1.0000   1.0000   1.0000   1.0000   1.0000   1.0000   1.0000
     1.0000   1.0000   1.0000   1.0000   1.0000   1.0000   1.0000   1.0000
     1.0000   1.0000   1.0000   1.0000   1.0000   1.0000   1.0000   1.0000
     1.0000   1.0000   1.0000   1.0000   1.0000   1.0000   1.0000   1.0000
     1.0000   1.0000   1.0000   1.0000   1.0000   1.0000   1.0000   1.0000
     1.0000   1.0000   1.0000   1.0000   1.0000   1.0000   1.0000   1.0000
     1.0000   1.0000   1.0000   1.0000   1.0000   1.0000   1.0000   1.0000
     1.0000   1.0000   1.0000   1.0000   1.0000   1.0000   1.0000   1.0000
     1.0000   1.0000   1.0000   1.0000   1.0000   1.0000   1.0000   1.0000
     1.0000   1.0000   1.0000   1.0000   1.0000   1.0000   1.0000   1.0000
     1.0000   1.0000   1.0000   1.0000   1.0000   1.0000   1.0000   1.0000
     1.0000   1.0000   1.0000   1.0000   1.0000   1.0000   1.0000   1.0000
     1.0000   1.0000   1.0000   1.0000   1.0000   1.0000   1.0000   1.0000
     1.0000   1.0000   1.0000   1.0000   1.0000   1.0000   1.0000   1.0000
     1.0000   1.0000   1.0000   1.0000   1.0000   1.0000   1.0000   1.0000
     1.0000   1.0000   1.0000   1.0000   1.0000   1.0000   0.0000   0.0000
     0.0000   0.0000   0.0000   0.0000   0.0000   0.0000   0.0000   0.0000
     0.0000   0.0000   0.0000   0.0000   0.0000   0.0000   0.0000   0.0000
     0.0000   0.0000   0.0000   0.0000   0.0000   0.0000   0.0000   0.0000

     highest occupied, lowest unoccupied level (ev):    14.8047   16.0193

!    total energy              =    -723.90726930 Ry
     estimated scf accuracy    <          5.4E-09 Ry

     The total energy is the sum of the following terms:
     one-electron contribution =     232.29471883 Ry
     hartree contribution      =      70.33061589 Ry
     xc contribution           =    -226.77105247 Ry
     ewald contribution        =    -799.76155154 Ry

     total magnetization       =     2.00 Bohr mag/cell
     absolute magnetization    =     2.30 Bohr mag/cell

     convergence has been achieved in  14 iterations

     Forces acting on atoms (cartesian axes, Ry/au):

     atom    1 type  1   force =    -0.00270826   -0.00396568   -0.00248643
     atom    2 type  2   force =     0.03523747    0.01587338   -0.01266862
     atom    3 type  2   force =    -0.00933268    0.00865139    0.00621014
     atom    4 type  2   force =     0.00413114    0.02260047   -0.00072166
     atom    5 type  2   force =     0.00168196   -0.02181404    0.00194221
     atom    6 type  2   force =    -0.00848324    0.00822378    0.04345718
     atom    7 type  2   force =     0.01023534    0.01200161   -0.00225736
     atom    8 type  2   force =    -0.00094240    0.00519656    0.00744952
     atom    9 type  2   force =    -0.00147792   -0.00505047   -0.00327765
     atom   10 type  2   force =     0.00070593    0.00122487    0.00734190
     atom   11 type  2   force =    -0.02834490    0.00587155   -0.00873999
     atom   12 type  2   force =     0.00001288    0.00386429    0.00342414
     atom   13 type  2   force =    -0.00287816   -0.03981016   -0.00178012
     atom   14 type  2   force =     0.00353078    0.00216416   -0.00440553
     atom   15 type  2   force =    -0.00280014   -0.00133488   -0.00563527
     atom   16 type  2   force =     0.00000658   -0.00091558   -0.00090945
     atom   17 type  2   force =    -0.00075617    0.00667610    0.00052369
     atom   18 type  2   force =    -0.00106017   -0.00103246    0.00009622
     atom   19 type  2   force =     0.00979791   -0.00141293   -0.00680312
     atom   20 type  2   force =     0.00304756   -0.00442137    0.00356493
     atom   21 type  2   force =    -0.00167409   -0.00352024   -0.00246934
     atom   22 type  2   force =     0.00152826    0.00212379    0.00122295
     atom   23 type  2   force =    -0.00119554   -0.00743416   -0.00106262
     atom   24 type  2   force =     0.00974669    0.00545672    0.00430211
     atom   25 type  2   force =    -0.01180477   -0.01416658   -0.00368289
     atom   26 type  2   force =     0.01496478    0.00611247    0.00165092
     atom   27 type  2   force =    -0.02570535   -0.00862109   -0.00645048
     atom   28 type  2   force =     0.01037637    0.00063533    0.00594781
     atom   29 type  2   force =    -0.00014711   -0.00170682   -0.00128858
     atom   30 type  2   force =     0.00412246    0.00759466    0.00306434
     atom   31 type  2   force =     0.00049513   -0.00124551   -0.00409915
     atom   32 type  2   force =     0.00322318    0.00396021    0.00143767
     atom   33 type  2   force =     0.00058087   -0.00440502   -0.00015917
     atom   34 type  2   force =    -0.00473334    0.00166326    0.00349578
     atom   35 type  2   force =    -0.00499991   -0.00090245   -0.00328449
     atom   36 type  2   force =     0.00062626    0.00427647   -0.00007087
     atom   37 type  2   force =     0.00009099   -0.03197114   -0.00681481
     atom   38 type  2   force =     0.00703864    0.00174507   -0.00033661
     atom   39 type  2   force =    -0.01008999    0.00608006   -0.01363828
     atom   40 type  2   force =     0.00542878    0.01266868    0.00504593
     atom   41 type  2   force =    -0.00734624   -0.01545921   -0.00369691
     atom   42 type  2   force =    -0.00008563    0.01734860    0.00601452
     atom   43 type  2   force =    -0.00092669    0.00073914   -0.00102072
     atom   44 type  2   force =     0.00457780    0.01702292    0.00305007
     atom   45 type  2   force =    -0.00742979   -0.02652932   -0.00660503
     atom   46 type  2   force =     0.00641575    0.01612236    0.00105683
     atom   47 type  2   force =    -0.00123827    0.00128547   -0.00187257
     atom   48 type  2   force =     0.00489550    0.00559753    0.00786050
     atom   49 type  2   force =    -0.00793609   -0.01408563   -0.01013045
     atom   50 type  2   force =     0.00430743    0.00657407    0.00341047
     atom   51 type  2   force =    -0.00398336   -0.00182126    0.00028110
     atom   52 type  2   force =     0.00639445    0.00205261    0.00498108
     atom   53 type  2   force =    -0.00225901   -0.00364874   -0.00072203
     atom   54 type  2   force =     0.00253827    0.00549032    0.01392670
     atom   55 type  2   force =    -0.00775099   -0.00886997   -0.02560825
     atom   56 type  2   force =     0.00471333    0.00468002    0.00480583
     atom   57 type  2   force =    -0.00168717   -0.00070224   -0.00223248
     atom   58 type  2   force =     0.00140976    0.00396838    0.00324732
     atom   59 type  2   force =    -0.00124338   -0.00270956   -0.00371877
     atom   60 type  2   force =     0.00263980    0.00193668    0.00235184
     atom   61 type  2   force =    -0.00339803   -0.00181734   -0.00383373
     atom   62 type  2   force =     0.00408463    0.00453077    0.00110178
     atom   63 type  2   force =    -0.00416786   -0.00263990    0.00021797
     The non-local contrib.  to forces
     atom    1 type  1   force =    -0.76080759   -0.76467569   -0.75871851
     atom    2 type  2   force =    -0.16481042    0.22051369    0.17817438
     atom    3 type  2   force =     0.05679295    0.08118350    0.07259899
     atom    4 type  2   force =     0.20776520   -0.19063767    0.19971218
     atom    5 type  2   force =     0.07222129    0.04184554    0.07010437
     atom    6 type  2   force =     0.17981946    0.20483656   -0.14685841
     atom    7 type  2   force =     0.07745493    0.08333720    0.06454804
     atom    8 type  2   force =    -0.00762715   -0.00442106    0.05687514
     atom    9 type  2   force =    -0.00609590   -0.00888009    0.01204893
     atom   10 type  2   force =    -0.04413055   -0.01467129   -0.01225367
     atom   11 type  2   force =    -0.10444754    0.06767614   -0.08319898
     atom   12 type  2   force =    -0.01759715   -0.04101800   -0.01482464
     atom   13 type  2   force =     0.05220565   -0.11674245   -0.07353266
     atom   14 type  2   force =     0.00256758    0.00034706    0.04572703
     atom   15 type  2   force =     0.01008529    0.00900403   -0.00394865
     atom   16 type  2   force =    -0.01211240    0.04943269   -0.01260800
     atom   17 type  2   force =    -0.00512122    0.02848344   -0.00210527
     atom   18 type  2   force =    -0.04415868   -0.02226541   -0.01590035
     atom   19 type  2   force =    -0.05720101   -0.07654324    0.05296969
     atom   20 type  2   force =     0.00425736    0.04509888    0.00495567
     atom   21 type  2   force =     0.01007711   -0.00264623    0.01132521
     atom   22 type  2   force =    -0.01463503   -0.02037993   -0.04237953
     atom   23 type  2   force =     0.06270933   -0.08450492   -0.07203015
     atom   24 type  2   force =    -0.06483114    0.03321829    0.03398559
     atom   25 type  2   force =    -0.02481892   -0.00039715    0.01465915
     atom   26 type  2   force =    -0.04193417   -0.02054954   -0.02351053
     atom   27 type  2   force =    -0.14711774    0.12515119    0.12343881
     atom   28 type  2   force =     0.08041986    0.02333012   -0.01245638
     atom   29 type  2   force =     0.00064694    0.01861324    0.00498896
     atom   30 type  2   force =     0.07241421   -0.01141695    0.02712421
     atom   31 type  2   force =     0.00260476    0.00314349    0.01604289
     atom   32 type  2   force =     0.05292193   -0.00675967   -0.00691030
     atom   33 type  2   force =     0.01834574   -0.00739164   -0.00364093
     atom   34 type  2   force =     0.04475541    0.00077857    0.00389857
     atom   35 type  2   force =    -0.00379739    0.00891282    0.01040940
     atom   36 type  2   force =    -0.01821842   -0.04047372   -0.01783853
     atom   37 type  2   force =    -0.07236846   -0.10829581    0.04790825
     atom   38 type  2   force =    -0.01359720   -0.01348071   -0.04524253
     atom   39 type  2   force =    -0.08677671    0.07146501   -0.08760057
     atom   40 type  2   force =     0.03519638   -0.05854854    0.03546870
     atom   41 type  2   force =     0.00909827   -0.02635414    0.01406530
     atom   42 type  2   force =     0.02105948    0.08906335   -0.00993537
     atom   43 type  2   force =     0.01727615    0.00023304    0.00386459
     atom   44 type  2   force =    -0.02271787   -0.03706802   -0.02326163
     atom   45 type  2   force =     0.12498034   -0.14764372    0.12420637
     atom   46 type  2   force =    -0.01008041    0.08745596    0.02321915
     atom   47 type  2   force =     0.00336128    0.00116378    0.01624274
     atom   48 type  2   force =     0.03367462    0.03328798   -0.06851965
     atom   49 type  2   force =     0.00861132    0.00010622   -0.02285602
     atom   50 type  2   force =     0.02989074   -0.01457056    0.07139938
     atom   51 type  2   force =     0.01719527    0.00363969    0.00332194
     atom   52 type  2   force =    -0.01444291    0.02640924    0.07315540
     atom   53 type  2   force =     0.00420875    0.01755777    0.00148173
     atom   54 type  2   force =    -0.02271333   -0.02058954   -0.04409114
     atom   55 type  2   force =     0.12279855    0.12439325   -0.14688902
     atom   56 type  2   force =     0.02261320    0.02446073    0.02198107
     atom   57 type  2   force =     0.00529793    0.00505815    0.00528563
     atom   58 type  2   force =     0.01593671   -0.00633774   -0.01036862
     atom   59 type  2   force =     0.00765079   -0.01431827   -0.01550352
     atom   60 type  2   force =    -0.01032364    0.01836925   -0.01153603
     atom   61 type  2   force =    -0.01485196    0.00870860   -0.01542095
     atom   62 type  2   force =    -0.00804121   -0.00586820    0.01518458
     atom   63 type  2   force =    -0.01634982   -0.01495863    0.00885067
     The ionic contribution  to forces
     atom    1 type  1   force =     2.98582557    2.95508358    2.99474056
     atom    2 type  2   force =     2.41415738   -2.05719386   -2.21620422
     atom    3 type  2   force =     0.48358489   -0.73014272   -0.85247013
     atom    4 type  2   force =    -2.09849839    2.30339006   -2.12737127
     atom    5 type  2   force =    -0.78312947    0.39253964   -0.82620762
     atom    6 type  2   force =    -2.18568013   -2.09870139    2.46048189
     atom    7 type  2   force =    -0.82417442   -0.74908249    0.53774740
     atom    8 type  2   force =     0.25526899    0.24067659   -0.70113075
     atom    9 type  2   force =     0.07130870    0.02651169   -0.22420313
     atom   10 type  2   force =     0.18108926    0.07160881    0.56613943
     atom   11 type  2   force =    -0.52679471   -0.62728004    0.80324599
     atom   12 type  2   force =     0.03067744    0.15956315    0.54821004
     atom   13 type  2   force =    -0.66321385   -0.56703013    0.76123027
     atom   14 type  2   force =    -0.19202580   -0.18255875   -0.71582896
     atom   15 type  2   force =    -0.16896609   -0.13065108   -0.06888106
     atom   16 type  2   force =     0.20120743   -0.77543304    0.22487296
     atom   17 type  2   force =     0.07660355   -0.15611758    0.09372429
     atom   18 type  2   force =     0.22217757    0.44370015   -0.02331679
     atom   19 type  2   force =    -0.28157404    0.75352011   -0.71251484
     atom   20 type  2   force =    -0.17873127   -0.72810179   -0.18944902
     atom   21 type  2   force =    -0.17860240   -0.04970976   -0.20024498
     atom   22 type  2   force =     0.02987643    0.47933686    0.23970239
     atom   23 type  2   force =    -0.69290625    0.77825823   -0.32307354
     atom   24 type  2   force =     0.10818452   -0.13893293   -0.16965623
     atom   25 type  2   force =    -0.02041501   -0.07935894   -0.07034733
     atom   26 type  2   force =     0.13232224   -0.09479922   -0.04669861
     atom   27 type  2   force =     1.14345272    0.24379095    0.25021018
     atom   28 type  2   force =    -0.08086455   -0.13538673    0.11235846
     atom   29 type  2   force =    -0.15461567    0.03191650    0.25696306
     atom   30 type  2   force =    -0.01967105    0.16305548   -0.25935586
     atom   31 type  2   force =    -0.15723665    0.17294532   -0.01652660
     atom   32 type  2   force =    -0.74575297    0.19468463    0.26340923
     atom   33 type  2   force =    -0.20514474    0.02969390    0.09137002
     atom   34 type  2   force =    -0.71996279   -0.17734292   -0.19879389
     atom   35 type  2   force =    -0.06575179   -0.13391169   -0.19795027
     atom   36 type  2   force =     0.50747266    0.17747126    0.00059853
     atom   37 type  2   force =     0.73215315   -0.49203777   -0.69213412
     atom   38 type  2   force =     0.53810804    0.07158206    0.20848663
     atom   39 type  2   force =     0.80801778   -0.63780109   -0.43185269
     atom   40 type  2   force =    -0.20433253    0.05985165   -0.21229022
     atom   41 type  2   force =    -0.07354025   -0.08776957   -0.06848792
     atom   42 type  2   force =    -0.13228794    0.02651124    0.08873372
     atom   43 type  2   force =     0.03180801   -0.11409271    0.25399855
     atom   44 type  2   force =    -0.07391352    0.12325680   -0.05314014
     atom   45 type  2   force =     0.24374723    1.15996257    0.24813863
     atom   46 type  2   force =     0.09767182    0.05175299   -0.16938251
     atom   47 type  2   force =     0.22331761   -0.11433347    0.01728016
     atom   48 type  2   force =    -0.13290024   -0.11043371    0.13807548
     atom   49 type  2   force =    -0.07779196   -0.08145063    0.00727423
     atom   50 type  2   force =    -0.24413121    0.15546201   -0.08049150
     atom   51 type  2   force =    -0.01871547    0.17439385   -0.18037760
     atom   52 type  2   force =     0.13680977   -0.17822509   -0.12212777
     atom   53 type  2   force =     0.22377081    0.00536772   -0.18206347
     atom   54 type  2   force =    -0.06538937   -0.09122207    0.13778914
     atom   55 type  2   force =     0.24071806    0.24274892    1.12382980
     atom   56 type  2   force =    -0.09320682   -0.02893825   -0.12520969
     atom   57 type  2   force =    -0.02553593   -0.03453214   -0.01946430
     atom   58 type  2   force =    -0.07889091    0.04860581    0.03895853
     atom   59 type  2   force =    -0.28703506    0.07694568    0.15394179
     atom   60 type  2   force =     0.05903633   -0.03622730    0.05931066
     atom   61 type  2   force =     0.13127621   -0.30351079    0.15879499
     atom   62 type  2   force =     0.02266921    0.03448614   -0.09696197
     atom   63 type  2   force =     0.11906987    0.07363531   -0.26540801
     The local contribution  to forces
     atom    1 type  1   force =    -2.22778659   -2.19437488   -2.23856900
     atom    2 type  2   force =    -2.21417903    1.85254458    2.02530451
     atom    3 type  2   force =    -0.54981119    0.65757303    0.78601576
     atom    4 type  2   force =     1.89476893   -2.09016467    1.92688426
     atom    5 type  2   force =     0.71247753   -0.45621191    0.75799844
     atom    6 type  2   force =     1.99727751    1.90208256   -2.27023237
     atom    7 type  2   force =     0.75683914    0.67772724   -0.60462723
     atom    8 type  2   force =    -0.24864475   -0.23105411    0.65165009
     atom    9 type  2   force =    -0.06676187   -0.02268560    0.20881560
     atom   10 type  2   force =    -0.13631046   -0.05572803   -0.54660192
     atom   11 type  2   force =     0.60282957    0.56545303   -0.72883995
     atom   12 type  2   force =    -0.01315539   -0.11469621   -0.53001940
     atom   13 type  2   force =     0.60802344    0.64395406   -0.68954241
     atom   14 type  2   force =     0.19288204    0.18436085    0.66564608
     atom   15 type  2   force =     0.15596441    0.12028623    0.06715532
     atom   16 type  2   force =    -0.18915159    0.72504082   -0.21322712
     atom   17 type  2   force =    -0.07231096    0.13425841   -0.09115956
     atom   18 type  2   force =    -0.17913718   -0.42250681    0.03924707
     atom   19 type  2   force =     0.34850614   -0.67840886    0.65269013
     atom   20 type  2   force =     0.17741469    0.67854501    0.18799549
     atom   21 type  2   force =     0.16673457    0.04880668    0.18639499
     atom   22 type  2   force =    -0.01379722   -0.45687143   -0.19616924
     atom   23 type  2   force =     0.62890121   -0.70121856    0.39397059
     atom   24 type  2   force =    -0.03366597    0.11111905    0.13990873
     atom   25 type  2   force =     0.03336219    0.06554692    0.05195357
     atom   26 type  2   force =    -0.07548820    0.12142818    0.07180953
     atom   27 type  2   force =    -1.02211647   -0.37758362   -0.38015816
     atom   28 type  2   force =     0.01073502    0.11265601   -0.09400707
     atom   29 type  2   force =     0.15371868   -0.05227774   -0.26329996
     atom   30 type  2   force =    -0.04870537   -0.14407959    0.23524778
     atom   31 type  2   force =     0.15502050   -0.17735775   -0.00366742
     atom   32 type  2   force =     0.69594862   -0.18398736   -0.25513175
     atom   33 type  2   force =     0.18728776   -0.02671636   -0.08795289
     atom   34 type  2   force =     0.67037269    0.17821198    0.19832943
     atom   35 type  2   force =     0.06446759    0.12406266    0.18419379
     atom   36 type  2   force =    -0.48870603   -0.13271534    0.01710043
     atom   37 type  2   force =    -0.65974823    0.56838315    0.63734013
     atom   38 type  2   force =    -0.51754758   -0.05637145   -0.16362946
     atom   39 type  2   force =    -0.73138549    0.57237736    0.50577319
     atom   40 type  2   force =     0.17444810    0.01135010    0.18182332
     atom   41 type  2   force =     0.05698872    0.09864944    0.05067335
     atom   42 type  2   force =     0.11102228   -0.09823884   -0.07283782
     atom   43 type  2   force =    -0.05012266    0.11458102   -0.25893840
     atom   44 type  2   force =     0.10111862   -0.06918816    0.07940226
     atom   45 type  2   force =    -0.37622191   -1.03886526   -0.37899633
     atom   46 type  2   force =    -0.08124761   -0.12309952    0.14715014
     atom   47 type  2   force =    -0.22797700    0.11442647   -0.03546628
     atom   48 type  2   force =     0.10400816    0.08271672   -0.06176869
     atom   49 type  2   force =     0.06113844    0.06721956    0.00537174
     atom   50 type  2   force =     0.21842674   -0.13435098    0.01243533
     atom   51 type  2   force =    -0.00257877   -0.17986988    0.17728231
     atom   52 type  2   force =    -0.11604430    0.15381132    0.05388898
     atom   53 type  2   force =    -0.23029728   -0.02663745    0.17980024
     atom   54 type  2   force =     0.09054665    0.11726874   -0.07984780
     atom   55 type  2   force =    -0.37133514   -0.37602174   -1.00262714
     atom   56 type  2   force =     0.07519118    0.00912592    0.10799047
     atom   57 type  2   force =     0.01844281    0.02873866    0.01190956
     atom   58 type  2   force =     0.06425454   -0.03833328   -0.02539020
     atom   59 type  2   force =     0.27803714   -0.06536643   -0.14221547
     atom   60 type  2   force =    -0.04616412    0.01977144   -0.04547129
     atom   61 type  2   force =    -0.11989720    0.29295145   -0.14726401
     atom   62 type  2   force =    -0.01063332   -0.02412111    0.08284295
     atom   63 type  2   force =    -0.10695945   -0.06133759    0.25673663
     The core correction contribution to forces
     atom    1 type  1   force =     0.00000000    0.00000000    0.00000000
     atom    2 type  2   force =     0.00000000    0.00000000    0.00000000
     atom    3 type  2   force =     0.00000000    0.00000000    0.00000000
     atom    4 type  2   force =     0.00000000    0.00000000    0.00000000
     atom    5 type  2   force =     0.00000000    0.00000000    0.00000000
     atom    6 type  2   force =     0.00000000    0.00000000    0.00000000
     atom    7 type  2   force =     0.00000000    0.00000000    0.00000000
     atom    8 type  2   force =     0.00000000    0.00000000    0.00000000
     atom    9 type  2   force =     0.00000000    0.00000000    0.00000000
     atom   10 type  2   force =     0.00000000    0.00000000    0.00000000
     atom   11 type  2   force =     0.00000000    0.00000000    0.00000000
     atom   12 type  2   force =     0.00000000    0.00000000    0.00000000
     atom   13 type  2   force =     0.00000000    0.00000000    0.00000000
     atom   14 type  2   force =     0.00000000    0.00000000    0.00000000
     atom   15 type  2   force =     0.00000000    0.00000000    0.00000000
     atom   16 type  2   force =     0.00000000    0.00000000    0.00000000
     atom   17 type  2   force =     0.00000000    0.00000000    0.00000000
     atom   18 type  2   force =     0.00000000    0.00000000    0.00000000
     atom   19 type  2   force =     0.00000000    0.00000000    0.00000000
     atom   20 type  2   force =     0.00000000    0.00000000    0.00000000
     atom   21 type  2   force =     0.00000000    0.00000000    0.00000000
     atom   22 type  2   force =     0.00000000    0.00000000    0.00000000
     atom   23 type  2   force =     0.00000000    0.00000000    0.00000000
     atom   24 type  2   force =     0.00000000    0.00000000    0.00000000
     atom   25 type  2   force =     0.00000000    0.00000000    0.00000000
     atom   26 type  2   force =     0.00000000    0.00000000    0.00000000
     atom   27 type  2   force =     0.00000000    0.00000000    0.00000000
     atom   28 type  2   force =     0.00000000    0.00000000    0.00000000
     atom   29 type  2   force =     0.00000000    0.00000000    0.00000000
     atom   30 type  2   force =     0.00000000    0.00000000    0.00000000
     atom   31 type  2   force =     0.00000000    0.00000000    0.00000000
     atom   32 type  2   force =     0.00000000    0.00000000    0.00000000
     atom   33 type  2   force =     0.00000000    0.00000000    0.00000000
     atom   34 type  2   force =     0.00000000    0.00000000    0.00000000
     atom   35 type  2   force =     0.00000000    0.00000000    0.00000000
     atom   36 type  2   force =     0.00000000    0.00000000    0.00000000
     atom   37 type  2   force =     0.00000000    0.00000000    0.00000000
     atom   38 type  2   force =     0.00000000    0.00000000    0.00000000
     atom   39 type  2   force =     0.00000000    0.00000000    0.00000000
     atom   40 type  2   force =     0.00000000    0.00000000    0.00000000
     atom   41 type  2   force =     0.00000000    0.00000000    0.00000000
     atom   42 type  2   force =     0.00000000    0.00000000    0.00000000
     atom   43 type  2   force =     0.00000000    0.00000000    0.00000000
     atom   44 type  2   force =     0.00000000    0.00000000    0.00000000
     atom   45 type  2   force =     0.00000000    0.00000000    0.00000000
     atom   46 type  2   force =     0.00000000    0.00000000    0.00000000
     atom   47 type  2   force =     0.00000000    0.00000000    0.00000000
     atom   48 type  2   force =     0.00000000    0.00000000    0.00000000
     atom   49 type  2   force =     0.00000000    0.00000000    0.00000000
     atom   50 type  2   force =     0.00000000    0.00000000    0.00000000
     atom   51 type  2   force =     0.00000000    0.00000000    0.00000000
     atom   52 type  2   force =     0.00000000    0.00000000    0.00000000
     atom   53 type  2   force =     0.00000000    0.00000000    0.00000000
     atom   54 type  2   force =     0.00000000    0.00000000    0.00000000
     atom   55 type  2   force =     0.00000000    0.00000000    0.00000000
     atom   56 type  2   force =     0.00000000    0.00000000    0.00000000
     atom   57 type  2   force =     0.00000000    0.00000000    0.00000000
     atom   58 type  2   force =     0.00000000    0.00000000    0.00000000
     atom   59 type  2   force =     0.00000000    0.00000000    0.00000000
     atom   60 type  2   force =     0.00000000    0.00000000    0.00000000
     atom   61 type  2   force =     0.00000000    0.00000000    0.00000000
     atom   62 type  2   force =     0.00000000    0.00000000    0.00000000
     atom   63 type  2   force =     0.00000000    0.00000000    0.00000000
     The Hubbard contrib.    to forces
     atom    1 type  1   force =     0.00000000    0.00000000    0.00000000
     atom    2 type  2   force =     0.00000000    0.00000000    0.00000000
     atom    3 type  2   force =     0.00000000    0.00000000    0.00000000
     atom    4 type  2   force =     0.00000000    0.00000000    0.00000000
     atom    5 type  2   force =     0.00000000    0.00000000    0.00000000
     atom    6 type  2   force =     0.00000000    0.00000000    0.00000000
     atom    7 type  2   force =     0.00000000    0.00000000    0.00000000
     atom    8 type  2   force =     0.00000000    0.00000000    0.00000000
     atom    9 type  2   force =     0.00000000    0.00000000    0.00000000
     atom   10 type  2   force =     0.00000000    0.00000000    0.00000000
     atom   11 type  2   force =     0.00000000    0.00000000    0.00000000
     atom   12 type  2   force =     0.00000000    0.00000000    0.00000000
     atom   13 type  2   force =     0.00000000    0.00000000    0.00000000
     atom   14 type  2   force =     0.00000000    0.00000000    0.00000000
     atom   15 type  2   force =     0.00000000    0.00000000    0.00000000
     atom   16 type  2   force =     0.00000000    0.00000000    0.00000000
     atom   17 type  2   force =     0.00000000    0.00000000    0.00000000
     atom   18 type  2   force =     0.00000000    0.00000000    0.00000000
     atom   19 type  2   force =     0.00000000    0.00000000    0.00000000
     atom   20 type  2   force =     0.00000000    0.00000000    0.00000000
     atom   21 type  2   force =     0.00000000    0.00000000    0.00000000
     atom   22 type  2   force =     0.00000000    0.00000000    0.00000000
     atom   23 type  2   force =     0.00000000    0.00000000    0.00000000
     atom   24 type  2   force =     0.00000000    0.00000000    0.00000000
     atom   25 type  2   force =     0.00000000    0.00000000    0.00000000
     atom   26 type  2   force =     0.00000000    0.00000000    0.00000000
     atom   27 type  2   force =     0.00000000    0.00000000    0.00000000
     atom   28 type  2   force =     0.00000000    0.00000000    0.00000000
     atom   29 type  2   force =     0.00000000    0.00000000    0.00000000
     atom   30 type  2   force =     0.00000000    0.00000000    0.00000000
     atom   31 type  2   force =     0.00000000    0.00000000    0.00000000
     atom   32 type  2   force =     0.00000000    0.00000000    0.00000000
     atom   33 type  2   force =     0.00000000    0.00000000    0.00000000
     atom   34 type  2   force =     0.00000000    0.00000000    0.00000000
     atom   35 type  2   force =     0.00000000    0.00000000    0.00000000
     atom   36 type  2   force =     0.00000000    0.00000000    0.00000000
     atom   37 type  2   force =     0.00000000    0.00000000    0.00000000
     atom   38 type  2   force =     0.00000000    0.00000000    0.00000000
     atom   39 type  2   force =     0.00000000    0.00000000    0.00000000
     atom   40 type  2   force =     0.00000000    0.00000000    0.00000000
     atom   41 type  2   force =     0.00000000    0.00000000    0.00000000
     atom   42 type  2   force =     0.00000000    0.00000000    0.00000000
     atom   43 type  2   force =     0.00000000    0.00000000    0.00000000
     atom   44 type  2   force =     0.00000000    0.00000000    0.00000000
     atom   45 type  2   force =     0.00000000    0.00000000    0.00000000
     atom   46 type  2   force =     0.00000000    0.00000000    0.00000000
     atom   47 type  2   force =     0.00000000    0.00000000    0.00000000
     atom   48 type  2   force =     0.00000000    0.00000000    0.00000000
     atom   49 type  2   force =     0.00000000    0.00000000    0.00000000
     atom   50 type  2   force =     0.00000000    0.00000000    0.00000000
     atom   51 type  2   force =     0.00000000    0.00000000    0.00000000
     atom   52 type  2   force =     0.00000000    0.00000000    0.00000000
     atom   53 type  2   force =     0.00000000    0.00000000    0.00000000
     atom   54 type  2   force =     0.00000000    0.00000000    0.00000000
     atom   55 type  2   force =     0.00000000    0.00000000    0.00000000
     atom   56 type  2   force =     0.00000000    0.00000000    0.00000000
     atom   57 type  2   force =     0.00000000    0.00000000    0.00000000
     atom   58 type  2   force =     0.00000000    0.00000000    0.00000000
     atom   59 type  2   force =     0.00000000    0.00000000    0.00000000
     atom   60 type  2   force =     0.00000000    0.00000000    0.00000000
     atom   61 type  2   force =     0.00000000    0.00000000    0.00000000
     atom   62 type  2   force =     0.00000000    0.00000000    0.00000000
     atom   63 type  2   force =     0.00000000    0.00000000    0.00000000
     The SCF correction term to forces
     atom    1 type  1   force =    -0.00002806   -0.00002268    0.00000270
     atom    2 type  2   force =    -0.00001887   -0.00001503   -0.00000112
     atom    3 type  2   force =     0.00001226    0.00001359    0.00000769
     atom    4 type  2   force =     0.00000699   -0.00001125   -0.00000466
     atom    5 type  2   force =     0.00002421   -0.00001131   -0.00001080
     atom    6 type  2   force =     0.00001151   -0.00001795    0.00000823
     atom    7 type  2   force =     0.00002729   -0.00000434    0.00001661
     atom    8 type  2   force =    -0.00002789   -0.00002885   -0.00000279
     atom    9 type  2   force =    -0.00001726   -0.00002046    0.00000313
     atom   10 type  2   force =    -0.00003072   -0.00000862    0.00000022
     atom   11 type  2   force =    -0.00002063   -0.00000158   -0.00000487
     atom   12 type  2   force =    -0.00000042   -0.00000864    0.00000032
     atom   13 type  2   force =     0.00001819   -0.00001564    0.00000684
     atom   14 type  2   force =     0.00001856   -0.00000900   -0.00000749
     atom   15 type  2   force =     0.00002785    0.00000194   -0.00001870
     atom   16 type  2   force =    -0.00002525    0.00001995   -0.00000512
     atom   17 type  2   force =    -0.00001595    0.00002783    0.00000640
     atom   18 type  2   force =    -0.00003028    0.00001562    0.00000846
     atom   19 type  2   force =    -0.00002158   -0.00000493   -0.00000594
     atom   20 type  2   force =     0.00001837    0.00001254    0.00000496
     atom   21 type  2   force =     0.00002823    0.00000508   -0.00000239
     atom   22 type  2   force =    -0.00000432    0.00001430    0.00001150
     atom   23 type  2   force =     0.00001178    0.00000709    0.00001265
     atom   24 type  2   force =    -0.00002913    0.00002831    0.00000619
     atom   25 type  2   force =    -0.00002142    0.00001860   -0.00000611
     atom   26 type  2   force =    -0.00002349    0.00000905   -0.00000730
     atom   27 type  2   force =    -0.00001227   -0.00000361    0.00000086
     atom   28 type  2   force =    -0.00000236    0.00001193   -0.00000503
     atom   29 type  2   force =     0.00001453    0.00001719    0.00000154
     atom   30 type  2   force =    -0.00000373    0.00001173   -0.00000963
     atom   31 type  2   force =     0.00001811   -0.00000057   -0.00000586
     atom   32 type  2   force =     0.00001719   -0.00000139    0.00001266
     atom   33 type  2   force =     0.00000371   -0.00001492    0.00000680
     atom   34 type  2   force =     0.00001294   -0.00000837    0.00000384
     atom   35 type  2   force =    -0.00000673    0.00000976    0.00000476
     atom   36 type  2   force =    -0.00001036   -0.00002973    0.00001086
     atom   37 type  2   force =    -0.00003387   -0.00004470    0.00001310
     atom   38 type  2   force =    -0.00001302   -0.00000884   -0.00000908
     atom   39 type  2   force =    -0.00003397    0.00001479   -0.00001604
     atom   40 type  2   force =     0.00002842   -0.00000853   -0.00001370
     atom   41 type  2   force =     0.00001863   -0.00000893   -0.00000547
     atom   42 type  2   force =     0.00003215   -0.00001114   -0.00000384
     atom   43 type  2   force =     0.00002340   -0.00000620   -0.00000329
     atom   44 type  2   force =     0.00000217   -0.00000169   -0.00000824
     atom   45 type  2   force =    -0.00002385   -0.00000691   -0.00001154
     atom   46 type  2   force =    -0.00001645   -0.00001106    0.00001222
     atom   47 type  2   force =    -0.00002857    0.00000470    0.00001297
     atom   48 type  2   force =     0.00002456    0.00000255    0.00001553
     atom   49 type  2   force =     0.00001771    0.00001523    0.00002177
     atom   50 type  2   force =     0.00003276    0.00000960    0.00000944
     atom   51 type  2   force =     0.00002720   -0.00000891   -0.00000338
     atom   52 type  2   force =    -0.00001651    0.00003314    0.00000664
     atom   53 type  2   force =    -0.00002969    0.00003923    0.00000165
     atom   54 type  2   force =     0.00000590    0.00000920    0.00001868
     atom   55 type  2   force =    -0.00002086   -0.00001440    0.00002028
     atom   56 type  2   force =     0.00002737    0.00000762   -0.00001384
     atom   57 type  2   force =     0.00001961    0.00000909   -0.00002119
     atom   58 type  2   force =     0.00002103    0.00000959   -0.00001022
     atom   59 type  2   force =     0.00001535    0.00000546    0.00000060
     atom   60 type  2   force =     0.00000282   -0.00000070   -0.00000932
     atom   61 type  2   force =    -0.00001348    0.00000940   -0.00000158
     atom   62 type  2   force =     0.00000155    0.00000994   -0.00002161
     atom   63 type  2   force =    -0.00001686   -0.00000298   -0.00001916

     Total force =     0.126029     Total SCF correction =     0.000220

     Writing all to output data dir ./pwscf.save/ :
     XML data file, charge density, pseudopotentials, collected wavefunctions
 
     init_run     :      0.33s CPU      0.66s WALL (       1 calls)
     electrons    :     11.90s CPU     12.11s WALL (       1 calls)
     forces       :      1.77s CPU      1.78s WALL (       1 calls)

     Called by init_run:
     wfcinit      :      0.07s CPU      0.11s WALL (       1 calls)
     wfcinit:wfcr :      0.07s CPU      0.08s WALL (       1 calls)
     potinit      :      0.09s CPU      0.17s WALL (       1 calls)
     hinit0       :      0.06s CPU      0.29s WALL (       1 calls)

     Called by electrons:
     c_bands      :     10.76s CPU     10.93s WALL (      14 calls)
     sum_band     :      0.21s CPU      0.22s WALL (      14 calls)
     v_of_rho     :      0.21s CPU      0.21s WALL (      15 calls)
     v_h          :      0.00s CPU      0.00s WALL (      15 calls)
     v_xc         :      0.20s CPU      0.21s WALL (      15 calls)
     mix_rho      :      0.14s CPU      0.14s WALL (      14 calls)

     Called by c_bands:
     init_us_2    :      0.02s CPU      0.02s WALL (      30 calls)
     regterg      :      9.47s CPU      9.63s WALL (      14 calls)

     Called by sum_band:
     sum_band:wei :      0.01s CPU      0.01s WALL (      14 calls)
     sum_band:loo :      0.17s CPU      0.17s WALL (      14 calls)
     sum_band:buf :      0.00s CPU      0.00s WALL (      14 calls)
     sum_band:ini :      0.01s CPU      0.01s WALL (      14 calls)

     Called by *egterg:
     rdiaghg      :      5.07s CPU      5.18s WALL (     272 calls)
     regterg:over :      0.82s CPU      0.83s WALL (     258 calls)
     regterg:upda :      0.29s CPU      0.30s WALL (     258 calls)
     regterg:last :      0.13s CPU      0.13s WALL (      51 calls)
     rdiaghg:chol :      0.14s CPU      0.14s WALL (     272 calls)
     rdiaghg:inve :      0.03s CPU      0.03s WALL (     272 calls)
     rdiaghg:para :      0.41s CPU      0.42s WALL (     544 calls)
     h_psi        :      2.91s CPU      2.96s WALL (     273 calls)
     g_psi        :      0.00s CPU      0.00s WALL (     258 calls)

     Called by h_psi:
     h_psi:calbec :      0.71s CPU      0.73s WALL (     273 calls)
     vloc_psi     :      2.08s CPU      2.11s WALL (     273 calls)
                                        0.00s GPU  (     273 calls)
     add_vuspsi   :      0.11s CPU      0.11s WALL (     273 calls)

     General routines
     calbec       :      2.48s CPU      2.50s WALL (     277 calls)
     fft          :      0.11s CPU      0.24s WALL (     196 calls)
     ffts         :      0.00s CPU      0.00s WALL (      14 calls)
     fftw         :      2.14s CPU      2.17s WALL (   10118 calls)
 
     Parallel routines
 
     PWSCF        :     14.94s CPU     15.63s WALL

 
   This run was terminated on:  15:59:21  16Nov2025            

=------------------------------------------------------------------------------=
   JOB DONE.
=------------------------------------------------------------------------------=
