
     Program PWSCF v.7.5 starts on 16Nov2025 at 15:24:51 

     This program is part of the open-source Quantum ESPRESSO suite
     for quantum simulation of materials; please cite
         "P. Giannozzi et al., J. Phys.:Condens. Matter 21 395502 (2009);
         "P. Giannozzi et al., J. Phys.:Condens. Matter 29 465901 (2017);
         "P. Giannozzi et al., J. Chem. Phys. 152 154105 (2020);
          URL http://www.quantum-espresso.org", 
     in publications or presentations arising from this work. More details at
     http://www.quantum-espresso.org/quote

     Parallel version (MPI), running on    96 processors

     MPI processes distributed on     2 nodes
     175103 MiB available memory on the printing compute node when the environment starts
 
     Reading input from supercell-003.in

     Current dimensions of program PWSCF are:
     Max number of different atomic species (ntypx) = 10
     Max number of k-points (npk) =  40000
     Max angular momentum in pseudopotentials (lmaxx) =  4

     gamma-point specific algorithms are used
 
     K-points division:     npool     =       2
     R & G space division:  proc/nbgrp/npool/nimage =      48
     Subspace diagonalization in iterative solution of the eigenvalue problem:
     one sub-group per band group will be used
     scalapack distributed-memory algorithm (size of sub-group:  2*  2 procs)

 
     Parallelization info
     --------------------
     sticks:   dense  smooth     PW     G-vecs:    dense   smooth      PW
     Min          59      59     14                 2432     2432     302
     Max          62      62     16                 2442     2442     316
     Sum        2885    2885    725               116921   116921   14771
 
     Using Slab Decomposition
 


     bravais-lattice index     =            0
     lattice parameter (alat)  =      13.4813  a.u.
     unit-cell volume          =    2450.1683 (a.u.)^3
     number of atoms/cell      =           63
     number of atomic types    =            2
     number of electrons       =       254.00 (up: 128.00, down: 126.00)
     number of Kohn-Sham states=          152
     kinetic-energy cutoff     =      50.0000  Ry
     charge density cutoff     =     200.0000  Ry
     scf convergence threshold =      1.0E-08
     mixing beta               =       0.7000
     number of iterations used =            8  plain     mixing
     Exchange-correlation= PBE
                           (   1   4   3   4   0   0   0)

     celldm(1)=  13.481306  celldm(2)=   0.000000  celldm(3)=   0.000000
     celldm(4)=   0.000000  celldm(5)=   0.000000  celldm(6)=   0.000000

     crystal axes: (cart. coord. in units of alat)
               a(1) = (   1.000000   0.000000   0.000000 )  
               a(2) = (   0.000000   1.000000   0.000000 )  
               a(3) = (   0.000000   0.000000   1.000000 )  

     reciprocal axes: (cart. coord. in units 2 pi/alat)
               b(1) = (  1.000000  0.000000  0.000000 )  
               b(2) = (  0.000000  1.000000  0.000000 )  
               b(3) = (  0.000000  0.000000  1.000000 )  


     PseudoPot. # 1 for N  read from file:
     ./N_ONCV_PBE-1.2.upf
     MD5 check sum: 5312fdf34e96954e02a33bdc911c617a
     Pseudo is Norm-conserving, Zval =  5.0
     Generated using ONCVPSP code by D. R. Hamann
     Using radial grid of  602 points,  4 beta functions with: 
                l(1) =   0
                l(2) =   0
                l(3) =   1
                l(4) =   1

     PseudoPot. # 2 for C  read from file:
     ./C_ONCV_PBE-1.2.upf
     MD5 check sum: d60b57d9bdca4133f5fde4b584ee909d
     Pseudo is Norm-conserving, Zval =  4.0
     Generated using ONCVPSP code by D. R. Hamann
     Using radial grid of  602 points,  4 beta functions with: 
                l(1) =   0
                l(2) =   0
                l(3) =   1
                l(4) =   1

     atomic species   valence    mass     pseudopotential
     N                 5.00    14.00670     N ( 1.00)
     C                 4.00    12.01070     C ( 1.00)

     Starting magnetic structure 
     atomic species   magnetization
     N               0.000
     C               0.000

     No symmetry found


                                    s                        frac. trans.

      isym =  1     identity                                     

 cryst.   s( 1) = (     1          0          0      )
                  (     0          1          0      )
                  (     0          0          1      )

 cart.    s( 1) = (  1.0000000  0.0000000  0.0000000 )
                  (  0.0000000  1.0000000  0.0000000 )
                  (  0.0000000  0.0000000  1.0000000 )


   Cartesian axes

     site n.     atom                  positions (alat units)
         1        N      tau(   1) = (   0.9893819   0.9912179   0.9891721  )
         2        C      tau(   2) = (   0.9870277   0.2601210   0.2640728  )
         3        C      tau(   3) = (   0.1231717   0.3731672   0.3742038  )
         4        C      tau(   4) = (   0.2603919   0.9894620   0.2619202  )
         5        C      tau(   5) = (   0.3737632   0.1246771   0.3741571  )
         6        C      tau(   6) = (   0.2640151   0.2616009   0.9853609  )
         7        C      tau(   7) = (   0.3737752   0.3731213   0.1223564  )
         8        C      tau(   8) = (   0.0000049   0.0005840   0.4991361  )
         9        C      tau(   9) = (   0.1251361   0.1251278   0.6250981  )
        10        C      tau(  10) = (   0.0020393   0.2482470   0.7515266  )
        11        C      tau(  11) = (   0.1292009   0.3733021   0.8763303  )
        12        C      tau(  12) = (   0.2487801   0.0017974   0.7514403  )
        13        C      tau(  13) = (   0.3754339   0.1292460   0.8748544  )
        14        C      tau(  14) = (   0.2491579   0.2495268   0.4995755  )
        15        C      tau(  15) = (   0.3750038   0.3749547   0.6244069  )
        16        C      tau(  16) = (   0.0016366   0.4979779   0.0013734  )
        17        C      tau(  17) = (   0.1250869   0.6243147   0.1250807  )
        18        C      tau(  18) = (   0.0014462   0.7520697   0.2483230  )
        19        C      tau(  19) = (   0.1266755   0.8769178   0.3741906  )
        20        C      tau(  20) = (   0.2488290   0.4983596   0.2486760  )
        21        C      tau(  21) = (   0.3741642   0.6242659   0.3742111  )
        22        C      tau(  22) = (   0.2480673   0.7520817   0.0015447  )
        23        C      tau(  23) = (   0.3729914   0.8777475   0.1265606  )
        24        C      tau(  24) = (   0.0000493   0.5010760   0.5011299  )
        25        C      tau(  25) = (   0.1252054   0.6262200   0.6252733  )
        26        C      tau(  26) = (   0.9993969   0.7487112   0.7492532  )
        27        C      tau(  27) = (   0.1217927   0.8768349   0.8763928  )
        28        C      tau(  28) = (   0.2492749   0.5017254   0.7482724  )
        29        C      tau(  29) = (   0.3741000   0.6263042   0.8750769  )
        30        C      tau(  30) = (   0.2487293   0.7486845   0.5007616  )
        31        C      tau(  31) = (   0.3739266   0.8750581   0.6258828  )
        32        C      tau(  32) = (   0.4987543   0.0011228   0.0002828  )
        33        C      tau(  33) = (   0.6248203   0.1251003   0.1251034  )
        34        C      tau(  34) = (   0.4991217   0.2493918   0.2488717  )
        35        C      tau(  35) = (   0.6243080   0.3746888   0.3747831  )
        36        C      tau(  36) = (   0.7516460   0.0016191   0.2487956  )
        37        C      tau(  37) = (   0.8750430   0.1283649   0.3757598  )
        38        C      tau(  38) = (   0.7517475   0.2480080   0.0019610  )
        39        C      tau(  39) = (   0.8773622   0.3724247   0.1282033  )
        40        C      tau(  40) = (   0.5008161   0.9999897   0.5008301  )
        41        C      tau(  41) = (   0.6256173   0.1249721   0.6252590  )
        42        C      tau(  42) = (   0.5022259   0.2488088   0.7478265  )
        43        C      tau(  43) = (   0.6264784   0.3739683   0.8752045  )
        44        C      tau(  44) = (   0.7487945   0.9989046   0.7489691  )
        45        C      tau(  45) = (   0.8764746   0.1216998   0.8763156  )
        46        C      tau(  46) = (   0.7479635   0.2486819   0.5018806  )
        47        C      tau(  47) = (   0.8751980   0.3739245   0.6263738  )
        48        C      tau(  48) = (   0.5012000   0.5011574   0.0001136  )
        49        C      tau(  49) = (   0.6256259   0.6262099   0.1252968  )
        50        C      tau(  50) = (   0.5005188   0.7489091   0.2490095  )
        51        C      tau(  51) = (   0.6258050   0.8750157   0.3740056  )
        52        C      tau(  52) = (   0.7486304   0.5011458   0.2494302  )
        53        C      tau(  53) = (   0.8750247   0.6261269   0.3741365  )
        54        C      tau(  54) = (   0.7492281   0.7488562   0.9996087  )
        55        C      tau(  55) = (   0.8766209   0.8769033   0.1218021  )
        56        C      tau(  56) = (   0.4990819   0.4992903   0.4990317  )
        57        C      tau(  57) = (   0.6247789   0.6244471   0.6249452  )
        58        C      tau(  58) = (   0.4991767   0.7499842   0.7500845  )
        59        C      tau(  59) = (   0.6239946   0.8751464   0.8754130  )
        60        C      tau(  60) = (   0.7505316   0.4989321   0.7505826  )
        61        C      tau(  61) = (   0.8758455   0.6234984   0.8759288  )
        62        C      tau(  62) = (   0.7498244   0.7497799   0.4993198  )
        63        C      tau(  63) = (   0.8750855   0.8749084   0.6242568  )

   Crystallographic axes

     site n.     atom                  positions (cryst. coord.)
         1        N      tau(   1) = (  0.9893819  0.9912179  0.9891721  )
         2        C      tau(   2) = (  0.9870277  0.2601210  0.2640728  )
         3        C      tau(   3) = (  0.1231717  0.3731672  0.3742038  )
         4        C      tau(   4) = (  0.2603919  0.9894620  0.2619202  )
         5        C      tau(   5) = (  0.3737632  0.1246771  0.3741571  )
         6        C      tau(   6) = (  0.2640151  0.2616009  0.9853609  )
         7        C      tau(   7) = (  0.3737752  0.3731213  0.1223564  )
         8        C      tau(   8) = (  0.0000049  0.0005840  0.4991361  )
         9        C      tau(   9) = (  0.1251361  0.1251278  0.6250981  )
        10        C      tau(  10) = (  0.0020393  0.2482470  0.7515266  )
        11        C      tau(  11) = (  0.1292009  0.3733021  0.8763303  )
        12        C      tau(  12) = (  0.2487801  0.0017974  0.7514403  )
        13        C      tau(  13) = (  0.3754339  0.1292460  0.8748544  )
        14        C      tau(  14) = (  0.2491579  0.2495268  0.4995755  )
        15        C      tau(  15) = (  0.3750038  0.3749547  0.6244069  )
        16        C      tau(  16) = (  0.0016366  0.4979779  0.0013734  )
        17        C      tau(  17) = (  0.1250869  0.6243147  0.1250807  )
        18        C      tau(  18) = (  0.0014462  0.7520697  0.2483230  )
        19        C      tau(  19) = (  0.1266755  0.8769178  0.3741906  )
        20        C      tau(  20) = (  0.2488290  0.4983596  0.2486760  )
        21        C      tau(  21) = (  0.3741642  0.6242659  0.3742111  )
        22        C      tau(  22) = (  0.2480673  0.7520817  0.0015447  )
        23        C      tau(  23) = (  0.3729914  0.8777475  0.1265606  )
        24        C      tau(  24) = (  0.0000493  0.5010760  0.5011299  )
        25        C      tau(  25) = (  0.1252054  0.6262200  0.6252733  )
        26        C      tau(  26) = (  0.9993969  0.7487112  0.7492532  )
        27        C      tau(  27) = (  0.1217927  0.8768349  0.8763928  )
        28        C      tau(  28) = (  0.2492749  0.5017254  0.7482724  )
        29        C      tau(  29) = (  0.3741000  0.6263042  0.8750769  )
        30        C      tau(  30) = (  0.2487293  0.7486845  0.5007616  )
        31        C      tau(  31) = (  0.3739266  0.8750581  0.6258828  )
        32        C      tau(  32) = (  0.4987543  0.0011228  0.0002828  )
        33        C      tau(  33) = (  0.6248203  0.1251003  0.1251034  )
        34        C      tau(  34) = (  0.4991217  0.2493918  0.2488717  )
        35        C      tau(  35) = (  0.6243080  0.3746888  0.3747831  )
        36        C      tau(  36) = (  0.7516460  0.0016191  0.2487956  )
        37        C      tau(  37) = (  0.8750430  0.1283649  0.3757598  )
        38        C      tau(  38) = (  0.7517475  0.2480080  0.0019610  )
        39        C      tau(  39) = (  0.8773622  0.3724247  0.1282033  )
        40        C      tau(  40) = (  0.5008161  0.9999897  0.5008301  )
        41        C      tau(  41) = (  0.6256173  0.1249721  0.6252590  )
        42        C      tau(  42) = (  0.5022259  0.2488088  0.7478265  )
        43        C      tau(  43) = (  0.6264784  0.3739683  0.8752045  )
        44        C      tau(  44) = (  0.7487945  0.9989046  0.7489691  )
        45        C      tau(  45) = (  0.8764746  0.1216998  0.8763156  )
        46        C      tau(  46) = (  0.7479635  0.2486819  0.5018806  )
        47        C      tau(  47) = (  0.8751980  0.3739245  0.6263738  )
        48        C      tau(  48) = (  0.5012000  0.5011574  0.0001136  )
        49        C      tau(  49) = (  0.6256259  0.6262099  0.1252968  )
        50        C      tau(  50) = (  0.5005188  0.7489091  0.2490095  )
        51        C      tau(  51) = (  0.6258050  0.8750157  0.3740056  )
        52        C      tau(  52) = (  0.7486304  0.5011458  0.2494302  )
        53        C      tau(  53) = (  0.8750247  0.6261269  0.3741365  )
        54        C      tau(  54) = (  0.7492281  0.7488562  0.9996087  )
        55        C      tau(  55) = (  0.8766209  0.8769033  0.1218021  )
        56        C      tau(  56) = (  0.4990819  0.4992903  0.4990317  )
        57        C      tau(  57) = (  0.6247789  0.6244471  0.6249452  )
        58        C      tau(  58) = (  0.4991767  0.7499842  0.7500845  )
        59        C      tau(  59) = (  0.6239946  0.8751464  0.8754130  )
        60        C      tau(  60) = (  0.7505316  0.4989321  0.7505826  )
        61        C      tau(  61) = (  0.8758455  0.6234984  0.8759288  )
        62        C      tau(  62) = (  0.7498244  0.7497799  0.4993198  )
        63        C      tau(  63) = (  0.8750855  0.8749084  0.6242568  )

     number of k points=     1
                       cart. coord. in units 2pi/alat
        k(    1) = (   0.0000000   0.0000000   0.0000000), wk =   1.0000000

                       cryst. coord.
        k(    1) = (   0.0000000   0.0000000   0.0000000), wk =   1.0000000

     Dense  grid:    58461 G-vectors     FFT dimensions: (  64,  64,  64)

     Dynamical RAM for                 wfc:       0.35 MB

     Dynamical RAM for     wfc (w. buffer):       0.35 MB

     Dynamical RAM for           str. fact:       0.04 MB

     Dynamical RAM for           local pot:       0.00 MB

     Dynamical RAM for          nlocal pot:       1.17 MB

     Dynamical RAM for                qrad:       0.65 MB

     Dynamical RAM for          rho,v,vnew:       0.49 MB

     Dynamical RAM for               rhoin:       0.16 MB

     Dynamical RAM for            rho*nmix:       0.60 MB

     Dynamical RAM for           G-vectors:       0.08 MB

     Dynamical RAM for          h,s,v(r/c):       0.53 MB

     Dynamical RAM for          <psi|beta>:       0.58 MB

     Dynamical RAM for                 psi:       0.71 MB

     Dynamical RAM for                hpsi:       0.71 MB

     Dynamical RAM for      wfcinit/wfcrot:       1.24 MB

     Estimated static dynamical RAM per process >       3.37 MB

     Estimated max dynamical RAM per process >       6.49 MB

     Estimated total dynamical RAM >     594.05 MB
     Generating pointlists ...
     new r_m :   0.0850 (alat units)  1.1466 (a.u.) for type    1
     new r_m :   0.0847 (alat units)  1.1416 (a.u.) for type    2

     Initial potential from superposition of free atoms

     starting charge     252.5655, renormalised to     254.0000
     Starting wfcs are random

     total cpu time spent up to now is        2.2 secs

     Self-consistent Calculation

     iteration #  1     ecut=    50.00 Ry     beta= 0.70
     Davidson diagonalization with overlap

---- Real-time Memory Report at c_bands before calling an iterative solver
           158 MiB given to the printing process from OS
             0 MiB allocation reported by mallinfo(arena+hblkhd)
        174139 MiB available memory on the node where the printing process lives
------------------
     ethr =  1.00E-02,  avg # of iterations = 13.0

     total cpu time spent up to now is        2.9 secs

     total energy              =    -723.26218087 Ry
     estimated scf accuracy    <       3.70603090 Ry

     total magnetization       =     2.00 Bohr mag/cell
     absolute magnetization    =     2.00 Bohr mag/cell

     iteration #  2     ecut=    50.00 Ry     beta= 0.70
     Davidson diagonalization with overlap

---- Real-time Memory Report at c_bands before calling an iterative solver
           163 MiB given to the printing process from OS
             0 MiB allocation reported by mallinfo(arena+hblkhd)
        174081 MiB available memory on the node where the printing process lives
------------------
     ethr =  1.46E-03,  avg # of iterations = 14.0

     total cpu time spent up to now is        3.8 secs

     total energy              =    -723.65706702 Ry
     estimated scf accuracy    <       0.46362096 Ry

     total magnetization       =     2.00 Bohr mag/cell
     absolute magnetization    =     2.07 Bohr mag/cell

     iteration #  3     ecut=    50.00 Ry     beta= 0.70
     Davidson diagonalization with overlap

---- Real-time Memory Report at c_bands before calling an iterative solver
           164 MiB given to the printing process from OS
             0 MiB allocation reported by mallinfo(arena+hblkhd)
        174083 MiB available memory on the node where the printing process lives
------------------
     c_bands:  1 eigenvalues not converged
     ethr =  1.83E-04,  avg # of iterations = 20.0

     total cpu time spent up to now is        5.7 secs

     total energy              =    -723.72382597 Ry
     estimated scf accuracy    <       0.88320492 Ry

     total magnetization       =     2.00 Bohr mag/cell
     absolute magnetization    =     2.12 Bohr mag/cell

     iteration #  4     ecut=    50.00 Ry     beta= 0.70
     Davidson diagonalization with overlap

---- Real-time Memory Report at c_bands before calling an iterative solver
           164 MiB given to the printing process from OS
             0 MiB allocation reported by mallinfo(arena+hblkhd)
        174090 MiB available memory on the node where the printing process lives
------------------
     c_bands:  1 eigenvalues not converged
     ethr =  1.83E-04,  avg # of iterations = 20.0

     total cpu time spent up to now is        6.3 secs

     total energy              =    -723.90097488 Ry
     estimated scf accuracy    <       0.00969184 Ry

     total magnetization       =     2.00 Bohr mag/cell
     absolute magnetization    =     2.19 Bohr mag/cell

     iteration #  5     ecut=    50.00 Ry     beta= 0.70
     Davidson diagonalization with overlap

---- Real-time Memory Report at c_bands before calling an iterative solver
           164 MiB given to the printing process from OS
             0 MiB allocation reported by mallinfo(arena+hblkhd)
        174084 MiB available memory on the node where the printing process lives
------------------
     c_bands:  3 eigenvalues not converged
     ethr =  3.82E-06,  avg # of iterations = 20.0

     total cpu time spent up to now is        6.8 secs

     total energy              =    -723.90602063 Ry
     estimated scf accuracy    <       0.00409284 Ry

     total magnetization       =     2.00 Bohr mag/cell
     absolute magnetization    =     2.23 Bohr mag/cell

     iteration #  6     ecut=    50.00 Ry     beta= 0.70
     Davidson diagonalization with overlap

---- Real-time Memory Report at c_bands before calling an iterative solver
           165 MiB given to the printing process from OS
             0 MiB allocation reported by mallinfo(arena+hblkhd)
        174084 MiB available memory on the node where the printing process lives
------------------
     c_bands:  3 eigenvalues not converged
     ethr =  1.61E-06,  avg # of iterations = 20.0

     total cpu time spent up to now is        7.2 secs

     total energy              =    -723.90676332 Ry
     estimated scf accuracy    <       0.00087723 Ry

     total magnetization       =     2.00 Bohr mag/cell
     absolute magnetization    =     2.25 Bohr mag/cell

     iteration #  7     ecut=    50.00 Ry     beta= 0.70
     Davidson diagonalization with overlap

---- Real-time Memory Report at c_bands before calling an iterative solver
           165 MiB given to the printing process from OS
             0 MiB allocation reported by mallinfo(arena+hblkhd)
        174076 MiB available memory on the node where the printing process lives
------------------
     ethr =  3.45E-07,  avg # of iterations = 18.5

     total cpu time spent up to now is        7.6 secs

     total energy              =    -723.90699073 Ry
     estimated scf accuracy    <       0.00012035 Ry

     total magnetization       =     2.00 Bohr mag/cell
     absolute magnetization    =     2.27 Bohr mag/cell

     iteration #  8     ecut=    50.00 Ry     beta= 0.70
     Davidson diagonalization with overlap

---- Real-time Memory Report at c_bands before calling an iterative solver
           165 MiB given to the printing process from OS
             0 MiB allocation reported by mallinfo(arena+hblkhd)
        174080 MiB available memory on the node where the printing process lives
------------------
     ethr =  4.74E-08,  avg # of iterations = 18.5

     total cpu time spent up to now is        8.1 secs

     total energy              =    -723.90703007 Ry
     estimated scf accuracy    <       0.00002808 Ry

     total magnetization       =     2.00 Bohr mag/cell
     absolute magnetization    =     2.28 Bohr mag/cell

     iteration #  9     ecut=    50.00 Ry     beta= 0.70
     Davidson diagonalization with overlap

---- Real-time Memory Report at c_bands before calling an iterative solver
           165 MiB given to the printing process from OS
             0 MiB allocation reported by mallinfo(arena+hblkhd)
        174072 MiB available memory on the node where the printing process lives
------------------
     c_bands:  3 eigenvalues not converged
     ethr =  1.11E-08,  avg # of iterations = 20.0

     total cpu time spent up to now is        8.7 secs

     total energy              =    -723.90704039 Ry
     estimated scf accuracy    <       0.00000810 Ry

     total magnetization       =     2.00 Bohr mag/cell
     absolute magnetization    =     2.29 Bohr mag/cell

     iteration # 10     ecut=    50.00 Ry     beta= 0.70
     Davidson diagonalization with overlap

---- Real-time Memory Report at c_bands before calling an iterative solver
           165 MiB given to the printing process from OS
             0 MiB allocation reported by mallinfo(arena+hblkhd)
        174074 MiB available memory on the node where the printing process lives
------------------
     c_bands:  2 eigenvalues not converged
     ethr =  3.19E-09,  avg # of iterations = 20.0

     total cpu time spent up to now is        9.3 secs

     total energy              =    -723.90704400 Ry
     estimated scf accuracy    <       0.00000090 Ry

     total magnetization       =     2.00 Bohr mag/cell
     absolute magnetization    =     2.29 Bohr mag/cell

     iteration # 11     ecut=    50.00 Ry     beta= 0.70
     Davidson diagonalization with overlap

---- Real-time Memory Report at c_bands before calling an iterative solver
           165 MiB given to the printing process from OS
             0 MiB allocation reported by mallinfo(arena+hblkhd)
        174082 MiB available memory on the node where the printing process lives
------------------
     c_bands:  1 eigenvalues not converged
     ethr =  3.53E-10,  avg # of iterations = 20.0

     total cpu time spent up to now is       10.1 secs

     total energy              =    -723.90704465 Ry
     estimated scf accuracy    <       0.00000026 Ry

     total magnetization       =     2.00 Bohr mag/cell
     absolute magnetization    =     2.30 Bohr mag/cell

     iteration # 12     ecut=    50.00 Ry     beta= 0.70
     Davidson diagonalization with overlap

---- Real-time Memory Report at c_bands before calling an iterative solver
           165 MiB given to the printing process from OS
             0 MiB allocation reported by mallinfo(arena+hblkhd)
        174079 MiB available memory on the node where the printing process lives
------------------
     c_bands:  1 eigenvalues not converged
     ethr =  1.01E-10,  avg # of iterations = 19.5

     total cpu time spent up to now is       12.0 secs

     total energy              =    -723.90704478 Ry
     estimated scf accuracy    <       0.00000010 Ry

     total magnetization       =     2.00 Bohr mag/cell
     absolute magnetization    =     2.30 Bohr mag/cell

     iteration # 13     ecut=    50.00 Ry     beta= 0.70
     Davidson diagonalization with overlap

---- Real-time Memory Report at c_bands before calling an iterative solver
           165 MiB given to the printing process from OS
             0 MiB allocation reported by mallinfo(arena+hblkhd)
        174076 MiB available memory on the node where the printing process lives
------------------
     ethr =  3.81E-11,  avg # of iterations = 18.0

     total cpu time spent up to now is       12.6 secs

     total energy              =    -723.90704482 Ry
     estimated scf accuracy    <       0.00000003 Ry

     total magnetization       =     2.00 Bohr mag/cell
     absolute magnetization    =     2.30 Bohr mag/cell

     iteration # 14     ecut=    50.00 Ry     beta= 0.70
     Davidson diagonalization with overlap

---- Real-time Memory Report at c_bands before calling an iterative solver
           165 MiB given to the printing process from OS
             0 MiB allocation reported by mallinfo(arena+hblkhd)
        174082 MiB available memory on the node where the printing process lives
------------------
     ethr =  1.05E-11,  avg # of iterations = 17.5
 
     Magnetic moment per site  (integrated on atomic sphere of radius R)
     atom   1 (R=0.085)  charge=  2.8875  magn=  0.0042
     atom   2 (R=0.085)  charge=  1.8170  magn=  0.2452
     atom   3 (R=0.085)  charge=  1.7930  magn= -0.0087
     atom   4 (R=0.085)  charge=  1.8052  magn=  0.2450
     atom   5 (R=0.085)  charge=  1.7932  magn= -0.0087
     atom   6 (R=0.085)  charge=  1.8232  magn=  0.2452
     atom   7 (R=0.085)  charge=  1.7933  magn= -0.0087
     atom   8 (R=0.085)  charge=  1.7860  magn=  0.0091
     atom   9 (R=0.085)  charge=  1.7963  magn= -0.0019
     atom  10 (R=0.085)  charge=  1.7835  magn=  0.0060
     atom  11 (R=0.085)  charge=  1.7969  magn= -0.0043
     atom  12 (R=0.085)  charge=  1.7823  magn=  0.0061
     atom  13 (R=0.085)  charge=  1.8040  magn= -0.0039
     atom  14 (R=0.085)  charge=  1.7892  magn=  0.0085
     atom  15 (R=0.085)  charge=  1.7873  magn= -0.0020
     atom  16 (R=0.085)  charge=  1.7820  magn=  0.0089
     atom  17 (R=0.085)  charge=  1.7956  magn= -0.0018
     atom  18 (R=0.085)  charge=  1.7821  magn=  0.0057
     atom  19 (R=0.085)  charge=  1.7952  magn= -0.0035
     atom  20 (R=0.085)  charge=  1.7834  magn=  0.0083
     atom  21 (R=0.085)  charge=  1.7847  magn= -0.0020
     atom  22 (R=0.085)  charge=  1.7828  magn=  0.0057
     atom  23 (R=0.085)  charge=  1.7905  magn= -0.0037
     atom  24 (R=0.085)  charge=  1.7825  magn=  0.0183
     atom  25 (R=0.085)  charge=  1.8067  magn=  0.0094
     atom  26 (R=0.085)  charge=  1.7933  magn=  0.0032
     atom  27 (R=0.085)  charge=  1.7570  magn=  0.0001
     atom  28 (R=0.085)  charge=  1.7896  magn=  0.0222
     atom  29 (R=0.085)  charge=  1.7824  magn= -0.0013
     atom  30 (R=0.085)  charge=  1.7901  magn=  0.0211
     atom  31 (R=0.085)  charge=  1.7823  magn= -0.0013
     atom  32 (R=0.085)  charge=  1.7844  magn=  0.0090
     atom  33 (R=0.085)  charge=  1.7960  magn= -0.0019
     atom  34 (R=0.085)  charge=  1.7868  magn=  0.0085
     atom  35 (R=0.085)  charge=  1.7865  magn= -0.0020
     atom  36 (R=0.085)  charge=  1.7819  magn=  0.0059
     atom  37 (R=0.085)  charge=  1.8033  magn= -0.0036
     atom  38 (R=0.085)  charge=  1.7837  magn=  0.0059
     atom  39 (R=0.085)  charge=  1.7914  magn= -0.0041
     atom  40 (R=0.085)  charge=  1.7836  magn=  0.0180
     atom  41 (R=0.085)  charge=  1.8109  magn=  0.0094
     atom  42 (R=0.085)  charge=  1.7948  magn=  0.0219
     atom  43 (R=0.085)  charge=  1.7820  magn= -0.0013
     atom  44 (R=0.085)  charge=  1.7938  magn=  0.0032
     atom  45 (R=0.085)  charge=  1.7616  magn= -0.0000
     atom  46 (R=0.085)  charge=  1.7948  magn=  0.0215
     atom  47 (R=0.085)  charge=  1.7819  magn= -0.0013
     atom  48 (R=0.085)  charge=  1.7819  magn=  0.0184
     atom  49 (R=0.085)  charge=  1.8042  magn=  0.0094
     atom  50 (R=0.085)  charge=  1.7873  magn=  0.0212
     atom  51 (R=0.085)  charge=  1.7826  magn= -0.0013
     atom  52 (R=0.085)  charge=  1.7869  magn=  0.0219
     atom  53 (R=0.085)  charge=  1.7826  magn= -0.0013
     atom  54 (R=0.085)  charge=  1.7933  magn=  0.0032
     atom  55 (R=0.085)  charge=  1.7569  magn=  0.0001
     atom  56 (R=0.085)  charge=  1.7914  magn=  0.0009
     atom  57 (R=0.085)  charge=  1.7832  magn=  0.0010
     atom  58 (R=0.085)  charge=  1.7914  magn=  0.0018
     atom  59 (R=0.085)  charge=  1.7879  magn= -0.0009
     atom  60 (R=0.085)  charge=  1.7911  magn=  0.0017
     atom  61 (R=0.085)  charge=  1.7854  magn= -0.0009
     atom  62 (R=0.085)  charge=  1.7913  magn=  0.0019
     atom  63 (R=0.085)  charge=  1.7891  magn= -0.0009

     total cpu time spent up to now is       13.2 secs

     End of self-consistent calculation

 ------ SPIN UP ------------


          k = 0.0000 0.0000 0.0000 (  7386 PWs)   bands (ev):

    -8.5489  -6.9140  -6.2861  -6.2700  -6.1944  -6.1573  -5.8813  -4.9083
    -4.1428  -4.1293  -4.1236  -4.0936  -4.0301  -4.0196  -4.0120  -3.9183
    -3.8723  -3.8609  -3.3607  -2.9313  -2.6750  -2.6736  -2.1606  -0.3615
    -0.3518  -0.3265  -0.2820  -0.0775   0.1697   0.1971   0.2813   0.2962
     0.3669   0.6189   0.8345   0.8505   0.9526   0.9730   0.9871   1.0546
     1.0622   1.0651   1.2673   1.2966   3.0706   3.9201   3.9287   4.0721
     4.1901   4.2069   4.2226   4.2752   4.2812   4.2860   4.4222   4.4256
     4.4966   4.4986   4.5671   4.6604   4.6844   4.6896   4.6921   4.7852
     4.7960   4.9215   4.9695   4.9701   5.0493   5.2020   5.2095   5.3005
     5.3573   5.3734   5.3970   5.4033   5.4079   6.0407   6.0457   6.1013
     6.6629   6.6663   6.7267   6.9948   7.0034   7.0406   7.5243   8.3272
     8.3493   8.4106   8.4671   8.4920   8.6855   8.7118   8.7890   8.8313
     8.8470   8.8518   8.8927   8.8994   8.9027   9.2874   9.2895   9.3236
     9.6818   9.7120   9.8999   9.9117   9.9446   9.9611   9.9625   9.9775
     9.9865  10.0259  10.0377  10.0559  10.1250  10.1400  10.2696  10.3239
    10.3340  11.0424  12.2891  12.4204  12.4306  13.9545  14.6918  14.8009
    17.3383  17.3739  17.4141  17.5230  17.5765  17.5803  17.8511  17.9200
    17.9390  18.0347  18.0659  18.3695  18.9871  18.9999  19.0269  20.6884
    20.7899  20.8313  20.8781  20.9430  20.9476  21.0279  21.0313  21.0458

     occupation numbers 
     1.0000   1.0000   1.0000   1.0000   1.0000   1.0000   1.0000   1.0000
     1.0000   1.0000   1.0000   1.0000   1.0000   1.0000   1.0000   1.0000
     1.0000   1.0000   1.0000   1.0000   1.0000   1.0000   1.0000   1.0000
     1.0000   1.0000   1.0000   1.0000   1.0000   1.0000   1.0000   1.0000
     1.0000   1.0000   1.0000   1.0000   1.0000   1.0000   1.0000   1.0000
     1.0000   1.0000   1.0000   1.0000   1.0000   1.0000   1.0000   1.0000
     1.0000   1.0000   1.0000   1.0000   1.0000   1.0000   1.0000   1.0000
     1.0000   1.0000   1.0000   1.0000   1.0000   1.0000   1.0000   1.0000
     1.0000   1.0000   1.0000   1.0000   1.0000   1.0000   1.0000   1.0000
     1.0000   1.0000   1.0000   1.0000   1.0000   1.0000   1.0000   1.0000
     1.0000   1.0000   1.0000   1.0000   1.0000   1.0000   1.0000   1.0000
     1.0000   1.0000   1.0000   1.0000   1.0000   1.0000   1.0000   1.0000
     1.0000   1.0000   1.0000   1.0000   1.0000   1.0000   1.0000   1.0000
     1.0000   1.0000   1.0000   1.0000   1.0000   1.0000   1.0000   1.0000
     1.0000   1.0000   1.0000   1.0000   1.0000   1.0000   1.0000   1.0000
     1.0000   1.0000   1.0000   1.0000   1.0000   1.0000   1.0000   1.0000
     0.0000   0.0000   0.0000   0.0000   0.0000   0.0000   0.0000   0.0000
     0.0000   0.0000   0.0000   0.0000   0.0000   0.0000   0.0000   0.0000
     0.0000   0.0000   0.0000   0.0000   0.0000   0.0000   0.0000   0.0000

 ------ SPIN DOWN ----------


          k = 0.0000 0.0000 0.0000 (  7386 PWs)   bands (ev):

    -8.5234  -6.8996  -6.2639  -6.2467  -6.1496  -6.1150  -5.8442  -4.8915
    -4.1223  -4.1070  -4.0826  -4.0616  -3.9952  -3.9815  -3.9638  -3.9062
    -3.8367  -3.8206  -3.3184  -2.9127  -2.6217  -2.6205  -2.0157  -0.3439
    -0.3336  -0.3049  -0.2650  -0.0123   0.1887   0.2145   0.3186   0.3292
     0.3921   0.6537   0.8465   0.8623   0.9863   1.0031   1.0123   1.0709
     1.0786   1.0817   1.4332   1.4664   3.1843   3.9427   3.9515   4.0984
     4.2248   4.2495   4.2652   4.2898   4.2991   4.3133   4.4703   4.4719
     4.5185   4.5197   4.5908   4.6845   4.7021   4.7072   4.7132   4.8198
     4.8326   4.9347   5.0005   5.0026   5.1305   5.2359   5.2444   5.3243
     5.3723   5.3841   5.4178   5.4545   5.4692   6.1028   6.1052   6.1392
     6.6901   6.6929   6.7610   7.0779   7.0931   7.0975   7.6946   8.3654
     8.3881   8.4477   8.5034   8.5263   8.7193   8.7431   8.8248   8.8757
     8.8815   8.8895   8.9235   8.9306   8.9343   9.3239   9.3261   9.3509
     9.7099   9.7390   9.9300   9.9403   9.9561   9.9750   9.9762   9.9969
    10.0069  10.0603  10.0690  10.0777  10.1527  10.1660  10.3274  10.3784
    10.3887  11.4201  12.5586  12.5690  12.6026  14.4410  16.0183  16.1404
    17.3634  17.3916  17.4307  17.5503  17.6319  17.6372  17.8739  17.9395
    17.9572  18.0750  18.1062  18.4892  19.0434  19.0699  19.1142  20.7389
    20.8044  20.8451  20.8928  20.9602  20.9653  21.0439  21.0584  21.0645

     occupation numbers 
     1.0000   1.0000   1.0000   1.0000   1.0000   1.0000   1.0000   1.0000
     1.0000   1.0000   1.0000   1.0000   1.0000   1.0000   1.0000   1.0000
     1.0000   1.0000   1.0000   1.0000   1.0000   1.0000   1.0000   1.0000
     1.0000   1.0000   1.0000   1.0000   1.0000   1.0000   1.0000   1.0000
     1.0000   1.0000   1.0000   1.0000   1.0000   1.0000   1.0000   1.0000
     1.0000   1.0000   1.0000   1.0000   1.0000   1.0000   1.0000   1.0000
     1.0000   1.0000   1.0000   1.0000   1.0000   1.0000   1.0000   1.0000
     1.0000   1.0000   1.0000   1.0000   1.0000   1.0000   1.0000   1.0000
     1.0000   1.0000   1.0000   1.0000   1.0000   1.0000   1.0000   1.0000
     1.0000   1.0000   1.0000   1.0000   1.0000   1.0000   1.0000   1.0000
     1.0000   1.0000   1.0000   1.0000   1.0000   1.0000   1.0000   1.0000
     1.0000   1.0000   1.0000   1.0000   1.0000   1.0000   1.0000   1.0000
     1.0000   1.0000   1.0000   1.0000   1.0000   1.0000   1.0000   1.0000
     1.0000   1.0000   1.0000   1.0000   1.0000   1.0000   1.0000   1.0000
     1.0000   1.0000   1.0000   1.0000   1.0000   1.0000   1.0000   1.0000
     1.0000   1.0000   1.0000   1.0000   1.0000   1.0000   0.0000   0.0000
     0.0000   0.0000   0.0000   0.0000   0.0000   0.0000   0.0000   0.0000
     0.0000   0.0000   0.0000   0.0000   0.0000   0.0000   0.0000   0.0000
     0.0000   0.0000   0.0000   0.0000   0.0000   0.0000   0.0000   0.0000

     highest occupied, lowest unoccupied level (ev):    14.8009   16.0183

!    total energy              =    -723.90704484 Ry
     estimated scf accuracy    <          5.9E-09 Ry

     The total energy is the sum of the following terms:
     one-electron contribution =     232.38898649 Ry
     hartree contribution      =      70.28604001 Ry
     xc contribution           =    -226.76872208 Ry
     ewald contribution        =    -799.81334926 Ry

     total magnetization       =     2.00 Bohr mag/cell
     absolute magnetization    =     2.30 Bohr mag/cell

     convergence has been achieved in  14 iterations

     Forces acting on atoms (cartesian axes, Ry/au):

     atom    1 type  1   force =     0.00059401   -0.01907510    0.00074537
     atom    2 type  2   force =     0.03512914    0.01615101   -0.01216053
     atom    3 type  2   force =    -0.00925655    0.00861932    0.00623509
     atom    4 type  2   force =     0.00876053    0.02477415   -0.00282294
     atom    5 type  2   force =     0.00233560   -0.02136135    0.00165467
     atom    6 type  2   force =    -0.00794404    0.00855579    0.04331900
     atom    7 type  2   force =     0.01027969    0.01199580   -0.00209107
     atom    8 type  2   force =     0.00302456    0.00429763    0.00657181
     atom    9 type  2   force =    -0.00215337   -0.00476416   -0.00291337
     atom   10 type  2   force =     0.00048232    0.00184113    0.00680478
     atom   11 type  2   force =    -0.02870924    0.00584673   -0.00872785
     atom   12 type  2   force =     0.00016495    0.00325383    0.00308519
     atom   13 type  2   force =    -0.00285611   -0.03994133   -0.00180779
     atom   14 type  2   force =     0.00347512    0.00213877   -0.00440566
     atom   15 type  2   force =    -0.00276968   -0.00134763   -0.00569450
     atom   16 type  2   force =     0.00016740   -0.00098094   -0.00099996
     atom   17 type  2   force =    -0.00130650    0.00628770    0.00030778
     atom   18 type  2   force =     0.00337645    0.00041161    0.00029135
     atom   19 type  2   force =    -0.00910114   -0.00315932   -0.00519172
     atom   20 type  2   force =     0.00296494   -0.00438850    0.00353929
     atom   21 type  2   force =    -0.00115000   -0.00409634   -0.00213037
     atom   22 type  2   force =     0.00077239    0.00274628    0.00174576
     atom   23 type  2   force =    -0.00056238   -0.00714034   -0.00160916
     atom   24 type  2   force =     0.00954118    0.00554646    0.00431211
     atom   25 type  2   force =    -0.01207902   -0.01370857   -0.00383706
     atom   26 type  2   force =     0.01419413    0.00691921    0.00274508
     atom   27 type  2   force =    -0.02659856   -0.00428304   -0.00618386
     atom   28 type  2   force =     0.01055431    0.00061218    0.00590645
     atom   29 type  2   force =    -0.00024188   -0.00158932   -0.00145233
     atom   30 type  2   force =     0.00771409    0.00655981    0.00413761
     atom   31 type  2   force =     0.00116450   -0.00148324   -0.00362128
     atom   32 type  2   force =     0.00322077    0.00386657    0.00142359
     atom   33 type  2   force =     0.00061123   -0.00442600   -0.00019347
     atom   34 type  2   force =    -0.00474768    0.00170139    0.00362323
     atom   35 type  2   force =    -0.00500295   -0.00090460   -0.00329599
     atom   36 type  2   force =     0.00032658    0.00371385    0.00008983
     atom   37 type  2   force =     0.00071257   -0.03266559   -0.00716472
     atom   38 type  2   force =     0.00636984    0.00224398   -0.00068695
     atom   39 type  2   force =    -0.01000609    0.00601910   -0.01379221
     atom   40 type  2   force =     0.00538526    0.01268136    0.00497756
     atom   41 type  2   force =    -0.00737347   -0.01558761   -0.00365640
     atom   42 type  2   force =    -0.00016423    0.01739594    0.00605964
     atom   43 type  2   force =    -0.00098323    0.00080994   -0.00088155
     atom   44 type  2   force =     0.00436927    0.01687981    0.00275921
     atom   45 type  2   force =    -0.00960483   -0.02297793   -0.00882080
     atom   46 type  2   force =     0.00650389    0.01606270    0.00107753
     atom   47 type  2   force =    -0.00106623    0.00133188   -0.00192898
     atom   48 type  2   force =     0.00488953    0.00569464    0.00768425
     atom   49 type  2   force =    -0.00779481   -0.01398158   -0.00990219
     atom   50 type  2   force =     0.00427133    0.00668380    0.00347213
     atom   51 type  2   force =    -0.00406137   -0.00169410    0.00039549
     atom   52 type  2   force =     0.00647266    0.00201619    0.00497936
     atom   53 type  2   force =    -0.00183780   -0.00295297   -0.00049238
     atom   54 type  2   force =     0.00365188    0.00622336    0.01328615
     atom   55 type  2   force =    -0.00687421   -0.00419159   -0.02583419
     atom   56 type  2   force =     0.00477216    0.00464413    0.00472161
     atom   57 type  2   force =    -0.00171641   -0.00068502   -0.00223887
     atom   58 type  2   force =     0.00145292    0.00406961    0.00332896
     atom   59 type  2   force =    -0.00127953   -0.00268169   -0.00380338
     atom   60 type  2   force =     0.00260999    0.00190447    0.00231027
     atom   61 type  2   force =    -0.00348668   -0.00197812   -0.00392776
     atom   62 type  2   force =     0.00406085    0.00449609    0.00113014
     atom   63 type  2   force =    -0.00364810   -0.00295028   -0.00045097
     The non-local contrib.  to forces
     atom    1 type  1   force =    -0.77276683   -0.78580273   -0.77088971
     atom    2 type  2   force =    -0.16481794    0.22089023    0.17844772
     atom    3 type  2   force =     0.05667830    0.08133150    0.07264245
     atom    4 type  2   force =     0.21511291   -0.18864552    0.19785948
     atom    5 type  2   force =     0.07299500    0.04266768    0.07020959
     atom    6 type  2   force =     0.17982761    0.20470346   -0.14654168
     atom    7 type  2   force =     0.07744747    0.08333541    0.06423112
     atom    8 type  2   force =    -0.00446430   -0.00461071    0.05675247
     atom    9 type  2   force =    -0.00562286   -0.00787054    0.01312979
     atom   10 type  2   force =    -0.04390741   -0.01275681   -0.01283156
     atom   11 type  2   force =    -0.10392233    0.06775052   -0.08305983
     atom   12 type  2   force =    -0.01665716   -0.04125226   -0.01528569
     atom   13 type  2   force =     0.05218269   -0.11646943   -0.07330611
     atom   14 type  2   force =     0.00258371    0.00067909    0.04559626
     atom   15 type  2   force =     0.01004727    0.00920814   -0.00368290
     atom   16 type  2   force =    -0.01244065    0.04883182   -0.01319386
     atom   17 type  2   force =    -0.00454609    0.02720747   -0.00318418
     atom   18 type  2   force =    -0.04135393   -0.02105703   -0.01687887
     atom   19 type  2   force =    -0.08131144   -0.07930173    0.05526620
     atom   20 type  2   force =     0.00440311    0.04481794    0.00497603
     atom   21 type  2   force =     0.01071904   -0.00322690    0.01117420
     atom   22 type  2   force =    -0.01564719   -0.01921677   -0.04290565
     atom   23 type  2   force =     0.06348975   -0.08482058   -0.07294143
     atom   24 type  2   force =    -0.06458361    0.03382456    0.03406865
     atom   25 type  2   force =    -0.02491132    0.00086648    0.01471122
     atom   26 type  2   force =    -0.04063463   -0.01878079   -0.02152556
     atom   27 type  2   force =    -0.14725792    0.12863806    0.12304256
     atom   28 type  2   force =     0.07991311    0.02348854   -0.01256575
     atom   29 type  2   force =     0.00019648    0.01871714    0.00516366
     atom   30 type  2   force =     0.07663654   -0.01346408    0.02908642
     atom   31 type  2   force =     0.00355615    0.00297808    0.01636159
     atom   32 type  2   force =     0.05289124   -0.00663557   -0.00725186
     atom   33 type  2   force =     0.01812492   -0.00738855   -0.00378518
     atom   34 type  2   force =     0.04475796    0.00127052    0.00372648
     atom   35 type  2   force =    -0.00347392    0.00903494    0.01034849
     atom   36 type  2   force =    -0.01909240   -0.04053891   -0.01721372
     atom   37 type  2   force =    -0.07168052   -0.10859835    0.04786239
     atom   38 type  2   force =    -0.01484037   -0.01210771   -0.04474523
     atom   39 type  2   force =    -0.08668694    0.07148605   -0.08752265
     atom   40 type  2   force =     0.03501782   -0.05847885    0.03550159
     atom   41 type  2   force =     0.00918335   -0.02628426    0.01433786
     atom   42 type  2   force =     0.02082900    0.08885864   -0.00971963
     atom   43 type  2   force =     0.01670312    0.00070874    0.00381376
     atom   44 type  2   force =    -0.02353049   -0.03814982   -0.02435613
     atom   45 type  2   force =     0.12248871   -0.14242424    0.12184266
     atom   46 type  2   force =    -0.00983546    0.08710553    0.02302807
     atom   47 type  2   force =     0.00322126    0.00165881    0.01574632
     atom   48 type  2   force =     0.03346504    0.03368676   -0.06826908
     atom   49 type  2   force =     0.00931670    0.00058477   -0.02336812
     atom   50 type  2   force =     0.02986770   -0.01484502    0.07138999
     atom   51 type  2   force =     0.01675331    0.00337529    0.00359604
     atom   52 type  2   force =    -0.01410205    0.02653930    0.07293137
     atom   53 type  2   force =     0.00497906    0.01819061    0.00117324
     atom   54 type  2   force =    -0.02057824   -0.01865678   -0.04269020
     atom   55 type  2   force =     0.12296486    0.12792714   -0.14661844
     atom   56 type  2   force =     0.02283046    0.02408498    0.02206097
     atom   57 type  2   force =     0.00519720    0.00505001    0.00538806
     atom   58 type  2   force =     0.01615541   -0.00654809   -0.00985641
     atom   59 type  2   force =     0.00803397   -0.01459411   -0.01530346
     atom   60 type  2   force =    -0.01024806    0.01829968   -0.01142685
     atom   61 type  2   force =    -0.01504736    0.00893705   -0.01555863
     atom   62 type  2   force =    -0.00818068   -0.00605245    0.01524122
     atom   63 type  2   force =    -0.01560991   -0.01538287    0.00862590
     The ionic contribution  to forces
     atom    1 type  1   force =     3.02901453    2.86910107    3.04298267
     atom    2 type  2   force =     2.41227121   -2.05522887   -2.20768323
     atom    3 type  2   force =     0.48135633   -0.72750585   -0.85124102
     atom    4 type  2   force =    -2.09011501    2.32841442   -2.15749420
     atom    5 type  2   force =    -0.77813691    0.39981146   -0.82561025
     atom    6 type  2   force =    -2.17902256   -2.09375824    2.45990249
     atom    7 type  2   force =    -0.82282264   -0.74639581    0.53767569
     atom    8 type  2   force =     0.25682033    0.21146984   -0.72708498
     atom    9 type  2   force =     0.06739898    0.02401226   -0.22762116
     atom   10 type  2   force =     0.18055235    0.07754062    0.55509935
     atom   11 type  2   force =    -0.52490244   -0.61807827    0.80076828
     atom   12 type  2   force =     0.02898848    0.15375483    0.55010503
     atom   13 type  2   force =    -0.66015863   -0.56859261    0.76013566
     atom   14 type  2   force =    -0.19342141   -0.17979065   -0.71495928
     atom   15 type  2   force =    -0.16840998   -0.12920082   -0.06865365
     atom   16 type  2   force =     0.20009019   -0.76375127    0.22537126
     atom   17 type  2   force =     0.06799063   -0.14715417    0.09042359
     atom   18 type  2   force =     0.22253711    0.47348671   -0.00808387
     atom   19 type  2   force =    -0.36298708    0.74547878   -0.70924695
     atom   20 type  2   force =    -0.18100027   -0.72689359   -0.19047406
     atom   21 type  2   force =    -0.17492136   -0.05664974   -0.20069192
     atom   22 type  2   force =     0.01722479    0.48277835    0.23671457
     atom   23 type  2   force =    -0.69100350    0.77542118   -0.33270838
     atom   24 type  2   force =     0.10605440   -0.13374343   -0.17061911
     atom   25 type  2   force =    -0.02651118   -0.07661903   -0.06867146
     atom   26 type  2   force =     0.12971564   -0.08791203   -0.03748536
     atom   27 type  2   force =     1.10272109    0.24140142    0.28249567
     atom   28 type  2   force =    -0.08211922   -0.13216873    0.11302048
     atom   29 type  2   force =    -0.15601570    0.03380527    0.25758628
     atom   30 type  2   force =    -0.02065961    0.13821666   -0.23464413
     atom   31 type  2   force =    -0.15368133    0.17140847   -0.00763590
     atom   32 type  2   force =    -0.74359126    0.19168216    0.26220371
     atom   33 type  2   force =    -0.20548029    0.02723735    0.09281862
     atom   34 type  2   force =    -0.71787858   -0.17584315   -0.19850731
     atom   35 type  2   force =    -0.06397773   -0.13248370   -0.19752120
     atom   36 type  2   force =     0.51463542    0.16827723    0.00355927
     atom   37 type  2   force =     0.73532793   -0.50240243   -0.68928660
     atom   38 type  2   force =     0.52868383    0.07764129    0.20946149
     atom   39 type  2   force =     0.80564218   -0.62857562   -0.42807277
     atom   40 type  2   force =    -0.19671864    0.06079608   -0.20981651
     atom   41 type  2   force =    -0.07133127   -0.08910434   -0.06929156
     atom   42 type  2   force =    -0.13134017    0.02719737    0.08826880
     atom   43 type  2   force =     0.03135225   -0.11106586    0.25337663
     atom   44 type  2   force =    -0.07211321    0.11520929   -0.05472415
     atom   45 type  2   force =     0.20554550    1.16845710    0.20984026
     atom   46 type  2   force =     0.09904969    0.05087968   -0.17007887
     atom   47 type  2   force =     0.22283811   -0.11133641    0.01505242
     atom   48 type  2   force =    -0.13179089   -0.10802949    0.13769042
     atom   49 type  2   force =    -0.07308066   -0.07873775    0.00646067
     atom   50 type  2   force =    -0.23646904    0.15303624   -0.08376211
     atom   51 type  2   force =    -0.00912422    0.17292183   -0.18099518
     atom   52 type  2   force =     0.13913681   -0.17333857   -0.12175168
     atom   53 type  2   force =     0.22869304    0.01607341   -0.18357237
     atom   54 type  2   force =    -0.05157471   -0.08482203    0.13842929
     atom   55 type  2   force =     0.27707332    0.24029609    1.09411491
     atom   56 type  2   force =    -0.09105531   -0.02873892   -0.12468222
     atom   57 type  2   force =    -0.02198651   -0.03316363   -0.01887787
     atom   58 type  2   force =    -0.07660011    0.04811970    0.04100603
     atom   59 type  2   force =    -0.28139354    0.07375140    0.15516793
     atom   60 type  2   force =     0.06023573   -0.03180544    0.05905492
     atom   61 type  2   force =     0.13474534   -0.29226508    0.16213690
     atom   62 type  2   force =     0.03106334    0.03696619   -0.09921415
     atom   63 type  2   force =     0.12463641    0.07051176   -0.27015982
     The local contribution  to forces
     atom    1 type  1   force =    -2.25571376   -2.10237648   -2.27140585
     atom    2 type  2   force =    -2.21239249    1.85047488    2.01701770
     atom    3 type  2   force =    -0.54739195    0.65474759    0.78476872
     atom    4 type  2   force =     1.88366865   -2.11501040    1.95675928
     atom    5 type  2   force =     0.70737064   -0.46385262    0.75701167
     atom    6 type  2   force =     1.99115438    1.89760004   -2.27010568
     atom    7 type  2   force =     0.75554378    0.67502781   -0.60407286
     atom    8 type  2   force =    -0.24939138   -0.20256288    0.67685221
     atom    9 type  2   force =    -0.06399856   -0.02091346    0.21152318
     atom   10 type  2   force =    -0.13621895   -0.06296363   -0.53551441
     atom   11 type  2   force =     0.60005042    0.55614319   -0.72648468
     atom   12 type  2   force =    -0.01225094   -0.10926886   -0.53178642
     atom   13 type  2   force =     0.60501880    0.64510946   -0.68869888
     atom   14 type  2   force =     0.19421054    0.18123101    0.66491049
     atom   15 type  2   force =     0.15548358    0.11861088    0.06660893
     atom   16 type  2   force =    -0.18754333    0.71388106   -0.21322779
     atom   17 type  2   force =    -0.06482275    0.12616731   -0.08699589
     atom   18 type  2   force =    -0.17786600   -0.45207003    0.02518988
     atom   19 type  2   force =     0.43512751   -0.66936461    0.64874094
     atom   20 type  2   force =     0.17945784    0.67763585    0.18897432
     atom   21 type  2   force =     0.16294148    0.05573516    0.18733556
     atom   22 type  2   force =    -0.00088610   -0.46086653   -0.19213388
     atom   23 type  2   force =     0.62685787   -0.69778023    0.40396625
     atom   24 type  2   force =    -0.03199016    0.10540235    0.14080135
     atom   25 type  2   force =     0.03927696    0.06198709    0.05007661
     atom   26 type  2   force =    -0.07495134    0.11356669    0.06170919
     atom   27 type  2   force =    -0.98213657   -0.37435052   -0.41177755
     atom   28 type  2   force =     0.01267961    0.10924505   -0.09459532
     atom   29 type  2   force =     0.15548020   -0.05416790   -0.26425990
     atom   30 type  2   force =    -0.04834524   -0.11824174    0.20965342
     atom   31 type  2   force =     0.15118922   -0.17590259   -0.01239152
     atom   32 type  2   force =     0.69382287   -0.18120684   -0.25359853
     atom   33 type  2   force =     0.18788229   -0.02428750   -0.08929164
     atom   34 type  2   force =     0.66827823    0.17625439    0.19834286
     atom   35 type  2   force =     0.06237409    0.12250195    0.18381762
     atom   36 type  2   force =    -0.49528868   -0.12402315    0.01367521
     atom   37 type  2   force =    -0.66298641    0.57835288    0.63418778
     atom   38 type  2   force =    -0.50754432   -0.06331051   -0.16544980
     atom   39 type  2   force =    -0.72901205    0.56305942    0.50176297
     atom   40 type  2   force =     0.16697641    0.01034364    0.17925370
     atom   41 type  2   force =     0.05467251    0.09978463    0.05125058
     atom   42 type  2   force =     0.11023272   -0.09867628   -0.07253833
     atom   43 type  2   force =    -0.04914582    0.11114121   -0.25812408
     atom   44 type  2   force =     0.09992679   -0.06020830    0.08179591
     atom   45 type  2   force =    -0.33769994   -1.04903136   -0.34054440
     atom   46 type  2   force =    -0.08277852   -0.12193788    0.14806122
     atom   47 type  2   force =    -0.22718450    0.11097490   -0.03279502
     atom   48 type  2   force =     0.10310802    0.07999735   -0.06181111
     atom   49 type  2   force =     0.05586990    0.06411747    0.00692574
     atom   50 type  2   force =     0.21076120   -0.13155409    0.01577818
     atom   51 type  2   force =    -0.01179680   -0.17801582    0.17774254
     atom   52 type  2   force =    -0.11862817    0.14874609    0.05373816
     atom   53 type  2   force =    -0.23556630   -0.03729484    0.18185136
     atom   54 type  2   force =     0.07571458    0.10965741   -0.08252861
     atom   55 type  2   force =    -0.40697752   -0.37243073   -0.97340738
     atom   56 type  2   force =     0.07288952    0.00925360    0.10730467
     atom   57 type  2   force =     0.01497214    0.02738164    0.01122009
     atom   58 type  2   force =     0.06179557   -0.03754937   -0.02786339
     atom   59 type  2   force =     0.27198157   -0.06187758   -0.14372359
     atom   60 type  2   force =    -0.04746644    0.01537584   -0.04536346
     atom   61 type  2   force =    -0.12325787    0.28130299   -0.15056083
     atom   62 type  2   force =    -0.01890677   -0.02646596    0.08507129
     atom   63 type  2   force =    -0.11274359   -0.05811119    0.26104885
     The core correction contribution to forces
     atom    1 type  1   force =     0.00000000    0.00000000    0.00000000
     atom    2 type  2   force =     0.00000000    0.00000000    0.00000000
     atom    3 type  2   force =     0.00000000    0.00000000    0.00000000
     atom    4 type  2   force =     0.00000000    0.00000000    0.00000000
     atom    5 type  2   force =     0.00000000    0.00000000    0.00000000
     atom    6 type  2   force =     0.00000000    0.00000000    0.00000000
     atom    7 type  2   force =     0.00000000    0.00000000    0.00000000
     atom    8 type  2   force =     0.00000000    0.00000000    0.00000000
     atom    9 type  2   force =     0.00000000    0.00000000    0.00000000
     atom   10 type  2   force =     0.00000000    0.00000000    0.00000000
     atom   11 type  2   force =     0.00000000    0.00000000    0.00000000
     atom   12 type  2   force =     0.00000000    0.00000000    0.00000000
     atom   13 type  2   force =     0.00000000    0.00000000    0.00000000
     atom   14 type  2   force =     0.00000000    0.00000000    0.00000000
     atom   15 type  2   force =     0.00000000    0.00000000    0.00000000
     atom   16 type  2   force =     0.00000000    0.00000000    0.00000000
     atom   17 type  2   force =     0.00000000    0.00000000    0.00000000
     atom   18 type  2   force =     0.00000000    0.00000000    0.00000000
     atom   19 type  2   force =     0.00000000    0.00000000    0.00000000
     atom   20 type  2   force =     0.00000000    0.00000000    0.00000000
     atom   21 type  2   force =     0.00000000    0.00000000    0.00000000
     atom   22 type  2   force =     0.00000000    0.00000000    0.00000000
     atom   23 type  2   force =     0.00000000    0.00000000    0.00000000
     atom   24 type  2   force =     0.00000000    0.00000000    0.00000000
     atom   25 type  2   force =     0.00000000    0.00000000    0.00000000
     atom   26 type  2   force =     0.00000000    0.00000000    0.00000000
     atom   27 type  2   force =     0.00000000    0.00000000    0.00000000
     atom   28 type  2   force =     0.00000000    0.00000000    0.00000000
     atom   29 type  2   force =     0.00000000    0.00000000    0.00000000
     atom   30 type  2   force =     0.00000000    0.00000000    0.00000000
     atom   31 type  2   force =     0.00000000    0.00000000    0.00000000
     atom   32 type  2   force =     0.00000000    0.00000000    0.00000000
     atom   33 type  2   force =     0.00000000    0.00000000    0.00000000
     atom   34 type  2   force =     0.00000000    0.00000000    0.00000000
     atom   35 type  2   force =     0.00000000    0.00000000    0.00000000
     atom   36 type  2   force =     0.00000000    0.00000000    0.00000000
     atom   37 type  2   force =     0.00000000    0.00000000    0.00000000
     atom   38 type  2   force =     0.00000000    0.00000000    0.00000000
     atom   39 type  2   force =     0.00000000    0.00000000    0.00000000
     atom   40 type  2   force =     0.00000000    0.00000000    0.00000000
     atom   41 type  2   force =     0.00000000    0.00000000    0.00000000
     atom   42 type  2   force =     0.00000000    0.00000000    0.00000000
     atom   43 type  2   force =     0.00000000    0.00000000    0.00000000
     atom   44 type  2   force =     0.00000000    0.00000000    0.00000000
     atom   45 type  2   force =     0.00000000    0.00000000    0.00000000
     atom   46 type  2   force =     0.00000000    0.00000000    0.00000000
     atom   47 type  2   force =     0.00000000    0.00000000    0.00000000
     atom   48 type  2   force =     0.00000000    0.00000000    0.00000000
     atom   49 type  2   force =     0.00000000    0.00000000    0.00000000
     atom   50 type  2   force =     0.00000000    0.00000000    0.00000000
     atom   51 type  2   force =     0.00000000    0.00000000    0.00000000
     atom   52 type  2   force =     0.00000000    0.00000000    0.00000000
     atom   53 type  2   force =     0.00000000    0.00000000    0.00000000
     atom   54 type  2   force =     0.00000000    0.00000000    0.00000000
     atom   55 type  2   force =     0.00000000    0.00000000    0.00000000
     atom   56 type  2   force =     0.00000000    0.00000000    0.00000000
     atom   57 type  2   force =     0.00000000    0.00000000    0.00000000
     atom   58 type  2   force =     0.00000000    0.00000000    0.00000000
     atom   59 type  2   force =     0.00000000    0.00000000    0.00000000
     atom   60 type  2   force =     0.00000000    0.00000000    0.00000000
     atom   61 type  2   force =     0.00000000    0.00000000    0.00000000
     atom   62 type  2   force =     0.00000000    0.00000000    0.00000000
     atom   63 type  2   force =     0.00000000    0.00000000    0.00000000
     The Hubbard contrib.    to forces
     atom    1 type  1   force =     0.00000000    0.00000000    0.00000000
     atom    2 type  2   force =     0.00000000    0.00000000    0.00000000
     atom    3 type  2   force =     0.00000000    0.00000000    0.00000000
     atom    4 type  2   force =     0.00000000    0.00000000    0.00000000
     atom    5 type  2   force =     0.00000000    0.00000000    0.00000000
     atom    6 type  2   force =     0.00000000    0.00000000    0.00000000
     atom    7 type  2   force =     0.00000000    0.00000000    0.00000000
     atom    8 type  2   force =     0.00000000    0.00000000    0.00000000
     atom    9 type  2   force =     0.00000000    0.00000000    0.00000000
     atom   10 type  2   force =     0.00000000    0.00000000    0.00000000
     atom   11 type  2   force =     0.00000000    0.00000000    0.00000000
     atom   12 type  2   force =     0.00000000    0.00000000    0.00000000
     atom   13 type  2   force =     0.00000000    0.00000000    0.00000000
     atom   14 type  2   force =     0.00000000    0.00000000    0.00000000
     atom   15 type  2   force =     0.00000000    0.00000000    0.00000000
     atom   16 type  2   force =     0.00000000    0.00000000    0.00000000
     atom   17 type  2   force =     0.00000000    0.00000000    0.00000000
     atom   18 type  2   force =     0.00000000    0.00000000    0.00000000
     atom   19 type  2   force =     0.00000000    0.00000000    0.00000000
     atom   20 type  2   force =     0.00000000    0.00000000    0.00000000
     atom   21 type  2   force =     0.00000000    0.00000000    0.00000000
     atom   22 type  2   force =     0.00000000    0.00000000    0.00000000
     atom   23 type  2   force =     0.00000000    0.00000000    0.00000000
     atom   24 type  2   force =     0.00000000    0.00000000    0.00000000
     atom   25 type  2   force =     0.00000000    0.00000000    0.00000000
     atom   26 type  2   force =     0.00000000    0.00000000    0.00000000
     atom   27 type  2   force =     0.00000000    0.00000000    0.00000000
     atom   28 type  2   force =     0.00000000    0.00000000    0.00000000
     atom   29 type  2   force =     0.00000000    0.00000000    0.00000000
     atom   30 type  2   force =     0.00000000    0.00000000    0.00000000
     atom   31 type  2   force =     0.00000000    0.00000000    0.00000000
     atom   32 type  2   force =     0.00000000    0.00000000    0.00000000
     atom   33 type  2   force =     0.00000000    0.00000000    0.00000000
     atom   34 type  2   force =     0.00000000    0.00000000    0.00000000
     atom   35 type  2   force =     0.00000000    0.00000000    0.00000000
     atom   36 type  2   force =     0.00000000    0.00000000    0.00000000
     atom   37 type  2   force =     0.00000000    0.00000000    0.00000000
     atom   38 type  2   force =     0.00000000    0.00000000    0.00000000
     atom   39 type  2   force =     0.00000000    0.00000000    0.00000000
     atom   40 type  2   force =     0.00000000    0.00000000    0.00000000
     atom   41 type  2   force =     0.00000000    0.00000000    0.00000000
     atom   42 type  2   force =     0.00000000    0.00000000    0.00000000
     atom   43 type  2   force =     0.00000000    0.00000000    0.00000000
     atom   44 type  2   force =     0.00000000    0.00000000    0.00000000
     atom   45 type  2   force =     0.00000000    0.00000000    0.00000000
     atom   46 type  2   force =     0.00000000    0.00000000    0.00000000
     atom   47 type  2   force =     0.00000000    0.00000000    0.00000000
     atom   48 type  2   force =     0.00000000    0.00000000    0.00000000
     atom   49 type  2   force =     0.00000000    0.00000000    0.00000000
     atom   50 type  2   force =     0.00000000    0.00000000    0.00000000
     atom   51 type  2   force =     0.00000000    0.00000000    0.00000000
     atom   52 type  2   force =     0.00000000    0.00000000    0.00000000
     atom   53 type  2   force =     0.00000000    0.00000000    0.00000000
     atom   54 type  2   force =     0.00000000    0.00000000    0.00000000
     atom   55 type  2   force =     0.00000000    0.00000000    0.00000000
     atom   56 type  2   force =     0.00000000    0.00000000    0.00000000
     atom   57 type  2   force =     0.00000000    0.00000000    0.00000000
     atom   58 type  2   force =     0.00000000    0.00000000    0.00000000
     atom   59 type  2   force =     0.00000000    0.00000000    0.00000000
     atom   60 type  2   force =     0.00000000    0.00000000    0.00000000
     atom   61 type  2   force =     0.00000000    0.00000000    0.00000000
     atom   62 type  2   force =     0.00000000    0.00000000    0.00000000
     atom   63 type  2   force =     0.00000000    0.00000000    0.00000000
     The SCF correction term to forces
     atom    1 type  1   force =    -0.00002447   -0.00002957    0.00000317
     atom    2 type  2   force =    -0.00001619   -0.00001782    0.00000218
     atom    3 type  2   force =     0.00001622    0.00001348    0.00000984
     atom    4 type  2   force =     0.00000942   -0.00001696   -0.00000259
     atom    5 type  2   force =     0.00002232   -0.00002047   -0.00001144
     atom    6 type  2   force =     0.00001198   -0.00002206    0.00000877
     atom    7 type  2   force =     0.00002653   -0.00000422    0.00001989
     atom    8 type  2   force =    -0.00002464   -0.00003122   -0.00000299
     atom    9 type  2   force =    -0.00001548   -0.00002501   -0.00000028
     atom   10 type  2   force =    -0.00002822   -0.00001165   -0.00000370
     atom   11 type  2   force =    -0.00001944   -0.00000131   -0.00000672
     atom   12 type  2   force =     0.00000001   -0.00001247   -0.00000282
     atom   13 type  2   force =     0.00001648   -0.00002135    0.00000645
     atom   14 type  2   force =     0.00001773   -0.00001328   -0.00000823
     atom   15 type  2   force =     0.00002490    0.00000156   -0.00002198
     atom   16 type  2   force =    -0.00002336    0.00002485   -0.00000467
     atom   17 type  2   force =    -0.00001285    0.00003450    0.00000916
     atom   18 type  2   force =    -0.00002529    0.00001936    0.00000910
     atom   19 type  2   force =    -0.00001468   -0.00000436   -0.00000701
     atom   20 type  2   force =     0.00001971    0.00001870    0.00000790
     atom   21 type  2   force =     0.00002629    0.00001254   -0.00000330
     atom   22 type  2   force =    -0.00000366    0.00001863    0.00001561
     atom   23 type  2   force =     0.00000895    0.00000669    0.00001930
     atom   24 type  2   force =    -0.00002399    0.00003038    0.00000612
     atom   25 type  2   force =    -0.00001803    0.00002428   -0.00000853
     atom   26 type  2   force =    -0.00002009    0.00001273   -0.00000829
     atom   27 type  2   force =    -0.00000970   -0.00000461    0.00000037
     atom   28 type  2   force =    -0.00000375    0.00001473   -0.00000805
     atom   29 type  2   force =     0.00001258    0.00002357    0.00000253
     atom   30 type  2   force =    -0.00000215    0.00001637   -0.00001320
     atom   31 type  2   force =     0.00001591    0.00000020   -0.00001054
     atom   32 type  2   force =     0.00001337   -0.00000578    0.00001517
     atom   33 type  2   force =    -0.00000024   -0.00001990    0.00000963
     atom   34 type  2   force =     0.00001016   -0.00001297    0.00000611
     atom   35 type  2   force =    -0.00000994    0.00000960    0.00000399
     atom   36 type  2   force =    -0.00001231   -0.00003391    0.00001397
     atom   37 type  2   force =    -0.00003299   -0.00005029    0.00001662
     atom   38 type  2   force =    -0.00001386   -0.00001168   -0.00000851
     atom   39 type  2   force =    -0.00003384    0.00001665   -0.00001486
     atom   40 type  2   force =     0.00002512   -0.00001211   -0.00001632
     atom   41 type  2   force =     0.00001740   -0.00001623   -0.00000838
     atom   42 type  2   force =     0.00002966   -0.00001638   -0.00000630
     atom   43 type  2   force =     0.00002267   -0.00000674   -0.00000295
     atom   44 type  2   force =     0.00000162   -0.00000396   -0.00001152
     atom   45 type  2   force =    -0.00002365   -0.00001204   -0.00001442
     atom   46 type  2   force =    -0.00001637   -0.00001723    0.00001201
     atom   47 type  2   force =    -0.00002566    0.00000199    0.00001220
     atom   48 type  2   force =     0.00002281    0.00000741    0.00001891
     atom   49 type  2   force =     0.00001469    0.00002133    0.00002442
     atom   50 type  2   force =     0.00002692    0.00001407    0.00001097
     atom   51 type  2   force =     0.00002179   -0.00000800   -0.00000301
     atom   52 type  2   force =    -0.00001848    0.00003677    0.00000642
     atom   53 type  2   force =    -0.00002816    0.00004525    0.00000029
     atom   54 type  2   force =     0.00000570    0.00001216    0.00002057
     atom   55 type  2   force =    -0.00001942   -0.00001669    0.00002162
     atom   56 type  2   force =     0.00002295    0.00001188   -0.00001691
     atom   57 type  2   force =     0.00001621    0.00001437   -0.00002426
     atom   58 type  2   force =     0.00001751    0.00001476   -0.00001236
     atom   59 type  2   force =     0.00001391    0.00000600    0.00000064
     atom   60 type  2   force =     0.00000420    0.00000178   -0.00000944
     atom   61 type  2   force =    -0.00001135    0.00001432   -0.00000029
     atom   62 type  2   force =     0.00000041    0.00001572   -0.00002332
     atom   63 type  2   force =    -0.00001555   -0.00000058   -0.00002099

     Total force =     0.127237     Total SCF correction =     0.000232

     Writing all to output data dir ./pwscf.save/ :
     XML data file, charge density, pseudopotentials, collected wavefunctions
 
     init_run     :      0.94s CPU      1.00s WALL (       1 calls)
     electrons    :     10.77s CPU     11.03s WALL (       1 calls)
     forces       :      0.36s CPU      0.36s WALL (       1 calls)

     Called by init_run:
     wfcinit      :      0.09s CPU      0.11s WALL (       1 calls)
     wfcinit:wfcr :      0.09s CPU      0.10s WALL (       1 calls)
     potinit      :      0.62s CPU      0.64s WALL (       1 calls)
     hinit0       :      0.09s CPU      0.10s WALL (       1 calls)

     Called by electrons:
     c_bands      :      9.35s CPU      9.54s WALL (      14 calls)
     sum_band     :      0.40s CPU      0.41s WALL (      14 calls)
     v_of_rho     :      0.41s CPU      0.42s WALL (      15 calls)
     v_h          :      0.03s CPU      0.03s WALL (      15 calls)
     v_xc         :      0.39s CPU      0.39s WALL (      15 calls)
     mix_rho      :      0.08s CPU      0.08s WALL (      14 calls)

     Called by c_bands:
     init_us_2    :      0.02s CPU      0.03s WALL (      30 calls)
     regterg      :      8.58s CPU      8.76s WALL (      14 calls)

     Called by sum_band:
     sum_band:wei :      0.02s CPU      0.02s WALL (      14 calls)
     sum_band:loo :      0.34s CPU      0.34s WALL (      14 calls)
     sum_band:buf :      0.00s CPU      0.00s WALL (      14 calls)
     sum_band:ini :      0.01s CPU      0.01s WALL (      14 calls)

     Called by *egterg:
     rdiaghg      :      4.29s CPU      4.41s WALL (     273 calls)
     regterg:over :      0.34s CPU      0.35s WALL (     259 calls)
     regterg:upda :      0.29s CPU      0.29s WALL (     259 calls)
     regterg:last :      0.16s CPU      0.16s WALL (      51 calls)
     rdiaghg:chol :      0.14s CPU      0.15s WALL (     273 calls)
     rdiaghg:inve :      0.03s CPU      0.03s WALL (     273 calls)
     rdiaghg:para :      0.43s CPU      0.45s WALL (     546 calls)
     h_psi        :      3.40s CPU      3.44s WALL (     274 calls)
     g_psi        :      0.00s CPU      0.00s WALL (     259 calls)

     Called by h_psi:
     h_psi:calbec :      1.08s CPU      1.10s WALL (     274 calls)
     vloc_psi     :      2.20s CPU      2.23s WALL (     274 calls)
                                        0.00s GPU  (     274 calls)
     add_vuspsi   :      0.11s CPU      0.11s WALL (     274 calls)

     General routines
     calbec       :      1.36s CPU      1.37s WALL (     278 calls)
     fft          :      0.24s CPU      0.25s WALL (     196 calls)
     ffts         :      0.02s CPU      0.02s WALL (      14 calls)
     fftw         :      2.43s CPU      2.46s WALL (   10150 calls)
 
     Parallel routines
 
     PWSCF        :     14.06s CPU     14.52s WALL

 
   This run was terminated on:  15:25: 6  16Nov2025            

=------------------------------------------------------------------------------=
   JOB DONE.
=------------------------------------------------------------------------------=
