
     Program PWSCF v.7.5 starts on 16Nov2025 at 16:15:59 

     This program is part of the open-source Quantum ESPRESSO suite
     for quantum simulation of materials; please cite
         "P. Giannozzi et al., J. Phys.:Condens. Matter 21 395502 (2009);
         "P. Giannozzi et al., J. Phys.:Condens. Matter 29 465901 (2017);
         "P. Giannozzi et al., J. Chem. Phys. 152 154105 (2020);
          URL http://www.quantum-espresso.org", 
     in publications or presentations arising from this work. More details at
     http://www.quantum-espresso.org/quote

     Parallel version (MPI), running on    96 processors

     MPI processes distributed on     2 nodes
     174699 MiB available memory on the printing compute node when the environment starts
 
     Reading input from supercell-165.in

     Current dimensions of program PWSCF are:
     Max number of different atomic species (ntypx) = 10
     Max number of k-points (npk) =  40000
     Max angular momentum in pseudopotentials (lmaxx) =  4

     gamma-point specific algorithms are used
 
     K-points division:     npool     =       2
     R & G space division:  proc/nbgrp/npool/nimage =      48
     Subspace diagonalization in iterative solution of the eigenvalue problem:
     one sub-group per band group will be used
     scalapack distributed-memory algorithm (size of sub-group:  2*  2 procs)

 
     Parallelization info
     --------------------
     sticks:   dense  smooth     PW     G-vecs:    dense   smooth      PW
     Min          59      59     14                 2432     2432     302
     Max          62      62     16                 2442     2442     316
     Sum        2885    2885    725               116921   116921   14771
 
     Using Slab Decomposition
 


     bravais-lattice index     =            0
     lattice parameter (alat)  =      13.4813  a.u.
     unit-cell volume          =    2450.1683 (a.u.)^3
     number of atoms/cell      =           63
     number of atomic types    =            2
     number of electrons       =       254.00 (up: 128.00, down: 126.00)
     number of Kohn-Sham states=          152
     kinetic-energy cutoff     =      50.0000  Ry
     charge density cutoff     =     200.0000  Ry
     scf convergence threshold =      1.0E-08
     mixing beta               =       0.7000
     number of iterations used =            8  plain     mixing
     Exchange-correlation= PBE
                           (   1   4   3   4   0   0   0)

     celldm(1)=  13.481306  celldm(2)=   0.000000  celldm(3)=   0.000000
     celldm(4)=   0.000000  celldm(5)=   0.000000  celldm(6)=   0.000000

     crystal axes: (cart. coord. in units of alat)
               a(1) = (   1.000000   0.000000   0.000000 )  
               a(2) = (   0.000000   1.000000   0.000000 )  
               a(3) = (   0.000000   0.000000   1.000000 )  

     reciprocal axes: (cart. coord. in units 2 pi/alat)
               b(1) = (  1.000000  0.000000  0.000000 )  
               b(2) = (  0.000000  1.000000  0.000000 )  
               b(3) = (  0.000000  0.000000  1.000000 )  


     PseudoPot. # 1 for N  read from file:
     ./N_ONCV_PBE-1.2.upf
     MD5 check sum: 5312fdf34e96954e02a33bdc911c617a
     Pseudo is Norm-conserving, Zval =  5.0
     Generated using ONCVPSP code by D. R. Hamann
     Using radial grid of  602 points,  4 beta functions with: 
                l(1) =   0
                l(2) =   0
                l(3) =   1
                l(4) =   1

     PseudoPot. # 2 for C  read from file:
     ./C_ONCV_PBE-1.2.upf
     MD5 check sum: d60b57d9bdca4133f5fde4b584ee909d
     Pseudo is Norm-conserving, Zval =  4.0
     Generated using ONCVPSP code by D. R. Hamann
     Using radial grid of  602 points,  4 beta functions with: 
                l(1) =   0
                l(2) =   0
                l(3) =   1
                l(4) =   1

     atomic species   valence    mass     pseudopotential
     N                 5.00    14.00670     N ( 1.00)
     C                 4.00    12.01070     C ( 1.00)

     Starting magnetic structure 
     atomic species   magnetization
     N               0.000
     C               0.000

     No symmetry found


                                    s                        frac. trans.

      isym =  1     identity                                     

 cryst.   s( 1) = (     1          0          0      )
                  (     0          1          0      )
                  (     0          0          1      )

 cart.    s( 1) = (  1.0000000  0.0000000  0.0000000 )
                  (  0.0000000  1.0000000  0.0000000 )
                  (  0.0000000  0.0000000  1.0000000 )


   Cartesian axes

     site n.     atom                  positions (alat units)
         1        N      tau(   1) = (   0.9893819   0.9897344   0.9891721  )
         2        C      tau(   2) = (   0.9870277   0.2601210   0.2640728  )
         3        C      tau(   3) = (   0.1231717   0.3731672   0.3742038  )
         4        C      tau(   4) = (   0.2603919   0.9894620   0.2619202  )
         5        C      tau(   5) = (   0.3737632   0.1246771   0.3741571  )
         6        C      tau(   6) = (   0.2640151   0.2616009   0.9853609  )
         7        C      tau(   7) = (   0.3737752   0.3731213   0.1223564  )
         8        C      tau(   8) = (   0.0000049   0.0005840   0.4991361  )
         9        C      tau(   9) = (   0.1251361   0.1251278   0.6250981  )
        10        C      tau(  10) = (   0.0020393   0.2482470   0.7515266  )
        11        C      tau(  11) = (   0.1292009   0.3733021   0.8763303  )
        12        C      tau(  12) = (   0.2487801   0.0017974   0.7514403  )
        13        C      tau(  13) = (   0.3754339   0.1292460   0.8748544  )
        14        C      tau(  14) = (   0.2491579   0.2495268   0.4995755  )
        15        C      tau(  15) = (   0.3750038   0.3749547   0.6244069  )
        16        C      tau(  16) = (   0.0016366   0.4979779   0.0013734  )
        17        C      tau(  17) = (   0.1250869   0.6243147   0.1250807  )
        18        C      tau(  18) = (   0.0014462   0.7520697   0.2483230  )
        19        C      tau(  19) = (   0.1266755   0.8769178   0.3741906  )
        20        C      tau(  20) = (   0.2488290   0.4983596   0.2486760  )
        21        C      tau(  21) = (   0.3741642   0.6242659   0.3742111  )
        22        C      tau(  22) = (   0.2480673   0.7520817   0.0015447  )
        23        C      tau(  23) = (   0.3729914   0.8777475   0.1265606  )
        24        C      tau(  24) = (   0.0000493   0.5010760   0.5011299  )
        25        C      tau(  25) = (   0.1252054   0.6262200   0.6252733  )
        26        C      tau(  26) = (   0.9993969   0.7487112   0.7492532  )
        27        C      tau(  27) = (   0.1217927   0.8768349   0.8763928  )
        28        C      tau(  28) = (   0.2492749   0.5032089   0.7482724  )
        29        C      tau(  29) = (   0.3741000   0.6263042   0.8750769  )
        30        C      tau(  30) = (   0.2487293   0.7486845   0.5007616  )
        31        C      tau(  31) = (   0.3739266   0.8750581   0.6258828  )
        32        C      tau(  32) = (   0.4987543   0.0011228   0.0002828  )
        33        C      tau(  33) = (   0.6248203   0.1251003   0.1251034  )
        34        C      tau(  34) = (   0.4991217   0.2493918   0.2488717  )
        35        C      tau(  35) = (   0.6243080   0.3746888   0.3747831  )
        36        C      tau(  36) = (   0.7516460   0.0016191   0.2487956  )
        37        C      tau(  37) = (   0.8750430   0.1283649   0.3757598  )
        38        C      tau(  38) = (   0.7517475   0.2480080   0.0019610  )
        39        C      tau(  39) = (   0.8773622   0.3724247   0.1282033  )
        40        C      tau(  40) = (   0.5008161   0.9999897   0.5008301  )
        41        C      tau(  41) = (   0.6256173   0.1249721   0.6252590  )
        42        C      tau(  42) = (   0.5022259   0.2488088   0.7478265  )
        43        C      tau(  43) = (   0.6264784   0.3739683   0.8752045  )
        44        C      tau(  44) = (   0.7487945   0.9989046   0.7489691  )
        45        C      tau(  45) = (   0.8764746   0.1216998   0.8763156  )
        46        C      tau(  46) = (   0.7479635   0.2486819   0.5018806  )
        47        C      tau(  47) = (   0.8751980   0.3739245   0.6263738  )
        48        C      tau(  48) = (   0.5012000   0.5011574   0.0001136  )
        49        C      tau(  49) = (   0.6256259   0.6262099   0.1252968  )
        50        C      tau(  50) = (   0.5005188   0.7489091   0.2490095  )
        51        C      tau(  51) = (   0.6258050   0.8750157   0.3740056  )
        52        C      tau(  52) = (   0.7486304   0.5011458   0.2494302  )
        53        C      tau(  53) = (   0.8750247   0.6261269   0.3741365  )
        54        C      tau(  54) = (   0.7492281   0.7488562   0.9996087  )
        55        C      tau(  55) = (   0.8766209   0.8769033   0.1218021  )
        56        C      tau(  56) = (   0.4990819   0.4992903   0.4990317  )
        57        C      tau(  57) = (   0.6247789   0.6244471   0.6249452  )
        58        C      tau(  58) = (   0.4991767   0.7499842   0.7500845  )
        59        C      tau(  59) = (   0.6239946   0.8751464   0.8754130  )
        60        C      tau(  60) = (   0.7505316   0.4989321   0.7505826  )
        61        C      tau(  61) = (   0.8758455   0.6234984   0.8759288  )
        62        C      tau(  62) = (   0.7498244   0.7497799   0.4993198  )
        63        C      tau(  63) = (   0.8750855   0.8749084   0.6242568  )

   Crystallographic axes

     site n.     atom                  positions (cryst. coord.)
         1        N      tau(   1) = (  0.9893819  0.9897344  0.9891721  )
         2        C      tau(   2) = (  0.9870277  0.2601210  0.2640728  )
         3        C      tau(   3) = (  0.1231717  0.3731672  0.3742038  )
         4        C      tau(   4) = (  0.2603919  0.9894620  0.2619202  )
         5        C      tau(   5) = (  0.3737632  0.1246771  0.3741571  )
         6        C      tau(   6) = (  0.2640151  0.2616009  0.9853609  )
         7        C      tau(   7) = (  0.3737752  0.3731213  0.1223564  )
         8        C      tau(   8) = (  0.0000049  0.0005840  0.4991361  )
         9        C      tau(   9) = (  0.1251361  0.1251278  0.6250981  )
        10        C      tau(  10) = (  0.0020393  0.2482470  0.7515266  )
        11        C      tau(  11) = (  0.1292009  0.3733021  0.8763303  )
        12        C      tau(  12) = (  0.2487801  0.0017974  0.7514403  )
        13        C      tau(  13) = (  0.3754339  0.1292460  0.8748544  )
        14        C      tau(  14) = (  0.2491579  0.2495268  0.4995755  )
        15        C      tau(  15) = (  0.3750038  0.3749547  0.6244069  )
        16        C      tau(  16) = (  0.0016366  0.4979779  0.0013734  )
        17        C      tau(  17) = (  0.1250869  0.6243147  0.1250807  )
        18        C      tau(  18) = (  0.0014462  0.7520697  0.2483230  )
        19        C      tau(  19) = (  0.1266755  0.8769178  0.3741906  )
        20        C      tau(  20) = (  0.2488290  0.4983596  0.2486760  )
        21        C      tau(  21) = (  0.3741642  0.6242659  0.3742111  )
        22        C      tau(  22) = (  0.2480673  0.7520817  0.0015447  )
        23        C      tau(  23) = (  0.3729914  0.8777475  0.1265606  )
        24        C      tau(  24) = (  0.0000493  0.5010760  0.5011299  )
        25        C      tau(  25) = (  0.1252054  0.6262200  0.6252733  )
        26        C      tau(  26) = (  0.9993969  0.7487112  0.7492532  )
        27        C      tau(  27) = (  0.1217927  0.8768349  0.8763928  )
        28        C      tau(  28) = (  0.2492749  0.5032089  0.7482724  )
        29        C      tau(  29) = (  0.3741000  0.6263042  0.8750769  )
        30        C      tau(  30) = (  0.2487293  0.7486845  0.5007616  )
        31        C      tau(  31) = (  0.3739266  0.8750581  0.6258828  )
        32        C      tau(  32) = (  0.4987543  0.0011228  0.0002828  )
        33        C      tau(  33) = (  0.6248203  0.1251003  0.1251034  )
        34        C      tau(  34) = (  0.4991217  0.2493918  0.2488717  )
        35        C      tau(  35) = (  0.6243080  0.3746888  0.3747831  )
        36        C      tau(  36) = (  0.7516460  0.0016191  0.2487956  )
        37        C      tau(  37) = (  0.8750430  0.1283649  0.3757598  )
        38        C      tau(  38) = (  0.7517475  0.2480080  0.0019610  )
        39        C      tau(  39) = (  0.8773622  0.3724247  0.1282033  )
        40        C      tau(  40) = (  0.5008161  0.9999897  0.5008301  )
        41        C      tau(  41) = (  0.6256173  0.1249721  0.6252590  )
        42        C      tau(  42) = (  0.5022259  0.2488088  0.7478265  )
        43        C      tau(  43) = (  0.6264784  0.3739683  0.8752045  )
        44        C      tau(  44) = (  0.7487945  0.9989046  0.7489691  )
        45        C      tau(  45) = (  0.8764746  0.1216998  0.8763156  )
        46        C      tau(  46) = (  0.7479635  0.2486819  0.5018806  )
        47        C      tau(  47) = (  0.8751980  0.3739245  0.6263738  )
        48        C      tau(  48) = (  0.5012000  0.5011574  0.0001136  )
        49        C      tau(  49) = (  0.6256259  0.6262099  0.1252968  )
        50        C      tau(  50) = (  0.5005188  0.7489091  0.2490095  )
        51        C      tau(  51) = (  0.6258050  0.8750157  0.3740056  )
        52        C      tau(  52) = (  0.7486304  0.5011458  0.2494302  )
        53        C      tau(  53) = (  0.8750247  0.6261269  0.3741365  )
        54        C      tau(  54) = (  0.7492281  0.7488562  0.9996087  )
        55        C      tau(  55) = (  0.8766209  0.8769033  0.1218021  )
        56        C      tau(  56) = (  0.4990819  0.4992903  0.4990317  )
        57        C      tau(  57) = (  0.6247789  0.6244471  0.6249452  )
        58        C      tau(  58) = (  0.4991767  0.7499842  0.7500845  )
        59        C      tau(  59) = (  0.6239946  0.8751464  0.8754130  )
        60        C      tau(  60) = (  0.7505316  0.4989321  0.7505826  )
        61        C      tau(  61) = (  0.8758455  0.6234984  0.8759288  )
        62        C      tau(  62) = (  0.7498244  0.7497799  0.4993198  )
        63        C      tau(  63) = (  0.8750855  0.8749084  0.6242568  )

     number of k points=     1
                       cart. coord. in units 2pi/alat
        k(    1) = (   0.0000000   0.0000000   0.0000000), wk =   1.0000000

                       cryst. coord.
        k(    1) = (   0.0000000   0.0000000   0.0000000), wk =   1.0000000

     Dense  grid:    58461 G-vectors     FFT dimensions: (  64,  64,  64)

     Dynamical RAM for                 wfc:       0.35 MB

     Dynamical RAM for     wfc (w. buffer):       0.35 MB

     Dynamical RAM for           str. fact:       0.04 MB

     Dynamical RAM for           local pot:       0.00 MB

     Dynamical RAM for          nlocal pot:       1.17 MB

     Dynamical RAM for                qrad:       0.65 MB

     Dynamical RAM for          rho,v,vnew:       0.49 MB

     Dynamical RAM for               rhoin:       0.16 MB

     Dynamical RAM for            rho*nmix:       0.60 MB

     Dynamical RAM for           G-vectors:       0.08 MB

     Dynamical RAM for          h,s,v(r/c):       0.53 MB

     Dynamical RAM for          <psi|beta>:       0.58 MB

     Dynamical RAM for                 psi:       0.71 MB

     Dynamical RAM for                hpsi:       0.71 MB

     Dynamical RAM for      wfcinit/wfcrot:       1.24 MB

     Estimated static dynamical RAM per process >       3.37 MB

     Estimated max dynamical RAM per process >       6.49 MB

     Estimated total dynamical RAM >     594.05 MB
     Generating pointlists ...
     new r_m :   0.0854 (alat units)  1.1518 (a.u.) for type    1
     new r_m :   0.0847 (alat units)  1.1416 (a.u.) for type    2

     Initial potential from superposition of free atoms

     starting charge     252.5655, renormalised to     254.0000
     Starting wfcs are random

     total cpu time spent up to now is        2.0 secs

     Self-consistent Calculation

     iteration #  1     ecut=    50.00 Ry     beta= 0.70
     Davidson diagonalization with overlap

---- Real-time Memory Report at c_bands before calling an iterative solver
           159 MiB given to the printing process from OS
             0 MiB allocation reported by mallinfo(arena+hblkhd)
        173702 MiB available memory on the node where the printing process lives
------------------
     ethr =  1.00E-02,  avg # of iterations = 12.0

     total cpu time spent up to now is        2.7 secs

     total energy              =    -723.26650610 Ry
     estimated scf accuracy    <       3.70855190 Ry

     total magnetization       =     2.00 Bohr mag/cell
     absolute magnetization    =     2.00 Bohr mag/cell

     iteration #  2     ecut=    50.00 Ry     beta= 0.70
     Davidson diagonalization with overlap

---- Real-time Memory Report at c_bands before calling an iterative solver
           165 MiB given to the printing process from OS
             0 MiB allocation reported by mallinfo(arena+hblkhd)
        173646 MiB available memory on the node where the printing process lives
------------------
     ethr =  1.46E-03,  avg # of iterations = 12.0

     total cpu time spent up to now is        3.3 secs

     total energy              =    -723.66121288 Ry
     estimated scf accuracy    <       0.45533619 Ry

     total magnetization       =     2.00 Bohr mag/cell
     absolute magnetization    =     2.08 Bohr mag/cell

     iteration #  3     ecut=    50.00 Ry     beta= 0.70
     Davidson diagonalization with overlap

---- Real-time Memory Report at c_bands before calling an iterative solver
           166 MiB given to the printing process from OS
             0 MiB allocation reported by mallinfo(arena+hblkhd)
        173653 MiB available memory on the node where the printing process lives
------------------
     c_bands:  1 eigenvalues not converged
     ethr =  1.79E-04,  avg # of iterations = 20.0

     total cpu time spent up to now is        4.3 secs

     total energy              =    -723.72763957 Ry
     estimated scf accuracy    <       0.86072938 Ry

     total magnetization       =     2.00 Bohr mag/cell
     absolute magnetization    =     2.12 Bohr mag/cell

     iteration #  4     ecut=    50.00 Ry     beta= 0.70
     Davidson diagonalization with overlap

---- Real-time Memory Report at c_bands before calling an iterative solver
           166 MiB given to the printing process from OS
             0 MiB allocation reported by mallinfo(arena+hblkhd)
        173646 MiB available memory on the node where the printing process lives
------------------
     c_bands:  1 eigenvalues not converged
     ethr =  1.79E-04,  avg # of iterations = 20.0

     total cpu time spent up to now is        5.6 secs

     total energy              =    -723.90115279 Ry
     estimated scf accuracy    <       0.00954580 Ry

     total magnetization       =     2.00 Bohr mag/cell
     absolute magnetization    =     2.19 Bohr mag/cell

     iteration #  5     ecut=    50.00 Ry     beta= 0.70
     Davidson diagonalization with overlap

---- Real-time Memory Report at c_bands before calling an iterative solver
           166 MiB given to the printing process from OS
             0 MiB allocation reported by mallinfo(arena+hblkhd)
        173639 MiB available memory on the node where the printing process lives
------------------
     c_bands:  3 eigenvalues not converged
     ethr =  3.76E-06,  avg # of iterations = 20.0

     total cpu time spent up to now is        7.3 secs

     total energy              =    -723.90607041 Ry
     estimated scf accuracy    <       0.00423544 Ry

     total magnetization       =     2.00 Bohr mag/cell
     absolute magnetization    =     2.23 Bohr mag/cell

     iteration #  6     ecut=    50.00 Ry     beta= 0.70
     Davidson diagonalization with overlap

---- Real-time Memory Report at c_bands before calling an iterative solver
           166 MiB given to the printing process from OS
             0 MiB allocation reported by mallinfo(arena+hblkhd)
        173631 MiB available memory on the node where the printing process lives
------------------
     c_bands:  3 eigenvalues not converged
     ethr =  1.67E-06,  avg # of iterations = 20.0

     total cpu time spent up to now is        8.4 secs

     total energy              =    -723.90682224 Ry
     estimated scf accuracy    <       0.00087623 Ry

     total magnetization       =     2.00 Bohr mag/cell
     absolute magnetization    =     2.25 Bohr mag/cell

     iteration #  7     ecut=    50.00 Ry     beta= 0.70
     Davidson diagonalization with overlap

---- Real-time Memory Report at c_bands before calling an iterative solver
           167 MiB given to the printing process from OS
             0 MiB allocation reported by mallinfo(arena+hblkhd)
        173647 MiB available memory on the node where the printing process lives
------------------
     ethr =  3.45E-07,  avg # of iterations = 18.0

     total cpu time spent up to now is        9.5 secs

     total energy              =    -723.90705092 Ry
     estimated scf accuracy    <       0.00012372 Ry

     total magnetization       =     2.00 Bohr mag/cell
     absolute magnetization    =     2.27 Bohr mag/cell

     iteration #  8     ecut=    50.00 Ry     beta= 0.70
     Davidson diagonalization with overlap

---- Real-time Memory Report at c_bands before calling an iterative solver
           167 MiB given to the printing process from OS
             0 MiB allocation reported by mallinfo(arena+hblkhd)
        173644 MiB available memory on the node where the printing process lives
------------------
     c_bands:  1 eigenvalues not converged
     ethr =  4.87E-08,  avg # of iterations = 20.0

     total cpu time spent up to now is       10.1 secs

     total energy              =    -723.90709139 Ry
     estimated scf accuracy    <       0.00002934 Ry

     total magnetization       =     2.00 Bohr mag/cell
     absolute magnetization    =     2.28 Bohr mag/cell

     iteration #  9     ecut=    50.00 Ry     beta= 0.70
     Davidson diagonalization with overlap

---- Real-time Memory Report at c_bands before calling an iterative solver
           167 MiB given to the printing process from OS
             0 MiB allocation reported by mallinfo(arena+hblkhd)
        173644 MiB available memory on the node where the printing process lives
------------------
     c_bands:  3 eigenvalues not converged
     ethr =  1.16E-08,  avg # of iterations = 20.0

     total cpu time spent up to now is       10.8 secs

     total energy              =    -723.90710174 Ry
     estimated scf accuracy    <       0.00000793 Ry

     total magnetization       =     2.00 Bohr mag/cell
     absolute magnetization    =     2.29 Bohr mag/cell

     iteration # 10     ecut=    50.00 Ry     beta= 0.70
     Davidson diagonalization with overlap

---- Real-time Memory Report at c_bands before calling an iterative solver
           167 MiB given to the printing process from OS
             0 MiB allocation reported by mallinfo(arena+hblkhd)
        173638 MiB available memory on the node where the printing process lives
------------------
     c_bands:  2 eigenvalues not converged
     ethr =  3.12E-09,  avg # of iterations = 20.0

     total cpu time spent up to now is       11.4 secs

     total energy              =    -723.90710536 Ry
     estimated scf accuracy    <       0.00000090 Ry

     total magnetization       =     2.00 Bohr mag/cell
     absolute magnetization    =     2.29 Bohr mag/cell

     iteration # 11     ecut=    50.00 Ry     beta= 0.70
     Davidson diagonalization with overlap

---- Real-time Memory Report at c_bands before calling an iterative solver
           167 MiB given to the printing process from OS
             0 MiB allocation reported by mallinfo(arena+hblkhd)
        173648 MiB available memory on the node where the printing process lives
------------------
     c_bands:  1 eigenvalues not converged
     ethr =  3.54E-10,  avg # of iterations = 20.0

     total cpu time spent up to now is       12.0 secs

     total energy              =    -723.90710602 Ry
     estimated scf accuracy    <       0.00000027 Ry

     total magnetization       =     2.00 Bohr mag/cell
     absolute magnetization    =     2.30 Bohr mag/cell

     iteration # 12     ecut=    50.00 Ry     beta= 0.70
     Davidson diagonalization with overlap

---- Real-time Memory Report at c_bands before calling an iterative solver
           167 MiB given to the printing process from OS
             0 MiB allocation reported by mallinfo(arena+hblkhd)
        173644 MiB available memory on the node where the printing process lives
------------------
     ethr =  1.05E-10,  avg # of iterations = 18.5

     total cpu time spent up to now is       12.8 secs

     total energy              =    -723.90710615 Ry
     estimated scf accuracy    <       0.00000011 Ry

     total magnetization       =     2.00 Bohr mag/cell
     absolute magnetization    =     2.30 Bohr mag/cell

     iteration # 13     ecut=    50.00 Ry     beta= 0.70
     Davidson diagonalization with overlap

---- Real-time Memory Report at c_bands before calling an iterative solver
           167 MiB given to the printing process from OS
             0 MiB allocation reported by mallinfo(arena+hblkhd)
        173641 MiB available memory on the node where the printing process lives
------------------
     ethr =  4.17E-11,  avg # of iterations = 18.5

     total cpu time spent up to now is       13.4 secs

     total energy              =    -723.90710619 Ry
     estimated scf accuracy    <       0.00000003 Ry

     total magnetization       =     2.00 Bohr mag/cell
     absolute magnetization    =     2.30 Bohr mag/cell

     iteration # 14     ecut=    50.00 Ry     beta= 0.70
     Davidson diagonalization with overlap

---- Real-time Memory Report at c_bands before calling an iterative solver
           167 MiB given to the printing process from OS
             0 MiB allocation reported by mallinfo(arena+hblkhd)
        173643 MiB available memory on the node where the printing process lives
------------------
     ethr =  1.04E-11,  avg # of iterations = 18.5
 
     Magnetic moment per site  (integrated on atomic sphere of radius R)
     atom   1 (R=0.085)  charge=  2.9142  magn=  0.0042
     atom   2 (R=0.085)  charge=  1.8170  magn=  0.2449
     atom   3 (R=0.085)  charge=  1.7930  magn= -0.0086
     atom   4 (R=0.085)  charge=  1.8051  magn=  0.2456
     atom   5 (R=0.085)  charge=  1.7932  magn= -0.0087
     atom   6 (R=0.085)  charge=  1.8231  magn=  0.2445
     atom   7 (R=0.085)  charge=  1.7933  magn= -0.0086
     atom   8 (R=0.085)  charge=  1.7860  magn=  0.0091
     atom   9 (R=0.085)  charge=  1.7963  magn= -0.0019
     atom  10 (R=0.085)  charge=  1.7832  magn=  0.0060
     atom  11 (R=0.085)  charge=  1.7950  magn= -0.0044
     atom  12 (R=0.085)  charge=  1.7823  magn=  0.0061
     atom  13 (R=0.085)  charge=  1.8039  magn= -0.0039
     atom  14 (R=0.085)  charge=  1.7892  magn=  0.0085
     atom  15 (R=0.085)  charge=  1.7854  magn= -0.0020
     atom  16 (R=0.085)  charge=  1.7821  magn=  0.0090
     atom  17 (R=0.085)  charge=  1.7956  magn= -0.0018
     atom  18 (R=0.085)  charge=  1.7822  magn=  0.0057
     atom  19 (R=0.085)  charge=  1.7953  magn= -0.0035
     atom  20 (R=0.085)  charge=  1.7834  magn=  0.0083
     atom  21 (R=0.085)  charge=  1.7847  magn= -0.0020
     atom  22 (R=0.085)  charge=  1.7830  magn=  0.0057
     atom  23 (R=0.085)  charge=  1.7905  magn= -0.0037
     atom  24 (R=0.085)  charge=  1.7824  magn=  0.0182
     atom  25 (R=0.085)  charge=  1.8087  magn=  0.0092
     atom  26 (R=0.085)  charge=  1.7936  magn=  0.0033
     atom  27 (R=0.085)  charge=  1.7589  magn=  0.0000
     atom  28 (R=0.085)  charge=  1.7901  magn=  0.0225
     atom  29 (R=0.085)  charge=  1.7843  magn= -0.0014
     atom  30 (R=0.085)  charge=  1.7902  magn=  0.0212
     atom  31 (R=0.085)  charge=  1.7823  magn= -0.0013
     atom  32 (R=0.085)  charge=  1.7844  magn=  0.0090
     atom  33 (R=0.085)  charge=  1.7960  magn= -0.0019
     atom  34 (R=0.085)  charge=  1.7868  magn=  0.0084
     atom  35 (R=0.085)  charge=  1.7865  magn= -0.0020
     atom  36 (R=0.085)  charge=  1.7818  magn=  0.0059
     atom  37 (R=0.085)  charge=  1.8033  magn= -0.0036
     atom  38 (R=0.085)  charge=  1.7836  magn=  0.0058
     atom  39 (R=0.085)  charge=  1.7914  magn= -0.0041
     atom  40 (R=0.085)  charge=  1.7835  magn=  0.0181
     atom  41 (R=0.085)  charge=  1.8109  magn=  0.0094
     atom  42 (R=0.085)  charge=  1.7947  magn=  0.0218
     atom  43 (R=0.085)  charge=  1.7819  magn= -0.0013
     atom  44 (R=0.085)  charge=  1.7936  magn=  0.0032
     atom  45 (R=0.085)  charge=  1.7589  magn= -0.0001
     atom  46 (R=0.085)  charge=  1.7948  magn=  0.0214
     atom  47 (R=0.085)  charge=  1.7819  magn= -0.0013
     atom  48 (R=0.085)  charge=  1.7819  magn=  0.0184
     atom  49 (R=0.085)  charge=  1.8042  magn=  0.0094
     atom  50 (R=0.085)  charge=  1.7873  magn=  0.0212
     atom  51 (R=0.085)  charge=  1.7825  magn= -0.0013
     atom  52 (R=0.085)  charge=  1.7869  magn=  0.0218
     atom  53 (R=0.085)  charge=  1.7826  magn= -0.0013
     atom  54 (R=0.085)  charge=  1.7935  magn=  0.0032
     atom  55 (R=0.085)  charge=  1.7588  magn=  0.0001
     atom  56 (R=0.085)  charge=  1.7915  magn=  0.0009
     atom  57 (R=0.085)  charge=  1.7832  magn=  0.0010
     atom  58 (R=0.085)  charge=  1.7915  magn=  0.0018
     atom  59 (R=0.085)  charge=  1.7879  magn= -0.0009
     atom  60 (R=0.085)  charge=  1.7911  magn=  0.0017
     atom  61 (R=0.085)  charge=  1.7855  magn= -0.0009
     atom  62 (R=0.085)  charge=  1.7913  magn=  0.0018
     atom  63 (R=0.085)  charge=  1.7891  magn= -0.0009

     total cpu time spent up to now is       14.0 secs

     End of self-consistent calculation

 ------ SPIN UP ------------


          k = 0.0000 0.0000 0.0000 (  7386 PWs)   bands (ev):

    -8.5511  -6.9223  -6.2893  -6.2692  -6.1945  -6.1565  -5.8811  -4.9098
    -4.1453  -4.1317  -4.1213  -4.0945  -4.0301  -4.0191  -4.0120  -3.9185
    -3.8741  -3.8599  -3.3629  -2.9316  -2.6756  -2.6733  -2.1590  -0.3619
    -0.3540  -0.3262  -0.2826  -0.0769   0.1734   0.1943   0.2811   0.2952
     0.3626   0.6184   0.8346   0.8459   0.9514   0.9755   0.9859   1.0529
     1.0618   1.0656   1.2670   1.2958   3.0728   3.9069   3.9249   4.0713
     4.1883   4.2084   4.2229   4.2743   4.2813   4.2855   4.4219   4.4246
     4.4937   4.4986   4.5657   4.6605   4.6833   4.6893   4.6924   4.7870
     4.7976   4.9225   4.9692   4.9694   5.0488   5.2030   5.2102   5.3014
     5.3576   5.3726   5.3967   5.4016   5.4028   6.0405   6.0489   6.0999
     6.6616   6.6656   6.7281   6.9929   7.0030   7.0395   7.5285   8.3327
     8.3374   8.4115   8.4690   8.4868   8.6858   8.7081   8.7884   8.8318
     8.8453   8.8497   8.8949   8.8995   8.9024   9.2874   9.2901   9.3236
     9.6857   9.7065   9.8986   9.9116   9.9424   9.9598   9.9641   9.9757
     9.9843  10.0264  10.0384  10.0506  10.1242  10.1439  10.2712  10.3229
    10.3395  11.0531  12.2845  12.4212  12.4305  13.9547  14.6924  14.7984
    17.3386  17.3795  17.4089  17.5199  17.5742  17.5830  17.8543  17.9209
    17.9382  18.0331  18.0654  18.3718  18.9926  19.0030  19.0245  20.6926
    20.7983  20.8230  20.8814  20.9404  20.9439  21.0236  21.0310  21.0409

     occupation numbers 
     1.0000   1.0000   1.0000   1.0000   1.0000   1.0000   1.0000   1.0000
     1.0000   1.0000   1.0000   1.0000   1.0000   1.0000   1.0000   1.0000
     1.0000   1.0000   1.0000   1.0000   1.0000   1.0000   1.0000   1.0000
     1.0000   1.0000   1.0000   1.0000   1.0000   1.0000   1.0000   1.0000
     1.0000   1.0000   1.0000   1.0000   1.0000   1.0000   1.0000   1.0000
     1.0000   1.0000   1.0000   1.0000   1.0000   1.0000   1.0000   1.0000
     1.0000   1.0000   1.0000   1.0000   1.0000   1.0000   1.0000   1.0000
     1.0000   1.0000   1.0000   1.0000   1.0000   1.0000   1.0000   1.0000
     1.0000   1.0000   1.0000   1.0000   1.0000   1.0000   1.0000   1.0000
     1.0000   1.0000   1.0000   1.0000   1.0000   1.0000   1.0000   1.0000
     1.0000   1.0000   1.0000   1.0000   1.0000   1.0000   1.0000   1.0000
     1.0000   1.0000   1.0000   1.0000   1.0000   1.0000   1.0000   1.0000
     1.0000   1.0000   1.0000   1.0000   1.0000   1.0000   1.0000   1.0000
     1.0000   1.0000   1.0000   1.0000   1.0000   1.0000   1.0000   1.0000
     1.0000   1.0000   1.0000   1.0000   1.0000   1.0000   1.0000   1.0000
     1.0000   1.0000   1.0000   1.0000   1.0000   1.0000   1.0000   1.0000
     0.0000   0.0000   0.0000   0.0000   0.0000   0.0000   0.0000   0.0000
     0.0000   0.0000   0.0000   0.0000   0.0000   0.0000   0.0000   0.0000
     0.0000   0.0000   0.0000   0.0000   0.0000   0.0000   0.0000   0.0000

 ------ SPIN DOWN ----------


          k = 0.0000 0.0000 0.0000 (  7386 PWs)   bands (ev):

    -8.5257  -6.9079  -6.2670  -6.2462  -6.1498  -6.1142  -5.8439  -4.8931
    -4.1248  -4.1105  -4.0799  -4.0616  -3.9951  -3.9805  -3.9642  -3.9063
    -3.8383  -3.8199  -3.3207  -2.9130  -2.6221  -2.6203  -2.0141  -0.3445
    -0.3359  -0.3047  -0.2653  -0.0115   0.1918   0.2118   0.3185   0.3290
     0.3875   0.6532   0.8467   0.8576   0.9846   1.0055   1.0121   1.0691
     1.0781   1.0823   1.4325   1.4659   3.1866   3.9301   3.9470   4.0971
     4.2234   4.2498   4.2661   4.2888   4.2988   4.3132   4.4684   4.4720
     4.5158   4.5199   4.5893   4.6847   4.7019   4.7067   4.7130   4.8214
     4.8344   4.9358   5.0001   5.0015   5.1302   5.2372   5.2453   5.3252
     5.3720   5.3836   5.4152   5.4549   5.4652   6.1027   6.1077   6.1379
     6.6881   6.6929   6.7624   7.0785   7.0887   7.0979   7.6992   8.3711
     8.3764   8.4484   8.5047   8.5213   8.7196   8.7391   8.8244   8.8752
     8.8809   8.8895   8.9247   8.9282   8.9356   9.3238   9.3272   9.3509
     9.7134   9.7339   9.9278   9.9416   9.9533   9.9742   9.9779   9.9953
    10.0039  10.0625  10.0632  10.0777  10.1519  10.1702  10.3287  10.3771
    10.3945  11.4327  12.5591  12.5706  12.5979  14.4375  16.0156  16.1396
    17.3636  17.3972  17.4257  17.5480  17.6294  17.6393  17.8770  17.9406
    17.9563  18.0732  18.1055  18.4908  19.0460  19.0765  19.1118  20.7431
    20.8125  20.8370  20.8962  20.9578  20.9619  21.0415  21.0533  21.0620

     occupation numbers 
     1.0000   1.0000   1.0000   1.0000   1.0000   1.0000   1.0000   1.0000
     1.0000   1.0000   1.0000   1.0000   1.0000   1.0000   1.0000   1.0000
     1.0000   1.0000   1.0000   1.0000   1.0000   1.0000   1.0000   1.0000
     1.0000   1.0000   1.0000   1.0000   1.0000   1.0000   1.0000   1.0000
     1.0000   1.0000   1.0000   1.0000   1.0000   1.0000   1.0000   1.0000
     1.0000   1.0000   1.0000   1.0000   1.0000   1.0000   1.0000   1.0000
     1.0000   1.0000   1.0000   1.0000   1.0000   1.0000   1.0000   1.0000
     1.0000   1.0000   1.0000   1.0000   1.0000   1.0000   1.0000   1.0000
     1.0000   1.0000   1.0000   1.0000   1.0000   1.0000   1.0000   1.0000
     1.0000   1.0000   1.0000   1.0000   1.0000   1.0000   1.0000   1.0000
     1.0000   1.0000   1.0000   1.0000   1.0000   1.0000   1.0000   1.0000
     1.0000   1.0000   1.0000   1.0000   1.0000   1.0000   1.0000   1.0000
     1.0000   1.0000   1.0000   1.0000   1.0000   1.0000   1.0000   1.0000
     1.0000   1.0000   1.0000   1.0000   1.0000   1.0000   1.0000   1.0000
     1.0000   1.0000   1.0000   1.0000   1.0000   1.0000   1.0000   1.0000
     1.0000   1.0000   1.0000   1.0000   1.0000   1.0000   0.0000   0.0000
     0.0000   0.0000   0.0000   0.0000   0.0000   0.0000   0.0000   0.0000
     0.0000   0.0000   0.0000   0.0000   0.0000   0.0000   0.0000   0.0000
     0.0000   0.0000   0.0000   0.0000   0.0000   0.0000   0.0000   0.0000

     highest occupied, lowest unoccupied level (ev):    14.7984   16.0156

!    total energy              =    -723.90710621 Ry
     estimated scf accuracy    <          5.7E-09 Ry

     The total energy is the sum of the following terms:
     one-electron contribution =     232.27765483 Ry
     hartree contribution      =      70.33889114 Ry
     xc contribution           =    -226.77195113 Ry
     ewald contribution        =    -799.75170105 Ry

     total magnetization       =     2.00 Bohr mag/cell
     absolute magnetization    =     2.30 Bohr mag/cell

     convergence has been achieved in  14 iterations

     Forces acting on atoms (cartesian axes, Ry/au):

     atom    1 type  1   force =    -0.00281188   -0.00398544   -0.00254108
     atom    2 type  2   force =     0.03511316    0.01591716   -0.01259854
     atom    3 type  2   force =    -0.00925647    0.00855769    0.00613241
     atom    4 type  2   force =     0.00878445    0.02484906   -0.00279051
     atom    5 type  2   force =     0.00239582   -0.02117940    0.00168461
     atom    6 type  2   force =    -0.00867079    0.00906886    0.04236915
     atom    7 type  2   force =     0.01026107    0.01197010   -0.00204639
     atom    8 type  2   force =     0.00303525    0.00424737    0.00656436
     atom    9 type  2   force =    -0.00215257   -0.00475628   -0.00303572
     atom   10 type  2   force =     0.00157354    0.00198964    0.00709536
     atom   11 type  2   force =    -0.02758906    0.00908040   -0.00907950
     atom   12 type  2   force =    -0.00006002    0.00396147    0.00338069
     atom   13 type  2   force =    -0.00280790   -0.03995957   -0.00177379
     atom   14 type  2   force =     0.00311079    0.00269680   -0.00374706
     atom   15 type  2   force =    -0.00361733    0.00252788   -0.00485922
     atom   16 type  2   force =    -0.00012642   -0.00153245   -0.00067144
     atom   17 type  2   force =    -0.00141043    0.00630696    0.00015730
     atom   18 type  2   force =     0.00292401   -0.00018328    0.00094764
     atom   19 type  2   force =    -0.00910290   -0.00311926   -0.00527185
     atom   20 type  2   force =     0.00296485   -0.00431833    0.00353172
     atom   21 type  2   force =    -0.00112543   -0.00416354   -0.00205688
     atom   22 type  2   force =     0.00175879    0.00269544    0.00188486
     atom   23 type  2   force =    -0.00067090   -0.00709084   -0.00162524
     atom   24 type  2   force =     0.00997398    0.00485150    0.00462734
     atom   25 type  2   force =    -0.01351332   -0.00983704   -0.00495565
     atom   26 type  2   force =     0.01422839    0.00678413    0.00136962
     atom   27 type  2   force =    -0.02563707   -0.00861811   -0.00650905
     atom   28 type  2   force =     0.01112082   -0.01755438    0.00616792
     atom   29 type  2   force =     0.00067911    0.00226216   -0.00048298
     atom   30 type  2   force =     0.00740862    0.00721565    0.00335914
     atom   31 type  2   force =     0.00100513   -0.00163139   -0.00345709
     atom   32 type  2   force =     0.00318797    0.00383071    0.00138622
     atom   33 type  2   force =     0.00052529   -0.00441887   -0.00017676
     atom   34 type  2   force =    -0.00470257    0.00172770    0.00360671
     atom   35 type  2   force =    -0.00489324   -0.00075590   -0.00340303
     atom   36 type  2   force =     0.00061602    0.00436498   -0.00014360
     atom   37 type  2   force =     0.00071349   -0.03264552   -0.00712656
     atom   38 type  2   force =     0.00701796    0.00174641   -0.00029145
     atom   39 type  2   force =    -0.01014942    0.00621652   -0.01366335
     atom   40 type  2   force =     0.00540818    0.01259102    0.00495657
     atom   41 type  2   force =    -0.00748568   -0.01539950   -0.00376006
     atom   42 type  2   force =    -0.00066294    0.01801202    0.00636270
     atom   43 type  2   force =    -0.00086032    0.00068414   -0.00105723
     atom   44 type  2   force =     0.00462717    0.01718883    0.00301444
     atom   45 type  2   force =    -0.00736607   -0.02643401   -0.00656146
     atom   46 type  2   force =     0.00645265    0.01611391    0.00109688
     atom   47 type  2   force =    -0.00126805    0.00121453   -0.00185655
     atom   48 type  2   force =     0.00451516    0.00495631    0.00744106
     atom   49 type  2   force =    -0.00807559   -0.01397233   -0.01026208
     atom   50 type  2   force =     0.00422120    0.00668519    0.00346318
     atom   51 type  2   force =    -0.00392696   -0.00182208    0.00025728
     atom   52 type  2   force =     0.00646401    0.00191810    0.00494074
     atom   53 type  2   force =    -0.00156534   -0.00287692   -0.00030902
     atom   54 type  2   force =     0.00259835    0.00543518    0.01393561
     atom   55 type  2   force =    -0.00715654   -0.00851309   -0.02492042
     atom   56 type  2   force =     0.00509572    0.00403148    0.00438132
     atom   57 type  2   force =    -0.00179986   -0.00074919   -0.00227795
     atom   58 type  2   force =     0.00214775    0.00469011    0.00365648
     atom   59 type  2   force =    -0.00114752   -0.00260931   -0.00381248
     atom   60 type  2   force =     0.00263008    0.00201718    0.00232067
     atom   61 type  2   force =    -0.00333686   -0.00189756   -0.00381304
     atom   62 type  2   force =     0.00403095    0.00450942    0.00117466
     atom   63 type  2   force =    -0.00364026   -0.00289240   -0.00032964
     The non-local contrib.  to forces
     atom    1 type  1   force =    -0.76095657   -0.76471056   -0.75897729
     atom    2 type  2   force =    -0.16468204    0.22048751    0.17820465
     atom    3 type  2   force =     0.05659992    0.08131435    0.07266725
     atom    4 type  2   force =     0.21500545   -0.18805206    0.19780419
     atom    5 type  2   force =     0.07292311    0.04267475    0.07040466
     atom    6 type  2   force =     0.17933741    0.20482903   -0.14682881
     atom    7 type  2   force =     0.07759389    0.08337760    0.06432379
     atom    8 type  2   force =    -0.00444669   -0.00475727    0.05665329
     atom    9 type  2   force =    -0.00561094   -0.00794442    0.01313285
     atom   10 type  2   force =    -0.04377396   -0.01323692   -0.01155023
     atom   11 type  2   force =    -0.10416298    0.07109734   -0.08379483
     atom   12 type  2   force =    -0.01733343   -0.04118177   -0.01458997
     atom   13 type  2   force =     0.05221968   -0.11677312   -0.07339549
     atom   14 type  2   force =     0.00263340    0.00114896    0.04604444
     atom   15 type  2   force =     0.00944063    0.01255772   -0.00308122
     atom   16 type  2   force =    -0.01351750    0.04929281   -0.01209010
     atom   17 type  2   force =    -0.00441726    0.02742841   -0.00313469
     atom   18 type  2   force =    -0.04110007   -0.02209114   -0.01565983
     atom   19 type  2   force =    -0.08107408   -0.07890560    0.05496670
     atom   20 type  2   force =     0.00447705    0.04480639    0.00507088
     atom   21 type  2   force =     0.01053898   -0.00300233    0.01113597
     atom   22 type  2   force =    -0.01455498   -0.01956414   -0.04201734
     atom   23 type  2   force =     0.06349722   -0.08438914   -0.07245530
     atom   24 type  2   force =    -0.06358831    0.03366791    0.03512223
     atom   25 type  2   force =    -0.02486386    0.00385637    0.01307769
     atom   26 type  2   force =    -0.04240772   -0.02003329   -0.02357254
     atom   27 type  2   force =    -0.14709206    0.12498666    0.12338977
     atom   28 type  2   force =     0.08049380    0.00209676   -0.01302835
     atom   29 type  2   force =     0.00120636    0.02190532    0.00553392
     atom   30 type  2   force =     0.07684808   -0.01253238    0.02841549
     atom   31 type  2   force =     0.00320719    0.00304756    0.01659933
     atom   32 type  2   force =     0.05293451   -0.00681216   -0.00710189
     atom   33 type  2   force =     0.01819449   -0.00729538   -0.00371780
     atom   34 type  2   force =     0.04469933    0.00104688    0.00377566
     atom   35 type  2   force =    -0.00304142    0.00859786    0.00990008
     atom   36 type  2   force =    -0.01841822   -0.04036343   -0.01788628
     atom   37 type  2   force =    -0.07171683   -0.10861963    0.04779337
     atom   38 type  2   force =    -0.01368392   -0.01350809   -0.04530886
     atom   39 type  2   force =    -0.08730089    0.07113127   -0.08708875
     atom   40 type  2   force =     0.03503652   -0.05867436    0.03554996
     atom   41 type  2   force =     0.00861213   -0.02614252    0.01416314
     atom   42 type  2   force =     0.02040648    0.08946888   -0.00973334
     atom   43 type  2   force =     0.01707403    0.00040399    0.00402148
     atom   44 type  2   force =    -0.02261066   -0.03663756   -0.02338820
     atom   45 type  2   force =     0.12515963   -0.14750284    0.12426181
     atom   46 type  2   force =    -0.00980908    0.08705632    0.02322484
     atom   47 type  2   force =     0.00338119    0.00132536    0.01601621
     atom   48 type  2   force =     0.03232949    0.03342945   -0.06934967
     atom   49 type  2   force =     0.00806458   -0.00025881   -0.02330391
     atom   50 type  2   force =     0.02980739   -0.01461490    0.07134016
     atom   51 type  2   force =     0.01702215    0.00365187    0.00332041
     atom   52 type  2   force =    -0.01412482    0.02693505    0.07303412
     atom   53 type  2   force =     0.00525355    0.01762026    0.00210674
     atom   54 type  2   force =    -0.02270520   -0.02066687   -0.04380951
     atom   55 type  2   force =     0.12335016    0.12446276   -0.14647538
     atom   56 type  2   force =     0.02387111    0.02452251    0.02100234
     atom   57 type  2   force =     0.00526254    0.00511103    0.00552879
     atom   58 type  2   force =     0.01680213   -0.00565169   -0.01009817
     atom   59 type  2   force =     0.00813927   -0.01410329   -0.01541144
     atom   60 type  2   force =    -0.01030754    0.01826887   -0.01152722
     atom   61 type  2   force =    -0.01502034    0.00890471   -0.01560771
     atom   62 type  2   force =    -0.00824774   -0.00595330    0.01514554
     atom   63 type  2   force =    -0.01603428   -0.01494316    0.00843225
     The ionic contribution  to forces
     atom    1 type  1   force =     2.98334387    2.95774256    2.99785376
     atom    2 type  2   force =     2.41301785   -2.05960232   -2.21517799
     atom    3 type  2   force =     0.48175348   -0.73220925   -0.84997759
     atom    4 type  2   force =    -2.09008167    2.33578400   -2.15747935
     atom    5 type  2   force =    -0.77925282    0.40324112   -0.82504986
     atom    6 type  2   force =    -2.18720914   -2.09336112    2.45049080
     atom    7 type  2   force =    -0.82505903   -0.75111367    0.53455901
     atom    8 type  2   force =     0.25679559    0.21803567   -0.72707911
     atom    9 type  2   force =     0.06831758    0.03412264   -0.22186336
     atom   10 type  2   force =     0.18812776    0.07563424    0.56550419
     atom   11 type  2   force =    -0.50339084   -0.62481935    0.77704004
     atom   12 type  2   force =     0.02848503    0.16945615    0.55056953
     atom   13 type  2   force =    -0.66556706   -0.55878826    0.75873184
     atom   14 type  2   force =    -0.19424810   -0.17562370   -0.70669632
     atom   15 type  2   force =    -0.19436147   -0.12880088   -0.04305656
     atom   16 type  2   force =     0.20026126   -0.78023467    0.22524249
     atom   17 type  2   force =     0.07037476   -0.15831188    0.09612022
     atom   18 type  2   force =     0.22234989    0.46922365    0.00227828
     atom   19 type  2   force =    -0.36242294    0.75050984   -0.70799497
     atom   20 type  2   force =    -0.18090745   -0.73325352   -0.19038097
     atom   21 type  2   force =    -0.17350416   -0.06013962   -0.20268010
     atom   22 type  2   force =     0.02758280    0.48247937    0.24529600
     atom   23 type  2   force =    -0.68801206    0.78045047   -0.33046313
     atom   24 type  2   force =     0.10610643   -0.14199813   -0.17058441
     atom   25 type  2   force =    -0.05230953   -0.07817826   -0.09674921
     atom   26 type  2   force =     0.12175864   -0.08957217   -0.04908431
     atom   27 type  2   force =     1.13817107    0.25125558    0.25267195
     atom   28 type  2   force =    -0.07861450   -0.20565603    0.11550698
     atom   29 type  2   force =    -0.12934081    0.03178590    0.28251027
     atom   30 type  2   force =    -0.01982982    0.14253287   -0.24337567
     atom   31 type  2   force =    -0.15053070    0.18061935   -0.01076306
     atom   32 type  2   force =    -0.74355314    0.19821411    0.26221101
     atom   33 type  2   force =    -0.20247959    0.03080577    0.09099031
     atom   34 type  2   force =    -0.71844044   -0.17595311   -0.19933177
     atom   35 type  2   force =    -0.06406471   -0.13498513   -0.19740964
     atom   36 type  2   force =     0.51509108    0.17611287    0.00306459
     atom   37 type  2   force =     0.73679759   -0.49904350   -0.69179403
     atom   38 type  2   force =     0.53924075    0.07136535    0.20821278
     atom   39 type  2   force =     0.80867993   -0.63889302   -0.43169810
     atom   40 type  2   force =    -0.19668995    0.06527701   -0.20983785
     atom   41 type  2   force =    -0.07166928   -0.08556578   -0.06797824
     atom   42 type  2   force =    -0.13904864    0.03113238    0.08913472
     atom   43 type  2   force =     0.03051121   -0.11614647    0.25302577
     atom   44 type  2   force =    -0.07169547    0.12497252   -0.05430713
     atom   45 type  2   force =     0.24501334    1.16151602    0.24764335
     atom   46 type  2   force =     0.09988806    0.05076569   -0.16923608
     atom   47 type  2   force =     0.22599028   -0.11646157    0.01758692
     atom   48 type  2   force =    -0.13184683   -0.11603543    0.13765151
     atom   49 type  2   force =    -0.07426978   -0.08254839    0.00778152
     atom   50 type  2   force =    -0.23592370    0.15308351   -0.08292127
     atom   51 type  2   force =    -0.00937932    0.17547204   -0.18076451
     atom   52 type  2   force =     0.13900734   -0.17824817   -0.12161388
     atom   53 type  2   force =     0.22753263    0.01239787   -0.18259079
     atom   54 type  2   force =    -0.06319782   -0.09059569    0.13962314
     atom   55 type  2   force =     0.24449451    0.24385110    1.13235888
     atom   56 type  2   force =    -0.09116516   -0.03548388   -0.12457680
     atom   57 type  2   force =    -0.02014776   -0.03677953   -0.02040216
     atom   58 type  2   force =    -0.06835562    0.05233311    0.04019882
     atom   59 type  2   force =    -0.28361406    0.07911039    0.15448500
     atom   60 type  2   force =     0.06012160   -0.03869197    0.05893968
     atom   61 type  2   force =     0.12899471   -0.30509503    0.15979518
     atom   62 type  2   force =     0.03018877    0.03702231   -0.10003294
     atom   63 type  2   force =     0.12218561    0.07588405   -0.27412737
     The local contribution  to forces
     atom    1 type  1   force =    -2.22525633   -2.19702405   -2.24147001
     atom    2 type  2   force =    -2.21328725    1.85501168    2.02432516
     atom    3 type  2   force =    -0.54770515    0.65940063    0.78338422
     atom    4 type  2   force =     1.88377183   -2.12290228    1.95683860
     atom    5 type  2   force =     0.70861979   -0.46711475    0.75629024
     atom    6 type  2   force =     1.99910865    1.89758500   -2.26134942
     atom    7 type  2   force =     0.75761771    0.67967285   -0.60099722
     atom    8 type  2   force =    -0.24937110   -0.20903342    0.67694435
     atom    9 type  2   force =    -0.06492599   -0.03094632    0.20564276
     atom   10 type  2   force =    -0.14283325   -0.06043407   -0.54690755
     atom   11 type  2   force =     0.57990239    0.56276570   -0.70236743
     atom   12 type  2   force =    -0.01129281   -0.12433403   -0.53264801
     atom   13 type  2   force =     0.61044122    0.63558554   -0.68716477
     atom   14 type  2   force =     0.19462345    0.17714457    0.65686260
     atom   15 type  2   force =     0.18119303    0.11872928    0.04124971
     atom   16 type  2   force =    -0.18692820    0.72934851   -0.21386831
     atom   17 type  2   force =    -0.06743400    0.13712239   -0.09288503
     atom   18 type  2   force =    -0.17837966   -0.44736855    0.01427095
     atom   19 type  2   force =     0.43432979   -0.67475236    0.64771324
     atom   20 type  2   force =     0.17929560    0.68407580    0.18878404
     atom   21 type  2   force =     0.16172933    0.05893394    0.18943670
     atom   22 type  2   force =    -0.01134588   -0.46027200   -0.20145357
     atom   23 type  2   force =     0.62375228   -0.70319342    0.40122798
     atom   24 type  2   force =    -0.03260006    0.11311351    0.14003340
     atom   25 type  2   force =     0.06359642    0.06442665    0.07867308
     atom   26 type  2   force =    -0.06518560    0.11634436    0.07398477
     atom   27 type  2   force =    -1.01678701   -0.38489007   -0.38262078
     atom   28 type  2   force =     0.00916092    0.18595151   -0.09635192
     atom   29 type  2   force =     0.12871868   -0.05148634   -0.28857467
     atom   30 type  2   force =    -0.04968873   -0.12283297    0.21827833
     atom   31 type  2   force =     0.14823013   -0.18532931   -0.00933537
     atom   32 type  2   force =     0.69370856   -0.18760086   -0.25378624
     atom   33 type  2   force =     0.18472356   -0.02794643   -0.08750784
     atom   34 type  2   force =     0.66894268    0.17660815    0.19910582
     atom   35 type  2   force =     0.06213759    0.12558315    0.18404991
     atom   36 type  2   force =    -0.49613000   -0.13138637    0.01461710
     atom   37 type  2   force =    -0.66441733    0.57502872    0.63681193
     atom   38 type  2   force =    -0.51861041   -0.05613638   -0.16323601
     atom   39 type  2   force =    -0.73157870    0.57392526    0.50508776
     atom   40 type  2   force =     0.16695259    0.00596551    0.17920986
     atom   41 type  2   force =     0.05547121    0.09628417    0.05001306
     atom   42 type  2   force =     0.11786571   -0.10261481   -0.07308097
     atom   43 type  2   force =    -0.04855192    0.11639441   -0.25814789
     atom   44 type  2   force =     0.09884700   -0.07117724    0.08066917
     atom   45 type  2   force =    -0.37760039   -1.04047182   -0.37850473
     atom   46 type  2   force =    -0.08369198   -0.12173313    0.14704725
     atom   47 type  2   force =    -0.23069476    0.11630771   -0.03552115
     atom   48 type  2   force =     0.10392560    0.08751882   -0.06092439
     atom   49 type  2   force =     0.05802823    0.06877982    0.00518661
     atom   50 type  2   force =     0.21022306   -0.13183043    0.01498277
     atom   51 type  2   force =    -0.01167804   -0.18096959    0.17765448
     atom   52 type  2   force =    -0.11848542    0.15315838    0.05346253
     atom   53 type  2   force =    -0.23440520   -0.03297329    0.18012347
     atom   54 type  2   force =     0.08841041    0.11665217   -0.08194768
     atom   55 type  2   force =    -0.37506586   -0.37684610   -1.01087365
     atom   56 type  2   force =     0.07228142    0.01494589    0.10791908
     atom   57 type  2   force =     0.01298548    0.03087262    0.01256966
     atom   58 type  2   force =     0.05360140   -0.04203631   -0.02648062
     atom   59 type  2   force =     0.27422977   -0.06765497   -0.14293559
     atom   60 type  2   force =    -0.04726994    0.02240192   -0.04513032
     atom   61 type  2   force =    -0.11738297    0.29424444   -0.14804827
     atom   62 type  2   force =    -0.01799399   -0.02660511    0.08603543
     atom   63 type  2   force =    -0.10985951   -0.06386277    0.26533598
     The core correction contribution to forces
     atom    1 type  1   force =     0.00000000    0.00000000    0.00000000
     atom    2 type  2   force =     0.00000000    0.00000000    0.00000000
     atom    3 type  2   force =     0.00000000    0.00000000    0.00000000
     atom    4 type  2   force =     0.00000000    0.00000000    0.00000000
     atom    5 type  2   force =     0.00000000    0.00000000    0.00000000
     atom    6 type  2   force =     0.00000000    0.00000000    0.00000000
     atom    7 type  2   force =     0.00000000    0.00000000    0.00000000
     atom    8 type  2   force =     0.00000000    0.00000000    0.00000000
     atom    9 type  2   force =     0.00000000    0.00000000    0.00000000
     atom   10 type  2   force =     0.00000000    0.00000000    0.00000000
     atom   11 type  2   force =     0.00000000    0.00000000    0.00000000
     atom   12 type  2   force =     0.00000000    0.00000000    0.00000000
     atom   13 type  2   force =     0.00000000    0.00000000    0.00000000
     atom   14 type  2   force =     0.00000000    0.00000000    0.00000000
     atom   15 type  2   force =     0.00000000    0.00000000    0.00000000
     atom   16 type  2   force =     0.00000000    0.00000000    0.00000000
     atom   17 type  2   force =     0.00000000    0.00000000    0.00000000
     atom   18 type  2   force =     0.00000000    0.00000000    0.00000000
     atom   19 type  2   force =     0.00000000    0.00000000    0.00000000
     atom   20 type  2   force =     0.00000000    0.00000000    0.00000000
     atom   21 type  2   force =     0.00000000    0.00000000    0.00000000
     atom   22 type  2   force =     0.00000000    0.00000000    0.00000000
     atom   23 type  2   force =     0.00000000    0.00000000    0.00000000
     atom   24 type  2   force =     0.00000000    0.00000000    0.00000000
     atom   25 type  2   force =     0.00000000    0.00000000    0.00000000
     atom   26 type  2   force =     0.00000000    0.00000000    0.00000000
     atom   27 type  2   force =     0.00000000    0.00000000    0.00000000
     atom   28 type  2   force =     0.00000000    0.00000000    0.00000000
     atom   29 type  2   force =     0.00000000    0.00000000    0.00000000
     atom   30 type  2   force =     0.00000000    0.00000000    0.00000000
     atom   31 type  2   force =     0.00000000    0.00000000    0.00000000
     atom   32 type  2   force =     0.00000000    0.00000000    0.00000000
     atom   33 type  2   force =     0.00000000    0.00000000    0.00000000
     atom   34 type  2   force =     0.00000000    0.00000000    0.00000000
     atom   35 type  2   force =     0.00000000    0.00000000    0.00000000
     atom   36 type  2   force =     0.00000000    0.00000000    0.00000000
     atom   37 type  2   force =     0.00000000    0.00000000    0.00000000
     atom   38 type  2   force =     0.00000000    0.00000000    0.00000000
     atom   39 type  2   force =     0.00000000    0.00000000    0.00000000
     atom   40 type  2   force =     0.00000000    0.00000000    0.00000000
     atom   41 type  2   force =     0.00000000    0.00000000    0.00000000
     atom   42 type  2   force =     0.00000000    0.00000000    0.00000000
     atom   43 type  2   force =     0.00000000    0.00000000    0.00000000
     atom   44 type  2   force =     0.00000000    0.00000000    0.00000000
     atom   45 type  2   force =     0.00000000    0.00000000    0.00000000
     atom   46 type  2   force =     0.00000000    0.00000000    0.00000000
     atom   47 type  2   force =     0.00000000    0.00000000    0.00000000
     atom   48 type  2   force =     0.00000000    0.00000000    0.00000000
     atom   49 type  2   force =     0.00000000    0.00000000    0.00000000
     atom   50 type  2   force =     0.00000000    0.00000000    0.00000000
     atom   51 type  2   force =     0.00000000    0.00000000    0.00000000
     atom   52 type  2   force =     0.00000000    0.00000000    0.00000000
     atom   53 type  2   force =     0.00000000    0.00000000    0.00000000
     atom   54 type  2   force =     0.00000000    0.00000000    0.00000000
     atom   55 type  2   force =     0.00000000    0.00000000    0.00000000
     atom   56 type  2   force =     0.00000000    0.00000000    0.00000000
     atom   57 type  2   force =     0.00000000    0.00000000    0.00000000
     atom   58 type  2   force =     0.00000000    0.00000000    0.00000000
     atom   59 type  2   force =     0.00000000    0.00000000    0.00000000
     atom   60 type  2   force =     0.00000000    0.00000000    0.00000000
     atom   61 type  2   force =     0.00000000    0.00000000    0.00000000
     atom   62 type  2   force =     0.00000000    0.00000000    0.00000000
     atom   63 type  2   force =     0.00000000    0.00000000    0.00000000
     The Hubbard contrib.    to forces
     atom    1 type  1   force =     0.00000000    0.00000000    0.00000000
     atom    2 type  2   force =     0.00000000    0.00000000    0.00000000
     atom    3 type  2   force =     0.00000000    0.00000000    0.00000000
     atom    4 type  2   force =     0.00000000    0.00000000    0.00000000
     atom    5 type  2   force =     0.00000000    0.00000000    0.00000000
     atom    6 type  2   force =     0.00000000    0.00000000    0.00000000
     atom    7 type  2   force =     0.00000000    0.00000000    0.00000000
     atom    8 type  2   force =     0.00000000    0.00000000    0.00000000
     atom    9 type  2   force =     0.00000000    0.00000000    0.00000000
     atom   10 type  2   force =     0.00000000    0.00000000    0.00000000
     atom   11 type  2   force =     0.00000000    0.00000000    0.00000000
     atom   12 type  2   force =     0.00000000    0.00000000    0.00000000
     atom   13 type  2   force =     0.00000000    0.00000000    0.00000000
     atom   14 type  2   force =     0.00000000    0.00000000    0.00000000
     atom   15 type  2   force =     0.00000000    0.00000000    0.00000000
     atom   16 type  2   force =     0.00000000    0.00000000    0.00000000
     atom   17 type  2   force =     0.00000000    0.00000000    0.00000000
     atom   18 type  2   force =     0.00000000    0.00000000    0.00000000
     atom   19 type  2   force =     0.00000000    0.00000000    0.00000000
     atom   20 type  2   force =     0.00000000    0.00000000    0.00000000
     atom   21 type  2   force =     0.00000000    0.00000000    0.00000000
     atom   22 type  2   force =     0.00000000    0.00000000    0.00000000
     atom   23 type  2   force =     0.00000000    0.00000000    0.00000000
     atom   24 type  2   force =     0.00000000    0.00000000    0.00000000
     atom   25 type  2   force =     0.00000000    0.00000000    0.00000000
     atom   26 type  2   force =     0.00000000    0.00000000    0.00000000
     atom   27 type  2   force =     0.00000000    0.00000000    0.00000000
     atom   28 type  2   force =     0.00000000    0.00000000    0.00000000
     atom   29 type  2   force =     0.00000000    0.00000000    0.00000000
     atom   30 type  2   force =     0.00000000    0.00000000    0.00000000
     atom   31 type  2   force =     0.00000000    0.00000000    0.00000000
     atom   32 type  2   force =     0.00000000    0.00000000    0.00000000
     atom   33 type  2   force =     0.00000000    0.00000000    0.00000000
     atom   34 type  2   force =     0.00000000    0.00000000    0.00000000
     atom   35 type  2   force =     0.00000000    0.00000000    0.00000000
     atom   36 type  2   force =     0.00000000    0.00000000    0.00000000
     atom   37 type  2   force =     0.00000000    0.00000000    0.00000000
     atom   38 type  2   force =     0.00000000    0.00000000    0.00000000
     atom   39 type  2   force =     0.00000000    0.00000000    0.00000000
     atom   40 type  2   force =     0.00000000    0.00000000    0.00000000
     atom   41 type  2   force =     0.00000000    0.00000000    0.00000000
     atom   42 type  2   force =     0.00000000    0.00000000    0.00000000
     atom   43 type  2   force =     0.00000000    0.00000000    0.00000000
     atom   44 type  2   force =     0.00000000    0.00000000    0.00000000
     atom   45 type  2   force =     0.00000000    0.00000000    0.00000000
     atom   46 type  2   force =     0.00000000    0.00000000    0.00000000
     atom   47 type  2   force =     0.00000000    0.00000000    0.00000000
     atom   48 type  2   force =     0.00000000    0.00000000    0.00000000
     atom   49 type  2   force =     0.00000000    0.00000000    0.00000000
     atom   50 type  2   force =     0.00000000    0.00000000    0.00000000
     atom   51 type  2   force =     0.00000000    0.00000000    0.00000000
     atom   52 type  2   force =     0.00000000    0.00000000    0.00000000
     atom   53 type  2   force =     0.00000000    0.00000000    0.00000000
     atom   54 type  2   force =     0.00000000    0.00000000    0.00000000
     atom   55 type  2   force =     0.00000000    0.00000000    0.00000000
     atom   56 type  2   force =     0.00000000    0.00000000    0.00000000
     atom   57 type  2   force =     0.00000000    0.00000000    0.00000000
     atom   58 type  2   force =     0.00000000    0.00000000    0.00000000
     atom   59 type  2   force =     0.00000000    0.00000000    0.00000000
     atom   60 type  2   force =     0.00000000    0.00000000    0.00000000
     atom   61 type  2   force =     0.00000000    0.00000000    0.00000000
     atom   62 type  2   force =     0.00000000    0.00000000    0.00000000
     atom   63 type  2   force =     0.00000000    0.00000000    0.00000000
     The SCF correction term to forces
     atom    1 type  1   force =    -0.00002567   -0.00002913    0.00000297
     atom    2 type  2   force =    -0.00001822   -0.00001544    0.00000015
     atom    3 type  2   force =     0.00001245    0.00001623    0.00000903
     atom    4 type  2   force =     0.00000602   -0.00001632   -0.00000345
     atom    5 type  2   force =     0.00002292   -0.00001626   -0.00000993
     atom    6 type  2   force =     0.00000947   -0.00001978    0.00000708
     atom    7 type  2   force =     0.00002568   -0.00000242    0.00001854
     atom    8 type  2   force =    -0.00002538   -0.00003334   -0.00000368
     atom    9 type  2   force =    -0.00001604   -0.00002391    0.00000253
     atom   10 type  2   force =    -0.00002983   -0.00000935   -0.00000055
     atom   11 type  2   force =    -0.00002045    0.00000098   -0.00000678
     atom   12 type  2   force =    -0.00000163   -0.00001462   -0.00000036
     atom   13 type  2   force =     0.00001544   -0.00001947    0.00000514
     atom   14 type  2   force =     0.00001922   -0.00000876   -0.00000727
     atom   15 type  2   force =     0.00002766    0.00000603   -0.00002065
     atom   16 type  2   force =    -0.00002481    0.00002517   -0.00000502
     atom   17 type  2   force =    -0.00001676    0.00003231    0.00000730
     atom   18 type  2   force =    -0.00002897    0.00001701    0.00000874
     atom   19 type  2   force =    -0.00001848   -0.00000687   -0.00000632
     atom   20 type  2   force =     0.00001684    0.00001726    0.00000828
     atom   21 type  2   force =     0.00002759    0.00000873    0.00000104
     atom   22 type  2   force =    -0.00000597    0.00001647    0.00001027
     atom   23 type  2   force =     0.00000883    0.00000552    0.00001570
     atom   24 type  2   force =    -0.00002690    0.00003248    0.00000662
     atom   25 type  2   force =    -0.00001918    0.00002247   -0.00000671
     atom   26 type  2   force =    -0.00001975    0.00000950   -0.00000780
     atom   27 type  2   force =    -0.00001189   -0.00000600    0.00000051
     atom   28 type  2   force =    -0.00000221    0.00001765   -0.00000829
     atom   29 type  2   force =     0.00001207    0.00002154   -0.00000200
     atom   30 type  2   force =    -0.00000373    0.00001239   -0.00000851
     atom   31 type  2   force =     0.00001568   -0.00000472   -0.00000748
     atom   32 type  2   force =     0.00001522   -0.00000611    0.00001384
     atom   33 type  2   force =     0.00000400   -0.00001856    0.00000907
     atom   34 type  2   force =     0.00001304   -0.00000996    0.00000750
     atom   35 type  2   force =    -0.00000751    0.00001249    0.00000712
     atom   36 type  2   force =    -0.00000966   -0.00003383    0.00001149
     atom   37 type  2   force =    -0.00003276   -0.00004683    0.00001268
     atom   38 type  2   force =    -0.00001129   -0.00001021   -0.00000885
     atom   39 type  2   force =    -0.00003258    0.00001728   -0.00001375
     atom   40 type  2   force =     0.00002620   -0.00001287   -0.00001490
     atom   41 type  2   force =     0.00001744   -0.00001110   -0.00000752
     atom   42 type  2   force =     0.00003069   -0.00001017   -0.00000721
     atom   43 type  2   force =     0.00002354   -0.00000352   -0.00000609
     atom   44 type  2   force =     0.00000348   -0.00000463   -0.00000890
     atom   45 type  2   force =    -0.00002148   -0.00001110   -0.00001141
     atom   46 type  2   force =    -0.00001718   -0.00001071    0.00001137
     atom   47 type  2   force =    -0.00002758    0.00000730    0.00001197
     atom   48 type  2   force =     0.00002409    0.00000774    0.00001411
     atom   49 type  2   force =     0.00001856    0.00001932    0.00002420
     atom   50 type  2   force =     0.00003163    0.00001127    0.00001202
     atom   51 type  2   force =     0.00002542   -0.00001213   -0.00000261
     atom   52 type  2   force =    -0.00001592    0.00003711    0.00000847
     atom   53 type  2   force =    -0.00002914    0.00004251    0.00000206
     atom   54 type  2   force =     0.00000813    0.00000984    0.00002016
     atom   55 type  2   force =    -0.00001817   -0.00001658    0.00002022
     atom   56 type  2   force =     0.00002552    0.00001122   -0.00001279
     atom   57 type  2   force =     0.00001706    0.00001096   -0.00002374
     atom   58 type  2   force =     0.00001703    0.00000926   -0.00001304
     atom   59 type  2   force =     0.00001468    0.00000283    0.00000004
     atom   60 type  2   force =     0.00000314    0.00000263   -0.00001097
     atom   61 type  2   force =    -0.00001108    0.00001259   -0.00000173
     atom   62 type  2   force =     0.00000109    0.00000978   -0.00002287
     atom   63 type  2   force =    -0.00001491   -0.00000625   -0.00002000

     Total force =     0.127405     Total SCF correction =     0.000228

     Writing all to output data dir ./pwscf.save/ :
     XML data file, charge density, pseudopotentials, collected wavefunctions
 
     init_run     :      0.41s CPU      0.59s WALL (       1 calls)
     electrons    :     12.52s CPU     12.87s WALL (       1 calls)
     forces       :      0.21s CPU      0.21s WALL (       1 calls)

     Called by init_run:
     wfcinit      :      0.12s CPU      0.13s WALL (       1 calls)
     wfcinit:wfcr :      0.12s CPU      0.12s WALL (       1 calls)
     potinit      :      0.20s CPU      0.21s WALL (       1 calls)
     hinit0       :      0.03s CPU      0.19s WALL (       1 calls)

     Called by electrons:
     c_bands      :      9.38s CPU      9.63s WALL (      14 calls)
     sum_band     :      0.93s CPU      0.95s WALL (      14 calls)
     v_of_rho     :      0.52s CPU      0.53s WALL (      15 calls)
     v_h          :      0.10s CPU      0.10s WALL (      15 calls)
     v_xc         :      0.42s CPU      0.42s WALL (      15 calls)
     mix_rho      :      0.09s CPU      0.09s WALL (      14 calls)

     Called by c_bands:
     init_us_2    :      0.02s CPU      0.03s WALL (      30 calls)
     regterg      :      9.05s CPU      9.29s WALL (      14 calls)

     Called by sum_band:
     sum_band:wei :      0.03s CPU      0.03s WALL (      14 calls)
     sum_band:loo :      0.52s CPU      0.52s WALL (      14 calls)
     sum_band:buf :      0.00s CPU      0.00s WALL (      14 calls)
     sum_band:ini :      0.01s CPU      0.01s WALL (      14 calls)

     Called by *egterg:
     rdiaghg      :      4.17s CPU      4.34s WALL (     270 calls)
     regterg:over :      0.25s CPU      0.26s WALL (     256 calls)
     regterg:upda :      0.27s CPU      0.27s WALL (     256 calls)
     regterg:last :      0.34s CPU      0.34s WALL (      52 calls)
     rdiaghg:chol :      0.14s CPU      0.14s WALL (     270 calls)
     rdiaghg:inve :      0.03s CPU      0.03s WALL (     270 calls)
     rdiaghg:para :      0.43s CPU      0.45s WALL (     540 calls)
     h_psi        :      3.94s CPU      4.01s WALL (     271 calls)
     g_psi        :      0.00s CPU      0.00s WALL (     256 calls)

     Called by h_psi:
     h_psi:calbec :      0.71s CPU      0.72s WALL (     271 calls)
     vloc_psi     :      3.11s CPU      3.17s WALL (     271 calls)
                                        0.00s GPU  (     271 calls)
     add_vuspsi   :      0.11s CPU      0.11s WALL (     271 calls)

     General routines
     calbec       :      0.73s CPU      0.74s WALL (     275 calls)
     fft          :      0.28s CPU      0.46s WALL (     196 calls)
     ffts         :      0.03s CPU      0.04s WALL (      14 calls)
     fftw         :      3.52s CPU      3.57s WALL (   10096 calls)
 
     Parallel routines
 
     PWSCF        :     14.64s CPU     15.50s WALL

 
   This run was terminated on:  16:16:15  16Nov2025            

=------------------------------------------------------------------------------=
   JOB DONE.
=------------------------------------------------------------------------------=
