
     Program PWSCF v.7.5 starts on 16Nov2025 at 16:22:18 

     This program is part of the open-source Quantum ESPRESSO suite
     for quantum simulation of materials; please cite
         "P. Giannozzi et al., J. Phys.:Condens. Matter 21 395502 (2009);
         "P. Giannozzi et al., J. Phys.:Condens. Matter 29 465901 (2017);
         "P. Giannozzi et al., J. Chem. Phys. 152 154105 (2020);
          URL http://www.quantum-espresso.org", 
     in publications or presentations arising from this work. More details at
     http://www.quantum-espresso.org/quote

     Parallel version (MPI), running on    96 processors

     MPI processes distributed on     2 nodes
     174618 MiB available memory on the printing compute node when the environment starts
 
     Reading input from supercell-185.in

     Current dimensions of program PWSCF are:
     Max number of different atomic species (ntypx) = 10
     Max number of k-points (npk) =  40000
     Max angular momentum in pseudopotentials (lmaxx) =  4

     gamma-point specific algorithms are used
 
     K-points division:     npool     =       2
     R & G space division:  proc/nbgrp/npool/nimage =      48
     Subspace diagonalization in iterative solution of the eigenvalue problem:
     one sub-group per band group will be used
     scalapack distributed-memory algorithm (size of sub-group:  2*  2 procs)

 
     Parallelization info
     --------------------
     sticks:   dense  smooth     PW     G-vecs:    dense   smooth      PW
     Min          59      59     14                 2432     2432     302
     Max          62      62     16                 2442     2442     316
     Sum        2885    2885    725               116921   116921   14771
 
     Using Slab Decomposition
 


     bravais-lattice index     =            0
     lattice parameter (alat)  =      13.4813  a.u.
     unit-cell volume          =    2450.1683 (a.u.)^3
     number of atoms/cell      =           63
     number of atomic types    =            2
     number of electrons       =       254.00 (up: 128.00, down: 126.00)
     number of Kohn-Sham states=          152
     kinetic-energy cutoff     =      50.0000  Ry
     charge density cutoff     =     200.0000  Ry
     scf convergence threshold =      1.0E-08
     mixing beta               =       0.7000
     number of iterations used =            8  plain     mixing
     Exchange-correlation= PBE
                           (   1   4   3   4   0   0   0)

     celldm(1)=  13.481306  celldm(2)=   0.000000  celldm(3)=   0.000000
     celldm(4)=   0.000000  celldm(5)=   0.000000  celldm(6)=   0.000000

     crystal axes: (cart. coord. in units of alat)
               a(1) = (   1.000000   0.000000   0.000000 )  
               a(2) = (   0.000000   1.000000   0.000000 )  
               a(3) = (   0.000000   0.000000   1.000000 )  

     reciprocal axes: (cart. coord. in units 2 pi/alat)
               b(1) = (  1.000000  0.000000  0.000000 )  
               b(2) = (  0.000000  1.000000  0.000000 )  
               b(3) = (  0.000000  0.000000  1.000000 )  


     PseudoPot. # 1 for N  read from file:
     ./N_ONCV_PBE-1.2.upf
     MD5 check sum: 5312fdf34e96954e02a33bdc911c617a
     Pseudo is Norm-conserving, Zval =  5.0
     Generated using ONCVPSP code by D. R. Hamann
     Using radial grid of  602 points,  4 beta functions with: 
                l(1) =   0
                l(2) =   0
                l(3) =   1
                l(4) =   1

     PseudoPot. # 2 for C  read from file:
     ./C_ONCV_PBE-1.2.upf
     MD5 check sum: d60b57d9bdca4133f5fde4b584ee909d
     Pseudo is Norm-conserving, Zval =  4.0
     Generated using ONCVPSP code by D. R. Hamann
     Using radial grid of  602 points,  4 beta functions with: 
                l(1) =   0
                l(2) =   0
                l(3) =   1
                l(4) =   1

     atomic species   valence    mass     pseudopotential
     N                 5.00    14.00670     N ( 1.00)
     C                 4.00    12.01070     C ( 1.00)

     Starting magnetic structure 
     atomic species   magnetization
     N               0.000
     C               0.000

     No symmetry found


                                    s                        frac. trans.

      isym =  1     identity                                     

 cryst.   s( 1) = (     1          0          0      )
                  (     0          1          0      )
                  (     0          0          1      )

 cart.    s( 1) = (  1.0000000  0.0000000  0.0000000 )
                  (  0.0000000  1.0000000  0.0000000 )
                  (  0.0000000  0.0000000  1.0000000 )


   Cartesian axes

     site n.     atom                  positions (alat units)
         1        N      tau(   1) = (   0.9893819   0.9897344   0.9891721  )
         2        C      tau(   2) = (   0.9870277   0.2601210   0.2640728  )
         3        C      tau(   3) = (   0.1231717   0.3731672   0.3742038  )
         4        C      tau(   4) = (   0.2603919   0.9894620   0.2619202  )
         5        C      tau(   5) = (   0.3737632   0.1246771   0.3741571  )
         6        C      tau(   6) = (   0.2640151   0.2616009   0.9853609  )
         7        C      tau(   7) = (   0.3737752   0.3731213   0.1223564  )
         8        C      tau(   8) = (   0.0000049   0.0005840   0.4991361  )
         9        C      tau(   9) = (   0.1251361   0.1251278   0.6250981  )
        10        C      tau(  10) = (   0.0020393   0.2482470   0.7515266  )
        11        C      tau(  11) = (   0.1292009   0.3733021   0.8763303  )
        12        C      tau(  12) = (   0.2487801   0.0017974   0.7514403  )
        13        C      tau(  13) = (   0.3754339   0.1292460   0.8748544  )
        14        C      tau(  14) = (   0.2491579   0.2495268   0.4995755  )
        15        C      tau(  15) = (   0.3750038   0.3749547   0.6244069  )
        16        C      tau(  16) = (   0.0016366   0.4979779   0.0013734  )
        17        C      tau(  17) = (   0.1250869   0.6243147   0.1250807  )
        18        C      tau(  18) = (   0.0014462   0.7520697   0.2483230  )
        19        C      tau(  19) = (   0.1266755   0.8769178   0.3741906  )
        20        C      tau(  20) = (   0.2488290   0.4983596   0.2486760  )
        21        C      tau(  21) = (   0.3741642   0.6242659   0.3742111  )
        22        C      tau(  22) = (   0.2480673   0.7520817   0.0015447  )
        23        C      tau(  23) = (   0.3729914   0.8777475   0.1265606  )
        24        C      tau(  24) = (   0.0000493   0.5010760   0.5011299  )
        25        C      tau(  25) = (   0.1252054   0.6262200   0.6252733  )
        26        C      tau(  26) = (   0.9993969   0.7487112   0.7492532  )
        27        C      tau(  27) = (   0.1217927   0.8768349   0.8763928  )
        28        C      tau(  28) = (   0.2492749   0.5017254   0.7482724  )
        29        C      tau(  29) = (   0.3741000   0.6263042   0.8750769  )
        30        C      tau(  30) = (   0.2487293   0.7486845   0.5007616  )
        31        C      tau(  31) = (   0.3739266   0.8750581   0.6273663  )
        32        C      tau(  32) = (   0.4987543   0.0011228   0.0002828  )
        33        C      tau(  33) = (   0.6248203   0.1251003   0.1251034  )
        34        C      tau(  34) = (   0.4991217   0.2493918   0.2488717  )
        35        C      tau(  35) = (   0.6243080   0.3746888   0.3747831  )
        36        C      tau(  36) = (   0.7516460   0.0016191   0.2487956  )
        37        C      tau(  37) = (   0.8750430   0.1283649   0.3757598  )
        38        C      tau(  38) = (   0.7517475   0.2480080   0.0019610  )
        39        C      tau(  39) = (   0.8773622   0.3724247   0.1282033  )
        40        C      tau(  40) = (   0.5008161   0.9999897   0.5008301  )
        41        C      tau(  41) = (   0.6256173   0.1249721   0.6252590  )
        42        C      tau(  42) = (   0.5022259   0.2488088   0.7478265  )
        43        C      tau(  43) = (   0.6264784   0.3739683   0.8752045  )
        44        C      tau(  44) = (   0.7487945   0.9989046   0.7489691  )
        45        C      tau(  45) = (   0.8764746   0.1216998   0.8763156  )
        46        C      tau(  46) = (   0.7479635   0.2486819   0.5018806  )
        47        C      tau(  47) = (   0.8751980   0.3739245   0.6263738  )
        48        C      tau(  48) = (   0.5012000   0.5011574   0.0001136  )
        49        C      tau(  49) = (   0.6256259   0.6262099   0.1252968  )
        50        C      tau(  50) = (   0.5005188   0.7489091   0.2490095  )
        51        C      tau(  51) = (   0.6258050   0.8750157   0.3740056  )
        52        C      tau(  52) = (   0.7486304   0.5011458   0.2494302  )
        53        C      tau(  53) = (   0.8750247   0.6261269   0.3741365  )
        54        C      tau(  54) = (   0.7492281   0.7488562   0.9996087  )
        55        C      tau(  55) = (   0.8766209   0.8769033   0.1218021  )
        56        C      tau(  56) = (   0.4990819   0.4992903   0.4990317  )
        57        C      tau(  57) = (   0.6247789   0.6244471   0.6249452  )
        58        C      tau(  58) = (   0.4991767   0.7499842   0.7500845  )
        59        C      tau(  59) = (   0.6239946   0.8751464   0.8754130  )
        60        C      tau(  60) = (   0.7505316   0.4989321   0.7505826  )
        61        C      tau(  61) = (   0.8758455   0.6234984   0.8759288  )
        62        C      tau(  62) = (   0.7498244   0.7497799   0.4993198  )
        63        C      tau(  63) = (   0.8750855   0.8749084   0.6242568  )

   Crystallographic axes

     site n.     atom                  positions (cryst. coord.)
         1        N      tau(   1) = (  0.9893819  0.9897344  0.9891721  )
         2        C      tau(   2) = (  0.9870277  0.2601210  0.2640728  )
         3        C      tau(   3) = (  0.1231717  0.3731672  0.3742038  )
         4        C      tau(   4) = (  0.2603919  0.9894620  0.2619202  )
         5        C      tau(   5) = (  0.3737632  0.1246771  0.3741571  )
         6        C      tau(   6) = (  0.2640151  0.2616009  0.9853609  )
         7        C      tau(   7) = (  0.3737752  0.3731213  0.1223564  )
         8        C      tau(   8) = (  0.0000049  0.0005840  0.4991361  )
         9        C      tau(   9) = (  0.1251361  0.1251278  0.6250981  )
        10        C      tau(  10) = (  0.0020393  0.2482470  0.7515266  )
        11        C      tau(  11) = (  0.1292009  0.3733021  0.8763303  )
        12        C      tau(  12) = (  0.2487801  0.0017974  0.7514403  )
        13        C      tau(  13) = (  0.3754339  0.1292460  0.8748544  )
        14        C      tau(  14) = (  0.2491579  0.2495268  0.4995755  )
        15        C      tau(  15) = (  0.3750038  0.3749547  0.6244069  )
        16        C      tau(  16) = (  0.0016366  0.4979779  0.0013734  )
        17        C      tau(  17) = (  0.1250869  0.6243147  0.1250807  )
        18        C      tau(  18) = (  0.0014462  0.7520697  0.2483230  )
        19        C      tau(  19) = (  0.1266755  0.8769178  0.3741906  )
        20        C      tau(  20) = (  0.2488290  0.4983596  0.2486760  )
        21        C      tau(  21) = (  0.3741642  0.6242659  0.3742111  )
        22        C      tau(  22) = (  0.2480673  0.7520817  0.0015447  )
        23        C      tau(  23) = (  0.3729914  0.8777475  0.1265606  )
        24        C      tau(  24) = (  0.0000493  0.5010760  0.5011299  )
        25        C      tau(  25) = (  0.1252054  0.6262200  0.6252733  )
        26        C      tau(  26) = (  0.9993969  0.7487112  0.7492532  )
        27        C      tau(  27) = (  0.1217927  0.8768349  0.8763928  )
        28        C      tau(  28) = (  0.2492749  0.5017254  0.7482724  )
        29        C      tau(  29) = (  0.3741000  0.6263042  0.8750769  )
        30        C      tau(  30) = (  0.2487293  0.7486845  0.5007616  )
        31        C      tau(  31) = (  0.3739266  0.8750581  0.6273663  )
        32        C      tau(  32) = (  0.4987543  0.0011228  0.0002828  )
        33        C      tau(  33) = (  0.6248203  0.1251003  0.1251034  )
        34        C      tau(  34) = (  0.4991217  0.2493918  0.2488717  )
        35        C      tau(  35) = (  0.6243080  0.3746888  0.3747831  )
        36        C      tau(  36) = (  0.7516460  0.0016191  0.2487956  )
        37        C      tau(  37) = (  0.8750430  0.1283649  0.3757598  )
        38        C      tau(  38) = (  0.7517475  0.2480080  0.0019610  )
        39        C      tau(  39) = (  0.8773622  0.3724247  0.1282033  )
        40        C      tau(  40) = (  0.5008161  0.9999897  0.5008301  )
        41        C      tau(  41) = (  0.6256173  0.1249721  0.6252590  )
        42        C      tau(  42) = (  0.5022259  0.2488088  0.7478265  )
        43        C      tau(  43) = (  0.6264784  0.3739683  0.8752045  )
        44        C      tau(  44) = (  0.7487945  0.9989046  0.7489691  )
        45        C      tau(  45) = (  0.8764746  0.1216998  0.8763156  )
        46        C      tau(  46) = (  0.7479635  0.2486819  0.5018806  )
        47        C      tau(  47) = (  0.8751980  0.3739245  0.6263738  )
        48        C      tau(  48) = (  0.5012000  0.5011574  0.0001136  )
        49        C      tau(  49) = (  0.6256259  0.6262099  0.1252968  )
        50        C      tau(  50) = (  0.5005188  0.7489091  0.2490095  )
        51        C      tau(  51) = (  0.6258050  0.8750157  0.3740056  )
        52        C      tau(  52) = (  0.7486304  0.5011458  0.2494302  )
        53        C      tau(  53) = (  0.8750247  0.6261269  0.3741365  )
        54        C      tau(  54) = (  0.7492281  0.7488562  0.9996087  )
        55        C      tau(  55) = (  0.8766209  0.8769033  0.1218021  )
        56        C      tau(  56) = (  0.4990819  0.4992903  0.4990317  )
        57        C      tau(  57) = (  0.6247789  0.6244471  0.6249452  )
        58        C      tau(  58) = (  0.4991767  0.7499842  0.7500845  )
        59        C      tau(  59) = (  0.6239946  0.8751464  0.8754130  )
        60        C      tau(  60) = (  0.7505316  0.4989321  0.7505826  )
        61        C      tau(  61) = (  0.8758455  0.6234984  0.8759288  )
        62        C      tau(  62) = (  0.7498244  0.7497799  0.4993198  )
        63        C      tau(  63) = (  0.8750855  0.8749084  0.6242568  )

     number of k points=     1
                       cart. coord. in units 2pi/alat
        k(    1) = (   0.0000000   0.0000000   0.0000000), wk =   1.0000000

                       cryst. coord.
        k(    1) = (   0.0000000   0.0000000   0.0000000), wk =   1.0000000

     Dense  grid:    58461 G-vectors     FFT dimensions: (  64,  64,  64)

     Dynamical RAM for                 wfc:       0.35 MB

     Dynamical RAM for     wfc (w. buffer):       0.35 MB

     Dynamical RAM for           str. fact:       0.04 MB

     Dynamical RAM for           local pot:       0.00 MB

     Dynamical RAM for          nlocal pot:       1.17 MB

     Dynamical RAM for                qrad:       0.65 MB

     Dynamical RAM for          rho,v,vnew:       0.49 MB

     Dynamical RAM for               rhoin:       0.16 MB

     Dynamical RAM for            rho*nmix:       0.60 MB

     Dynamical RAM for           G-vectors:       0.08 MB

     Dynamical RAM for          h,s,v(r/c):       0.53 MB

     Dynamical RAM for          <psi|beta>:       0.58 MB

     Dynamical RAM for                 psi:       0.71 MB

     Dynamical RAM for                hpsi:       0.71 MB

     Dynamical RAM for      wfcinit/wfcrot:       1.24 MB

     Estimated static dynamical RAM per process >       3.37 MB

     Estimated max dynamical RAM per process >       6.49 MB

     Estimated total dynamical RAM >     594.05 MB
     Generating pointlists ...
     new r_m :   0.0854 (alat units)  1.1518 (a.u.) for type    1
     new r_m :   0.0847 (alat units)  1.1416 (a.u.) for type    2

     Initial potential from superposition of free atoms

     starting charge     252.5655, renormalised to     254.0000
     Starting wfcs are random

     total cpu time spent up to now is        1.5 secs

     Self-consistent Calculation

     iteration #  1     ecut=    50.00 Ry     beta= 0.70
     Davidson diagonalization with overlap

---- Real-time Memory Report at c_bands before calling an iterative solver
           160 MiB given to the printing process from OS
             0 MiB allocation reported by mallinfo(arena+hblkhd)
        173662 MiB available memory on the node where the printing process lives
------------------
     ethr =  1.00E-02,  avg # of iterations = 12.0

     total cpu time spent up to now is        2.2 secs

     total energy              =    -723.27029886 Ry
     estimated scf accuracy    <       3.70942294 Ry

     total magnetization       =     2.00 Bohr mag/cell
     absolute magnetization    =     2.00 Bohr mag/cell

     iteration #  2     ecut=    50.00 Ry     beta= 0.70
     Davidson diagonalization with overlap

---- Real-time Memory Report at c_bands before calling an iterative solver
           165 MiB given to the printing process from OS
             0 MiB allocation reported by mallinfo(arena+hblkhd)
        173603 MiB available memory on the node where the printing process lives
------------------
     ethr =  1.46E-03,  avg # of iterations = 11.5

     total cpu time spent up to now is        2.7 secs

     total energy              =    -723.66142838 Ry
     estimated scf accuracy    <       0.45649248 Ry

     total magnetization       =     2.00 Bohr mag/cell
     absolute magnetization    =     2.07 Bohr mag/cell

     iteration #  3     ecut=    50.00 Ry     beta= 0.70
     Davidson diagonalization with overlap

---- Real-time Memory Report at c_bands before calling an iterative solver
           165 MiB given to the printing process from OS
             0 MiB allocation reported by mallinfo(arena+hblkhd)
        173604 MiB available memory on the node where the printing process lives
------------------
     c_bands:  2 eigenvalues not converged
     ethr =  1.80E-04,  avg # of iterations = 20.0

     total cpu time spent up to now is        3.2 secs

     total energy              =    -723.72624714 Ry
     estimated scf accuracy    <       0.86873774 Ry

     total magnetization       =     2.00 Bohr mag/cell
     absolute magnetization    =     2.12 Bohr mag/cell

     iteration #  4     ecut=    50.00 Ry     beta= 0.70
     Davidson diagonalization with overlap

---- Real-time Memory Report at c_bands before calling an iterative solver
           166 MiB given to the printing process from OS
             0 MiB allocation reported by mallinfo(arena+hblkhd)
        173606 MiB available memory on the node where the printing process lives
------------------
     c_bands:  1 eigenvalues not converged
     ethr =  1.80E-04,  avg # of iterations = 20.0

     total cpu time spent up to now is        3.7 secs

     total energy              =    -723.90106111 Ry
     estimated scf accuracy    <       0.00969298 Ry

     total magnetization       =     2.00 Bohr mag/cell
     absolute magnetization    =     2.19 Bohr mag/cell

     iteration #  5     ecut=    50.00 Ry     beta= 0.70
     Davidson diagonalization with overlap

---- Real-time Memory Report at c_bands before calling an iterative solver
           166 MiB given to the printing process from OS
             0 MiB allocation reported by mallinfo(arena+hblkhd)
        173599 MiB available memory on the node where the printing process lives
------------------
     c_bands:  3 eigenvalues not converged
     ethr =  3.82E-06,  avg # of iterations = 20.0

     total cpu time spent up to now is        7.5 secs

     total energy              =    -723.90598871 Ry
     estimated scf accuracy    <       0.00410077 Ry

     total magnetization       =     2.00 Bohr mag/cell
     absolute magnetization    =     2.23 Bohr mag/cell

     iteration #  6     ecut=    50.00 Ry     beta= 0.70
     Davidson diagonalization with overlap

---- Real-time Memory Report at c_bands before calling an iterative solver
           167 MiB given to the printing process from OS
             0 MiB allocation reported by mallinfo(arena+hblkhd)
        173604 MiB available memory on the node where the printing process lives
------------------
     c_bands:  3 eigenvalues not converged
     ethr =  1.61E-06,  avg # of iterations = 20.0

     total cpu time spent up to now is        9.4 secs

     total energy              =    -723.90674094 Ry
     estimated scf accuracy    <       0.00087432 Ry

     total magnetization       =     2.00 Bohr mag/cell
     absolute magnetization    =     2.25 Bohr mag/cell

     iteration #  7     ecut=    50.00 Ry     beta= 0.70
     Davidson diagonalization with overlap

---- Real-time Memory Report at c_bands before calling an iterative solver
           167 MiB given to the printing process from OS
             0 MiB allocation reported by mallinfo(arena+hblkhd)
        173593 MiB available memory on the node where the printing process lives
------------------
     c_bands:  1 eigenvalues not converged
     ethr =  3.44E-07,  avg # of iterations = 20.0

     total cpu time spent up to now is       11.5 secs

     total energy              =    -723.90696746 Ry
     estimated scf accuracy    <       0.00012066 Ry

     total magnetization       =     2.00 Bohr mag/cell
     absolute magnetization    =     2.27 Bohr mag/cell

     iteration #  8     ecut=    50.00 Ry     beta= 0.70
     Davidson diagonalization with overlap

---- Real-time Memory Report at c_bands before calling an iterative solver
           167 MiB given to the printing process from OS
             0 MiB allocation reported by mallinfo(arena+hblkhd)
        173599 MiB available memory on the node where the printing process lives
------------------
     c_bands:  3 eigenvalues not converged
     ethr =  4.75E-08,  avg # of iterations = 20.0

     total cpu time spent up to now is       12.0 secs

     total energy              =    -723.90700735 Ry
     estimated scf accuracy    <       0.00002839 Ry

     total magnetization       =     2.00 Bohr mag/cell
     absolute magnetization    =     2.28 Bohr mag/cell

     iteration #  9     ecut=    50.00 Ry     beta= 0.70
     Davidson diagonalization with overlap

---- Real-time Memory Report at c_bands before calling an iterative solver
           167 MiB given to the printing process from OS
             0 MiB allocation reported by mallinfo(arena+hblkhd)
        173602 MiB available memory on the node where the printing process lives
------------------
     c_bands:  3 eigenvalues not converged
     ethr =  1.12E-08,  avg # of iterations = 20.0

     total cpu time spent up to now is       13.3 secs

     total energy              =    -723.90701767 Ry
     estimated scf accuracy    <       0.00000778 Ry

     total magnetization       =     2.00 Bohr mag/cell
     absolute magnetization    =     2.29 Bohr mag/cell

     iteration # 10     ecut=    50.00 Ry     beta= 0.70
     Davidson diagonalization with overlap

---- Real-time Memory Report at c_bands before calling an iterative solver
           167 MiB given to the printing process from OS
             0 MiB allocation reported by mallinfo(arena+hblkhd)
        173593 MiB available memory on the node where the printing process lives
------------------
     c_bands:  3 eigenvalues not converged
     ethr =  3.06E-09,  avg # of iterations = 20.0

     total cpu time spent up to now is       14.5 secs

     total energy              =    -723.90702121 Ry
     estimated scf accuracy    <       0.00000084 Ry

     total magnetization       =     2.00 Bohr mag/cell
     absolute magnetization    =     2.29 Bohr mag/cell

     iteration # 11     ecut=    50.00 Ry     beta= 0.70
     Davidson diagonalization with overlap

---- Real-time Memory Report at c_bands before calling an iterative solver
           167 MiB given to the printing process from OS
             0 MiB allocation reported by mallinfo(arena+hblkhd)
        173605 MiB available memory on the node where the printing process lives
------------------
     c_bands:  1 eigenvalues not converged
     ethr =  3.31E-10,  avg # of iterations = 20.0

     total cpu time spent up to now is       15.3 secs

     total energy              =    -723.90702186 Ry
     estimated scf accuracy    <       0.00000024 Ry

     total magnetization       =     2.00 Bohr mag/cell
     absolute magnetization    =     2.30 Bohr mag/cell

     iteration # 12     ecut=    50.00 Ry     beta= 0.70
     Davidson diagonalization with overlap

---- Real-time Memory Report at c_bands before calling an iterative solver
           167 MiB given to the printing process from OS
             0 MiB allocation reported by mallinfo(arena+hblkhd)
        173603 MiB available memory on the node where the printing process lives
------------------
     c_bands:  1 eigenvalues not converged
     ethr =  9.38E-11,  avg # of iterations = 20.0

     total cpu time spent up to now is       15.8 secs

     total energy              =    -723.90702198 Ry
     estimated scf accuracy    <       0.00000009 Ry

     total magnetization       =     2.00 Bohr mag/cell
     absolute magnetization    =     2.30 Bohr mag/cell

     iteration # 13     ecut=    50.00 Ry     beta= 0.70
     Davidson diagonalization with overlap

---- Real-time Memory Report at c_bands before calling an iterative solver
           167 MiB given to the printing process from OS
             0 MiB allocation reported by mallinfo(arena+hblkhd)
        173603 MiB available memory on the node where the printing process lives
------------------
     ethr =  3.69E-11,  avg # of iterations = 19.0

     total cpu time spent up to now is       16.4 secs

     total energy              =    -723.90702202 Ry
     estimated scf accuracy    <       0.00000003 Ry

     total magnetization       =     2.00 Bohr mag/cell
     absolute magnetization    =     2.30 Bohr mag/cell

     iteration # 14     ecut=    50.00 Ry     beta= 0.70
     Davidson diagonalization with overlap

---- Real-time Memory Report at c_bands before calling an iterative solver
           167 MiB given to the printing process from OS
             0 MiB allocation reported by mallinfo(arena+hblkhd)
        173601 MiB available memory on the node where the printing process lives
------------------
     ethr =  1.09E-11,  avg # of iterations = 19.0
 
     Magnetic moment per site  (integrated on atomic sphere of radius R)
     atom   1 (R=0.085)  charge=  2.9143  magn=  0.0042
     atom   2 (R=0.085)  charge=  1.8170  magn=  0.2449
     atom   3 (R=0.085)  charge=  1.7930  magn= -0.0087
     atom   4 (R=0.085)  charge=  1.8051  magn=  0.2456
     atom   5 (R=0.085)  charge=  1.7931  magn= -0.0087
     atom   6 (R=0.085)  charge=  1.8233  magn=  0.2449
     atom   7 (R=0.085)  charge=  1.7933  magn= -0.0087
     atom   8 (R=0.085)  charge=  1.7860  magn=  0.0091
     atom   9 (R=0.085)  charge=  1.7962  magn= -0.0019
     atom  10 (R=0.085)  charge=  1.7833  magn=  0.0060
     atom  11 (R=0.085)  charge=  1.7969  magn= -0.0042
     atom  12 (R=0.085)  charge=  1.7841  magn=  0.0061
     atom  13 (R=0.085)  charge=  1.8041  magn= -0.0039
     atom  14 (R=0.085)  charge=  1.7892  magn=  0.0085
     atom  15 (R=0.085)  charge=  1.7873  magn= -0.0020
     atom  16 (R=0.085)  charge=  1.7820  magn=  0.0089
     atom  17 (R=0.085)  charge=  1.7956  magn= -0.0018
     atom  18 (R=0.085)  charge=  1.7822  magn=  0.0057
     atom  19 (R=0.085)  charge=  1.7952  magn= -0.0035
     atom  20 (R=0.085)  charge=  1.7834  magn=  0.0083
     atom  21 (R=0.085)  charge=  1.7846  magn= -0.0020
     atom  22 (R=0.085)  charge=  1.7829  magn=  0.0057
     atom  23 (R=0.085)  charge=  1.7905  magn= -0.0037
     atom  24 (R=0.085)  charge=  1.7825  magn=  0.0182
     atom  25 (R=0.085)  charge=  1.8068  magn=  0.0094
     atom  26 (R=0.085)  charge=  1.7935  magn=  0.0032
     atom  27 (R=0.085)  charge=  1.7590  magn=  0.0001
     atom  28 (R=0.085)  charge=  1.7896  magn=  0.0221
     atom  29 (R=0.085)  charge=  1.7825  magn= -0.0013
     atom  30 (R=0.085)  charge=  1.7882  magn=  0.0211
     atom  31 (R=0.085)  charge=  1.7816  magn= -0.0013
     atom  32 (R=0.085)  charge=  1.7844  magn=  0.0090
     atom  33 (R=0.085)  charge=  1.7960  magn= -0.0019
     atom  34 (R=0.085)  charge=  1.7868  magn=  0.0084
     atom  35 (R=0.085)  charge=  1.7865  magn= -0.0020
     atom  36 (R=0.085)  charge=  1.7818  magn=  0.0059
     atom  37 (R=0.085)  charge=  1.8033  magn= -0.0036
     atom  38 (R=0.085)  charge=  1.7836  magn=  0.0058
     atom  39 (R=0.085)  charge=  1.7914  magn= -0.0041
     atom  40 (R=0.085)  charge=  1.7817  magn=  0.0181
     atom  41 (R=0.085)  charge=  1.8110  magn=  0.0094
     atom  42 (R=0.085)  charge=  1.7948  magn=  0.0218
     atom  43 (R=0.085)  charge=  1.7819  magn= -0.0013
     atom  44 (R=0.085)  charge=  1.7937  magn=  0.0032
     atom  45 (R=0.085)  charge=  1.7589  magn= -0.0000
     atom  46 (R=0.085)  charge=  1.7948  magn=  0.0215
     atom  47 (R=0.085)  charge=  1.7819  magn= -0.0013
     atom  48 (R=0.085)  charge=  1.7820  magn=  0.0184
     atom  49 (R=0.085)  charge=  1.8043  magn=  0.0094
     atom  50 (R=0.085)  charge=  1.7873  magn=  0.0212
     atom  51 (R=0.085)  charge=  1.7824  magn= -0.0013
     atom  52 (R=0.085)  charge=  1.7869  magn=  0.0218
     atom  53 (R=0.085)  charge=  1.7826  magn= -0.0013
     atom  54 (R=0.085)  charge=  1.7935  magn=  0.0032
     atom  55 (R=0.085)  charge=  1.7588  magn=  0.0001
     atom  56 (R=0.085)  charge=  1.7914  magn=  0.0009
     atom  57 (R=0.085)  charge=  1.7831  magn=  0.0010
     atom  58 (R=0.085)  charge=  1.7933  magn=  0.0018
     atom  59 (R=0.085)  charge=  1.7880  magn= -0.0009
     atom  60 (R=0.085)  charge=  1.7910  magn=  0.0017
     atom  61 (R=0.085)  charge=  1.7854  magn= -0.0009
     atom  62 (R=0.085)  charge=  1.7913  magn=  0.0019
     atom  63 (R=0.085)  charge=  1.7891  magn= -0.0009

     total cpu time spent up to now is       17.6 secs

     End of self-consistent calculation

 ------ SPIN UP ------------


          k = 0.0000 0.0000 0.0000 (  7386 PWs)   bands (ev):

    -8.5510  -6.9218  -6.2855  -6.2718  -6.1950  -6.1553  -5.8828  -4.9118
    -4.1418  -4.1311  -4.1258  -4.0938  -4.0317  -4.0208  -4.0117  -3.9182
    -3.8729  -3.8581  -3.3604  -2.9287  -2.6754  -2.6753  -2.1629  -0.3626
    -0.3531  -0.3298  -0.2818  -0.0768   0.1720   0.1916   0.2820   0.2942
     0.3696   0.6195   0.8364   0.8436   0.9523   0.9712   0.9860   1.0548
     1.0656   1.0681   1.2643   1.2960   3.0702   3.9079   3.9270   4.0681
     4.1902   4.2086   4.2206   4.2765   4.2805   4.2867   4.4213   4.4256
     4.4951   4.4974   4.5669   4.6604   4.6847   4.6909   4.6919   4.7868
     4.7961   4.9208   4.9641   4.9699   5.0494   5.1995   5.2077   5.2997
     5.3617   5.3723   5.3995   5.4033   5.4083   6.0428   6.0472   6.1016
     6.6632   6.6658   6.7243   6.9914   7.0034   7.0398   7.5213   8.3321
     8.3366   8.4110   8.4689   8.4902   8.6917   8.7079   8.7906   8.8282
     8.8457   8.8535   8.8947   8.8986   8.9011   9.2845   9.2875   9.3229
     9.6846   9.7035   9.9017   9.9054   9.9445   9.9566   9.9636   9.9834
     9.9869  10.0283  10.0384  10.0595  10.1246  10.1402  10.2680  10.3248
    10.3336  11.0532  12.2898  12.4184  12.4290  13.9572  14.6915  14.7989
    17.3406  17.3783  17.4041  17.5219  17.5759  17.5821  17.8531  17.9245
    17.9357  18.0397  18.0643  18.3707  18.9943  18.9999  19.0246  20.6955
    20.7943  20.8188  20.8738  20.9392  20.9484  21.0282  21.0389  21.0434

     occupation numbers 
     1.0000   1.0000   1.0000   1.0000   1.0000   1.0000   1.0000   1.0000
     1.0000   1.0000   1.0000   1.0000   1.0000   1.0000   1.0000   1.0000
     1.0000   1.0000   1.0000   1.0000   1.0000   1.0000   1.0000   1.0000
     1.0000   1.0000   1.0000   1.0000   1.0000   1.0000   1.0000   1.0000
     1.0000   1.0000   1.0000   1.0000   1.0000   1.0000   1.0000   1.0000
     1.0000   1.0000   1.0000   1.0000   1.0000   1.0000   1.0000   1.0000
     1.0000   1.0000   1.0000   1.0000   1.0000   1.0000   1.0000   1.0000
     1.0000   1.0000   1.0000   1.0000   1.0000   1.0000   1.0000   1.0000
     1.0000   1.0000   1.0000   1.0000   1.0000   1.0000   1.0000   1.0000
     1.0000   1.0000   1.0000   1.0000   1.0000   1.0000   1.0000   1.0000
     1.0000   1.0000   1.0000   1.0000   1.0000   1.0000   1.0000   1.0000
     1.0000   1.0000   1.0000   1.0000   1.0000   1.0000   1.0000   1.0000
     1.0000   1.0000   1.0000   1.0000   1.0000   1.0000   1.0000   1.0000
     1.0000   1.0000   1.0000   1.0000   1.0000   1.0000   1.0000   1.0000
     1.0000   1.0000   1.0000   1.0000   1.0000   1.0000   1.0000   1.0000
     1.0000   1.0000   1.0000   1.0000   1.0000   1.0000   1.0000   1.0000
     0.0000   0.0000   0.0000   0.0000   0.0000   0.0000   0.0000   0.0000
     0.0000   0.0000   0.0000   0.0000   0.0000   0.0000   0.0000   0.0000
     0.0000   0.0000   0.0000   0.0000   0.0000   0.0000   0.0000   0.0000

 ------ SPIN DOWN ----------


          k = 0.0000 0.0000 0.0000 (  7386 PWs)   bands (ev):

    -8.5256  -6.9074  -6.2633  -6.2482  -6.1508  -6.1131  -5.8456  -4.8950
    -4.1212  -4.1065  -4.0868  -4.0615  -3.9962  -3.9839  -3.9612  -3.9058
    -3.8371  -3.8202  -3.3182  -2.9101  -2.6228  -2.6218  -2.0179  -0.3452
    -0.3349  -0.3083  -0.2647  -0.0112   0.1909   0.2093   0.3190   0.3273
     0.3948   0.6541   0.8485   0.8554   0.9866   1.0019   1.0102   1.0716
     1.0814   1.0849   1.4299   1.4662   3.1841   3.9311   3.9492   4.0942
     4.2243   4.2510   4.2637   4.2910   4.2973   4.3147   4.4672   4.4717
     4.5185   4.5193   4.5908   4.6845   4.7035   4.7075   4.7129   4.8208
     4.8328   4.9339   4.9966   5.0014   5.1309   5.2334   5.2426   5.3235
     5.3764   5.3835   5.4197   5.4568   5.4676   6.1052   6.1066   6.1395
     6.6898   6.6930   6.7585   7.0772   7.0875   7.0995   7.6916   8.3714
     8.3761   8.4480   8.5042   8.5245   8.7259   8.7391   8.8265   8.8750
     8.8829   8.8880   8.9224   8.9289   8.9338   9.3211   9.3242   9.3500
     9.7123   9.7309   9.9248   9.9407   9.9563   9.9708   9.9776  10.0031
    10.0078  10.0631  10.0741  10.0761  10.1524  10.1661  10.3258  10.3787
    10.3884  11.4334  12.5606  12.5643  12.6036  14.4395  16.0167  16.1402
    17.3650  17.3960  17.4209  17.5493  17.6325  17.6385  17.8758  17.9440
    17.9538  18.0800  18.1046  18.4907  19.0429  19.0778  19.1121  20.7458
    20.8086  20.8329  20.8886  20.9563  20.9659  21.0445  21.0594  21.0683

     occupation numbers 
     1.0000   1.0000   1.0000   1.0000   1.0000   1.0000   1.0000   1.0000
     1.0000   1.0000   1.0000   1.0000   1.0000   1.0000   1.0000   1.0000
     1.0000   1.0000   1.0000   1.0000   1.0000   1.0000   1.0000   1.0000
     1.0000   1.0000   1.0000   1.0000   1.0000   1.0000   1.0000   1.0000
     1.0000   1.0000   1.0000   1.0000   1.0000   1.0000   1.0000   1.0000
     1.0000   1.0000   1.0000   1.0000   1.0000   1.0000   1.0000   1.0000
     1.0000   1.0000   1.0000   1.0000   1.0000   1.0000   1.0000   1.0000
     1.0000   1.0000   1.0000   1.0000   1.0000   1.0000   1.0000   1.0000
     1.0000   1.0000   1.0000   1.0000   1.0000   1.0000   1.0000   1.0000
     1.0000   1.0000   1.0000   1.0000   1.0000   1.0000   1.0000   1.0000
     1.0000   1.0000   1.0000   1.0000   1.0000   1.0000   1.0000   1.0000
     1.0000   1.0000   1.0000   1.0000   1.0000   1.0000   1.0000   1.0000
     1.0000   1.0000   1.0000   1.0000   1.0000   1.0000   1.0000   1.0000
     1.0000   1.0000   1.0000   1.0000   1.0000   1.0000   1.0000   1.0000
     1.0000   1.0000   1.0000   1.0000   1.0000   1.0000   1.0000   1.0000
     1.0000   1.0000   1.0000   1.0000   1.0000   1.0000   0.0000   0.0000
     0.0000   0.0000   0.0000   0.0000   0.0000   0.0000   0.0000   0.0000
     0.0000   0.0000   0.0000   0.0000   0.0000   0.0000   0.0000   0.0000
     0.0000   0.0000   0.0000   0.0000   0.0000   0.0000   0.0000   0.0000

     highest occupied, lowest unoccupied level (ev):    14.7989   16.0167

!    total energy              =    -723.90702204 Ry
     estimated scf accuracy    <          5.5E-09 Ry

     The total energy is the sum of the following terms:
     one-electron contribution =     232.28264072 Ry
     hartree contribution      =      70.33669965 Ry
     xc contribution           =    -226.77206914 Ry
     ewald contribution        =    -799.75429326 Ry

     total magnetization       =     2.00 Bohr mag/cell
     absolute magnetization    =     2.30 Bohr mag/cell

     convergence has been achieved in  14 iterations

     Forces acting on atoms (cartesian axes, Ry/au):

     atom    1 type  1   force =    -0.00283415   -0.00400920   -0.00247575
     atom    2 type  2   force =     0.03517542    0.01585851   -0.01260521
     atom    3 type  2   force =    -0.00931101    0.00865245    0.00622908
     atom    4 type  2   force =     0.00877038    0.02480227   -0.00282905
     atom    5 type  2   force =     0.00208475   -0.02181340    0.00226735
     atom    6 type  2   force =    -0.00829993    0.00835757    0.04346251
     atom    7 type  2   force =     0.01023997    0.01202254   -0.00209028
     atom    8 type  2   force =     0.00295951    0.00429012    0.00648061
     atom    9 type  2   force =    -0.00177590   -0.00509006   -0.00356726
     atom   10 type  2   force =     0.00094187    0.00124177    0.00758241
     atom   11 type  2   force =    -0.02862339    0.00592171   -0.00875496
     atom   12 type  2   force =    -0.00086587    0.00464770    0.00720158
     atom   13 type  2   force =    -0.00318857   -0.03929212   -0.00127185
     atom   14 type  2   force =     0.00344107    0.00218590   -0.00445686
     atom   15 type  2   force =    -0.00279303   -0.00133644   -0.00564173
     atom   16 type  2   force =     0.00013763   -0.00104419   -0.00100990
     atom   17 type  2   force =    -0.00142152    0.00636840    0.00017714
     atom   18 type  2   force =     0.00295517   -0.00029949    0.00103306
     atom   19 type  2   force =    -0.00858197   -0.00293172   -0.00457081
     atom   20 type  2   force =     0.00287132   -0.00428757    0.00359700
     atom   21 type  2   force =    -0.00081062   -0.00347943   -0.00153604
     atom   22 type  2   force =     0.00149518    0.00214674    0.00124870
     atom   23 type  2   force =    -0.00059962   -0.00713718   -0.00163077
     atom   24 type  2   force =     0.00955192    0.00535758    0.00444020
     atom   25 type  2   force =    -0.01269353   -0.01418639   -0.00460269
     atom   26 type  2   force =     0.01492017    0.00610059    0.00160547
     atom   27 type  2   force =    -0.02626836   -0.00822717   -0.00590600
     atom   28 type  2   force =     0.01050422    0.00076372    0.00580895
     atom   29 type  2   force =     0.00020415   -0.00232601   -0.00067417
     atom   30 type  2   force =     0.00838662    0.00732104    0.00791703
     atom   31 type  2   force =     0.00132061   -0.00138557   -0.02191072
     atom   32 type  2   force =     0.00315486    0.00381986    0.00140312
     atom   33 type  2   force =     0.00055485   -0.00439345   -0.00019309
     atom   34 type  2   force =    -0.00465913    0.00163125    0.00366416
     atom   35 type  2   force =    -0.00496677   -0.00090784   -0.00328996
     atom   36 type  2   force =     0.00053666    0.00442832   -0.00007437
     atom   37 type  2   force =     0.00066177   -0.03261086   -0.00710873
     atom   38 type  2   force =     0.00702466    0.00175344   -0.00031608
     atom   39 type  2   force =    -0.01008728    0.00609841   -0.01371160
     atom   40 type  2   force =     0.00458424    0.01198097    0.00876680
     atom   41 type  2   force =    -0.00707087   -0.01512901   -0.00426928
     atom   42 type  2   force =    -0.00011437    0.01735879    0.00595741
     atom   43 type  2   force =    -0.00094070    0.00074210   -0.00100138
     atom   44 type  2   force =     0.00455048    0.01711515    0.00292978
     atom   45 type  2   force =    -0.00744604   -0.02655109   -0.00661354
     atom   46 type  2   force =     0.00655564    0.01616758    0.00127717
     atom   47 type  2   force =    -0.00122369    0.00127359   -0.00202099
     atom   48 type  2   force =     0.00476711    0.00549366    0.00784933
     atom   49 type  2   force =    -0.00800258   -0.01409534   -0.01018476
     atom   50 type  2   force =     0.00429688    0.00660579    0.00342907
     atom   51 type  2   force =    -0.00455185   -0.00214903    0.00084306
     atom   52 type  2   force =     0.00641495    0.00213441    0.00493184
     atom   53 type  2   force =    -0.00166478   -0.00304552   -0.00036548
     atom   54 type  2   force =     0.00266231    0.00551052    0.01403917
     atom   55 type  2   force =    -0.00712232   -0.00850444   -0.02492942
     atom   56 type  2   force =     0.00475415    0.00457521    0.00464934
     atom   57 type  2   force =    -0.00209248   -0.00032265   -0.00284595
     atom   58 type  2   force =     0.00246937    0.00306084    0.00742127
     atom   59 type  2   force =    -0.00059095   -0.00303253   -0.00313602
     atom   60 type  2   force =     0.00253001    0.00205654    0.00246528
     atom   61 type  2   force =    -0.00337854   -0.00179815   -0.00379480
     atom   62 type  2   force =     0.00408661    0.00449335    0.00107675
     atom   63 type  2   force =    -0.00358471   -0.00295255   -0.00036513
     The non-local contrib.  to forces
     atom    1 type  1   force =    -0.76098634   -0.76439764   -0.75871101
     atom    2 type  2   force =    -0.16467347    0.22046776    0.17804454
     atom    3 type  2   force =     0.05681994    0.08106617    0.07248649
     atom    4 type  2   force =     0.21505008   -0.18840274    0.19761710
     atom    5 type  2   force =     0.07291704    0.04199372    0.07081216
     atom    6 type  2   force =     0.17949451    0.20463974   -0.14632993
     atom    7 type  2   force =     0.07734932    0.08315174    0.06461446
     atom    8 type  2   force =    -0.00432184   -0.00444322    0.05685202
     atom    9 type  2   force =    -0.00458613   -0.00878272    0.01353850
     atom   10 type  2   force =    -0.04391141   -0.01457888   -0.01191001
     atom   11 type  2   force =    -0.10401106    0.06757269   -0.08318923
     atom   12 type  2   force =    -0.01765631   -0.04042288   -0.01101203
     atom   13 type  2   force =     0.05201549   -0.11600062   -0.07273815
     atom   14 type  2   force =     0.00248963    0.00042591    0.04572254
     atom   15 type  2   force =     0.01008548    0.00904021   -0.00379430
     atom   16 type  2   force =    -0.01243547    0.04873689   -0.01319472
     atom   17 type  2   force =    -0.00457161    0.02733444   -0.00337906
     atom   18 type  2   force =    -0.04076018   -0.02206401   -0.01562200
     atom   19 type  2   force =    -0.08054893   -0.07898848    0.05585582
     atom   20 type  2   force =     0.00451966    0.04508023    0.00520024
     atom   21 type  2   force =     0.01079650   -0.00274711    0.01182847
     atom   22 type  2   force =    -0.01446315   -0.02019138   -0.04270153
     atom   23 type  2   force =     0.06342164   -0.08453206   -0.07287092
     atom   24 type  2   force =    -0.06513624    0.03275538    0.03387698
     atom   25 type  2   force =    -0.02551470   -0.00077206    0.01429249
     atom   26 type  2   force =    -0.04191899   -0.02053499   -0.02338632
     atom   27 type  2   force =    -0.14763379    0.12504414    0.12413445
     atom   28 type  2   force =     0.08024582    0.02338069   -0.01249987
     atom   29 type  2   force =     0.00064784    0.01787468    0.00564508
     atom   30 type  2   force =     0.07733087   -0.01232464    0.03250730
     atom   31 type  2   force =     0.00386763    0.00350789   -0.00584758
     atom   32 type  2   force =     0.05282425   -0.00668669   -0.00735151
     atom   33 type  2   force =     0.01814744   -0.00732428   -0.00388401
     atom   34 type  2   force =     0.04475514    0.00086999    0.00393738
     atom   35 type  2   force =    -0.00362852    0.00892566    0.01034187
     atom   36 type  2   force =    -0.01864795   -0.04036371   -0.01777017
     atom   37 type  2   force =    -0.07167676   -0.10868465    0.04775012
     atom   38 type  2   force =    -0.01363403   -0.01346101   -0.04524078
     atom   39 type  2   force =    -0.08678608    0.07137213   -0.08757105
     atom   40 type  2   force =     0.03420556   -0.05917765    0.03909216
     atom   41 type  2   force =     0.01000752   -0.02522903    0.01457510
     atom   42 type  2   force =     0.02075299    0.08891569   -0.00959484
     atom   43 type  2   force =     0.01725953    0.00028859    0.00383657
     atom   44 type  2   force =    -0.02252136   -0.03717377   -0.02331190
     atom   45 type  2   force =     0.12496836   -0.14757579    0.12422820
     atom   46 type  2   force =    -0.00943192    0.08756257    0.02290862
     atom   47 type  2   force =     0.00329960    0.00115316    0.01663927
     atom   48 type  2   force =     0.03358360    0.03277875   -0.06818185
     atom   49 type  2   force =     0.00851313   -0.00005024   -0.02301201
     atom   50 type  2   force =     0.02973278   -0.01459898    0.07119889
     atom   51 type  2   force =     0.01654690    0.00360811    0.00395520
     atom   52 type  2   force =    -0.01416789    0.02654489    0.07307164
     atom   53 type  2   force =     0.00470524    0.01797339    0.00157599
     atom   54 type  2   force =    -0.02234335   -0.02065969   -0.04370924
     atom   55 type  2   force =     0.12338486    0.12451116   -0.14620096
     atom   56 type  2   force =     0.02299570    0.02417993    0.02222716
     atom   57 type  2   force =     0.00410134    0.00603680    0.00579679
     atom   58 type  2   force =     0.01688260   -0.00721232   -0.00631392
     atom   59 type  2   force =     0.00840913   -0.01428354   -0.01477635
     atom   60 type  2   force =    -0.01079919    0.01876856   -0.01173292
     atom   61 type  2   force =    -0.01497197    0.00864309   -0.01547046
     atom   62 type  2   force =    -0.00844487   -0.00608161    0.01537977
     atom   63 type  2   force =    -0.01577061   -0.01507660    0.00844792
     The ionic contribution  to forces
     atom    1 type  1   force =     2.98197187    2.95464372    3.00025060
     atom    2 type  2   force =     2.41269991   -2.06001386   -2.21436208
     atom    3 type  2   force =     0.48142583   -0.73016367   -0.85230686
     atom    4 type  2   force =    -2.08736190    2.33081237   -2.14898550
     atom    5 type  2   force =    -0.77873100    0.39290538   -0.82182008
     atom    6 type  2   force =    -2.18711408   -2.09696856    2.46201987
     atom    7 type  2   force =    -0.82406156   -0.74904375    0.53929375
     atom    8 type  2   force =     0.25930151    0.21401616   -0.72917133
     atom    9 type  2   force =     0.06598401    0.02643287   -0.22961519
     atom   10 type  2   force =     0.17943695    0.07162237    0.56450553
     atom   11 type  2   force =    -0.52864769   -0.62726156    0.80338449
     atom   12 type  2   force =     0.00347637    0.18583194    0.55135607
     atom   13 type  2   force =    -0.66303440   -0.55825738    0.76527008
     atom   14 type  2   force =    -0.19326606   -0.18254890   -0.71695679
     atom   15 type  2   force =    -0.16883882   -0.13063134   -0.07103573
     atom   16 type  2   force =     0.19972766   -0.77529859    0.22648841
     atom   17 type  2   force =     0.07129876   -0.15610496    0.09676345
     atom   18 type  2   force =     0.22420529    0.46960403    0.00452376
     atom   19 type  2   force =    -0.35365067    0.74824332   -0.70227523
     atom   20 type  2   force =    -0.18039843   -0.72928969   -0.18818969
     atom   21 type  2   force =    -0.17448114   -0.04983494   -0.19592132
     atom   22 type  2   force =     0.02515211    0.47593800    0.24486453
     atom   23 type  2   force =    -0.68852342    0.77828742   -0.32265733
     atom   24 type  2   force =     0.10659427   -0.13599156   -0.17172758
     atom   25 type  2   force =    -0.02565609   -0.07928845   -0.07580094
     atom   26 type  2   force =     0.12779261   -0.09478143   -0.05133565
     atom   27 type  2   force =     1.13249186    0.24384949    0.25440393
     atom   28 type  2   force =    -0.08294890   -0.13836791    0.11062401
     atom   29 type  2   force =    -0.15449250    0.02284622    0.26130438
     atom   30 type  2   force =     0.00517493    0.16338243   -0.23367096
     atom   31 type  2   force =    -0.15411138    0.17348912   -0.07407496
     atom   32 type  2   force =    -0.74110216    0.19771057    0.26980544
     atom   33 type  2   force =    -0.20209469    0.02972045    0.09435638
     atom   34 type  2   force =    -0.71828174   -0.17727911   -0.19712467
     atom   35 type  2   force =    -0.06420260   -0.13391508   -0.19779295
     atom   36 type  2   force =     0.51397392    0.17450845    0.00523941
     atom   37 type  2   force =     0.73641844   -0.50081722   -0.69204146
     atom   38 type  2   force =     0.53959235    0.07156322    0.20997885
     atom   39 type  2   force =     0.80814323   -0.63784749   -0.43007484
     atom   40 type  2   force =    -0.22196131    0.03740276   -0.20875158
     atom   41 type  2   force =    -0.07056976   -0.08781153   -0.07377759
     atom   42 type  2   force =    -0.13019117    0.02930342    0.08687031
     atom   43 type  2   force =     0.03358017   -0.11408188    0.25411880
     atom   44 type  2   force =    -0.06926626    0.12370596   -0.05653857
     atom   45 type  2   force =     0.24385703    1.15996116    0.24829764
     atom   46 type  2   force =     0.09936672    0.05004874   -0.17101659
     atom   47 type  2   force =     0.22346155   -0.11436325    0.01543345
     atom   48 type  2   force =    -0.13126107   -0.11200809    0.13987240
     atom   49 type  2   force =    -0.07476741   -0.08146703    0.01027268
     atom   50 type  2   force =    -0.23897548    0.15534855   -0.07542810
     atom   51 type  2   force =    -0.01775132    0.17439517   -0.17610927
     atom   52 type  2   force =     0.13862979   -0.17669997   -0.12050385
     atom   53 type  2   force =     0.22807271    0.01418481   -0.18189613
     atom   54 type  2   force =    -0.06200904   -0.09123053    0.14110787
     atom   55 type  2   force =     0.24488516    0.24274963    1.13419368
     atom   56 type  2   force =    -0.09203395   -0.02766685   -0.12677832
     atom   57 type  2   force =    -0.02261691   -0.03448793   -0.02475029
     atom   58 type  2   force =    -0.05098820    0.02236106    0.04075429
     atom   59 type  2   force =    -0.27651195    0.07694858    0.15822547
     atom   60 type  2   force =     0.06063417   -0.03637215    0.05784540
     atom   61 type  2   force =     0.13139289   -0.30351304    0.15894106
     atom   62 type  2   force =     0.02776152    0.03788785   -0.10145029
     atom   63 type  2   force =     0.12339948    0.07370245   -0.27642424
     The local contribution  to forces
     atom    1 type  1   force =    -2.22387383   -2.19425798   -2.24407563
     atom    2 type  2   force =    -2.21291194    1.85539154    2.02365145
     atom    3 type  2   force =    -0.54764566    0.65770512    0.78597999
     atom    4 type  2   force =     1.88100043   -2.11762249    1.94848346
     atom    5 type  2   force =     0.70780457   -0.45672445    0.75322721
     atom    6 type  2   force =     1.99923314    1.90067692   -2.27229310
     atom    7 type  2   force =     0.75685163    0.67788690   -0.60607491
     atom    8 type  2   force =    -0.25207387   -0.20528123    0.67874408
     atom    9 type  2   force =    -0.06323441   -0.02274654    0.21245065
     atom   10 type  2   force =    -0.13463024   -0.05582372   -0.54506854
     atom   11 type  2   force =     0.60398003    0.56557814   -0.72899970
     atom   12 type  2   force =     0.01323948   -0.14077838   -0.53319852
     atom   13 type  2   force =     0.60773890    0.63495553   -0.69386720
     atom   14 type  2   force =     0.19412451    0.18428993    0.66672623
     atom   15 type  2   force =     0.15585842    0.12021895    0.06914915
     atom   16 type  2   force =    -0.18720682    0.72546171   -0.21435367
     atom   17 type  2   force =    -0.06821140    0.13507357   -0.09327289
     atom   18 type  2   force =    -0.18054148   -0.44789038    0.01206145
     atom   19 type  2   force =     0.42555664   -0.67221370    0.64179519
     atom   20 type  2   force =     0.17865675    0.67987275    0.18651921
     atom   21 type  2   force =     0.16277405    0.04905956    0.18249738
     atom   22 type  2   force =    -0.00926539   -0.45364998   -0.20098389
     atom   23 type  2   force =     0.62442032   -0.70093155    0.39382247
     atom   24 type  2   force =    -0.03195491    0.10853035    0.14222309
     atom   25 type  2   force =     0.03842155    0.06581914    0.05685401
     atom   26 type  2   force =    -0.07100860    0.12137583    0.07627916
     atom   27 type  2   force =    -1.01119219   -0.37714646   -0.38450200
     atom   28 type  2   force =     0.01313441    0.11570204   -0.09236517
     atom   29 type  2   force =     0.15396019   -0.04310050   -0.26767993
     atom   30 type  2   force =    -0.07419050   -0.14378382    0.20903175
     atom   31 type  2   force =     0.15147466   -0.17841093    0.05796164
     atom   32 type  2   force =     0.69134520   -0.18722852   -0.26112190
     atom   33 type  2   force =     0.18442619   -0.02680144   -0.09073108
     atom   34 type  2   force =     0.66878335    0.17802121    0.19678607
     atom   35 type  2   force =     0.06279725    0.12403890    0.18409332
     atom   36 type  2   force =    -0.49485459   -0.12971459    0.01238526
     atom   37 type  2   force =    -0.66412655    0.57690683    0.63710873
     atom   38 type  2   force =    -0.51899674   -0.05636988   -0.16510085
     atom   39 type  2   force =    -0.73148878    0.57252710    0.50389115
     atom   40 type  2   force =     0.19224223    0.03373780    0.17838179
     atom   41 type  2   force =     0.05339967    0.09789163    0.05488074
     atom   42 type  2   force =     0.10921818   -0.10088028   -0.07136966
     atom   43 type  2   force =    -0.05187842    0.11450707   -0.25900714
     atom   44 type  2   force =     0.09626025   -0.06944215    0.08273173
     atom   45 type  2   force =    -0.37632554   -1.03895735   -0.37918399
     atom   46 type  2   force =    -0.08343901   -0.12146440    0.14931206
     atom   47 type  2   force =    -0.22803329    0.11444463   -0.03416464
     atom   48 type  2   force =     0.10234609    0.08468334   -0.06391162
     atom   49 type  2   force =     0.05816152    0.06737062    0.00247562
     atom   50 type  2   force =     0.21343795   -0.13418904    0.00758863
     atom   51 type  2   force =    -0.00344486   -0.18017366    0.17293954
     atom   52 type  2   force =    -0.11810593    0.15222193    0.05229620
     atom   53 type  2   force =    -0.23449185   -0.03527736    0.17988949
     atom   54 type  2   force =     0.08693418    0.11735896   -0.08343294
     atom   55 type  2   force =    -0.37545114   -0.37578153   -1.01300028
     atom   56 type  2   force =     0.07369249    0.00801935    0.10915277
     atom   57 type  2   force =     0.01632975    0.02808550    0.01606883
     atom   58 type  2   force =     0.03648151   -0.01212971   -0.02706565
     atom   59 type  2   force =     0.26742384   -0.06573117   -0.14664174
     atom   60 type  2   force =    -0.04738364    0.01962535   -0.04369382
     atom   61 type  2   force =    -0.11986312    0.29302758   -0.14731731
     atom   62 type  2   force =    -0.01530802   -0.02735497    0.08710673
     atom   63 type  2   force =    -0.11127580   -0.06160324    0.26757182
     The core correction contribution to forces
     atom    1 type  1   force =     0.00000000    0.00000000    0.00000000
     atom    2 type  2   force =     0.00000000    0.00000000    0.00000000
     atom    3 type  2   force =     0.00000000    0.00000000    0.00000000
     atom    4 type  2   force =     0.00000000    0.00000000    0.00000000
     atom    5 type  2   force =     0.00000000    0.00000000    0.00000000
     atom    6 type  2   force =     0.00000000    0.00000000    0.00000000
     atom    7 type  2   force =     0.00000000    0.00000000    0.00000000
     atom    8 type  2   force =     0.00000000    0.00000000    0.00000000
     atom    9 type  2   force =     0.00000000    0.00000000    0.00000000
     atom   10 type  2   force =     0.00000000    0.00000000    0.00000000
     atom   11 type  2   force =     0.00000000    0.00000000    0.00000000
     atom   12 type  2   force =     0.00000000    0.00000000    0.00000000
     atom   13 type  2   force =     0.00000000    0.00000000    0.00000000
     atom   14 type  2   force =     0.00000000    0.00000000    0.00000000
     atom   15 type  2   force =     0.00000000    0.00000000    0.00000000
     atom   16 type  2   force =     0.00000000    0.00000000    0.00000000
     atom   17 type  2   force =     0.00000000    0.00000000    0.00000000
     atom   18 type  2   force =     0.00000000    0.00000000    0.00000000
     atom   19 type  2   force =     0.00000000    0.00000000    0.00000000
     atom   20 type  2   force =     0.00000000    0.00000000    0.00000000
     atom   21 type  2   force =     0.00000000    0.00000000    0.00000000
     atom   22 type  2   force =     0.00000000    0.00000000    0.00000000
     atom   23 type  2   force =     0.00000000    0.00000000    0.00000000
     atom   24 type  2   force =     0.00000000    0.00000000    0.00000000
     atom   25 type  2   force =     0.00000000    0.00000000    0.00000000
     atom   26 type  2   force =     0.00000000    0.00000000    0.00000000
     atom   27 type  2   force =     0.00000000    0.00000000    0.00000000
     atom   28 type  2   force =     0.00000000    0.00000000    0.00000000
     atom   29 type  2   force =     0.00000000    0.00000000    0.00000000
     atom   30 type  2   force =     0.00000000    0.00000000    0.00000000
     atom   31 type  2   force =     0.00000000    0.00000000    0.00000000
     atom   32 type  2   force =     0.00000000    0.00000000    0.00000000
     atom   33 type  2   force =     0.00000000    0.00000000    0.00000000
     atom   34 type  2   force =     0.00000000    0.00000000    0.00000000
     atom   35 type  2   force =     0.00000000    0.00000000    0.00000000
     atom   36 type  2   force =     0.00000000    0.00000000    0.00000000
     atom   37 type  2   force =     0.00000000    0.00000000    0.00000000
     atom   38 type  2   force =     0.00000000    0.00000000    0.00000000
     atom   39 type  2   force =     0.00000000    0.00000000    0.00000000
     atom   40 type  2   force =     0.00000000    0.00000000    0.00000000
     atom   41 type  2   force =     0.00000000    0.00000000    0.00000000
     atom   42 type  2   force =     0.00000000    0.00000000    0.00000000
     atom   43 type  2   force =     0.00000000    0.00000000    0.00000000
     atom   44 type  2   force =     0.00000000    0.00000000    0.00000000
     atom   45 type  2   force =     0.00000000    0.00000000    0.00000000
     atom   46 type  2   force =     0.00000000    0.00000000    0.00000000
     atom   47 type  2   force =     0.00000000    0.00000000    0.00000000
     atom   48 type  2   force =     0.00000000    0.00000000    0.00000000
     atom   49 type  2   force =     0.00000000    0.00000000    0.00000000
     atom   50 type  2   force =     0.00000000    0.00000000    0.00000000
     atom   51 type  2   force =     0.00000000    0.00000000    0.00000000
     atom   52 type  2   force =     0.00000000    0.00000000    0.00000000
     atom   53 type  2   force =     0.00000000    0.00000000    0.00000000
     atom   54 type  2   force =     0.00000000    0.00000000    0.00000000
     atom   55 type  2   force =     0.00000000    0.00000000    0.00000000
     atom   56 type  2   force =     0.00000000    0.00000000    0.00000000
     atom   57 type  2   force =     0.00000000    0.00000000    0.00000000
     atom   58 type  2   force =     0.00000000    0.00000000    0.00000000
     atom   59 type  2   force =     0.00000000    0.00000000    0.00000000
     atom   60 type  2   force =     0.00000000    0.00000000    0.00000000
     atom   61 type  2   force =     0.00000000    0.00000000    0.00000000
     atom   62 type  2   force =     0.00000000    0.00000000    0.00000000
     atom   63 type  2   force =     0.00000000    0.00000000    0.00000000
     The Hubbard contrib.    to forces
     atom    1 type  1   force =     0.00000000    0.00000000    0.00000000
     atom    2 type  2   force =     0.00000000    0.00000000    0.00000000
     atom    3 type  2   force =     0.00000000    0.00000000    0.00000000
     atom    4 type  2   force =     0.00000000    0.00000000    0.00000000
     atom    5 type  2   force =     0.00000000    0.00000000    0.00000000
     atom    6 type  2   force =     0.00000000    0.00000000    0.00000000
     atom    7 type  2   force =     0.00000000    0.00000000    0.00000000
     atom    8 type  2   force =     0.00000000    0.00000000    0.00000000
     atom    9 type  2   force =     0.00000000    0.00000000    0.00000000
     atom   10 type  2   force =     0.00000000    0.00000000    0.00000000
     atom   11 type  2   force =     0.00000000    0.00000000    0.00000000
     atom   12 type  2   force =     0.00000000    0.00000000    0.00000000
     atom   13 type  2   force =     0.00000000    0.00000000    0.00000000
     atom   14 type  2   force =     0.00000000    0.00000000    0.00000000
     atom   15 type  2   force =     0.00000000    0.00000000    0.00000000
     atom   16 type  2   force =     0.00000000    0.00000000    0.00000000
     atom   17 type  2   force =     0.00000000    0.00000000    0.00000000
     atom   18 type  2   force =     0.00000000    0.00000000    0.00000000
     atom   19 type  2   force =     0.00000000    0.00000000    0.00000000
     atom   20 type  2   force =     0.00000000    0.00000000    0.00000000
     atom   21 type  2   force =     0.00000000    0.00000000    0.00000000
     atom   22 type  2   force =     0.00000000    0.00000000    0.00000000
     atom   23 type  2   force =     0.00000000    0.00000000    0.00000000
     atom   24 type  2   force =     0.00000000    0.00000000    0.00000000
     atom   25 type  2   force =     0.00000000    0.00000000    0.00000000
     atom   26 type  2   force =     0.00000000    0.00000000    0.00000000
     atom   27 type  2   force =     0.00000000    0.00000000    0.00000000
     atom   28 type  2   force =     0.00000000    0.00000000    0.00000000
     atom   29 type  2   force =     0.00000000    0.00000000    0.00000000
     atom   30 type  2   force =     0.00000000    0.00000000    0.00000000
     atom   31 type  2   force =     0.00000000    0.00000000    0.00000000
     atom   32 type  2   force =     0.00000000    0.00000000    0.00000000
     atom   33 type  2   force =     0.00000000    0.00000000    0.00000000
     atom   34 type  2   force =     0.00000000    0.00000000    0.00000000
     atom   35 type  2   force =     0.00000000    0.00000000    0.00000000
     atom   36 type  2   force =     0.00000000    0.00000000    0.00000000
     atom   37 type  2   force =     0.00000000    0.00000000    0.00000000
     atom   38 type  2   force =     0.00000000    0.00000000    0.00000000
     atom   39 type  2   force =     0.00000000    0.00000000    0.00000000
     atom   40 type  2   force =     0.00000000    0.00000000    0.00000000
     atom   41 type  2   force =     0.00000000    0.00000000    0.00000000
     atom   42 type  2   force =     0.00000000    0.00000000    0.00000000
     atom   43 type  2   force =     0.00000000    0.00000000    0.00000000
     atom   44 type  2   force =     0.00000000    0.00000000    0.00000000
     atom   45 type  2   force =     0.00000000    0.00000000    0.00000000
     atom   46 type  2   force =     0.00000000    0.00000000    0.00000000
     atom   47 type  2   force =     0.00000000    0.00000000    0.00000000
     atom   48 type  2   force =     0.00000000    0.00000000    0.00000000
     atom   49 type  2   force =     0.00000000    0.00000000    0.00000000
     atom   50 type  2   force =     0.00000000    0.00000000    0.00000000
     atom   51 type  2   force =     0.00000000    0.00000000    0.00000000
     atom   52 type  2   force =     0.00000000    0.00000000    0.00000000
     atom   53 type  2   force =     0.00000000    0.00000000    0.00000000
     atom   54 type  2   force =     0.00000000    0.00000000    0.00000000
     atom   55 type  2   force =     0.00000000    0.00000000    0.00000000
     atom   56 type  2   force =     0.00000000    0.00000000    0.00000000
     atom   57 type  2   force =     0.00000000    0.00000000    0.00000000
     atom   58 type  2   force =     0.00000000    0.00000000    0.00000000
     atom   59 type  2   force =     0.00000000    0.00000000    0.00000000
     atom   60 type  2   force =     0.00000000    0.00000000    0.00000000
     atom   61 type  2   force =     0.00000000    0.00000000    0.00000000
     atom   62 type  2   force =     0.00000000    0.00000000    0.00000000
     atom   63 type  2   force =     0.00000000    0.00000000    0.00000000
     The SCF correction term to forces
     atom    1 type  1   force =    -0.00002131   -0.00002869    0.00000183
     atom    2 type  2   force =    -0.00001455   -0.00001831    0.00000243
     atom    3 type  2   force =     0.00001342    0.00001344    0.00001101
     atom    4 type  2   force =     0.00000630   -0.00001626   -0.00000255
     atom    5 type  2   force =     0.00001868   -0.00001943   -0.00001039
     atom    6 type  2   force =     0.00001103   -0.00002191    0.00000721
     atom    7 type  2   force =     0.00002512   -0.00000374    0.00001798
     atom    8 type  2   force =    -0.00002175   -0.00003298   -0.00000261
     atom    9 type  2   force =    -0.00001483   -0.00002505    0.00000032
     atom   10 type  2   force =    -0.00002889   -0.00000938   -0.00000302
     atom   11 type  2   force =    -0.00002014    0.00000107   -0.00000896
     atom   12 type  2   force =    -0.00000087   -0.00001436   -0.00000239
     atom   13 type  2   force =     0.00001596   -0.00002103    0.00000497
     atom   14 type  2   force =     0.00001752   -0.00001241   -0.00000729
     atom   15 type  2   force =     0.00002643    0.00000435   -0.00001930
     atom   16 type  2   force =    -0.00002321    0.00002441   -0.00000838
     atom   17 type  2   force =    -0.00001275    0.00003396    0.00000720
     atom   18 type  2   force =    -0.00002393    0.00001948    0.00001140
     atom   19 type  2   force =    -0.00001448   -0.00000424   -0.00000505
     atom   20 type  2   force =     0.00001787    0.00001775    0.00000878
     atom   21 type  2   force =     0.00002450    0.00001168    0.00000099
     atom   22 type  2   force =    -0.00000386    0.00001871    0.00001115
     atom   23 type  2   force =     0.00000637    0.00000762    0.00001656
     atom   24 type  2   force =    -0.00002667    0.00003202    0.00000926
     atom   25 type  2   force =    -0.00001976    0.00002359   -0.00000671
     atom   26 type  2   force =    -0.00002033    0.00000980   -0.00001017
     atom   27 type  2   force =    -0.00000970   -0.00000571   -0.00000084
     atom   28 type  2   force =    -0.00000257    0.00001751   -0.00000846
     atom   29 type  2   force =     0.00001316    0.00002222   -0.00000216
     atom   30 type  2   force =    -0.00000415    0.00001569   -0.00000952
     atom   31 type  2   force =     0.00001424   -0.00000304   -0.00000826
     atom   32 type  2   force =     0.00001210   -0.00000688    0.00001264
     atom   33 type  2   force =     0.00000044   -0.00001957    0.00000718
     atom   34 type  2   force =     0.00000865   -0.00001222    0.00000693
     atom   35 type  2   force =    -0.00000837    0.00001131    0.00000935
     atom   36 type  2   force =    -0.00001019   -0.00003322    0.00001269
     atom   37 type  2   force =    -0.00002883   -0.00004721    0.00001543
     atom   38 type  2   force =    -0.00001238   -0.00001028   -0.00001174
     atom   39 type  2   force =    -0.00003113    0.00001529   -0.00001531
     atom   40 type  2   force =     0.00002229   -0.00001334   -0.00001402
     atom   41 type  2   force =     0.00001624   -0.00001146   -0.00000598
     atom   42 type  2   force =     0.00003017   -0.00001142   -0.00000685
     atom   43 type  2   force =     0.00002255   -0.00000307   -0.00000806
     atom   44 type  2   force =     0.00000238   -0.00000628   -0.00000993
     atom   45 type  2   force =    -0.00002135   -0.00001049   -0.00001384
     atom   46 type  2   force =    -0.00001562   -0.00001070    0.00001463
     atom   47 type  2   force =    -0.00002701    0.00000767    0.00001248
     atom   48 type  2   force =     0.00002303    0.00000828    0.00001195
     atom   49 type  2   force =     0.00001471    0.00001992    0.00002051
     atom   50 type  2   force =     0.00002617    0.00001388    0.00001121
     atom   51 type  2   force =     0.00002197   -0.00001004   -0.00000086
     atom   52 type  2   force =    -0.00001648    0.00003618    0.00000940
     atom   53 type  2   force =    -0.00002634    0.00004226    0.00000672
     atom   54 type  2   force =     0.00000505    0.00001040    0.00001503
     atom   55 type  2   force =    -0.00001666   -0.00001508    0.00001969
     atom   56 type  2   force =     0.00002443    0.00001140   -0.00001072
     atom   57 type  2   force =     0.00001787    0.00001160   -0.00001972
     atom   58 type  2   force =     0.00001800    0.00001041   -0.00001190
     atom   59 type  2   force =     0.00001256    0.00000221   -0.00000184
     atom   60 type  2   force =     0.00000321    0.00000340   -0.00001183
     atom   61 type  2   force =    -0.00001181    0.00001283   -0.00000654
     atom   62 type  2   force =     0.00000252    0.00001069   -0.00001790
     atom   63 type  2   force =    -0.00001324   -0.00000654   -0.00001908

     Total force =     0.129211     Total SCF correction =     0.000221

     Writing all to output data dir ./pwscf.save/ :
     XML data file, charge density, pseudopotentials, collected wavefunctions
 
     init_run     :      0.33s CPU      0.72s WALL (       1 calls)
     electrons    :     17.15s CPU     17.49s WALL (       1 calls)
     forces       :      1.96s CPU      1.97s WALL (       1 calls)

     Called by init_run:
     wfcinit      :      0.09s CPU      0.11s WALL (       1 calls)
     wfcinit:wfcr :      0.09s CPU      0.10s WALL (       1 calls)
     potinit      :      0.12s CPU      0.12s WALL (       1 calls)
     hinit0       :      0.04s CPU      0.41s WALL (       1 calls)

     Called by electrons:
     c_bands      :     10.69s CPU     10.84s WALL (      14 calls)
     sum_band     :      2.10s CPU      2.11s WALL (      14 calls)
     v_of_rho     :      1.16s CPU      1.17s WALL (      15 calls)
     v_h          :      0.15s CPU      0.15s WALL (      15 calls)
     v_xc         :      1.01s CPU      1.02s WALL (      15 calls)
     mix_rho      :      1.09s CPU      1.09s WALL (      14 calls)

     Called by c_bands:
     init_us_2    :      0.02s CPU      0.02s WALL (      30 calls)
     regterg      :      9.83s CPU      9.98s WALL (      14 calls)

     Called by sum_band:
     sum_band:wei :      0.05s CPU      0.05s WALL (      14 calls)
     sum_band:loo :      1.31s CPU      1.32s WALL (      14 calls)
     sum_band:buf :      0.00s CPU      0.00s WALL (      14 calls)
     sum_band:ini :      0.01s CPU      0.01s WALL (      14 calls)

     Called by *egterg:
     rdiaghg      :      3.91s CPU      4.01s WALL (     274 calls)
     regterg:over :      1.01s CPU      1.02s WALL (     260 calls)
     regterg:upda :      0.31s CPU      0.31s WALL (     260 calls)
     regterg:last :      0.43s CPU      0.43s WALL (      51 calls)
     rdiaghg:chol :      0.14s CPU      0.14s WALL (     274 calls)
     rdiaghg:inve :      0.03s CPU      0.03s WALL (     274 calls)
     rdiaghg:para :      0.38s CPU      0.41s WALL (     548 calls)
     h_psi        :      4.01s CPU      4.05s WALL (     275 calls)
     g_psi        :      0.00s CPU      0.00s WALL (     260 calls)

     Called by h_psi:
     h_psi:calbec :      0.92s CPU      0.93s WALL (     275 calls)
     vloc_psi     :      2.97s CPU      3.00s WALL (     275 calls)
                                        0.00s GPU  (     275 calls)
     add_vuspsi   :      0.11s CPU      0.11s WALL (     275 calls)

     General routines
     calbec       :      0.93s CPU      0.94s WALL (     279 calls)
     fft          :      0.70s CPU      1.00s WALL (     196 calls)
     ffts         :      0.04s CPU      0.04s WALL (      14 calls)
     fftw         :      4.18s CPU      4.21s WALL (   10122 calls)
 
     Parallel routines
 
     PWSCF        :     29.41s CPU     30.29s WALL

 
   This run was terminated on:  16:22:48  16Nov2025            

=------------------------------------------------------------------------------=
   JOB DONE.
=------------------------------------------------------------------------------=
