
     Program PWSCF v.7.5 starts on 16Nov2025 at 17:18: 3 

     This program is part of the open-source Quantum ESPRESSO suite
     for quantum simulation of materials; please cite
         "P. Giannozzi et al., J. Phys.:Condens. Matter 21 395502 (2009);
         "P. Giannozzi et al., J. Phys.:Condens. Matter 29 465901 (2017);
         "P. Giannozzi et al., J. Chem. Phys. 152 154105 (2020);
          URL http://www.quantum-espresso.org", 
     in publications or presentations arising from this work. More details at
     http://www.quantum-espresso.org/quote

     Parallel version (MPI), running on    96 processors

     MPI processes distributed on     2 nodes
     174123 MiB available memory on the printing compute node when the environment starts
 
     Reading input from supercell-363.in

     Current dimensions of program PWSCF are:
     Max number of different atomic species (ntypx) = 10
     Max number of k-points (npk) =  40000
     Max angular momentum in pseudopotentials (lmaxx) =  4

     gamma-point specific algorithms are used
 
     K-points division:     npool     =       2
     R & G space division:  proc/nbgrp/npool/nimage =      48
     Subspace diagonalization in iterative solution of the eigenvalue problem:
     one sub-group per band group will be used
     scalapack distributed-memory algorithm (size of sub-group:  2*  2 procs)

 
     Parallelization info
     --------------------
     sticks:   dense  smooth     PW     G-vecs:    dense   smooth      PW
     Min          59      59     14                 2432     2432     302
     Max          62      62     16                 2442     2442     316
     Sum        2885    2885    725               116921   116921   14771
 
     Using Slab Decomposition
 


     bravais-lattice index     =            0
     lattice parameter (alat)  =      13.4813  a.u.
     unit-cell volume          =    2450.1683 (a.u.)^3
     number of atoms/cell      =           63
     number of atomic types    =            2
     number of electrons       =       254.00 (up: 128.00, down: 126.00)
     number of Kohn-Sham states=          152
     kinetic-energy cutoff     =      50.0000  Ry
     charge density cutoff     =     200.0000  Ry
     scf convergence threshold =      1.0E-08
     mixing beta               =       0.7000
     number of iterations used =            8  plain     mixing
     Exchange-correlation= PBE
                           (   1   4   3   4   0   0   0)

     celldm(1)=  13.481306  celldm(2)=   0.000000  celldm(3)=   0.000000
     celldm(4)=   0.000000  celldm(5)=   0.000000  celldm(6)=   0.000000

     crystal axes: (cart. coord. in units of alat)
               a(1) = (   1.000000   0.000000   0.000000 )  
               a(2) = (   0.000000   1.000000   0.000000 )  
               a(3) = (   0.000000   0.000000   1.000000 )  

     reciprocal axes: (cart. coord. in units 2 pi/alat)
               b(1) = (  1.000000  0.000000  0.000000 )  
               b(2) = (  0.000000  1.000000  0.000000 )  
               b(3) = (  0.000000  0.000000  1.000000 )  


     PseudoPot. # 1 for N  read from file:
     ./N_ONCV_PBE-1.2.upf
     MD5 check sum: 5312fdf34e96954e02a33bdc911c617a
     Pseudo is Norm-conserving, Zval =  5.0
     Generated using ONCVPSP code by D. R. Hamann
     Using radial grid of  602 points,  4 beta functions with: 
                l(1) =   0
                l(2) =   0
                l(3) =   1
                l(4) =   1

     PseudoPot. # 2 for C  read from file:
     ./C_ONCV_PBE-1.2.upf
     MD5 check sum: d60b57d9bdca4133f5fde4b584ee909d
     Pseudo is Norm-conserving, Zval =  4.0
     Generated using ONCVPSP code by D. R. Hamann
     Using radial grid of  602 points,  4 beta functions with: 
                l(1) =   0
                l(2) =   0
                l(3) =   1
                l(4) =   1

     atomic species   valence    mass     pseudopotential
     N                 5.00    14.00670     N ( 1.00)
     C                 4.00    12.01070     C ( 1.00)

     Starting magnetic structure 
     atomic species   magnetization
     N               0.000
     C               0.000

     No symmetry found


                                    s                        frac. trans.

      isym =  1     identity                                     

 cryst.   s( 1) = (     1          0          0      )
                  (     0          1          0      )
                  (     0          0          1      )

 cart.    s( 1) = (  1.0000000  0.0000000  0.0000000 )
                  (  0.0000000  1.0000000  0.0000000 )
                  (  0.0000000  0.0000000  1.0000000 )


   Cartesian axes

     site n.     atom                  positions (alat units)
         1        N      tau(   1) = (   0.9893819   0.9897344   0.9891721  )
         2        C      tau(   2) = (   0.9870277   0.2601210   0.2640728  )
         3        C      tau(   3) = (   0.1231717   0.3731672   0.3742038  )
         4        C      tau(   4) = (   0.2603919   0.9894620   0.2619202  )
         5        C      tau(   5) = (   0.3737632   0.1246771   0.3741571  )
         6        C      tau(   6) = (   0.2640151   0.2616009   0.9853609  )
         7        C      tau(   7) = (   0.3737752   0.3731213   0.1223564  )
         8        C      tau(   8) = (   0.0000049   0.0005840   0.4991361  )
         9        C      tau(   9) = (   0.1251361   0.1251278   0.6250981  )
        10        C      tau(  10) = (   0.0020393   0.2482470   0.7515266  )
        11        C      tau(  11) = (   0.1292009   0.3733021   0.8763303  )
        12        C      tau(  12) = (   0.2487801   0.0017974   0.7514403  )
        13        C      tau(  13) = (   0.3754339   0.1292460   0.8748544  )
        14        C      tau(  14) = (   0.2491579   0.2495268   0.4995755  )
        15        C      tau(  15) = (   0.3750038   0.3749547   0.6244069  )
        16        C      tau(  16) = (   0.0016366   0.4979779   0.0013734  )
        17        C      tau(  17) = (   0.1250869   0.6243147   0.1250807  )
        18        C      tau(  18) = (   0.0014462   0.7520697   0.2483230  )
        19        C      tau(  19) = (   0.1266755   0.8769178   0.3741906  )
        20        C      tau(  20) = (   0.2488290   0.4983596   0.2486760  )
        21        C      tau(  21) = (   0.3741642   0.6242659   0.3742111  )
        22        C      tau(  22) = (   0.2480673   0.7520817   0.0015447  )
        23        C      tau(  23) = (   0.3729914   0.8777475   0.1265606  )
        24        C      tau(  24) = (   0.0000493   0.5010760   0.5011299  )
        25        C      tau(  25) = (   0.1252054   0.6262200   0.6252733  )
        26        C      tau(  26) = (   0.9993969   0.7487112   0.7492532  )
        27        C      tau(  27) = (   0.1217927   0.8768349   0.8763928  )
        28        C      tau(  28) = (   0.2492749   0.5017254   0.7482724  )
        29        C      tau(  29) = (   0.3741000   0.6263042   0.8750769  )
        30        C      tau(  30) = (   0.2487293   0.7486845   0.5007616  )
        31        C      tau(  31) = (   0.3739266   0.8750581   0.6258828  )
        32        C      tau(  32) = (   0.4987543   0.0011228   0.0002828  )
        33        C      tau(  33) = (   0.6248203   0.1251003   0.1251034  )
        34        C      tau(  34) = (   0.4991217   0.2493918   0.2488717  )
        35        C      tau(  35) = (   0.6243080   0.3746888   0.3747831  )
        36        C      tau(  36) = (   0.7516460   0.0016191   0.2487956  )
        37        C      tau(  37) = (   0.8750430   0.1283649   0.3757598  )
        38        C      tau(  38) = (   0.7517475   0.2480080   0.0019610  )
        39        C      tau(  39) = (   0.8773622   0.3724247   0.1282033  )
        40        C      tau(  40) = (   0.5008161   0.9999897   0.5008301  )
        41        C      tau(  41) = (   0.6256173   0.1249721   0.6252590  )
        42        C      tau(  42) = (   0.5022259   0.2488088   0.7478265  )
        43        C      tau(  43) = (   0.6264784   0.3739683   0.8752045  )
        44        C      tau(  44) = (   0.7487945   0.9989046   0.7489691  )
        45        C      tau(  45) = (   0.8764746   0.1216998   0.8763156  )
        46        C      tau(  46) = (   0.7479635   0.2486819   0.5018806  )
        47        C      tau(  47) = (   0.8751980   0.3739245   0.6263738  )
        48        C      tau(  48) = (   0.5012000   0.5011574   0.0001136  )
        49        C      tau(  49) = (   0.6256259   0.6262099   0.1252968  )
        50        C      tau(  50) = (   0.5005188   0.7489091   0.2490095  )
        51        C      tau(  51) = (   0.6258050   0.8750157   0.3740056  )
        52        C      tau(  52) = (   0.7486304   0.5011458   0.2494302  )
        53        C      tau(  53) = (   0.8750247   0.6261269   0.3741365  )
        54        C      tau(  54) = (   0.7492281   0.7488562   0.9996087  )
        55        C      tau(  55) = (   0.8766209   0.8769033   0.1218021  )
        56        C      tau(  56) = (   0.4990819   0.4992903   0.4990317  )
        57        C      tau(  57) = (   0.6247789   0.6244471   0.6249452  )
        58        C      tau(  58) = (   0.4991767   0.7499842   0.7500845  )
        59        C      tau(  59) = (   0.6239946   0.8751464   0.8754130  )
        60        C      tau(  60) = (   0.7505316   0.4989321   0.7505826  )
        61        C      tau(  61) = (   0.8758455   0.6249820   0.8759288  )
        62        C      tau(  62) = (   0.7498244   0.7497799   0.4993198  )
        63        C      tau(  63) = (   0.8750855   0.8749084   0.6242568  )

   Crystallographic axes

     site n.     atom                  positions (cryst. coord.)
         1        N      tau(   1) = (  0.9893819  0.9897344  0.9891721  )
         2        C      tau(   2) = (  0.9870277  0.2601210  0.2640728  )
         3        C      tau(   3) = (  0.1231717  0.3731672  0.3742038  )
         4        C      tau(   4) = (  0.2603919  0.9894620  0.2619202  )
         5        C      tau(   5) = (  0.3737632  0.1246771  0.3741571  )
         6        C      tau(   6) = (  0.2640151  0.2616009  0.9853609  )
         7        C      tau(   7) = (  0.3737752  0.3731213  0.1223564  )
         8        C      tau(   8) = (  0.0000049  0.0005840  0.4991361  )
         9        C      tau(   9) = (  0.1251361  0.1251278  0.6250981  )
        10        C      tau(  10) = (  0.0020393  0.2482470  0.7515266  )
        11        C      tau(  11) = (  0.1292009  0.3733021  0.8763303  )
        12        C      tau(  12) = (  0.2487801  0.0017974  0.7514403  )
        13        C      tau(  13) = (  0.3754339  0.1292460  0.8748544  )
        14        C      tau(  14) = (  0.2491579  0.2495268  0.4995755  )
        15        C      tau(  15) = (  0.3750038  0.3749547  0.6244069  )
        16        C      tau(  16) = (  0.0016366  0.4979779  0.0013734  )
        17        C      tau(  17) = (  0.1250869  0.6243147  0.1250807  )
        18        C      tau(  18) = (  0.0014462  0.7520697  0.2483230  )
        19        C      tau(  19) = (  0.1266755  0.8769178  0.3741906  )
        20        C      tau(  20) = (  0.2488290  0.4983596  0.2486760  )
        21        C      tau(  21) = (  0.3741642  0.6242659  0.3742111  )
        22        C      tau(  22) = (  0.2480673  0.7520817  0.0015447  )
        23        C      tau(  23) = (  0.3729914  0.8777475  0.1265606  )
        24        C      tau(  24) = (  0.0000493  0.5010760  0.5011299  )
        25        C      tau(  25) = (  0.1252054  0.6262200  0.6252733  )
        26        C      tau(  26) = (  0.9993969  0.7487112  0.7492532  )
        27        C      tau(  27) = (  0.1217927  0.8768349  0.8763928  )
        28        C      tau(  28) = (  0.2492749  0.5017254  0.7482724  )
        29        C      tau(  29) = (  0.3741000  0.6263042  0.8750769  )
        30        C      tau(  30) = (  0.2487293  0.7486845  0.5007616  )
        31        C      tau(  31) = (  0.3739266  0.8750581  0.6258828  )
        32        C      tau(  32) = (  0.4987543  0.0011228  0.0002828  )
        33        C      tau(  33) = (  0.6248203  0.1251003  0.1251034  )
        34        C      tau(  34) = (  0.4991217  0.2493918  0.2488717  )
        35        C      tau(  35) = (  0.6243080  0.3746888  0.3747831  )
        36        C      tau(  36) = (  0.7516460  0.0016191  0.2487956  )
        37        C      tau(  37) = (  0.8750430  0.1283649  0.3757598  )
        38        C      tau(  38) = (  0.7517475  0.2480080  0.0019610  )
        39        C      tau(  39) = (  0.8773622  0.3724247  0.1282033  )
        40        C      tau(  40) = (  0.5008161  0.9999897  0.5008301  )
        41        C      tau(  41) = (  0.6256173  0.1249721  0.6252590  )
        42        C      tau(  42) = (  0.5022259  0.2488088  0.7478265  )
        43        C      tau(  43) = (  0.6264784  0.3739683  0.8752045  )
        44        C      tau(  44) = (  0.7487945  0.9989046  0.7489691  )
        45        C      tau(  45) = (  0.8764746  0.1216998  0.8763156  )
        46        C      tau(  46) = (  0.7479635  0.2486819  0.5018806  )
        47        C      tau(  47) = (  0.8751980  0.3739245  0.6263738  )
        48        C      tau(  48) = (  0.5012000  0.5011574  0.0001136  )
        49        C      tau(  49) = (  0.6256259  0.6262099  0.1252968  )
        50        C      tau(  50) = (  0.5005188  0.7489091  0.2490095  )
        51        C      tau(  51) = (  0.6258050  0.8750157  0.3740056  )
        52        C      tau(  52) = (  0.7486304  0.5011458  0.2494302  )
        53        C      tau(  53) = (  0.8750247  0.6261269  0.3741365  )
        54        C      tau(  54) = (  0.7492281  0.7488562  0.9996087  )
        55        C      tau(  55) = (  0.8766209  0.8769033  0.1218021  )
        56        C      tau(  56) = (  0.4990819  0.4992903  0.4990317  )
        57        C      tau(  57) = (  0.6247789  0.6244471  0.6249452  )
        58        C      tau(  58) = (  0.4991767  0.7499842  0.7500845  )
        59        C      tau(  59) = (  0.6239946  0.8751464  0.8754130  )
        60        C      tau(  60) = (  0.7505316  0.4989321  0.7505826  )
        61        C      tau(  61) = (  0.8758455  0.6249820  0.8759288  )
        62        C      tau(  62) = (  0.7498244  0.7497799  0.4993198  )
        63        C      tau(  63) = (  0.8750855  0.8749084  0.6242568  )

     number of k points=     1
                       cart. coord. in units 2pi/alat
        k(    1) = (   0.0000000   0.0000000   0.0000000), wk =   1.0000000

                       cryst. coord.
        k(    1) = (   0.0000000   0.0000000   0.0000000), wk =   1.0000000

     Dense  grid:    58461 G-vectors     FFT dimensions: (  64,  64,  64)

     Dynamical RAM for                 wfc:       0.35 MB

     Dynamical RAM for     wfc (w. buffer):       0.35 MB

     Dynamical RAM for           str. fact:       0.04 MB

     Dynamical RAM for           local pot:       0.00 MB

     Dynamical RAM for          nlocal pot:       1.17 MB

     Dynamical RAM for                qrad:       0.65 MB

     Dynamical RAM for          rho,v,vnew:       0.49 MB

     Dynamical RAM for               rhoin:       0.16 MB

     Dynamical RAM for            rho*nmix:       0.60 MB

     Dynamical RAM for           G-vectors:       0.08 MB

     Dynamical RAM for          h,s,v(r/c):       0.53 MB

     Dynamical RAM for          <psi|beta>:       0.58 MB

     Dynamical RAM for                 psi:       0.71 MB

     Dynamical RAM for                hpsi:       0.71 MB

     Dynamical RAM for      wfcinit/wfcrot:       1.24 MB

     Estimated static dynamical RAM per process >       3.37 MB

     Estimated max dynamical RAM per process >       6.49 MB

     Estimated total dynamical RAM >     594.05 MB
     Generating pointlists ...
     new r_m :   0.0854 (alat units)  1.1518 (a.u.) for type    1
     new r_m :   0.0847 (alat units)  1.1416 (a.u.) for type    2

     Initial potential from superposition of free atoms

     starting charge     252.5655, renormalised to     254.0000
     Starting wfcs are random

     total cpu time spent up to now is        1.1 secs

     Self-consistent Calculation

     iteration #  1     ecut=    50.00 Ry     beta= 0.70
     Davidson diagonalization with overlap

---- Real-time Memory Report at c_bands before calling an iterative solver
           160 MiB given to the printing process from OS
             0 MiB allocation reported by mallinfo(arena+hblkhd)
        173146 MiB available memory on the node where the printing process lives
------------------
     ethr =  1.00E-02,  avg # of iterations = 12.0

     total cpu time spent up to now is        1.8 secs

     total energy              =    -723.26599401 Ry
     estimated scf accuracy    <       3.70570807 Ry

     total magnetization       =     2.00 Bohr mag/cell
     absolute magnetization    =     2.00 Bohr mag/cell

     iteration #  2     ecut=    50.00 Ry     beta= 0.70
     Davidson diagonalization with overlap

---- Real-time Memory Report at c_bands before calling an iterative solver
           166 MiB given to the printing process from OS
             0 MiB allocation reported by mallinfo(arena+hblkhd)
        173075 MiB available memory on the node where the printing process lives
------------------
     ethr =  1.46E-03,  avg # of iterations = 11.5

     total cpu time spent up to now is        2.8 secs

     total energy              =    -723.66215114 Ry
     estimated scf accuracy    <       0.45417520 Ry

     total magnetization       =     2.00 Bohr mag/cell
     absolute magnetization    =     2.07 Bohr mag/cell

     iteration #  3     ecut=    50.00 Ry     beta= 0.70
     Davidson diagonalization with overlap

---- Real-time Memory Report at c_bands before calling an iterative solver
           166 MiB given to the printing process from OS
             0 MiB allocation reported by mallinfo(arena+hblkhd)
        173076 MiB available memory on the node where the printing process lives
------------------
     c_bands:  2 eigenvalues not converged
     ethr =  1.79E-04,  avg # of iterations = 20.0

     total cpu time spent up to now is        3.2 secs

     total energy              =    -723.72695060 Ry
     estimated scf accuracy    <       0.86397591 Ry

     total magnetization       =     2.00 Bohr mag/cell
     absolute magnetization    =     2.12 Bohr mag/cell

     iteration #  4     ecut=    50.00 Ry     beta= 0.70
     Davidson diagonalization with overlap

---- Real-time Memory Report at c_bands before calling an iterative solver
           167 MiB given to the printing process from OS
             0 MiB allocation reported by mallinfo(arena+hblkhd)
        173078 MiB available memory on the node where the printing process lives
------------------
     c_bands:  1 eigenvalues not converged
     ethr =  1.79E-04,  avg # of iterations = 20.0

     total cpu time spent up to now is        5.0 secs

     total energy              =    -723.90112293 Ry
     estimated scf accuracy    <       0.00975245 Ry

     total magnetization       =     2.00 Bohr mag/cell
     absolute magnetization    =     2.19 Bohr mag/cell

     iteration #  5     ecut=    50.00 Ry     beta= 0.70
     Davidson diagonalization with overlap

---- Real-time Memory Report at c_bands before calling an iterative solver
           167 MiB given to the printing process from OS
             0 MiB allocation reported by mallinfo(arena+hblkhd)
        173082 MiB available memory on the node where the printing process lives
------------------
     c_bands:  3 eigenvalues not converged
     ethr =  3.84E-06,  avg # of iterations = 20.0

     total cpu time spent up to now is        6.1 secs

     total energy              =    -723.90604273 Ry
     estimated scf accuracy    <       0.00407638 Ry

     total magnetization       =     2.00 Bohr mag/cell
     absolute magnetization    =     2.23 Bohr mag/cell

     iteration #  6     ecut=    50.00 Ry     beta= 0.70
     Davidson diagonalization with overlap

---- Real-time Memory Report at c_bands before calling an iterative solver
           167 MiB given to the printing process from OS
             0 MiB allocation reported by mallinfo(arena+hblkhd)
        173078 MiB available memory on the node where the printing process lives
------------------
     c_bands:  3 eigenvalues not converged
     ethr =  1.60E-06,  avg # of iterations = 20.0

     total cpu time spent up to now is        6.6 secs

     total energy              =    -723.90678191 Ry
     estimated scf accuracy    <       0.00085058 Ry

     total magnetization       =     2.00 Bohr mag/cell
     absolute magnetization    =     2.25 Bohr mag/cell

     iteration #  7     ecut=    50.00 Ry     beta= 0.70
     Davidson diagonalization with overlap

---- Real-time Memory Report at c_bands before calling an iterative solver
           167 MiB given to the printing process from OS
             0 MiB allocation reported by mallinfo(arena+hblkhd)
        173073 MiB available memory on the node where the printing process lives
------------------
     c_bands:  2 eigenvalues not converged
     ethr =  3.35E-07,  avg # of iterations = 20.0

     total cpu time spent up to now is        8.4 secs

     total energy              =    -723.90700372 Ry
     estimated scf accuracy    <       0.00012059 Ry

     total magnetization       =     2.00 Bohr mag/cell
     absolute magnetization    =     2.27 Bohr mag/cell

     iteration #  8     ecut=    50.00 Ry     beta= 0.70
     Davidson diagonalization with overlap

---- Real-time Memory Report at c_bands before calling an iterative solver
           167 MiB given to the printing process from OS
             0 MiB allocation reported by mallinfo(arena+hblkhd)
        173074 MiB available memory on the node where the printing process lives
------------------
     c_bands:  1 eigenvalues not converged
     ethr =  4.75E-08,  avg # of iterations = 20.0

     total cpu time spent up to now is        9.2 secs

     total energy              =    -723.90704375 Ry
     estimated scf accuracy    <       0.00002762 Ry

     total magnetization       =     2.00 Bohr mag/cell
     absolute magnetization    =     2.28 Bohr mag/cell

     iteration #  9     ecut=    50.00 Ry     beta= 0.70
     Davidson diagonalization with overlap

---- Real-time Memory Report at c_bands before calling an iterative solver
           167 MiB given to the printing process from OS
             0 MiB allocation reported by mallinfo(arena+hblkhd)
        173075 MiB available memory on the node where the printing process lives
------------------
     c_bands:  3 eigenvalues not converged
     ethr =  1.09E-08,  avg # of iterations = 20.0

     total cpu time spent up to now is        9.8 secs

     total energy              =    -723.90705388 Ry
     estimated scf accuracy    <       0.00000769 Ry

     total magnetization       =     2.00 Bohr mag/cell
     absolute magnetization    =     2.29 Bohr mag/cell

     iteration # 10     ecut=    50.00 Ry     beta= 0.70
     Davidson diagonalization with overlap

---- Real-time Memory Report at c_bands before calling an iterative solver
           167 MiB given to the printing process from OS
             0 MiB allocation reported by mallinfo(arena+hblkhd)
        173072 MiB available memory on the node where the printing process lives
------------------
     c_bands:  2 eigenvalues not converged
     ethr =  3.03E-09,  avg # of iterations = 20.0

     total cpu time spent up to now is       10.4 secs

     total energy              =    -723.90705735 Ry
     estimated scf accuracy    <       0.00000085 Ry

     total magnetization       =     2.00 Bohr mag/cell
     absolute magnetization    =     2.30 Bohr mag/cell

     iteration # 11     ecut=    50.00 Ry     beta= 0.70
     Davidson diagonalization with overlap

---- Real-time Memory Report at c_bands before calling an iterative solver
           168 MiB given to the printing process from OS
             0 MiB allocation reported by mallinfo(arena+hblkhd)
        173080 MiB available memory on the node where the printing process lives
------------------
     c_bands:  1 eigenvalues not converged
     ethr =  3.35E-10,  avg # of iterations = 20.0

     total cpu time spent up to now is       11.0 secs

     total energy              =    -723.90705799 Ry
     estimated scf accuracy    <       0.00000024 Ry

     total magnetization       =     2.00 Bohr mag/cell
     absolute magnetization    =     2.30 Bohr mag/cell

     iteration # 12     ecut=    50.00 Ry     beta= 0.70
     Davidson diagonalization with overlap

---- Real-time Memory Report at c_bands before calling an iterative solver
           168 MiB given to the printing process from OS
             0 MiB allocation reported by mallinfo(arena+hblkhd)
        173075 MiB available memory on the node where the printing process lives
------------------
     ethr =  9.30E-11,  avg # of iterations = 19.0

     total cpu time spent up to now is       11.6 secs

     total energy              =    -723.90705810 Ry
     estimated scf accuracy    <       0.00000009 Ry

     total magnetization       =     2.00 Bohr mag/cell
     absolute magnetization    =     2.30 Bohr mag/cell

     iteration # 13     ecut=    50.00 Ry     beta= 0.70
     Davidson diagonalization with overlap

---- Real-time Memory Report at c_bands before calling an iterative solver
           168 MiB given to the printing process from OS
             0 MiB allocation reported by mallinfo(arena+hblkhd)
        173076 MiB available memory on the node where the printing process lives
------------------
     ethr =  3.43E-11,  avg # of iterations = 17.5

     total cpu time spent up to now is       12.1 secs

     total energy              =    -723.90705815 Ry
     estimated scf accuracy    <       0.00000003 Ry

     total magnetization       =     2.00 Bohr mag/cell
     absolute magnetization    =     2.30 Bohr mag/cell

     iteration # 14     ecut=    50.00 Ry     beta= 0.70
     Davidson diagonalization with overlap

---- Real-time Memory Report at c_bands before calling an iterative solver
           168 MiB given to the printing process from OS
             0 MiB allocation reported by mallinfo(arena+hblkhd)
        173076 MiB available memory on the node where the printing process lives
------------------
     c_bands:  1 eigenvalues not converged
     ethr =  1.04E-11,  avg # of iterations = 19.0
 
     Magnetic moment per site  (integrated on atomic sphere of radius R)
     atom   1 (R=0.085)  charge=  2.9143  magn=  0.0042
     atom   2 (R=0.085)  charge=  1.8170  magn=  0.2450
     atom   3 (R=0.085)  charge=  1.7930  magn= -0.0087
     atom   4 (R=0.085)  charge=  1.8051  magn=  0.2455
     atom   5 (R=0.085)  charge=  1.7932  magn= -0.0087
     atom   6 (R=0.085)  charge=  1.8232  magn=  0.2450
     atom   7 (R=0.085)  charge=  1.7933  magn= -0.0087
     atom   8 (R=0.085)  charge=  1.7860  magn=  0.0091
     atom   9 (R=0.085)  charge=  1.7963  magn= -0.0019
     atom  10 (R=0.085)  charge=  1.7834  magn=  0.0060
     atom  11 (R=0.085)  charge=  1.7968  magn= -0.0042
     atom  12 (R=0.085)  charge=  1.7823  magn=  0.0061
     atom  13 (R=0.085)  charge=  1.8040  magn= -0.0039
     atom  14 (R=0.085)  charge=  1.7892  magn=  0.0085
     atom  15 (R=0.085)  charge=  1.7873  magn= -0.0020
     atom  16 (R=0.085)  charge=  1.7801  magn=  0.0089
     atom  17 (R=0.085)  charge=  1.7956  magn= -0.0018
     atom  18 (R=0.085)  charge=  1.7822  magn=  0.0057
     atom  19 (R=0.085)  charge=  1.7953  magn= -0.0035
     atom  20 (R=0.085)  charge=  1.7834  magn=  0.0083
     atom  21 (R=0.085)  charge=  1.7847  magn= -0.0020
     atom  22 (R=0.085)  charge=  1.7829  magn=  0.0057
     atom  23 (R=0.085)  charge=  1.7905  magn= -0.0037
     atom  24 (R=0.085)  charge=  1.7825  magn=  0.0182
     atom  25 (R=0.085)  charge=  1.8067  magn=  0.0094
     atom  26 (R=0.085)  charge=  1.7954  magn=  0.0032
     atom  27 (R=0.085)  charge=  1.7590  magn=  0.0001
     atom  28 (R=0.085)  charge=  1.7896  magn=  0.0221
     atom  29 (R=0.085)  charge=  1.7824  magn= -0.0014
     atom  30 (R=0.085)  charge=  1.7901  magn=  0.0211
     atom  31 (R=0.085)  charge=  1.7823  magn= -0.0013
     atom  32 (R=0.085)  charge=  1.7844  magn=  0.0090
     atom  33 (R=0.085)  charge=  1.7960  magn= -0.0019
     atom  34 (R=0.085)  charge=  1.7868  magn=  0.0085
     atom  35 (R=0.085)  charge=  1.7865  magn= -0.0020
     atom  36 (R=0.085)  charge=  1.7818  magn=  0.0059
     atom  37 (R=0.085)  charge=  1.8033  magn= -0.0036
     atom  38 (R=0.085)  charge=  1.7836  magn=  0.0058
     atom  39 (R=0.085)  charge=  1.7913  magn= -0.0041
     atom  40 (R=0.085)  charge=  1.7835  magn=  0.0181
     atom  41 (R=0.085)  charge=  1.8109  magn=  0.0094
     atom  42 (R=0.085)  charge=  1.7948  magn=  0.0218
     atom  43 (R=0.085)  charge=  1.7818  magn= -0.0013
     atom  44 (R=0.085)  charge=  1.7937  magn=  0.0032
     atom  45 (R=0.085)  charge=  1.7589  magn= -0.0000
     atom  46 (R=0.085)  charge=  1.7948  magn=  0.0214
     atom  47 (R=0.085)  charge=  1.7818  magn= -0.0013
     atom  48 (R=0.085)  charge=  1.7819  magn=  0.0184
     atom  49 (R=0.085)  charge=  1.8042  magn=  0.0094
     atom  50 (R=0.085)  charge=  1.7873  magn=  0.0212
     atom  51 (R=0.085)  charge=  1.7825  magn= -0.0013
     atom  52 (R=0.085)  charge=  1.7869  magn=  0.0218
     atom  53 (R=0.085)  charge=  1.7826  magn= -0.0013
     atom  54 (R=0.085)  charge=  1.7954  magn=  0.0032
     atom  55 (R=0.085)  charge=  1.7589  magn=  0.0001
     atom  56 (R=0.085)  charge=  1.7915  magn=  0.0009
     atom  57 (R=0.085)  charge=  1.7832  magn=  0.0010
     atom  58 (R=0.085)  charge=  1.7914  magn=  0.0018
     atom  59 (R=0.085)  charge=  1.7880  magn= -0.0009
     atom  60 (R=0.085)  charge=  1.7892  magn=  0.0017
     atom  61 (R=0.085)  charge=  1.7862  magn= -0.0009
     atom  62 (R=0.085)  charge=  1.7913  magn=  0.0019
     atom  63 (R=0.085)  charge=  1.7892  magn= -0.0009

     total cpu time spent up to now is       12.7 secs

     End of self-consistent calculation

 ------ SPIN UP ------------


          k = 0.0000 0.0000 0.0000 (  7386 PWs)   bands (ev):

    -8.5516  -6.9254  -6.2868  -6.2709  -6.1942  -6.1531  -5.8816  -4.9098
    -4.1430  -4.1306  -4.1248  -4.0929  -4.0323  -4.0192  -4.0079  -3.9249
    -3.8729  -3.8589  -3.3598  -2.9311  -2.6768  -2.6743  -2.1616  -0.3627
    -0.3533  -0.3267  -0.2811  -0.0759   0.1708   0.1924   0.2775   0.3002
     0.3656   0.6195   0.8356   0.8435   0.9523   0.9724   0.9897   1.0522
     1.0606   1.0635   1.2673   1.3003   3.0738   3.9061   3.9251   4.0693
     4.1896   4.2071   4.2217   4.2751   4.2779   4.2844   4.4255   4.4259
     4.4965   4.4981   4.5681   4.6571   4.6847   4.6880   4.6920   4.7871
     4.7968   4.9238   4.9683   4.9753   5.0472   5.1998   5.2103   5.2986
     5.3590   5.3695   5.3965   5.4032   5.4071   6.0409   6.0455   6.1018
     6.6603   6.6680   6.7247   6.9914   7.0062   7.0399   7.5313   8.3292
     8.3333   8.4126   8.4668   8.4897   8.6865   8.7087   8.7896   8.8320
     8.8452   8.8498   8.8898   8.8996   8.9045   9.2888   9.2908   9.3260
     9.6839   9.7029   9.9001   9.9110   9.9355   9.9607   9.9644   9.9737
     9.9867  10.0319  10.0351  10.0644  10.1274  10.1390  10.2681  10.3248
    10.3346  11.0530  12.2876  12.4141  12.4338  13.9568  14.6903  14.7993
    17.3328  17.3845  17.4080  17.5190  17.5778  17.5819  17.8514  17.9253
    17.9364  18.0331  18.0710  18.3690  18.9949  19.0022  19.0233  20.6859
    20.8026  20.8241  20.8837  20.9349  20.9453  21.0261  21.0323  21.0466

     occupation numbers 
     1.0000   1.0000   1.0000   1.0000   1.0000   1.0000   1.0000   1.0000
     1.0000   1.0000   1.0000   1.0000   1.0000   1.0000   1.0000   1.0000
     1.0000   1.0000   1.0000   1.0000   1.0000   1.0000   1.0000   1.0000
     1.0000   1.0000   1.0000   1.0000   1.0000   1.0000   1.0000   1.0000
     1.0000   1.0000   1.0000   1.0000   1.0000   1.0000   1.0000   1.0000
     1.0000   1.0000   1.0000   1.0000   1.0000   1.0000   1.0000   1.0000
     1.0000   1.0000   1.0000   1.0000   1.0000   1.0000   1.0000   1.0000
     1.0000   1.0000   1.0000   1.0000   1.0000   1.0000   1.0000   1.0000
     1.0000   1.0000   1.0000   1.0000   1.0000   1.0000   1.0000   1.0000
     1.0000   1.0000   1.0000   1.0000   1.0000   1.0000   1.0000   1.0000
     1.0000   1.0000   1.0000   1.0000   1.0000   1.0000   1.0000   1.0000
     1.0000   1.0000   1.0000   1.0000   1.0000   1.0000   1.0000   1.0000
     1.0000   1.0000   1.0000   1.0000   1.0000   1.0000   1.0000   1.0000
     1.0000   1.0000   1.0000   1.0000   1.0000   1.0000   1.0000   1.0000
     1.0000   1.0000   1.0000   1.0000   1.0000   1.0000   1.0000   1.0000
     1.0000   1.0000   1.0000   1.0000   1.0000   1.0000   1.0000   1.0000
     0.0000   0.0000   0.0000   0.0000   0.0000   0.0000   0.0000   0.0000
     0.0000   0.0000   0.0000   0.0000   0.0000   0.0000   0.0000   0.0000
     0.0000   0.0000   0.0000   0.0000   0.0000   0.0000   0.0000   0.0000

 ------ SPIN DOWN ----------


          k = 0.0000 0.0000 0.0000 (  7386 PWs)   bands (ev):

    -8.5262  -6.9109  -6.2645  -6.2477  -6.1494  -6.1107  -5.8444  -4.8930
    -4.1224  -4.1080  -4.0854  -4.0628  -3.9956  -3.9818  -3.9577  -3.9125
    -3.8375  -3.8188  -3.3176  -2.9125  -2.6239  -2.6207  -2.0164  -0.3452
    -0.3352  -0.3048  -0.2641  -0.0111   0.1899   0.2099   0.3146   0.3334
     0.3905   0.6544   0.8479   0.8553   0.9858   1.0035   1.0135   1.0695
     1.0763   1.0808   1.4331   1.4701   3.1876   3.9292   3.9472   4.0954
     4.2244   4.2498   4.2647   4.2905   4.2932   4.3133   4.4714   4.4725
     4.5184   4.5209   4.5916   4.6818   4.7004   4.7074   4.7131   4.8212
     4.8335   4.9370   5.0008   5.0057   5.1283   5.2338   5.2454   5.3223
     5.3726   5.3803   5.4160   5.4557   5.4704   6.1027   6.1050   6.1399
     6.6869   6.6955   6.7590   7.0781   7.0885   7.1007   7.7014   8.3667
     8.3725   8.4495   8.5020   8.5252   8.7206   8.7402   8.8255   8.8764
     8.8814   8.8876   8.9185   8.9327   8.9346   9.3252   9.3274   9.3531
     9.7115   9.7303   9.9297   9.9390   9.9480   9.9738   9.9782   9.9938
    10.0078  10.0631  10.0714  10.0844  10.1547  10.1652  10.3260  10.3790
    10.3891  11.4320  12.5556  12.5655  12.6071  14.4386  16.0165  16.1400
    17.3579  17.4018  17.4250  17.5457  17.6330  17.6392  17.8742  17.9447
    17.9545  18.0732  18.1113  18.4888  19.0444  19.0793  19.1106  20.7360
    20.8168  20.8381  20.8986  20.9540  20.9625  21.0413  21.0591  21.0647

     occupation numbers 
     1.0000   1.0000   1.0000   1.0000   1.0000   1.0000   1.0000   1.0000
     1.0000   1.0000   1.0000   1.0000   1.0000   1.0000   1.0000   1.0000
     1.0000   1.0000   1.0000   1.0000   1.0000   1.0000   1.0000   1.0000
     1.0000   1.0000   1.0000   1.0000   1.0000   1.0000   1.0000   1.0000
     1.0000   1.0000   1.0000   1.0000   1.0000   1.0000   1.0000   1.0000
     1.0000   1.0000   1.0000   1.0000   1.0000   1.0000   1.0000   1.0000
     1.0000   1.0000   1.0000   1.0000   1.0000   1.0000   1.0000   1.0000
     1.0000   1.0000   1.0000   1.0000   1.0000   1.0000   1.0000   1.0000
     1.0000   1.0000   1.0000   1.0000   1.0000   1.0000   1.0000   1.0000
     1.0000   1.0000   1.0000   1.0000   1.0000   1.0000   1.0000   1.0000
     1.0000   1.0000   1.0000   1.0000   1.0000   1.0000   1.0000   1.0000
     1.0000   1.0000   1.0000   1.0000   1.0000   1.0000   1.0000   1.0000
     1.0000   1.0000   1.0000   1.0000   1.0000   1.0000   1.0000   1.0000
     1.0000   1.0000   1.0000   1.0000   1.0000   1.0000   1.0000   1.0000
     1.0000   1.0000   1.0000   1.0000   1.0000   1.0000   1.0000   1.0000
     1.0000   1.0000   1.0000   1.0000   1.0000   1.0000   0.0000   0.0000
     0.0000   0.0000   0.0000   0.0000   0.0000   0.0000   0.0000   0.0000
     0.0000   0.0000   0.0000   0.0000   0.0000   0.0000   0.0000   0.0000
     0.0000   0.0000   0.0000   0.0000   0.0000   0.0000   0.0000   0.0000

     highest occupied, lowest unoccupied level (ev):    14.7993   16.0165

!    total energy              =    -723.90705816 Ry
     estimated scf accuracy    <          5.3E-09 Ry

     The total energy is the sum of the following terms:
     one-electron contribution =     232.27087703 Ry
     hartree contribution      =      70.34251949 Ry
     xc contribution           =    -226.77207971 Ry
     ewald contribution        =    -799.74837497 Ry

     total magnetization       =     2.00 Bohr mag/cell
     absolute magnetization    =     2.30 Bohr mag/cell

     convergence has been achieved in  14 iterations

     Forces acting on atoms (cartesian axes, Ry/au):

     atom    1 type  1   force =    -0.00280540   -0.00406203   -0.00260302
     atom    2 type  2   force =     0.03525764    0.01593704   -0.01267920
     atom    3 type  2   force =    -0.00924403    0.00865824    0.00619265
     atom    4 type  2   force =     0.00879457    0.02477202   -0.00279503
     atom    5 type  2   force =     0.00230093   -0.02123789    0.00161987
     atom    6 type  2   force =    -0.00845720    0.00834264    0.04345486
     atom    7 type  2   force =     0.01024194    0.01203677   -0.00208135
     atom    8 type  2   force =     0.00292315    0.00433959    0.00648024
     atom    9 type  2   force =    -0.00212974   -0.00480342   -0.00296534
     atom   10 type  2   force =     0.00090720    0.00130633    0.00739476
     atom   11 type  2   force =    -0.02925500    0.00645804   -0.00915698
     atom   12 type  2   force =     0.00001099    0.00394042    0.00345885
     atom   13 type  2   force =    -0.00283375   -0.03990179   -0.00184988
     atom   14 type  2   force =     0.00341814    0.00211520   -0.00436309
     atom   15 type  2   force =    -0.00278054   -0.00132519   -0.00570682
     atom   16 type  2   force =    -0.00055402    0.00274696   -0.00172378
     atom   17 type  2   force =    -0.00105302    0.00577867    0.00055895
     atom   18 type  2   force =     0.00289659   -0.00030237    0.00090912
     atom   19 type  2   force =    -0.00918229   -0.00313032   -0.00525065
     atom   20 type  2   force =     0.00304292   -0.00423196    0.00361710
     atom   21 type  2   force =    -0.00113378   -0.00426247   -0.00211519
     atom   22 type  2   force =     0.00139539    0.00202754    0.00126657
     atom   23 type  2   force =    -0.00061977   -0.00711176   -0.00168905
     atom   24 type  2   force =     0.00962997    0.00534397    0.00423328
     atom   25 type  2   force =    -0.01267157   -0.01444087   -0.00368218
     atom   26 type  2   force =     0.01578658    0.01013786    0.00070519
     atom   27 type  2   force =    -0.02502982   -0.00799067   -0.00675350
     atom   28 type  2   force =     0.01056255    0.00061641    0.00588088
     atom   29 type  2   force =    -0.00014313   -0.00163509   -0.00128601
     atom   30 type  2   force =     0.00760370    0.00665589    0.00419603
     atom   31 type  2   force =     0.00105846   -0.00159131   -0.00349082
     atom   32 type  2   force =     0.00313101    0.00390677    0.00132199
     atom   33 type  2   force =     0.00055969   -0.00446491   -0.00017131
     atom   34 type  2   force =    -0.00470530    0.00167795    0.00356621
     atom   35 type  2   force =    -0.00501528   -0.00088229   -0.00330813
     atom   36 type  2   force =     0.00070145    0.00440128   -0.00006338
     atom   37 type  2   force =     0.00066972   -0.03262622   -0.00714189
     atom   38 type  2   force =     0.00696111    0.00170514   -0.00026336
     atom   39 type  2   force =    -0.01043898    0.00663505   -0.01433748
     atom   40 type  2   force =     0.00535516    0.01262109    0.00494758
     atom   41 type  2   force =    -0.00741264   -0.01550429   -0.00369663
     atom   42 type  2   force =    -0.00003002    0.01745194    0.00593650
     atom   43 type  2   force =    -0.00027067    0.00133469   -0.00068426
     atom   44 type  2   force =     0.00466155    0.01707493    0.00304839
     atom   45 type  2   force =    -0.00745215   -0.02646852   -0.00667017
     atom   46 type  2   force =     0.00638278    0.01611914    0.00120953
     atom   47 type  2   force =    -0.00087012    0.00185557   -0.00121867
     atom   48 type  2   force =     0.00481168    0.00549181    0.00777322
     atom   49 type  2   force =    -0.00763948   -0.01471257   -0.01049564
     atom   50 type  2   force =     0.00433011    0.00677984    0.00336057
     atom   51 type  2   force =    -0.00393018   -0.00180236    0.00028798
     atom   52 type  2   force =     0.00644793    0.00202189    0.00498655
     atom   53 type  2   force =    -0.00167201   -0.00299721   -0.00039505
     atom   54 type  2   force =     0.00163118    0.00942812    0.01486542
     atom   55 type  2   force =    -0.00743081   -0.00788801   -0.02428015
     atom   56 type  2   force =     0.00468583    0.00475486    0.00463463
     atom   57 type  2   force =    -0.00209025   -0.00127773   -0.00261268
     atom   58 type  2   force =     0.00152193    0.00397250    0.00330380
     atom   59 type  2   force =    -0.00184473   -0.00212480   -0.00340111
     atom   60 type  2   force =     0.00348131    0.00592543    0.00318119
     atom   61 type  2   force =    -0.00326005   -0.01960351   -0.00363765
     atom   62 type  2   force =     0.00403636    0.00439944    0.00119937
     atom   63 type  2   force =    -0.00324379   -0.00239148   -0.00102184
     The non-local contrib.  to forces
     atom    1 type  1   force =    -0.76094818   -0.76474378   -0.75905195
     atom    2 type  2   force =    -0.16469940    0.22058659    0.17777039
     atom    3 type  2   force =     0.05668289    0.08111946    0.07260561
     atom    4 type  2   force =     0.21505561   -0.18842230    0.19780558
     atom    5 type  2   force =     0.07297851    0.04253000    0.07019334
     atom    6 type  2   force =     0.17916154    0.20440074   -0.14642057
     atom    7 type  2   force =     0.07741824    0.08312947    0.06423974
     atom    8 type  2   force =    -0.00440060   -0.00444757    0.05646648
     atom    9 type  2   force =    -0.00555682   -0.00789950    0.01315732
     atom   10 type  2   force =    -0.04435537   -0.01426930   -0.01166362
     atom   11 type  2   force =    -0.10445018    0.06828578   -0.08323540
     atom   12 type  2   force =    -0.01707857   -0.04087028   -0.01460564
     atom   13 type  2   force =     0.05211677   -0.11616655   -0.07336405
     atom   14 type  2   force =     0.00265812    0.00052797    0.04560460
     atom   15 type  2   force =     0.01002293    0.00900097   -0.00367618
     atom   16 type  2   force =    -0.01295415    0.05240196   -0.01369828
     atom   17 type  2   force =    -0.00355885    0.02768919   -0.00219705
     atom   18 type  2   force =    -0.04117193   -0.02195420   -0.01565421
     atom   19 type  2   force =    -0.08104895   -0.07907343    0.05528697
     atom   20 type  2   force =     0.00496850    0.04455387    0.00554163
     atom   21 type  2   force =     0.01076223   -0.00279367    0.01121517
     atom   22 type  2   force =    -0.01442183   -0.02011813   -0.04271666
     atom   23 type  2   force =     0.06351398   -0.08459548   -0.07267441
     atom   24 type  2   force =    -0.06449132    0.03335571    0.03425056
     atom   25 type  2   force =    -0.02551065    0.00066186    0.01489354
     atom   26 type  2   force =    -0.04108610   -0.01695861   -0.02438888
     atom   27 type  2   force =    -0.14662695    0.12587517    0.12343253
     atom   28 type  2   force =     0.07994647    0.02364229   -0.01281342
     atom   29 type  2   force =     0.00065199    0.01839234    0.00495529
     atom   30 type  2   force =     0.07622033   -0.01344678    0.02936918
     atom   31 type  2   force =     0.00322061    0.00321062    0.01655627
     atom   32 type  2   force =     0.05261214   -0.00647508   -0.00718595
     atom   33 type  2   force =     0.01815270   -0.00741653   -0.00371877
     atom   34 type  2   force =     0.04476782    0.00111824    0.00380188
     atom   35 type  2   force =    -0.00346598    0.00882746    0.01032147
     atom   36 type  2   force =    -0.01840871   -0.04016074   -0.01763894
     atom   37 type  2   force =    -0.07173919   -0.10829325    0.04779816
     atom   38 type  2   force =    -0.01367119   -0.01362412   -0.04519250
     atom   39 type  2   force =    -0.08686171    0.07202902   -0.08805398
     atom   40 type  2   force =     0.03502310   -0.05850459    0.03550596
     atom   41 type  2   force =     0.00899363   -0.02639053    0.01414797
     atom   42 type  2   force =     0.02123899    0.08901654   -0.00969558
     atom   43 type  2   force =     0.01766270    0.00090307    0.00389824
     atom   44 type  2   force =    -0.02257489   -0.03715175   -0.02340398
     atom   45 type  2   force =     0.12488484   -0.14780663    0.12423388
     atom   46 type  2   force =    -0.00980783    0.08726262    0.02343178
     atom   47 type  2   force =     0.00330285    0.00185583    0.01670510
     atom   48 type  2   force =     0.03365153    0.03321678   -0.06817459
     atom   49 type  2   force =     0.00950191    0.00038097   -0.02396694
     atom   50 type  2   force =     0.03015435   -0.01483041    0.07097014
     atom   51 type  2   force =     0.01694892    0.00360490    0.00325736
     atom   52 type  2   force =    -0.01434899    0.02669581    0.07296345
     atom   53 type  2   force =     0.00476982    0.01786658    0.00162549
     atom   54 type  2   force =    -0.02343320   -0.01684080   -0.04313536
     atom   55 type  2   force =     0.12335542    0.12517011   -0.14600560
     atom   56 type  2   force =     0.02235194    0.02383808    0.02158053
     atom   57 type  2   force =     0.00409533    0.00538009    0.00428757
     atom   58 type  2   force =     0.01605566   -0.00626498   -0.00984429
     atom   59 type  2   force =     0.00738083   -0.01361766   -0.01545888
     atom   60 type  2   force =    -0.00961248    0.02188270   -0.01079815
     atom   61 type  2   force =    -0.01461956   -0.01268400   -0.01504768
     atom   62 type  2   force =    -0.00816860   -0.00576859    0.01513922
     atom   63 type  2   force =    -0.01576429   -0.01440493    0.00796874
     The ionic contribution  to forces
     atom    1 type  1   force =     2.98689804    2.96461868    3.00108004
     atom    2 type  2   force =     2.41185303   -2.05761760   -2.21651427
     atom    3 type  2   force =     0.48006927   -0.72999325   -0.85248771
     atom    4 type  2   force =    -2.08972552    2.33454277   -2.15710634
     atom    5 type  2   force =    -0.77873644    0.40211677   -0.82620881
     atom    6 type  2   force =    -2.18781160   -2.09619849    2.45952618
     atom    7 type  2   force =    -0.82408274   -0.74889165    0.53638715
     atom    8 type  2   force =     0.25732762    0.21719583   -0.72820823
     atom    9 type  2   force =     0.06592340    0.02949071   -0.22422133
     atom   10 type  2   force =     0.17755368    0.07865066    0.56800853
     atom   11 type  2   force =    -0.53596219   -0.62312704    0.80323286
     atom   12 type  2   force =     0.02965782    0.16273407    0.55004786
     atom   13 type  2   force =    -0.66308365   -0.56412731    0.76122379
     atom   14 type  2   force =    -0.19463590   -0.17898006   -0.71445594
     atom   15 type  2   force =    -0.16884714   -0.13050262   -0.06752323
     atom   16 type  2   force =     0.17495057   -0.77365024    0.20030079
     atom   17 type  2   force =     0.07131683   -0.16149070    0.09375470
     atom   18 type  2   force =     0.22404459    0.46697226    0.00481089
     atom   19 type  2   force =    -0.36122151    0.74847256   -0.70677866
     atom   20 type  2   force =    -0.18145293   -0.73151793   -0.19092690
     atom   21 type  2   force =    -0.17447334   -0.05906176   -0.20024430
     atom   22 type  2   force =     0.03015907    0.47623451    0.23823909
     atom   23 type  2   force =    -0.68849495    0.77846254   -0.33093267
     atom   24 type  2   force =     0.10509323   -0.13873896   -0.16819675
     atom   25 type  2   force =    -0.02563607   -0.08468037   -0.07043817
     atom   26 type  2   force =     0.15549585   -0.09289500   -0.07504365
     atom   27 type  2   force =     1.14892822    0.24839028    0.25022797
     atom   28 type  2   force =    -0.08440611   -0.13813640    0.11387321
     atom   29 type  2   force =    -0.15449776    0.02840202    0.25695405
     atom   30 type  2   force =    -0.01927700    0.13705899   -0.23531672
     atom   31 type  2   force =    -0.15304189    0.17302959   -0.00895634
     atom   32 type  2   force =    -0.74470597    0.19740544    0.26270778
     atom   33 type  2   force =    -0.20210130    0.03271030    0.09135005
     atom   34 type  2   force =    -0.71738370   -0.17502997   -0.19972162
     atom   35 type  2   force =    -0.06284744   -0.13377983   -0.19796171
     atom   36 type  2   force =     0.51456968    0.17724816    0.00424073
     atom   37 type  2   force =     0.73640749   -0.49791608   -0.69218584
     atom   38 type  2   force =     0.54160376    0.07876411    0.20646093
     atom   39 type  2   force =     0.80809391   -0.63361786   -0.43917799
     atom   40 type  2   force =    -0.19709373    0.06335777   -0.21019147
     atom   41 type  2   force =    -0.07051698   -0.08476828   -0.06847736
     atom   42 type  2   force =    -0.12999877    0.02909101    0.08965845
     atom   43 type  2   force =     0.04115549   -0.10973684    0.25402303
     atom   44 type  2   force =    -0.07414335    0.13025001   -0.05675318
     atom   45 type  2   force =     0.24388347    1.16823230    0.24816083
     atom   46 type  2   force =     0.10043676    0.05277280   -0.16874395
     atom   47 type  2   force =     0.22348336   -0.11001690    0.02484380
     atom   48 type  2   force =    -0.12936482   -0.11302817    0.13672825
     atom   49 type  2   force =    -0.07484737   -0.08681371    0.00733747
     atom   50 type  2   force =    -0.23713510    0.15188494   -0.08238106
     atom   51 type  2   force =    -0.01044238    0.17453985   -0.18035826
     atom   52 type  2   force =     0.13999685   -0.17929112   -0.12405429
     atom   53 type  2   force =     0.22806158    0.01067241   -0.18206101
     atom   54 type  2   force =    -0.08906820   -0.08974917    0.16421299
     atom   55 type  2   force =     0.24491297    0.24735432    1.14027724
     atom   56 type  2   force =    -0.09054439   -0.03119087   -0.12417146
     atom   57 type  2   force =    -0.02256796   -0.03982230   -0.01945966
     atom   58 type  2   force =    -0.07912493    0.04594268    0.03917361
     atom   59 type  2   force =    -0.29289038    0.08117846    0.15392468
     atom   60 type  2   force =     0.08551178   -0.03477060    0.08433763
     atom   61 type  2   force =     0.13017057   -0.37135740    0.15758966
     atom   62 type  2   force =     0.02923068    0.03478194   -0.10174143
     atom   63 type  2   force =     0.12337393    0.07793976   -0.28169396
     The local contribution  to forces
     atom    1 type  1   force =    -2.22881566   -2.20392785   -2.24468398
     atom    2 type  2   force =    -2.21196251    1.85296332    2.02601455
     atom    3 type  2   force =    -0.54609027    0.65749511    0.78601411
     atom    4 type  2   force =     1.88338104   -2.12135165    1.95645800
     atom    5 type  2   force =     0.70796340   -0.46588481    0.75759570
     atom    6 type  2   force =     2.00010709    1.90014018   -2.26970727
     atom    7 type  2   force =     0.75680536    0.67778016   -0.60277650
     atom    8 type  2   force =    -0.25006480   -0.20839627    0.67817481
     atom    9 type  2   force =    -0.06256119   -0.02639082    0.20804723
     atom   10 type  2   force =    -0.13234390   -0.06308763   -0.54899989
     atom   11 type  2   force =     0.61109864    0.56127614   -0.72919632
     atom   12 type  2   force =    -0.01264417   -0.11792835   -0.53203132
     atom   13 type  2   force =     0.60804122    0.64039123   -0.68976447
     atom   14 type  2   force =     0.19530015    0.18055661    0.66444546
     atom   15 type  2   force =     0.15593984    0.12014764    0.06546198
     atom   16 type  2   force =    -0.16260802    0.72394883   -0.18836893
     atom   17 type  2   force =    -0.06887591    0.13952505   -0.09105561
     atom   18 type  2   force =    -0.18003374   -0.44535932    0.01169456
     atom   19 type  2   force =     0.43302088   -0.67254479    0.64619742
     atom   20 type  2   force =     0.17943333    0.68269171    0.18894343
     atom   21 type  2   force =     0.16247496    0.05755943    0.18686109
     atom   22 type  2   force =    -0.01441246   -0.45412685   -0.19431714
     atom   23 type  2   force =     0.62427897   -0.70100618    0.40184890
     atom   24 type  2   force =    -0.03102811    0.11067352    0.13812020
     atom   25 type  2   force =     0.03841296    0.06953326    0.05181809
     atom   26 type  2   force =    -0.09868536    0.11996216    0.10009492
     atom   27 type  2   force =    -1.02739823   -0.38227077   -0.38046535
     atom   28 type  2   force =     0.01494664    0.11507057   -0.09522031
     atom   29 type  2   force =     0.15361385   -0.04847169   -0.26324098
     atom   30 type  2   force =    -0.04941542   -0.11699170    0.21010229
     atom   31 type  2   force =     0.15078818   -0.17784625   -0.01113082
     atom   32 type  2   force =     0.69513337   -0.18703763   -0.25426342
     atom   33 type  2   force =     0.18442521   -0.02976007   -0.08786006
     atom   34 type  2   force =     0.66782244    0.17558013    0.19942830
     atom   35 type  2   force =     0.06122601    0.12403540    0.18427249
     atom   36 type  2   force =    -0.49553211   -0.13267276    0.01327425
     atom   37 type  2   force =    -0.66405173    0.57360909    0.63718180
     atom   38 type  2   force =    -0.52104368   -0.06344666   -0.16157058
     atom   39 type  2   force =    -0.73172275    0.56818545    0.51286113
     atom   40 type  2   force =     0.16732586    0.00776298    0.17959728
     atom   41 type  2   force =     0.05401410    0.09564513    0.05058838
     atom   42 type  2   force =     0.10862088   -0.10066765   -0.07406932
     atom   43 type  2   force =    -0.05919335    0.11014894   -0.25864710
     atom   44 type  2   force =     0.10129423   -0.07603773    0.08316368
     atom   45 type  2   force =    -0.37628353   -1.04690352   -0.37910384
     atom   46 type  2   force =    -0.08431210   -0.12392838    0.14645733
     atom   47 type  2   force =    -0.22771169    0.10998661   -0.04283150
     atom   48 type  2   force =     0.10042276    0.08527327   -0.06084124
     atom   49 type  2   force =     0.05760825    0.07167906    0.00606209
     atom   50 type  2   force =     0.21120567   -0.13030883    0.01470775
     atom   51 type  2   force =    -0.01053803   -0.17995496    0.17733969
     atom   52 type  2   force =    -0.11926691    0.15455906    0.05601895
     atom   53 type  2   force =    -0.23455848   -0.03159907    0.17998612
     atom   54 type  2   force =     0.11404185    0.11598797   -0.10627834
     atom   55 type  2   force =    -0.37576710   -0.38041752   -1.01861883
     atom   56 type  2   force =     0.07277596    0.01207342    0.10718553
     atom   57 type  2   force =     0.01628557    0.03313237    0.01253039
     atom   58 type  2   force =     0.06449635   -0.03573448   -0.02606105
     atom   59 type  2   force =     0.28356949   -0.06970776   -0.14191494
     atom   60 type  2   force =    -0.07250339    0.01878844   -0.07039787
     atom   61 type  2   force =    -0.11888268    0.36440412   -0.14622529
     atom   62 type  2   force =    -0.01710788   -0.02464380    0.08777059
     atom   63 type  2   force =    -0.11092217   -0.06593938    0.27267067
     The core correction contribution to forces
     atom    1 type  1   force =     0.00000000    0.00000000    0.00000000
     atom    2 type  2   force =     0.00000000    0.00000000    0.00000000
     atom    3 type  2   force =     0.00000000    0.00000000    0.00000000
     atom    4 type  2   force =     0.00000000    0.00000000    0.00000000
     atom    5 type  2   force =     0.00000000    0.00000000    0.00000000
     atom    6 type  2   force =     0.00000000    0.00000000    0.00000000
     atom    7 type  2   force =     0.00000000    0.00000000    0.00000000
     atom    8 type  2   force =     0.00000000    0.00000000    0.00000000
     atom    9 type  2   force =     0.00000000    0.00000000    0.00000000
     atom   10 type  2   force =     0.00000000    0.00000000    0.00000000
     atom   11 type  2   force =     0.00000000    0.00000000    0.00000000
     atom   12 type  2   force =     0.00000000    0.00000000    0.00000000
     atom   13 type  2   force =     0.00000000    0.00000000    0.00000000
     atom   14 type  2   force =     0.00000000    0.00000000    0.00000000
     atom   15 type  2   force =     0.00000000    0.00000000    0.00000000
     atom   16 type  2   force =     0.00000000    0.00000000    0.00000000
     atom   17 type  2   force =     0.00000000    0.00000000    0.00000000
     atom   18 type  2   force =     0.00000000    0.00000000    0.00000000
     atom   19 type  2   force =     0.00000000    0.00000000    0.00000000
     atom   20 type  2   force =     0.00000000    0.00000000    0.00000000
     atom   21 type  2   force =     0.00000000    0.00000000    0.00000000
     atom   22 type  2   force =     0.00000000    0.00000000    0.00000000
     atom   23 type  2   force =     0.00000000    0.00000000    0.00000000
     atom   24 type  2   force =     0.00000000    0.00000000    0.00000000
     atom   25 type  2   force =     0.00000000    0.00000000    0.00000000
     atom   26 type  2   force =     0.00000000    0.00000000    0.00000000
     atom   27 type  2   force =     0.00000000    0.00000000    0.00000000
     atom   28 type  2   force =     0.00000000    0.00000000    0.00000000
     atom   29 type  2   force =     0.00000000    0.00000000    0.00000000
     atom   30 type  2   force =     0.00000000    0.00000000    0.00000000
     atom   31 type  2   force =     0.00000000    0.00000000    0.00000000
     atom   32 type  2   force =     0.00000000    0.00000000    0.00000000
     atom   33 type  2   force =     0.00000000    0.00000000    0.00000000
     atom   34 type  2   force =     0.00000000    0.00000000    0.00000000
     atom   35 type  2   force =     0.00000000    0.00000000    0.00000000
     atom   36 type  2   force =     0.00000000    0.00000000    0.00000000
     atom   37 type  2   force =     0.00000000    0.00000000    0.00000000
     atom   38 type  2   force =     0.00000000    0.00000000    0.00000000
     atom   39 type  2   force =     0.00000000    0.00000000    0.00000000
     atom   40 type  2   force =     0.00000000    0.00000000    0.00000000
     atom   41 type  2   force =     0.00000000    0.00000000    0.00000000
     atom   42 type  2   force =     0.00000000    0.00000000    0.00000000
     atom   43 type  2   force =     0.00000000    0.00000000    0.00000000
     atom   44 type  2   force =     0.00000000    0.00000000    0.00000000
     atom   45 type  2   force =     0.00000000    0.00000000    0.00000000
     atom   46 type  2   force =     0.00000000    0.00000000    0.00000000
     atom   47 type  2   force =     0.00000000    0.00000000    0.00000000
     atom   48 type  2   force =     0.00000000    0.00000000    0.00000000
     atom   49 type  2   force =     0.00000000    0.00000000    0.00000000
     atom   50 type  2   force =     0.00000000    0.00000000    0.00000000
     atom   51 type  2   force =     0.00000000    0.00000000    0.00000000
     atom   52 type  2   force =     0.00000000    0.00000000    0.00000000
     atom   53 type  2   force =     0.00000000    0.00000000    0.00000000
     atom   54 type  2   force =     0.00000000    0.00000000    0.00000000
     atom   55 type  2   force =     0.00000000    0.00000000    0.00000000
     atom   56 type  2   force =     0.00000000    0.00000000    0.00000000
     atom   57 type  2   force =     0.00000000    0.00000000    0.00000000
     atom   58 type  2   force =     0.00000000    0.00000000    0.00000000
     atom   59 type  2   force =     0.00000000    0.00000000    0.00000000
     atom   60 type  2   force =     0.00000000    0.00000000    0.00000000
     atom   61 type  2   force =     0.00000000    0.00000000    0.00000000
     atom   62 type  2   force =     0.00000000    0.00000000    0.00000000
     atom   63 type  2   force =     0.00000000    0.00000000    0.00000000
     The Hubbard contrib.    to forces
     atom    1 type  1   force =     0.00000000    0.00000000    0.00000000
     atom    2 type  2   force =     0.00000000    0.00000000    0.00000000
     atom    3 type  2   force =     0.00000000    0.00000000    0.00000000
     atom    4 type  2   force =     0.00000000    0.00000000    0.00000000
     atom    5 type  2   force =     0.00000000    0.00000000    0.00000000
     atom    6 type  2   force =     0.00000000    0.00000000    0.00000000
     atom    7 type  2   force =     0.00000000    0.00000000    0.00000000
     atom    8 type  2   force =     0.00000000    0.00000000    0.00000000
     atom    9 type  2   force =     0.00000000    0.00000000    0.00000000
     atom   10 type  2   force =     0.00000000    0.00000000    0.00000000
     atom   11 type  2   force =     0.00000000    0.00000000    0.00000000
     atom   12 type  2   force =     0.00000000    0.00000000    0.00000000
     atom   13 type  2   force =     0.00000000    0.00000000    0.00000000
     atom   14 type  2   force =     0.00000000    0.00000000    0.00000000
     atom   15 type  2   force =     0.00000000    0.00000000    0.00000000
     atom   16 type  2   force =     0.00000000    0.00000000    0.00000000
     atom   17 type  2   force =     0.00000000    0.00000000    0.00000000
     atom   18 type  2   force =     0.00000000    0.00000000    0.00000000
     atom   19 type  2   force =     0.00000000    0.00000000    0.00000000
     atom   20 type  2   force =     0.00000000    0.00000000    0.00000000
     atom   21 type  2   force =     0.00000000    0.00000000    0.00000000
     atom   22 type  2   force =     0.00000000    0.00000000    0.00000000
     atom   23 type  2   force =     0.00000000    0.00000000    0.00000000
     atom   24 type  2   force =     0.00000000    0.00000000    0.00000000
     atom   25 type  2   force =     0.00000000    0.00000000    0.00000000
     atom   26 type  2   force =     0.00000000    0.00000000    0.00000000
     atom   27 type  2   force =     0.00000000    0.00000000    0.00000000
     atom   28 type  2   force =     0.00000000    0.00000000    0.00000000
     atom   29 type  2   force =     0.00000000    0.00000000    0.00000000
     atom   30 type  2   force =     0.00000000    0.00000000    0.00000000
     atom   31 type  2   force =     0.00000000    0.00000000    0.00000000
     atom   32 type  2   force =     0.00000000    0.00000000    0.00000000
     atom   33 type  2   force =     0.00000000    0.00000000    0.00000000
     atom   34 type  2   force =     0.00000000    0.00000000    0.00000000
     atom   35 type  2   force =     0.00000000    0.00000000    0.00000000
     atom   36 type  2   force =     0.00000000    0.00000000    0.00000000
     atom   37 type  2   force =     0.00000000    0.00000000    0.00000000
     atom   38 type  2   force =     0.00000000    0.00000000    0.00000000
     atom   39 type  2   force =     0.00000000    0.00000000    0.00000000
     atom   40 type  2   force =     0.00000000    0.00000000    0.00000000
     atom   41 type  2   force =     0.00000000    0.00000000    0.00000000
     atom   42 type  2   force =     0.00000000    0.00000000    0.00000000
     atom   43 type  2   force =     0.00000000    0.00000000    0.00000000
     atom   44 type  2   force =     0.00000000    0.00000000    0.00000000
     atom   45 type  2   force =     0.00000000    0.00000000    0.00000000
     atom   46 type  2   force =     0.00000000    0.00000000    0.00000000
     atom   47 type  2   force =     0.00000000    0.00000000    0.00000000
     atom   48 type  2   force =     0.00000000    0.00000000    0.00000000
     atom   49 type  2   force =     0.00000000    0.00000000    0.00000000
     atom   50 type  2   force =     0.00000000    0.00000000    0.00000000
     atom   51 type  2   force =     0.00000000    0.00000000    0.00000000
     atom   52 type  2   force =     0.00000000    0.00000000    0.00000000
     atom   53 type  2   force =     0.00000000    0.00000000    0.00000000
     atom   54 type  2   force =     0.00000000    0.00000000    0.00000000
     atom   55 type  2   force =     0.00000000    0.00000000    0.00000000
     atom   56 type  2   force =     0.00000000    0.00000000    0.00000000
     atom   57 type  2   force =     0.00000000    0.00000000    0.00000000
     atom   58 type  2   force =     0.00000000    0.00000000    0.00000000
     atom   59 type  2   force =     0.00000000    0.00000000    0.00000000
     atom   60 type  2   force =     0.00000000    0.00000000    0.00000000
     atom   61 type  2   force =     0.00000000    0.00000000    0.00000000
     atom   62 type  2   force =     0.00000000    0.00000000    0.00000000
     atom   63 type  2   force =     0.00000000    0.00000000    0.00000000
     The SCF correction term to forces
     atom    1 type  1   force =    -0.00001963   -0.00003004    0.00000280
     atom    2 type  2   force =    -0.00001350   -0.00001623    0.00000005
     atom    3 type  2   force =     0.00001404    0.00001595    0.00001056
     atom    4 type  2   force =     0.00000342   -0.00001776   -0.00000234
     atom    5 type  2   force =     0.00001544   -0.00002082   -0.00001044
     atom    6 type  2   force =     0.00000574   -0.00002075    0.00000645
     atom    7 type  2   force =     0.00002105   -0.00000218    0.00001819
     atom    8 type  2   force =    -0.00001910   -0.00003336   -0.00000289
     atom    9 type  2   force =    -0.00001516   -0.00002478    0.00000136
     atom   10 type  2   force =    -0.00002724   -0.00000835   -0.00000033
     atom   11 type  2   force =    -0.00002130    0.00000220   -0.00000819
     atom   12 type  2   force =    -0.00000412   -0.00001598   -0.00000212
     atom   13 type  2   force =     0.00001189   -0.00002013    0.00000478
     atom   14 type  2   force =     0.00001575   -0.00001028   -0.00000729
     atom   15 type  2   force =     0.00002380    0.00000786   -0.00001946
     atom   16 type  2   force =    -0.00002245    0.00002545   -0.00000743
     atom   17 type  2   force =    -0.00001511    0.00003417    0.00000684
     atom   18 type  2   force =    -0.00002236    0.00001792    0.00000780
     atom   19 type  2   force =    -0.00001274   -0.00000563   -0.00000646
     atom   20 type  2   force =     0.00001400    0.00001942    0.00000887
     atom   21 type  2   force =     0.00002235    0.00001257    0.00000278
     atom   22 type  2   force =    -0.00000942    0.00001705    0.00001120
     atom   23 type  2   force =     0.00000220    0.00000641    0.00001905
     atom   24 type  2   force =    -0.00002386    0.00003274    0.00000920
     atom   25 type  2   force =    -0.00001784    0.00002342   -0.00000572
     atom   26 type  2   force =    -0.00001784    0.00000835   -0.00000726
     atom   27 type  2   force =    -0.00001289   -0.00000632    0.00000129
     atom   28 type  2   force =    -0.00000447    0.00001899   -0.00000865
     atom   29 type  2   force =     0.00000875    0.00002127   -0.00000445
     atom   30 type  2   force =    -0.00000423    0.00001442   -0.00000880
     atom   31 type  2   force =     0.00001154   -0.00000624   -0.00001000
     atom   32 type  2   force =     0.00001145   -0.00000691    0.00001350
     atom   33 type  2   force =     0.00000305   -0.00001958    0.00000740
     atom   34 type  2   force =     0.00000811   -0.00001142    0.00000759
     atom   35 type  2   force =    -0.00000789    0.00001372    0.00000954
     atom   36 type  2   force =    -0.00000744   -0.00003434    0.00001051
     atom   37 type  2   force =    -0.00002688   -0.00004694    0.00001391
     atom   38 type  2   force =    -0.00000781   -0.00000915   -0.00001128
     atom   39 type  2   force =    -0.00002846    0.00001748   -0.00001671
     atom   40 type  2   force =     0.00001990   -0.00001604   -0.00001426
     atom   41 type  2   force =     0.00001658   -0.00001157   -0.00000570
     atom   42 type  2   force =     0.00002886   -0.00000892   -0.00000712
     atom   43 type  2   force =     0.00002446   -0.00000144   -0.00000850
     atom   44 type  2   force =     0.00000553   -0.00000656   -0.00000820
     atom   45 type  2   force =    -0.00001696   -0.00001165   -0.00001112
     atom   46 type  2   force =    -0.00001408   -0.00000887    0.00001430
     atom   47 type  2   force =    -0.00002467    0.00000907    0.00001386
     atom   48 type  2   force =     0.00002218    0.00000896    0.00001073
     atom   49 type  2   force =     0.00001771    0.00002015    0.00002168
     atom   50 type  2   force =     0.00002516    0.00001316    0.00001366
     atom   51 type  2   force =     0.00002128   -0.00001312   -0.00000089
     atom   52 type  2   force =    -0.00001305    0.00003718    0.00000837
     atom   53 type  2   force =    -0.00002496    0.00004190    0.00000427
     atom   54 type  2   force =     0.00001070    0.00000916    0.00001605
     atom   55 type  2   force =    -0.00001213   -0.00001589    0.00001697
     atom   56 type  2   force =     0.00002230    0.00001326   -0.00001005
     atom   57 type  2   force =     0.00001678    0.00001115   -0.00002105
     atom   58 type  2   force =     0.00001482    0.00000830   -0.00001455
     atom   59 type  2   force =     0.00001530    0.00000120   -0.00000204
     atom   60 type  2   force =     0.00000537    0.00000392   -0.00001049
     atom   61 type  2   force =    -0.00000840    0.00001280   -0.00000441
     atom   62 type  2   force =     0.00000214    0.00000893   -0.00001908
     atom   63 type  2   force =    -0.00001130   -0.00000789   -0.00001737

     Total force =     0.129172     Total SCF correction =     0.000215

     Writing all to output data dir ./pwscf.save/ :
     XML data file, charge density, pseudopotentials, collected wavefunctions
 
     init_run     :      0.29s CPU      0.62s WALL (       1 calls)
     electrons    :     11.25s CPU     11.77s WALL (       1 calls)
     forces       :      3.24s CPU      3.26s WALL (       1 calls)

     Called by init_run:
     wfcinit      :      0.09s CPU      0.11s WALL (       1 calls)
     wfcinit:wfcr :      0.09s CPU      0.11s WALL (       1 calls)
     potinit      :      0.10s CPU      0.21s WALL (       1 calls)
     hinit0       :      0.03s CPU      0.23s WALL (       1 calls)

     Called by electrons:
     c_bands      :      9.60s CPU     10.08s WALL (      14 calls)
     sum_band     :      0.57s CPU      0.58s WALL (      14 calls)
     v_of_rho     :      0.28s CPU      0.28s WALL (      15 calls)
     v_h          :      0.00s CPU      0.00s WALL (      15 calls)
     v_xc         :      0.27s CPU      0.28s WALL (      15 calls)
     mix_rho      :      0.44s CPU      0.44s WALL (      14 calls)

     Called by c_bands:
     init_us_2    :      0.02s CPU      0.03s WALL (      30 calls)
     regterg      :      8.27s CPU      8.74s WALL (      14 calls)

     Called by sum_band:
     sum_band:wei :      0.04s CPU      0.04s WALL (      14 calls)
     sum_band:loo :      0.43s CPU      0.43s WALL (      14 calls)
     sum_band:buf :      0.00s CPU      0.00s WALL (      14 calls)
     sum_band:ini :      0.01s CPU      0.01s WALL (      14 calls)

     Called by *egterg:
     rdiaghg      :      4.35s CPU      4.65s WALL (     274 calls)
     regterg:over :      0.59s CPU      0.60s WALL (     260 calls)
     regterg:upda :      0.39s CPU      0.42s WALL (     260 calls)
     regterg:last :      0.25s CPU      0.25s WALL (      52 calls)
     rdiaghg:chol :      0.14s CPU      0.15s WALL (     274 calls)
     rdiaghg:inve :      0.03s CPU      0.03s WALL (     274 calls)
     rdiaghg:para :      0.37s CPU      0.40s WALL (     548 calls)
     h_psi        :      2.56s CPU      2.67s WALL (     275 calls)
     g_psi        :      0.00s CPU      0.00s WALL (     260 calls)

     Called by h_psi:
     h_psi:calbec :      0.51s CPU      0.55s WALL (     275 calls)
     vloc_psi     :      1.94s CPU      2.00s WALL (     275 calls)
                                        0.00s GPU  (     275 calls)
     add_vuspsi   :      0.10s CPU      0.11s WALL (     275 calls)

     General routines
     calbec       :      0.52s CPU      0.56s WALL (     279 calls)
     fft          :      0.22s CPU      0.34s WALL (     196 calls)
     ffts         :      0.02s CPU      0.02s WALL (      14 calls)
     fftw         :      2.26s CPU      2.32s WALL (   10100 calls)
 
     Parallel routines
 
     PWSCF        :     15.61s CPU     16.66s WALL

 
   This run was terminated on:  17:18:20  16Nov2025            

=------------------------------------------------------------------------------=
   JOB DONE.
=------------------------------------------------------------------------------=
