
     Program PWSCF v.7.5 starts on 16Nov2025 at 15:30:44 

     This program is part of the open-source Quantum ESPRESSO suite
     for quantum simulation of materials; please cite
         "P. Giannozzi et al., J. Phys.:Condens. Matter 21 395502 (2009);
         "P. Giannozzi et al., J. Phys.:Condens. Matter 29 465901 (2017);
         "P. Giannozzi et al., J. Chem. Phys. 152 154105 (2020);
          URL http://www.quantum-espresso.org", 
     in publications or presentations arising from this work. More details at
     http://www.quantum-espresso.org/quote

     Parallel version (MPI), running on    96 processors

     MPI processes distributed on     2 nodes
     175075 MiB available memory on the printing compute node when the environment starts
 
     Reading input from supercell-021.in

     Current dimensions of program PWSCF are:
     Max number of different atomic species (ntypx) = 10
     Max number of k-points (npk) =  40000
     Max angular momentum in pseudopotentials (lmaxx) =  4

     gamma-point specific algorithms are used
 
     K-points division:     npool     =       2
     R & G space division:  proc/nbgrp/npool/nimage =      48
     Subspace diagonalization in iterative solution of the eigenvalue problem:
     one sub-group per band group will be used
     scalapack distributed-memory algorithm (size of sub-group:  2*  2 procs)

 
     Parallelization info
     --------------------
     sticks:   dense  smooth     PW     G-vecs:    dense   smooth      PW
     Min          59      59     14                 2432     2432     302
     Max          62      62     16                 2442     2442     316
     Sum        2885    2885    725               116921   116921   14771
 
     Using Slab Decomposition
 


     bravais-lattice index     =            0
     lattice parameter (alat)  =      13.4813  a.u.
     unit-cell volume          =    2450.1683 (a.u.)^3
     number of atoms/cell      =           63
     number of atomic types    =            2
     number of electrons       =       254.00 (up: 128.00, down: 126.00)
     number of Kohn-Sham states=          152
     kinetic-energy cutoff     =      50.0000  Ry
     charge density cutoff     =     200.0000  Ry
     scf convergence threshold =      1.0E-08
     mixing beta               =       0.7000
     number of iterations used =            8  plain     mixing
     Exchange-correlation= PBE
                           (   1   4   3   4   0   0   0)

     celldm(1)=  13.481306  celldm(2)=   0.000000  celldm(3)=   0.000000
     celldm(4)=   0.000000  celldm(5)=   0.000000  celldm(6)=   0.000000

     crystal axes: (cart. coord. in units of alat)
               a(1) = (   1.000000   0.000000   0.000000 )  
               a(2) = (   0.000000   1.000000   0.000000 )  
               a(3) = (   0.000000   0.000000   1.000000 )  

     reciprocal axes: (cart. coord. in units 2 pi/alat)
               b(1) = (  1.000000  0.000000  0.000000 )  
               b(2) = (  0.000000  1.000000  0.000000 )  
               b(3) = (  0.000000  0.000000  1.000000 )  


     PseudoPot. # 1 for N  read from file:
     ./N_ONCV_PBE-1.2.upf
     MD5 check sum: 5312fdf34e96954e02a33bdc911c617a
     Pseudo is Norm-conserving, Zval =  5.0
     Generated using ONCVPSP code by D. R. Hamann
     Using radial grid of  602 points,  4 beta functions with: 
                l(1) =   0
                l(2) =   0
                l(3) =   1
                l(4) =   1

     PseudoPot. # 2 for C  read from file:
     ./C_ONCV_PBE-1.2.upf
     MD5 check sum: d60b57d9bdca4133f5fde4b584ee909d
     Pseudo is Norm-conserving, Zval =  4.0
     Generated using ONCVPSP code by D. R. Hamann
     Using radial grid of  602 points,  4 beta functions with: 
                l(1) =   0
                l(2) =   0
                l(3) =   1
                l(4) =   1

     atomic species   valence    mass     pseudopotential
     N                 5.00    14.00670     N ( 1.00)
     C                 4.00    12.01070     C ( 1.00)

     Starting magnetic structure 
     atomic species   magnetization
     N               0.000
     C               0.000

     No symmetry found


                                    s                        frac. trans.

      isym =  1     identity                                     

 cryst.   s( 1) = (     1          0          0      )
                  (     0          1          0      )
                  (     0          0          1      )

 cart.    s( 1) = (  1.0000000  0.0000000  0.0000000 )
                  (  0.0000000  1.0000000  0.0000000 )
                  (  0.0000000  0.0000000  1.0000000 )


   Cartesian axes

     site n.     atom                  positions (alat units)
         1        N      tau(   1) = (   0.9893819   0.9897344   0.9891721  )
         2        C      tau(   2) = (   0.9870277   0.2601210   0.2640728  )
         3        C      tau(   3) = (   0.1231717   0.3731672   0.3742038  )
         4        C      tau(   4) = (   0.2603919   0.9909456   0.2619202  )
         5        C      tau(   5) = (   0.3737632   0.1246771   0.3741571  )
         6        C      tau(   6) = (   0.2640151   0.2616009   0.9853609  )
         7        C      tau(   7) = (   0.3737752   0.3731213   0.1223564  )
         8        C      tau(   8) = (   0.0000049   0.0005840   0.4991361  )
         9        C      tau(   9) = (   0.1251361   0.1251278   0.6250981  )
        10        C      tau(  10) = (   0.0020393   0.2482470   0.7515266  )
        11        C      tau(  11) = (   0.1292009   0.3733021   0.8763303  )
        12        C      tau(  12) = (   0.2487801   0.0017974   0.7514403  )
        13        C      tau(  13) = (   0.3754339   0.1292460   0.8748544  )
        14        C      tau(  14) = (   0.2491579   0.2495268   0.4995755  )
        15        C      tau(  15) = (   0.3750038   0.3749547   0.6244069  )
        16        C      tau(  16) = (   0.0016366   0.4979779   0.0013734  )
        17        C      tau(  17) = (   0.1250869   0.6243147   0.1250807  )
        18        C      tau(  18) = (   0.0014462   0.7520697   0.2483230  )
        19        C      tau(  19) = (   0.1266755   0.8769178   0.3741906  )
        20        C      tau(  20) = (   0.2488290   0.4983596   0.2486760  )
        21        C      tau(  21) = (   0.3741642   0.6242659   0.3742111  )
        22        C      tau(  22) = (   0.2480673   0.7520817   0.0015447  )
        23        C      tau(  23) = (   0.3729914   0.8777475   0.1265606  )
        24        C      tau(  24) = (   0.0000493   0.5010760   0.5011299  )
        25        C      tau(  25) = (   0.1252054   0.6262200   0.6252733  )
        26        C      tau(  26) = (   0.9993969   0.7487112   0.7492532  )
        27        C      tau(  27) = (   0.1217927   0.8768349   0.8763928  )
        28        C      tau(  28) = (   0.2492749   0.5017254   0.7482724  )
        29        C      tau(  29) = (   0.3741000   0.6263042   0.8750769  )
        30        C      tau(  30) = (   0.2487293   0.7486845   0.5007616  )
        31        C      tau(  31) = (   0.3739266   0.8750581   0.6258828  )
        32        C      tau(  32) = (   0.4987543   0.0011228   0.0002828  )
        33        C      tau(  33) = (   0.6248203   0.1251003   0.1251034  )
        34        C      tau(  34) = (   0.4991217   0.2493918   0.2488717  )
        35        C      tau(  35) = (   0.6243080   0.3746888   0.3747831  )
        36        C      tau(  36) = (   0.7516460   0.0016191   0.2487956  )
        37        C      tau(  37) = (   0.8750430   0.1283649   0.3757598  )
        38        C      tau(  38) = (   0.7517475   0.2480080   0.0019610  )
        39        C      tau(  39) = (   0.8773622   0.3724247   0.1282033  )
        40        C      tau(  40) = (   0.5008161   0.9999897   0.5008301  )
        41        C      tau(  41) = (   0.6256173   0.1249721   0.6252590  )
        42        C      tau(  42) = (   0.5022259   0.2488088   0.7478265  )
        43        C      tau(  43) = (   0.6264784   0.3739683   0.8752045  )
        44        C      tau(  44) = (   0.7487945   0.9989046   0.7489691  )
        45        C      tau(  45) = (   0.8764746   0.1216998   0.8763156  )
        46        C      tau(  46) = (   0.7479635   0.2486819   0.5018806  )
        47        C      tau(  47) = (   0.8751980   0.3739245   0.6263738  )
        48        C      tau(  48) = (   0.5012000   0.5011574   0.0001136  )
        49        C      tau(  49) = (   0.6256259   0.6262099   0.1252968  )
        50        C      tau(  50) = (   0.5005188   0.7489091   0.2490095  )
        51        C      tau(  51) = (   0.6258050   0.8750157   0.3740056  )
        52        C      tau(  52) = (   0.7486304   0.5011458   0.2494302  )
        53        C      tau(  53) = (   0.8750247   0.6261269   0.3741365  )
        54        C      tau(  54) = (   0.7492281   0.7488562   0.9996087  )
        55        C      tau(  55) = (   0.8766209   0.8769033   0.1218021  )
        56        C      tau(  56) = (   0.4990819   0.4992903   0.4990317  )
        57        C      tau(  57) = (   0.6247789   0.6244471   0.6249452  )
        58        C      tau(  58) = (   0.4991767   0.7499842   0.7500845  )
        59        C      tau(  59) = (   0.6239946   0.8751464   0.8754130  )
        60        C      tau(  60) = (   0.7505316   0.4989321   0.7505826  )
        61        C      tau(  61) = (   0.8758455   0.6234984   0.8759288  )
        62        C      tau(  62) = (   0.7498244   0.7497799   0.4993198  )
        63        C      tau(  63) = (   0.8750855   0.8749084   0.6242568  )

   Crystallographic axes

     site n.     atom                  positions (cryst. coord.)
         1        N      tau(   1) = (  0.9893819  0.9897344  0.9891721  )
         2        C      tau(   2) = (  0.9870277  0.2601210  0.2640728  )
         3        C      tau(   3) = (  0.1231717  0.3731672  0.3742038  )
         4        C      tau(   4) = (  0.2603919  0.9909456  0.2619202  )
         5        C      tau(   5) = (  0.3737632  0.1246771  0.3741571  )
         6        C      tau(   6) = (  0.2640151  0.2616009  0.9853609  )
         7        C      tau(   7) = (  0.3737752  0.3731213  0.1223564  )
         8        C      tau(   8) = (  0.0000049  0.0005840  0.4991361  )
         9        C      tau(   9) = (  0.1251361  0.1251278  0.6250981  )
        10        C      tau(  10) = (  0.0020393  0.2482470  0.7515266  )
        11        C      tau(  11) = (  0.1292009  0.3733021  0.8763303  )
        12        C      tau(  12) = (  0.2487801  0.0017974  0.7514403  )
        13        C      tau(  13) = (  0.3754339  0.1292460  0.8748544  )
        14        C      tau(  14) = (  0.2491579  0.2495268  0.4995755  )
        15        C      tau(  15) = (  0.3750038  0.3749547  0.6244069  )
        16        C      tau(  16) = (  0.0016366  0.4979779  0.0013734  )
        17        C      tau(  17) = (  0.1250869  0.6243147  0.1250807  )
        18        C      tau(  18) = (  0.0014462  0.7520697  0.2483230  )
        19        C      tau(  19) = (  0.1266755  0.8769178  0.3741906  )
        20        C      tau(  20) = (  0.2488290  0.4983596  0.2486760  )
        21        C      tau(  21) = (  0.3741642  0.6242659  0.3742111  )
        22        C      tau(  22) = (  0.2480673  0.7520817  0.0015447  )
        23        C      tau(  23) = (  0.3729914  0.8777475  0.1265606  )
        24        C      tau(  24) = (  0.0000493  0.5010760  0.5011299  )
        25        C      tau(  25) = (  0.1252054  0.6262200  0.6252733  )
        26        C      tau(  26) = (  0.9993969  0.7487112  0.7492532  )
        27        C      tau(  27) = (  0.1217927  0.8768349  0.8763928  )
        28        C      tau(  28) = (  0.2492749  0.5017254  0.7482724  )
        29        C      tau(  29) = (  0.3741000  0.6263042  0.8750769  )
        30        C      tau(  30) = (  0.2487293  0.7486845  0.5007616  )
        31        C      tau(  31) = (  0.3739266  0.8750581  0.6258828  )
        32        C      tau(  32) = (  0.4987543  0.0011228  0.0002828  )
        33        C      tau(  33) = (  0.6248203  0.1251003  0.1251034  )
        34        C      tau(  34) = (  0.4991217  0.2493918  0.2488717  )
        35        C      tau(  35) = (  0.6243080  0.3746888  0.3747831  )
        36        C      tau(  36) = (  0.7516460  0.0016191  0.2487956  )
        37        C      tau(  37) = (  0.8750430  0.1283649  0.3757598  )
        38        C      tau(  38) = (  0.7517475  0.2480080  0.0019610  )
        39        C      tau(  39) = (  0.8773622  0.3724247  0.1282033  )
        40        C      tau(  40) = (  0.5008161  0.9999897  0.5008301  )
        41        C      tau(  41) = (  0.6256173  0.1249721  0.6252590  )
        42        C      tau(  42) = (  0.5022259  0.2488088  0.7478265  )
        43        C      tau(  43) = (  0.6264784  0.3739683  0.8752045  )
        44        C      tau(  44) = (  0.7487945  0.9989046  0.7489691  )
        45        C      tau(  45) = (  0.8764746  0.1216998  0.8763156  )
        46        C      tau(  46) = (  0.7479635  0.2486819  0.5018806  )
        47        C      tau(  47) = (  0.8751980  0.3739245  0.6263738  )
        48        C      tau(  48) = (  0.5012000  0.5011574  0.0001136  )
        49        C      tau(  49) = (  0.6256259  0.6262099  0.1252968  )
        50        C      tau(  50) = (  0.5005188  0.7489091  0.2490095  )
        51        C      tau(  51) = (  0.6258050  0.8750157  0.3740056  )
        52        C      tau(  52) = (  0.7486304  0.5011458  0.2494302  )
        53        C      tau(  53) = (  0.8750247  0.6261269  0.3741365  )
        54        C      tau(  54) = (  0.7492281  0.7488562  0.9996087  )
        55        C      tau(  55) = (  0.8766209  0.8769033  0.1218021  )
        56        C      tau(  56) = (  0.4990819  0.4992903  0.4990317  )
        57        C      tau(  57) = (  0.6247789  0.6244471  0.6249452  )
        58        C      tau(  58) = (  0.4991767  0.7499842  0.7500845  )
        59        C      tau(  59) = (  0.6239946  0.8751464  0.8754130  )
        60        C      tau(  60) = (  0.7505316  0.4989321  0.7505826  )
        61        C      tau(  61) = (  0.8758455  0.6234984  0.8759288  )
        62        C      tau(  62) = (  0.7498244  0.7497799  0.4993198  )
        63        C      tau(  63) = (  0.8750855  0.8749084  0.6242568  )

     number of k points=     1
                       cart. coord. in units 2pi/alat
        k(    1) = (   0.0000000   0.0000000   0.0000000), wk =   1.0000000

                       cryst. coord.
        k(    1) = (   0.0000000   0.0000000   0.0000000), wk =   1.0000000

     Dense  grid:    58461 G-vectors     FFT dimensions: (  64,  64,  64)

     Dynamical RAM for                 wfc:       0.35 MB

     Dynamical RAM for     wfc (w. buffer):       0.35 MB

     Dynamical RAM for           str. fact:       0.04 MB

     Dynamical RAM for           local pot:       0.00 MB

     Dynamical RAM for          nlocal pot:       1.17 MB

     Dynamical RAM for                qrad:       0.65 MB

     Dynamical RAM for          rho,v,vnew:       0.49 MB

     Dynamical RAM for               rhoin:       0.16 MB

     Dynamical RAM for            rho*nmix:       0.60 MB

     Dynamical RAM for           G-vectors:       0.08 MB

     Dynamical RAM for          h,s,v(r/c):       0.53 MB

     Dynamical RAM for          <psi|beta>:       0.58 MB

     Dynamical RAM for                 psi:       0.71 MB

     Dynamical RAM for                hpsi:       0.71 MB

     Dynamical RAM for      wfcinit/wfcrot:       1.24 MB

     Estimated static dynamical RAM per process >       3.37 MB

     Estimated max dynamical RAM per process >       6.49 MB

     Estimated total dynamical RAM >     594.05 MB
     Generating pointlists ...
     new r_m :   0.0854 (alat units)  1.1518 (a.u.) for type    1
     new r_m :   0.0847 (alat units)  1.1416 (a.u.) for type    2

     Initial potential from superposition of free atoms

     starting charge     252.5655, renormalised to     254.0000
     Starting wfcs are random

     total cpu time spent up to now is        1.1 secs

     Self-consistent Calculation

     iteration #  1     ecut=    50.00 Ry     beta= 0.70
     Davidson diagonalization with overlap

---- Real-time Memory Report at c_bands before calling an iterative solver
           158 MiB given to the printing process from OS
             0 MiB allocation reported by mallinfo(arena+hblkhd)
        174109 MiB available memory on the node where the printing process lives
------------------
     ethr =  1.00E-02,  avg # of iterations = 12.0

     total cpu time spent up to now is        2.0 secs

     total energy              =    -723.26925361 Ry
     estimated scf accuracy    <       3.70742604 Ry

     total magnetization       =     2.00 Bohr mag/cell
     absolute magnetization    =     2.00 Bohr mag/cell

     iteration #  2     ecut=    50.00 Ry     beta= 0.70
     Davidson diagonalization with overlap

---- Real-time Memory Report at c_bands before calling an iterative solver
           166 MiB given to the printing process from OS
             0 MiB allocation reported by mallinfo(arena+hblkhd)
        174047 MiB available memory on the node where the printing process lives
------------------
     ethr =  1.46E-03,  avg # of iterations = 12.5

     total cpu time spent up to now is        2.7 secs

     total energy              =    -723.66140964 Ry
     estimated scf accuracy    <       0.45688620 Ry

     total magnetization       =     2.00 Bohr mag/cell
     absolute magnetization    =     2.08 Bohr mag/cell

     iteration #  3     ecut=    50.00 Ry     beta= 0.70
     Davidson diagonalization with overlap

---- Real-time Memory Report at c_bands before calling an iterative solver
           167 MiB given to the printing process from OS
             0 MiB allocation reported by mallinfo(arena+hblkhd)
        174055 MiB available memory on the node where the printing process lives
------------------
     c_bands:  2 eigenvalues not converged
     ethr =  1.80E-04,  avg # of iterations = 20.0

     total cpu time spent up to now is        3.4 secs

     total energy              =    -723.72725488 Ry
     estimated scf accuracy    <       0.86616849 Ry

     total magnetization       =     2.00 Bohr mag/cell
     absolute magnetization    =     2.12 Bohr mag/cell

     iteration #  4     ecut=    50.00 Ry     beta= 0.70
     Davidson diagonalization with overlap

---- Real-time Memory Report at c_bands before calling an iterative solver
           167 MiB given to the printing process from OS
             0 MiB allocation reported by mallinfo(arena+hblkhd)
        174046 MiB available memory on the node where the printing process lives
------------------
     c_bands:  1 eigenvalues not converged
     ethr =  1.80E-04,  avg # of iterations = 20.0

     total cpu time spent up to now is        4.9 secs

     total energy              =    -723.90167447 Ry
     estimated scf accuracy    <       0.00957001 Ry

     total magnetization       =     2.00 Bohr mag/cell
     absolute magnetization    =     2.19 Bohr mag/cell

     iteration #  5     ecut=    50.00 Ry     beta= 0.70
     Davidson diagonalization with overlap

---- Real-time Memory Report at c_bands before calling an iterative solver
           167 MiB given to the printing process from OS
             0 MiB allocation reported by mallinfo(arena+hblkhd)
        174043 MiB available memory on the node where the printing process lives
------------------
     c_bands:  3 eigenvalues not converged
     ethr =  3.77E-06,  avg # of iterations = 20.0

     total cpu time spent up to now is        6.1 secs

     total energy              =    -723.90660903 Ry
     estimated scf accuracy    <       0.00405777 Ry

     total magnetization       =     2.00 Bohr mag/cell
     absolute magnetization    =     2.23 Bohr mag/cell

     iteration #  6     ecut=    50.00 Ry     beta= 0.70
     Davidson diagonalization with overlap

---- Real-time Memory Report at c_bands before calling an iterative solver
           167 MiB given to the printing process from OS
             0 MiB allocation reported by mallinfo(arena+hblkhd)
        174043 MiB available memory on the node where the printing process lives
------------------
     c_bands:  3 eigenvalues not converged
     ethr =  1.60E-06,  avg # of iterations = 20.0

     total cpu time spent up to now is        6.7 secs

     total energy              =    -723.90734308 Ry
     estimated scf accuracy    <       0.00082654 Ry

     total magnetization       =     2.00 Bohr mag/cell
     absolute magnetization    =     2.25 Bohr mag/cell

     iteration #  7     ecut=    50.00 Ry     beta= 0.70
     Davidson diagonalization with overlap

---- Real-time Memory Report at c_bands before calling an iterative solver
           167 MiB given to the printing process from OS
             0 MiB allocation reported by mallinfo(arena+hblkhd)
        174042 MiB available memory on the node where the printing process lives
------------------
     c_bands:  1 eigenvalues not converged
     ethr =  3.25E-07,  avg # of iterations = 19.5

     total cpu time spent up to now is        7.4 secs

     total energy              =    -723.90756077 Ry
     estimated scf accuracy    <       0.00011662 Ry

     total magnetization       =     2.00 Bohr mag/cell
     absolute magnetization    =     2.27 Bohr mag/cell

     iteration #  8     ecut=    50.00 Ry     beta= 0.70
     Davidson diagonalization with overlap

---- Real-time Memory Report at c_bands before calling an iterative solver
           167 MiB given to the printing process from OS
             0 MiB allocation reported by mallinfo(arena+hblkhd)
        174041 MiB available memory on the node where the printing process lives
------------------
     c_bands:  1 eigenvalues not converged
     ethr =  4.59E-08,  avg # of iterations = 20.0

     total cpu time spent up to now is        8.2 secs

     total energy              =    -723.90759965 Ry
     estimated scf accuracy    <       0.00002750 Ry

     total magnetization       =     2.00 Bohr mag/cell
     absolute magnetization    =     2.28 Bohr mag/cell

     iteration #  9     ecut=    50.00 Ry     beta= 0.70
     Davidson diagonalization with overlap

---- Real-time Memory Report at c_bands before calling an iterative solver
           168 MiB given to the printing process from OS
             0 MiB allocation reported by mallinfo(arena+hblkhd)
        174041 MiB available memory on the node where the printing process lives
------------------
     c_bands:  3 eigenvalues not converged
     ethr =  1.08E-08,  avg # of iterations = 20.0

     total cpu time spent up to now is        8.7 secs

     total energy              =    -723.90760967 Ry
     estimated scf accuracy    <       0.00000772 Ry

     total magnetization       =     2.00 Bohr mag/cell
     absolute magnetization    =     2.29 Bohr mag/cell

     iteration # 10     ecut=    50.00 Ry     beta= 0.70
     Davidson diagonalization with overlap

---- Real-time Memory Report at c_bands before calling an iterative solver
           168 MiB given to the printing process from OS
             0 MiB allocation reported by mallinfo(arena+hblkhd)
        174042 MiB available memory on the node where the printing process lives
------------------
     c_bands:  2 eigenvalues not converged
     ethr =  3.04E-09,  avg # of iterations = 20.0

     total cpu time spent up to now is        9.3 secs

     total energy              =    -723.90761312 Ry
     estimated scf accuracy    <       0.00000084 Ry

     total magnetization       =     2.00 Bohr mag/cell
     absolute magnetization    =     2.29 Bohr mag/cell

     iteration # 11     ecut=    50.00 Ry     beta= 0.70
     Davidson diagonalization with overlap

---- Real-time Memory Report at c_bands before calling an iterative solver
           168 MiB given to the printing process from OS
             0 MiB allocation reported by mallinfo(arena+hblkhd)
        174052 MiB available memory on the node where the printing process lives
------------------
     c_bands:  1 eigenvalues not converged
     ethr =  3.32E-10,  avg # of iterations = 20.0

     total cpu time spent up to now is       10.1 secs

     total energy              =    -723.90761378 Ry
     estimated scf accuracy    <       0.00000023 Ry

     total magnetization       =     2.00 Bohr mag/cell
     absolute magnetization    =     2.30 Bohr mag/cell

     iteration # 12     ecut=    50.00 Ry     beta= 0.70
     Davidson diagonalization with overlap

---- Real-time Memory Report at c_bands before calling an iterative solver
           168 MiB given to the printing process from OS
             0 MiB allocation reported by mallinfo(arena+hblkhd)
        174047 MiB available memory on the node where the printing process lives
------------------
     ethr =  9.22E-11,  avg # of iterations = 18.5

     total cpu time spent up to now is       10.7 secs

     total energy              =    -723.90761390 Ry
     estimated scf accuracy    <       0.00000008 Ry

     total magnetization       =     2.00 Bohr mag/cell
     absolute magnetization    =     2.30 Bohr mag/cell

     iteration # 13     ecut=    50.00 Ry     beta= 0.70
     Davidson diagonalization with overlap

---- Real-time Memory Report at c_bands before calling an iterative solver
           168 MiB given to the printing process from OS
             0 MiB allocation reported by mallinfo(arena+hblkhd)
        174049 MiB available memory on the node where the printing process lives
------------------
     ethr =  3.17E-11,  avg # of iterations = 18.0

     total cpu time spent up to now is       11.7 secs

     total energy              =    -723.90761394 Ry
     estimated scf accuracy    <       0.00000003 Ry

     total magnetization       =     2.00 Bohr mag/cell
     absolute magnetization    =     2.30 Bohr mag/cell

     iteration # 14     ecut=    50.00 Ry     beta= 0.70
     Davidson diagonalization with overlap

---- Real-time Memory Report at c_bands before calling an iterative solver
           168 MiB given to the printing process from OS
             0 MiB allocation reported by mallinfo(arena+hblkhd)
        174045 MiB available memory on the node where the printing process lives
------------------
     c_bands:  1 eigenvalues not converged
     ethr =  1.09E-11,  avg # of iterations = 20.0
 
     Magnetic moment per site  (integrated on atomic sphere of radius R)
     atom   1 (R=0.085)  charge=  2.9142  magn=  0.0042
     atom   2 (R=0.085)  charge=  1.8169  magn=  0.2455
     atom   3 (R=0.085)  charge=  1.7930  magn= -0.0087
     atom   4 (R=0.085)  charge=  1.8023  magn=  0.2445
     atom   5 (R=0.085)  charge=  1.7959  magn= -0.0087
     atom   6 (R=0.085)  charge=  1.8232  magn=  0.2456
     atom   7 (R=0.085)  charge=  1.7934  magn= -0.0087
     atom   8 (R=0.085)  charge=  1.7861  magn=  0.0090
     atom   9 (R=0.085)  charge=  1.7963  magn= -0.0019
     atom  10 (R=0.085)  charge=  1.7834  magn=  0.0061
     atom  11 (R=0.085)  charge=  1.7970  magn= -0.0043
     atom  12 (R=0.085)  charge=  1.7823  magn=  0.0061
     atom  13 (R=0.085)  charge=  1.8040  magn= -0.0040
     atom  14 (R=0.085)  charge=  1.7893  magn=  0.0086
     atom  15 (R=0.085)  charge=  1.7873  magn= -0.0020
     atom  16 (R=0.085)  charge=  1.7820  magn=  0.0089
     atom  17 (R=0.085)  charge=  1.7956  magn= -0.0018
     atom  18 (R=0.085)  charge=  1.7821  magn=  0.0056
     atom  19 (R=0.085)  charge=  1.7931  magn= -0.0033
     atom  20 (R=0.085)  charge=  1.7834  magn=  0.0083
     atom  21 (R=0.085)  charge=  1.7846  magn= -0.0020
     atom  22 (R=0.085)  charge=  1.7828  magn=  0.0056
     atom  23 (R=0.085)  charge=  1.7884  magn= -0.0035
     atom  24 (R=0.085)  charge=  1.7825  magn=  0.0182
     atom  25 (R=0.085)  charge=  1.8067  magn=  0.0093
     atom  26 (R=0.085)  charge=  1.7935  magn=  0.0032
     atom  27 (R=0.085)  charge=  1.7589  magn=  0.0001
     atom  28 (R=0.085)  charge=  1.7896  magn=  0.0222
     atom  29 (R=0.085)  charge=  1.7824  magn= -0.0013
     atom  30 (R=0.085)  charge=  1.7900  magn=  0.0207
     atom  31 (R=0.085)  charge=  1.7823  magn= -0.0013
     atom  32 (R=0.085)  charge=  1.7845  magn=  0.0089
     atom  33 (R=0.085)  charge=  1.7960  magn= -0.0019
     atom  34 (R=0.085)  charge=  1.7869  magn=  0.0085
     atom  35 (R=0.085)  charge=  1.7865  magn= -0.0020
     atom  36 (R=0.085)  charge=  1.7818  magn=  0.0059
     atom  37 (R=0.085)  charge=  1.8033  magn= -0.0036
     atom  38 (R=0.085)  charge=  1.7836  magn=  0.0059
     atom  39 (R=0.085)  charge=  1.7914  magn= -0.0041
     atom  40 (R=0.085)  charge=  1.7836  magn=  0.0185
     atom  41 (R=0.085)  charge=  1.8109  magn=  0.0094
     atom  42 (R=0.085)  charge=  1.7948  magn=  0.0219
     atom  43 (R=0.085)  charge=  1.7819  magn= -0.0013
     atom  44 (R=0.085)  charge=  1.7937  magn=  0.0032
     atom  45 (R=0.085)  charge=  1.7589  magn= -0.0001
     atom  46 (R=0.085)  charge=  1.7948  magn=  0.0215
     atom  47 (R=0.085)  charge=  1.7819  magn= -0.0013
     atom  48 (R=0.085)  charge=  1.7819  magn=  0.0184
     atom  49 (R=0.085)  charge=  1.8042  magn=  0.0093
     atom  50 (R=0.085)  charge=  1.7872  magn=  0.0208
     atom  51 (R=0.085)  charge=  1.7825  magn= -0.0013
     atom  52 (R=0.085)  charge=  1.7869  magn=  0.0218
     atom  53 (R=0.085)  charge=  1.7826  magn= -0.0013
     atom  54 (R=0.085)  charge=  1.7935  magn=  0.0032
     atom  55 (R=0.085)  charge=  1.7588  magn=  0.0001
     atom  56 (R=0.085)  charge=  1.7914  magn=  0.0009
     atom  57 (R=0.085)  charge=  1.7832  magn=  0.0010
     atom  58 (R=0.085)  charge=  1.7914  magn=  0.0018
     atom  59 (R=0.085)  charge=  1.7879  magn= -0.0009
     atom  60 (R=0.085)  charge=  1.7911  magn=  0.0017
     atom  61 (R=0.085)  charge=  1.7854  magn= -0.0009
     atom  62 (R=0.085)  charge=  1.7913  magn=  0.0019
     atom  63 (R=0.085)  charge=  1.7891  magn= -0.0009

     total cpu time spent up to now is       13.1 secs

     End of self-consistent calculation

 ------ SPIN UP ------------


          k = 0.0000 0.0000 0.0000 (  7386 PWs)   bands (ev):

    -8.5502  -6.9226  -6.2847  -6.2703  -6.1939  -6.1558  -5.8814  -4.9106
    -4.1430  -4.1295  -4.1246  -4.0889  -4.0308  -4.0199  -4.0136  -3.9181
    -3.8713  -3.8582  -3.3614  -2.9318  -2.6756  -2.6741  -2.1573  -0.3617
    -0.3537  -0.3273  -0.2815  -0.0760   0.1724   0.1958   0.2820   0.2956
     0.3666   0.6184   0.8359   0.8453   0.9549   0.9724   0.9862   1.0565
     1.0622   1.0656   1.2666   1.2984   3.0708   3.9078   3.9266   4.0690
     4.1898   4.2126   4.2253   4.2756   4.2808   4.2860   4.4234   4.4257
     4.4948   4.4987   4.5681   4.6622   4.6849   4.6898   4.6920   4.7869
     4.7960   4.9220   4.9695   4.9702   5.0493   5.1997   5.2093   5.3003
     5.3579   5.3718   5.3974   5.4024   5.4137   6.0412   6.0476   6.0985
     6.6617   6.6647   6.7275   6.9952   7.0052   7.0390   7.5240   8.3325
     8.3365   8.4116   8.4660   8.4965   8.6865   8.7096   8.7904   8.8264
     8.8468   8.8561   8.8944   8.8987   8.9020   9.2875   9.2889   9.3249
     9.6850   9.7108   9.9058   9.9123   9.9451   9.9613   9.9632   9.9782
     9.9875  10.0236  10.0404  10.0562  10.1261  10.1408  10.2732  10.3156
    10.3323  11.0476  12.2851  12.4211  12.4329  13.9501  14.6894  14.8041
    17.3410  17.3762  17.4123  17.5244  17.5759  17.5807  17.8500  17.9210
    17.9385  18.0335  18.0659  18.3699  18.9903  19.0020  19.0235  20.6943
    20.7965  20.8292  20.8770  20.9440  20.9476  21.0266  21.0321  21.0443

     occupation numbers 
     1.0000   1.0000   1.0000   1.0000   1.0000   1.0000   1.0000   1.0000
     1.0000   1.0000   1.0000   1.0000   1.0000   1.0000   1.0000   1.0000
     1.0000   1.0000   1.0000   1.0000   1.0000   1.0000   1.0000   1.0000
     1.0000   1.0000   1.0000   1.0000   1.0000   1.0000   1.0000   1.0000
     1.0000   1.0000   1.0000   1.0000   1.0000   1.0000   1.0000   1.0000
     1.0000   1.0000   1.0000   1.0000   1.0000   1.0000   1.0000   1.0000
     1.0000   1.0000   1.0000   1.0000   1.0000   1.0000   1.0000   1.0000
     1.0000   1.0000   1.0000   1.0000   1.0000   1.0000   1.0000   1.0000
     1.0000   1.0000   1.0000   1.0000   1.0000   1.0000   1.0000   1.0000
     1.0000   1.0000   1.0000   1.0000   1.0000   1.0000   1.0000   1.0000
     1.0000   1.0000   1.0000   1.0000   1.0000   1.0000   1.0000   1.0000
     1.0000   1.0000   1.0000   1.0000   1.0000   1.0000   1.0000   1.0000
     1.0000   1.0000   1.0000   1.0000   1.0000   1.0000   1.0000   1.0000
     1.0000   1.0000   1.0000   1.0000   1.0000   1.0000   1.0000   1.0000
     1.0000   1.0000   1.0000   1.0000   1.0000   1.0000   1.0000   1.0000
     1.0000   1.0000   1.0000   1.0000   1.0000   1.0000   1.0000   1.0000
     0.0000   0.0000   0.0000   0.0000   0.0000   0.0000   0.0000   0.0000
     0.0000   0.0000   0.0000   0.0000   0.0000   0.0000   0.0000   0.0000
     0.0000   0.0000   0.0000   0.0000   0.0000   0.0000   0.0000   0.0000

 ------ SPIN DOWN ----------


          k = 0.0000 0.0000 0.0000 (  7386 PWs)   bands (ev):

    -8.5249  -6.9082  -6.2629  -6.2470  -6.1493  -6.1136  -5.8442  -4.8939
    -4.1225  -4.1068  -4.0845  -4.0588  -3.9950  -3.9817  -3.9650  -3.9058
    -3.8358  -3.8173  -3.3192  -2.9131  -2.6224  -2.6209  -2.0127  -0.3443
    -0.3355  -0.3056  -0.2644  -0.0106   0.1911   0.2132   0.3193   0.3288
     0.3916   0.6533   0.8481   0.8570   0.9881   1.0024   1.0112   1.0735
     1.0787   1.0815   1.4327   1.4684   3.1847   3.9310   3.9486   4.0949
     4.2249   4.2552   4.2669   4.2902   4.2991   4.3131   4.4712   4.4718
     4.5168   4.5205   4.5919   4.6862   4.7024   4.7071   4.7130   4.8216
     4.8330   4.9352   5.0010   5.0021   5.1306   5.2338   5.2442   5.3244
     5.3722   5.3828   5.4182   5.4557   5.4726   6.1034   6.1064   6.1369
     6.6882   6.6920   6.7619   7.0761   7.0925   7.1005   7.6941   8.3708
     8.3760   8.4489   8.5015   8.5304   8.7202   8.7407   8.8264   8.8727
     8.8835   8.8885   8.9234   8.9294   8.9367   9.3241   9.3257   9.3520
     9.7128   9.7383   9.9300   9.9462   9.9569   9.9751   9.9770   9.9973
    10.0076  10.0595  10.0698  10.0805  10.1538  10.1666  10.3314  10.3691
    10.3871  11.4301  12.5590  12.5706  12.6012  14.4307  16.0179  16.1448
    17.3660  17.3937  17.4290  17.5517  17.6310  17.6380  17.8730  17.9407
    17.9566  18.0736  18.1062  18.4889  19.0453  19.0739  19.1109  20.7444
    20.8107  20.8433  20.8918  20.9609  20.9652  21.0430  21.0583  21.0637

     occupation numbers 
     1.0000   1.0000   1.0000   1.0000   1.0000   1.0000   1.0000   1.0000
     1.0000   1.0000   1.0000   1.0000   1.0000   1.0000   1.0000   1.0000
     1.0000   1.0000   1.0000   1.0000   1.0000   1.0000   1.0000   1.0000
     1.0000   1.0000   1.0000   1.0000   1.0000   1.0000   1.0000   1.0000
     1.0000   1.0000   1.0000   1.0000   1.0000   1.0000   1.0000   1.0000
     1.0000   1.0000   1.0000   1.0000   1.0000   1.0000   1.0000   1.0000
     1.0000   1.0000   1.0000   1.0000   1.0000   1.0000   1.0000   1.0000
     1.0000   1.0000   1.0000   1.0000   1.0000   1.0000   1.0000   1.0000
     1.0000   1.0000   1.0000   1.0000   1.0000   1.0000   1.0000   1.0000
     1.0000   1.0000   1.0000   1.0000   1.0000   1.0000   1.0000   1.0000
     1.0000   1.0000   1.0000   1.0000   1.0000   1.0000   1.0000   1.0000
     1.0000   1.0000   1.0000   1.0000   1.0000   1.0000   1.0000   1.0000
     1.0000   1.0000   1.0000   1.0000   1.0000   1.0000   1.0000   1.0000
     1.0000   1.0000   1.0000   1.0000   1.0000   1.0000   1.0000   1.0000
     1.0000   1.0000   1.0000   1.0000   1.0000   1.0000   1.0000   1.0000
     1.0000   1.0000   1.0000   1.0000   1.0000   1.0000   0.0000   0.0000
     0.0000   0.0000   0.0000   0.0000   0.0000   0.0000   0.0000   0.0000
     0.0000   0.0000   0.0000   0.0000   0.0000   0.0000   0.0000   0.0000
     0.0000   0.0000   0.0000   0.0000   0.0000   0.0000   0.0000   0.0000

     highest occupied, lowest unoccupied level (ev):    14.8041   16.0179

!    total energy              =    -723.90761395 Ry
     estimated scf accuracy    <          5.7E-09 Ry

     The total energy is the sum of the following terms:
     one-electron contribution =     232.36410351 Ry
     hartree contribution      =      70.29852943 Ry
     xc contribution           =    -226.76912610 Ry
     ewald contribution        =    -799.80112080 Ry

     total magnetization       =     2.00 Bohr mag/cell
     absolute magnetization    =     2.30 Bohr mag/cell

     convergence has been achieved in  14 iterations

     Forces acting on atoms (cartesian axes, Ry/au):

     atom    1 type  1   force =    -0.00277676   -0.00391796   -0.00257891
     atom    2 type  2   force =     0.03504525    0.01591795   -0.01248162
     atom    3 type  2   force =    -0.00920551    0.00863668    0.00619928
     atom    4 type  2   force =     0.00457278    0.00914757   -0.00671037
     atom    5 type  2   force =     0.00476248   -0.01681836    0.00405376
     atom    6 type  2   force =    -0.00825355    0.00832426    0.04324224
     atom    7 type  2   force =     0.01024209    0.01200760   -0.00203036
     atom    8 type  2   force =     0.00271410    0.00369714    0.00678954
     atom    9 type  2   force =    -0.00207751   -0.00480111   -0.00302827
     atom   10 type  2   force =     0.00084972    0.00133905    0.00743530
     atom   11 type  2   force =    -0.02875266    0.00594776   -0.00884328
     atom   12 type  2   force =    -0.00005125    0.00388765    0.00334908
     atom   13 type  2   force =    -0.00272327   -0.03999823   -0.00187682
     atom   14 type  2   force =     0.00367293    0.00264076   -0.00372694
     atom   15 type  2   force =    -0.00283470   -0.00128627   -0.00559050
     atom   16 type  2   force =     0.00018089   -0.00103651   -0.00098760
     atom   17 type  2   force =    -0.00146948    0.00631959    0.00014407
     atom   18 type  2   force =     0.00352644    0.00040394    0.00065701
     atom   19 type  2   force =    -0.00697982    0.00126121   -0.00619545
     atom   20 type  2   force =     0.00295517   -0.00428612    0.00352873
     atom   21 type  2   force =    -0.00104231   -0.00411291   -0.00202423
     atom   22 type  2   force =     0.00113974    0.00272166    0.00188662
     atom   23 type  2   force =    -0.00142805   -0.00283616    0.00038104
     atom   24 type  2   force =     0.00958538    0.00537392    0.00426484
     atom   25 type  2   force =    -0.01241935   -0.01378265   -0.00411933
     atom   26 type  2   force =     0.01483824    0.00615541    0.00165954
     atom   27 type  2   force =    -0.02569660   -0.00864351   -0.00643836
     atom   28 type  2   force =     0.01056817    0.00075619    0.00590015
     atom   29 type  2   force =    -0.00004698   -0.00156951   -0.00119347
     atom   30 type  2   force =     0.00794640    0.00729864    0.00315221
     atom   31 type  2   force =     0.00109325   -0.00162037   -0.00350086
     atom   32 type  2   force =     0.00343900    0.00326871    0.00110883
     atom   33 type  2   force =     0.00049521   -0.00446273   -0.00011618
     atom   34 type  2   force =    -0.00407445    0.00219700    0.00381631
     atom   35 type  2   force =    -0.00489865   -0.00084349   -0.00336051
     atom   36 type  2   force =     0.00058987    0.00434718   -0.00012653
     atom   37 type  2   force =     0.00063653   -0.03271162   -0.00702800
     atom   38 type  2   force =     0.00700287    0.00173929   -0.00032036
     atom   39 type  2   force =    -0.01012194    0.00611942   -0.01382621
     atom   40 type  2   force =     0.00559791    0.01226638    0.00518812
     atom   41 type  2   force =    -0.00743479   -0.01551445   -0.00371271
     atom   42 type  2   force =    -0.00015618    0.01743501    0.00604332
     atom   43 type  2   force =    -0.00088738    0.00073712   -0.00104185
     atom   44 type  2   force =     0.00460796    0.01704130    0.00299490
     atom   45 type  2   force =    -0.00744462   -0.02656917   -0.00666151
     atom   46 type  2   force =     0.00649000    0.01609722    0.00108554
     atom   47 type  2   force =    -0.00122703    0.00125984   -0.00183329
     atom   48 type  2   force =     0.00484479    0.00552431    0.00772260
     atom   49 type  2   force =    -0.00808014   -0.01405483   -0.01023843
     atom   50 type  2   force =     0.00329433    0.00741269    0.00369882
     atom   51 type  2   force =    -0.00394045   -0.00183187    0.00032361
     atom   52 type  2   force =     0.00646654    0.00216142    0.00498840
     atom   53 type  2   force =    -0.00157813   -0.00293064   -0.00029846
     atom   54 type  2   force =     0.00256851    0.00545892    0.01392969
     atom   55 type  2   force =    -0.00711676   -0.00854161   -0.02494532
     atom   56 type  2   force =     0.00475584    0.00457185    0.00470492
     atom   57 type  2   force =    -0.00175593   -0.00069173   -0.00227758
     atom   58 type  2   force =     0.00149968    0.00409120    0.00332729
     atom   59 type  2   force =    -0.00112954   -0.00255229   -0.00384560
     atom   60 type  2   force =     0.00262114    0.00198754    0.00232050
     atom   61 type  2   force =    -0.00336863   -0.00183553   -0.00381044
     atom   62 type  2   force =     0.00406060    0.00451792    0.00117591
     atom   63 type  2   force =    -0.00369141   -0.00282169   -0.00030285
     The non-local contrib.  to forces
     atom    1 type  1   force =    -0.76049659   -0.76400580   -0.75861505
     atom    2 type  2   force =    -0.16451846    0.22031246    0.17777323
     atom    3 type  2   force =     0.05666317    0.08119255    0.07245327
     atom    4 type  2   force =     0.21415406   -0.21190550    0.19714555
     atom    5 type  2   force =     0.07623731    0.04866612    0.07343123
     atom    6 type  2   force =     0.17913585    0.20411578   -0.14623393
     atom    7 type  2   force =     0.07724852    0.08317999    0.06420231
     atom    8 type  2   force =    -0.00539028   -0.00425639    0.05751342
     atom    9 type  2   force =    -0.00541671   -0.00770122    0.01330923
     atom   10 type  2   force =    -0.04434193   -0.01389018   -0.01154935
     atom   11 type  2   force =    -0.10375551    0.06759912   -0.08309203
     atom   12 type  2   force =    -0.01728029   -0.04097889   -0.01456517
     atom   13 type  2   force =     0.05193587   -0.11615782   -0.07354573
     atom   14 type  2   force =     0.00228253    0.00141833    0.04650654
     atom   15 type  2   force =     0.01009041    0.00931948   -0.00335919
     atom   16 type  2   force =    -0.01243889    0.04851248   -0.01320985
     atom   17 type  2   force =    -0.00464298    0.02706743   -0.00328487
     atom   18 type  2   force =    -0.04049619   -0.02160428   -0.01569225
     atom   19 type  2   force =    -0.07978369   -0.07532036    0.05411868
     atom   20 type  2   force =     0.00447676    0.04462055    0.00503526
     atom   21 type  2   force =     0.01075202   -0.00318064    0.01120304
     atom   22 type  2   force =    -0.01446329   -0.01976813   -0.04204149
     atom   23 type  2   force =     0.06248824   -0.08100064   -0.07156357
     atom   24 type  2   force =    -0.06455116    0.03312994    0.03404424
     atom   25 type  2   force =    -0.02416596    0.00024405    0.01348552
     atom   26 type  2   force =    -0.04175768   -0.02083709   -0.02352515
     atom   27 type  2   force =    -0.14713282    0.12514077    0.12337599
     atom   28 type  2   force =     0.07977584    0.02360963   -0.01246009
     atom   29 type  2   force =     0.00050605    0.01853663    0.00520075
     atom   30 type  2   force =     0.07603501   -0.01248403    0.02821467
     atom   31 type  2   force =     0.00332095    0.00335965    0.01660781
     atom   32 type  2   force =     0.05366706   -0.00626340   -0.00821206
     atom   33 type  2   force =     0.01829732   -0.00721894   -0.00357572
     atom   34 type  2   force =     0.04566022    0.00201406    0.00342585
     atom   35 type  2   force =    -0.00315292    0.00914432    0.01038852
     atom   36 type  2   force =    -0.01837447   -0.04027642   -0.01784976
     atom   37 type  2   force =    -0.07194068   -0.10829692    0.04763262
     atom   38 type  2   force =    -0.01355941   -0.01325058   -0.04519025
     atom   39 type  2   force =    -0.08672619    0.07134306   -0.08736644
     atom   40 type  2   force =     0.03548542   -0.05911473    0.03596849
     atom   41 type  2   force =     0.00867509   -0.02628047    0.01384463
     atom   42 type  2   force =     0.02088954    0.08876336   -0.00969081
     atom   43 type  2   force =     0.01712891    0.00027832    0.00391775
     atom   44 type  2   force =    -0.02269111   -0.03671994   -0.02352374
     atom   45 type  2   force =     0.12496951   -0.14754679    0.12431487
     atom   46 type  2   force =    -0.00982023    0.08702417    0.02310202
     atom   47 type  2   force =     0.00332404    0.00122658    0.01617817
     atom   48 type  2   force =     0.03343243    0.03297915   -0.06822851
     atom   49 type  2   force =     0.00807965   -0.00004125   -0.02262693
     atom   50 type  2   force =     0.02899645   -0.01386909    0.07077942
     atom   51 type  2   force =     0.01699995    0.00375000    0.00336031
     atom   52 type  2   force =    -0.01401587    0.02668063    0.07280911
     atom   53 type  2   force =     0.00501895    0.01801912    0.00147458
     atom   54 type  2   force =    -0.02258287   -0.02071282   -0.04381243
     atom   55 type  2   force =     0.12329998    0.12443447   -0.14651386
     atom   56 type  2   force =     0.02289241    0.02392461    0.02212613
     atom   57 type  2   force =     0.00516134    0.00493157    0.00535386
     atom   58 type  2   force =     0.01610224   -0.00657555   -0.00995359
     atom   59 type  2   force =     0.00831515   -0.01456779   -0.01585830
     atom   60 type  2   force =    -0.01028873    0.01821720   -0.01146343
     atom   61 type  2   force =    -0.01486198    0.00865199   -0.01537308
     atom   62 type  2   force =    -0.00827924   -0.00607709    0.01518879
     atom   63 type  2   force =    -0.01617107   -0.01535736    0.00890463
     The ionic contribution  to forces
     atom    1 type  1   force =     2.98352204    2.94885884    2.99771280
     atom    2 type  2   force =     2.40616960   -2.05604718   -2.21527907
     atom    3 type  2   force =     0.47831570   -0.72269911   -0.85047417
     atom    4 type  2   force =    -2.12653008    2.26672184   -2.19279553
     atom    5 type  2   force =    -0.74866541    0.40924540   -0.79643845
     atom    6 type  2   force =    -2.18652681   -2.09472187    2.45403144
     atom    7 type  2   force =    -0.82207383   -0.74169002    0.53462725
     atom    8 type  2   force =     0.25644606    0.20962569   -0.72672207
     atom    9 type  2   force =     0.06474880    0.02450487   -0.22148326
     atom   10 type  2   force =     0.17931583    0.07129483    0.56571228
     atom   11 type  2   force =    -0.52844098   -0.62516017    0.80226364
     atom   12 type  2   force =     0.02847942    0.15767311    0.55059317
     atom   13 type  2   force =    -0.66221754   -0.56813012    0.75891598
     atom   14 type  2   force =    -0.19465216   -0.17487525   -0.70651591
     atom   15 type  2   force =    -0.16834337   -0.12819985   -0.06697388
     atom   16 type  2   force =     0.20018579   -0.77209989    0.22546715
     atom   17 type  2   force =     0.07396689   -0.14895244    0.09643444
     atom   18 type  2   force =     0.23134036    0.47260585    0.00272527
     atom   19 type  2   force =    -0.33164506    0.74615568   -0.73220059
     atom   20 type  2   force =    -0.18088888   -0.72148588   -0.19035994
     atom   21 type  2   force =    -0.17718471   -0.04938751   -0.20292063
     atom   22 type  2   force =     0.02802096    0.48180024    0.24545196
     atom   23 type  2   force =    -0.71334030    0.77560809   -0.30178033
     atom   24 type  2   force =     0.10617115   -0.13352193   -0.17073816
     atom   25 type  2   force =    -0.02505362   -0.07715543   -0.07174289
     atom   26 type  2   force =     0.13088737   -0.09376837   -0.04924050
     atom   27 type  2   force =     1.14148884    0.24153617    0.25214806
     atom   28 type  2   force =    -0.08197067   -0.13368251    0.11287052
     atom   29 type  2   force =    -0.15499734    0.03327099    0.25814788
     atom   30 type  2   force =    -0.01934513    0.14293823   -0.24416828
     atom   31 type  2   force =    -0.15405580    0.17030384   -0.01105467
     atom   32 type  2   force =    -0.74321826    0.18991829    0.26181770
     atom   33 type  2   force =    -0.19941853    0.02774005    0.09018497
     atom   34 type  2   force =    -0.70949679   -0.17099943   -0.19979763
     atom   35 type  2   force =    -0.06230280   -0.13149016   -0.19746364
     atom   36 type  2   force =     0.51511086    0.17219028    0.00305830
     atom   37 type  2   force =     0.73404791   -0.50195342   -0.69131331
     atom   38 type  2   force =     0.53929798    0.07139551    0.20822023
     atom   39 type  2   force =     0.80713761   -0.63572147   -0.43166224
     atom   40 type  2   force =    -0.19632166    0.05617885   -0.20942182
     atom   41 type  2   force =    -0.06988258   -0.08883166   -0.06784190
     atom   42 type  2   force =    -0.13049237    0.02714067    0.08926592
     atom   43 type  2   force =     0.03326109   -0.11295881    0.25365885
     atom   44 type  2   force =    -0.07169304    0.12157487   -0.05430431
     atom   45 type  2   force =     0.24340942    1.15828856    0.24768904
     atom   46 type  2   force =     0.10003085    0.05082493   -0.16923280
     atom   47 type  2   force =     0.22311473   -0.11322070    0.01696879
     atom   48 type  2   force =    -0.13190962   -0.10783833    0.13780685
     atom   49 type  2   force =    -0.07612606   -0.07930109    0.00791591
     atom   50 type  2   force =    -0.24591364    0.15766841   -0.08240524
     atom   51 type  2   force =    -0.01251182    0.17182715   -0.18134936
     atom   52 type  2   force =     0.13899653   -0.17485178   -0.12161043
     atom   53 type  2   force =     0.22927491    0.01556199   -0.18255973
     atom   54 type  2   force =    -0.06330538   -0.09065619    0.13961860
     atom   55 type  2   force =     0.24684861    0.24048292    1.13285672
     atom   56 type  2   force =    -0.09115703   -0.02684712   -0.12478341
     atom   57 type  2   force =    -0.02302513   -0.03343689   -0.01991780
     atom   58 type  2   force =    -0.07742956    0.04810708    0.04000841
     atom   59 type  2   force =    -0.28531419    0.07576985    0.15442705
     atom   60 type  2   force =     0.06011904   -0.03476339    0.05893809
     atom   61 type  2   force =     0.13176844   -0.30183998    0.15916676
     atom   62 type  2   force =     0.03007895    0.03695382   -0.10004783
     atom   63 type  2   force =     0.12389438    0.07252105   -0.27410427
     The local contribution  to forces
     atom    1 type  1   force =    -2.22586964   -2.18876637   -2.24173273
     atom    2 type  2   force =    -2.20667811    1.85164325    2.02496606
     atom    3 type  2   force =    -0.54428411    0.65010005    0.78415267
     atom    4 type  2   force =     1.91685783   -2.04567738    1.98888558
     atom    5 type  2   force =     0.67709021   -0.47473264    0.72701470
     atom    6 type  2   force =     1.99904293    1.89892529   -2.26461585
     atom    7 type  2   force =     0.75496064    0.67049184   -0.60093190
     atom    8 type  2   force =    -0.24840864   -0.20166613    0.67594483
     atom    9 type  2   force =    -0.06148259   -0.02160508    0.20509001
     atom   10 type  2   force =    -0.13418356   -0.05608233   -0.54677919
     atom   11 type  2   force =     0.60337640    0.56347918   -0.72806075
     atom   12 type  2   force =    -0.01133559   -0.11281714   -0.53273043
     atom   13 type  2   force =     0.60746018    0.64428584   -0.68730487
     atom   14 type  2   force =     0.19594044    0.17608432    0.65623292
     atom   15 type  2   force =     0.15530862    0.11755924    0.06470592
     atom   16 type  2   force =    -0.18763062    0.72249481   -0.21329256
     atom   17 type  2   force =    -0.07086710    0.12813794   -0.09306777
     atom   18 type  2   force =    -0.18738180   -0.45064706    0.01355850
     atom   19 type  2   force =     0.40437328   -0.66959878    0.67183659
     atom   20 type  2   force =     0.17926590    0.67252839    0.18878913
     atom   21 type  2   force =     0.16528246    0.04840944    0.18963421
     atom   22 type  2   force =    -0.01249864   -0.45936002   -0.20158919
     atom   23 type  2   force =     0.64933645   -0.69747919    0.37365165
     atom   24 type  2   force =    -0.03209556    0.10570248    0.14089411
     atom   25 type  2   force =     0.03673081    0.06307235    0.05408975
     atom   26 type  2   force =    -0.07435996    0.12071970    0.07437994
     atom   27 type  2   force =    -1.02012996   -0.37534291   -0.38201638
     atom   28 type  2   force =     0.01267926    0.11077890   -0.09455587
     atom   29 type  2   force =     0.15434880   -0.05343261   -0.26459237
     atom   30 type  2   force =    -0.04882655   -0.12320246    0.21905832
     atom   31 type  2   force =     0.15173022   -0.17530786   -0.00910063
     atom   32 type  2   force =     0.69289659   -0.18040471   -0.25256329
     atom   33 type  2   force =     0.18153279   -0.02498932   -0.08678805
     atom   34 type  2   force =     0.65967066    0.17116901    0.20012513
     atom   35 type  2   force =     0.06048149    0.12146088    0.18364835
     atom   36 type  2   force =    -0.49622083   -0.12755962    0.01459723
     atom   37 type  2   force =    -0.66152817    0.57755940    0.63658092
     atom   38 type  2   force =    -0.51880836   -0.05642192   -0.16339361
     atom   39 type  2   force =    -0.73058911    0.57045220    0.50516195
     atom   40 type  2   force =     0.16633109    0.01519125    0.17859832
     atom   41 type  2   force =     0.05367455    0.09958501    0.05023503
     atom   42 type  2   force =     0.10933499   -0.09848402   -0.07357895
     atom   43 type  2   force =    -0.05138198    0.11339107   -0.25866356
     atom   44 type  2   force =     0.09890609   -0.06783306    0.08077835
     atom   45 type  2   force =    -0.37588940   -1.03732416   -0.37870582
     atom   46 type  2   force =    -0.08378958   -0.12176800    0.14714569
     atom   47 type  2   force =    -0.22772511    0.11321735   -0.03504704
     atom   48 type  2   force =     0.10321738    0.08034287   -0.06192070
     atom   49 type  2   force =     0.05986806    0.06523479    0.00439596
     atom   50 type  2   force =     0.22010392   -0.13643164    0.01525625
     atom   51 type  2   force =    -0.00853131   -0.17742571    0.17825594
     atom   52 type  2   force =    -0.11858347    0.15026424    0.05372422
     atom   53 type  2   force =    -0.23593125   -0.03658520    0.18072484
     atom   54 type  2   force =     0.08836616    0.11678643   -0.08194632
     atom   55 type  2   force =    -0.37733647   -0.37347165   -1.01136143
     atom   56 type  2   force =     0.07291405    0.00744899    0.10731527
     atom   57 type  2   force =     0.01600939    0.02776892    0.01225196
     atom   58 type  2   force =     0.06272863   -0.03748175   -0.02676788
     atom   59 type  2   force =     0.27577441   -0.06378486   -0.14246492
     atom   60 type  2   force =    -0.04729561    0.01849850   -0.04519616
     atom   61 type  2   force =    -0.12034977    0.29130687   -0.14765292
     atom   62 type  2   force =    -0.01782351   -0.02639913    0.08599672
     atom   63 type  2   force =    -0.11148653   -0.06000732    0.26485935
     The core correction contribution to forces
     atom    1 type  1   force =     0.00000000    0.00000000    0.00000000
     atom    2 type  2   force =     0.00000000    0.00000000    0.00000000
     atom    3 type  2   force =     0.00000000    0.00000000    0.00000000
     atom    4 type  2   force =     0.00000000    0.00000000    0.00000000
     atom    5 type  2   force =     0.00000000    0.00000000    0.00000000
     atom    6 type  2   force =     0.00000000    0.00000000    0.00000000
     atom    7 type  2   force =     0.00000000    0.00000000    0.00000000
     atom    8 type  2   force =     0.00000000    0.00000000    0.00000000
     atom    9 type  2   force =     0.00000000    0.00000000    0.00000000
     atom   10 type  2   force =     0.00000000    0.00000000    0.00000000
     atom   11 type  2   force =     0.00000000    0.00000000    0.00000000
     atom   12 type  2   force =     0.00000000    0.00000000    0.00000000
     atom   13 type  2   force =     0.00000000    0.00000000    0.00000000
     atom   14 type  2   force =     0.00000000    0.00000000    0.00000000
     atom   15 type  2   force =     0.00000000    0.00000000    0.00000000
     atom   16 type  2   force =     0.00000000    0.00000000    0.00000000
     atom   17 type  2   force =     0.00000000    0.00000000    0.00000000
     atom   18 type  2   force =     0.00000000    0.00000000    0.00000000
     atom   19 type  2   force =     0.00000000    0.00000000    0.00000000
     atom   20 type  2   force =     0.00000000    0.00000000    0.00000000
     atom   21 type  2   force =     0.00000000    0.00000000    0.00000000
     atom   22 type  2   force =     0.00000000    0.00000000    0.00000000
     atom   23 type  2   force =     0.00000000    0.00000000    0.00000000
     atom   24 type  2   force =     0.00000000    0.00000000    0.00000000
     atom   25 type  2   force =     0.00000000    0.00000000    0.00000000
     atom   26 type  2   force =     0.00000000    0.00000000    0.00000000
     atom   27 type  2   force =     0.00000000    0.00000000    0.00000000
     atom   28 type  2   force =     0.00000000    0.00000000    0.00000000
     atom   29 type  2   force =     0.00000000    0.00000000    0.00000000
     atom   30 type  2   force =     0.00000000    0.00000000    0.00000000
     atom   31 type  2   force =     0.00000000    0.00000000    0.00000000
     atom   32 type  2   force =     0.00000000    0.00000000    0.00000000
     atom   33 type  2   force =     0.00000000    0.00000000    0.00000000
     atom   34 type  2   force =     0.00000000    0.00000000    0.00000000
     atom   35 type  2   force =     0.00000000    0.00000000    0.00000000
     atom   36 type  2   force =     0.00000000    0.00000000    0.00000000
     atom   37 type  2   force =     0.00000000    0.00000000    0.00000000
     atom   38 type  2   force =     0.00000000    0.00000000    0.00000000
     atom   39 type  2   force =     0.00000000    0.00000000    0.00000000
     atom   40 type  2   force =     0.00000000    0.00000000    0.00000000
     atom   41 type  2   force =     0.00000000    0.00000000    0.00000000
     atom   42 type  2   force =     0.00000000    0.00000000    0.00000000
     atom   43 type  2   force =     0.00000000    0.00000000    0.00000000
     atom   44 type  2   force =     0.00000000    0.00000000    0.00000000
     atom   45 type  2   force =     0.00000000    0.00000000    0.00000000
     atom   46 type  2   force =     0.00000000    0.00000000    0.00000000
     atom   47 type  2   force =     0.00000000    0.00000000    0.00000000
     atom   48 type  2   force =     0.00000000    0.00000000    0.00000000
     atom   49 type  2   force =     0.00000000    0.00000000    0.00000000
     atom   50 type  2   force =     0.00000000    0.00000000    0.00000000
     atom   51 type  2   force =     0.00000000    0.00000000    0.00000000
     atom   52 type  2   force =     0.00000000    0.00000000    0.00000000
     atom   53 type  2   force =     0.00000000    0.00000000    0.00000000
     atom   54 type  2   force =     0.00000000    0.00000000    0.00000000
     atom   55 type  2   force =     0.00000000    0.00000000    0.00000000
     atom   56 type  2   force =     0.00000000    0.00000000    0.00000000
     atom   57 type  2   force =     0.00000000    0.00000000    0.00000000
     atom   58 type  2   force =     0.00000000    0.00000000    0.00000000
     atom   59 type  2   force =     0.00000000    0.00000000    0.00000000
     atom   60 type  2   force =     0.00000000    0.00000000    0.00000000
     atom   61 type  2   force =     0.00000000    0.00000000    0.00000000
     atom   62 type  2   force =     0.00000000    0.00000000    0.00000000
     atom   63 type  2   force =     0.00000000    0.00000000    0.00000000
     The Hubbard contrib.    to forces
     atom    1 type  1   force =     0.00000000    0.00000000    0.00000000
     atom    2 type  2   force =     0.00000000    0.00000000    0.00000000
     atom    3 type  2   force =     0.00000000    0.00000000    0.00000000
     atom    4 type  2   force =     0.00000000    0.00000000    0.00000000
     atom    5 type  2   force =     0.00000000    0.00000000    0.00000000
     atom    6 type  2   force =     0.00000000    0.00000000    0.00000000
     atom    7 type  2   force =     0.00000000    0.00000000    0.00000000
     atom    8 type  2   force =     0.00000000    0.00000000    0.00000000
     atom    9 type  2   force =     0.00000000    0.00000000    0.00000000
     atom   10 type  2   force =     0.00000000    0.00000000    0.00000000
     atom   11 type  2   force =     0.00000000    0.00000000    0.00000000
     atom   12 type  2   force =     0.00000000    0.00000000    0.00000000
     atom   13 type  2   force =     0.00000000    0.00000000    0.00000000
     atom   14 type  2   force =     0.00000000    0.00000000    0.00000000
     atom   15 type  2   force =     0.00000000    0.00000000    0.00000000
     atom   16 type  2   force =     0.00000000    0.00000000    0.00000000
     atom   17 type  2   force =     0.00000000    0.00000000    0.00000000
     atom   18 type  2   force =     0.00000000    0.00000000    0.00000000
     atom   19 type  2   force =     0.00000000    0.00000000    0.00000000
     atom   20 type  2   force =     0.00000000    0.00000000    0.00000000
     atom   21 type  2   force =     0.00000000    0.00000000    0.00000000
     atom   22 type  2   force =     0.00000000    0.00000000    0.00000000
     atom   23 type  2   force =     0.00000000    0.00000000    0.00000000
     atom   24 type  2   force =     0.00000000    0.00000000    0.00000000
     atom   25 type  2   force =     0.00000000    0.00000000    0.00000000
     atom   26 type  2   force =     0.00000000    0.00000000    0.00000000
     atom   27 type  2   force =     0.00000000    0.00000000    0.00000000
     atom   28 type  2   force =     0.00000000    0.00000000    0.00000000
     atom   29 type  2   force =     0.00000000    0.00000000    0.00000000
     atom   30 type  2   force =     0.00000000    0.00000000    0.00000000
     atom   31 type  2   force =     0.00000000    0.00000000    0.00000000
     atom   32 type  2   force =     0.00000000    0.00000000    0.00000000
     atom   33 type  2   force =     0.00000000    0.00000000    0.00000000
     atom   34 type  2   force =     0.00000000    0.00000000    0.00000000
     atom   35 type  2   force =     0.00000000    0.00000000    0.00000000
     atom   36 type  2   force =     0.00000000    0.00000000    0.00000000
     atom   37 type  2   force =     0.00000000    0.00000000    0.00000000
     atom   38 type  2   force =     0.00000000    0.00000000    0.00000000
     atom   39 type  2   force =     0.00000000    0.00000000    0.00000000
     atom   40 type  2   force =     0.00000000    0.00000000    0.00000000
     atom   41 type  2   force =     0.00000000    0.00000000    0.00000000
     atom   42 type  2   force =     0.00000000    0.00000000    0.00000000
     atom   43 type  2   force =     0.00000000    0.00000000    0.00000000
     atom   44 type  2   force =     0.00000000    0.00000000    0.00000000
     atom   45 type  2   force =     0.00000000    0.00000000    0.00000000
     atom   46 type  2   force =     0.00000000    0.00000000    0.00000000
     atom   47 type  2   force =     0.00000000    0.00000000    0.00000000
     atom   48 type  2   force =     0.00000000    0.00000000    0.00000000
     atom   49 type  2   force =     0.00000000    0.00000000    0.00000000
     atom   50 type  2   force =     0.00000000    0.00000000    0.00000000
     atom   51 type  2   force =     0.00000000    0.00000000    0.00000000
     atom   52 type  2   force =     0.00000000    0.00000000    0.00000000
     atom   53 type  2   force =     0.00000000    0.00000000    0.00000000
     atom   54 type  2   force =     0.00000000    0.00000000    0.00000000
     atom   55 type  2   force =     0.00000000    0.00000000    0.00000000
     atom   56 type  2   force =     0.00000000    0.00000000    0.00000000
     atom   57 type  2   force =     0.00000000    0.00000000    0.00000000
     atom   58 type  2   force =     0.00000000    0.00000000    0.00000000
     atom   59 type  2   force =     0.00000000    0.00000000    0.00000000
     atom   60 type  2   force =     0.00000000    0.00000000    0.00000000
     atom   61 type  2   force =     0.00000000    0.00000000    0.00000000
     atom   62 type  2   force =     0.00000000    0.00000000    0.00000000
     atom   63 type  2   force =     0.00000000    0.00000000    0.00000000
     The SCF correction term to forces
     atom    1 type  1   force =    -0.00001729   -0.00003338    0.00000090
     atom    2 type  2   force =    -0.00001250   -0.00001934    0.00000299
     atom    3 type  2   force =     0.00001500    0.00001443    0.00001233
     atom    4 type  2   force =     0.00000625   -0.00002014   -0.00000114
     atom    5 type  2   force =     0.00001566   -0.00002600   -0.00000890
     atom    6 type  2   force =     0.00000976   -0.00002370    0.00000541
     atom    7 type  2   force =     0.00002205   -0.00000296    0.00001681
     atom    8 type  2   force =    -0.00001775   -0.00003477   -0.00000182
     atom    9 type  2   force =    -0.00001173   -0.00002843    0.00000058
     atom   10 type  2   force =    -0.00002532   -0.00001202   -0.00000361
     atom   11 type  2   force =    -0.00001729    0.00000088   -0.00000932
     atom   12 type  2   force =     0.00000049   -0.00001819   -0.00000366
     atom   13 type  2   force =     0.00001350   -0.00002488    0.00000262
     atom   14 type  2   force =     0.00001742   -0.00001540   -0.00000567
     atom   15 type  2   force =     0.00002493    0.00000611   -0.00001852
     atom   16 type  2   force =    -0.00002010    0.00002733   -0.00000752
     atom   17 type  2   force =    -0.00001100    0.00003791    0.00000709
     atom   18 type  2   force =    -0.00002063    0.00002068    0.00001032
     atom   19 type  2   force =    -0.00000906   -0.00000407   -0.00000530
     atom   20 type  2   force =     0.00001668    0.00002207    0.00000911
     atom   21 type  2   force =     0.00002319    0.00001705    0.00000397
     atom   22 type  2   force =    -0.00000401    0.00002082    0.00001016
     atom   23 type  2   force =     0.00000285    0.00000683    0.00001811
     atom   24 type  2   force =    -0.00002376    0.00003469    0.00000947
     atom   25 type  2   force =    -0.00001529    0.00002763   -0.00000688
     atom   26 type  2   force =    -0.00001620    0.00001242   -0.00000991
     atom   27 type  2   force =    -0.00000736   -0.00000629   -0.00000120
     atom   28 type  2   force =    -0.00000098    0.00002142   -0.00000959
     atom   29 type  2   force =     0.00001080    0.00002673   -0.00000490
     atom   30 type  2   force =    -0.00000164    0.00001815   -0.00000768
     atom   31 type  2   force =     0.00001317   -0.00000475   -0.00000854
     atom   32 type  2   force =     0.00000889   -0.00001023    0.00001132
     atom   33 type  2   force =    -0.00000109   -0.00002327    0.00000745
     atom   34 type  2   force =     0.00000675   -0.00001538    0.00000778
     atom   35 type  2   force =    -0.00000913    0.00001271    0.00001109
     atom   36 type  2   force =    -0.00001042   -0.00003581    0.00001252
     atom   37 type  2   force =    -0.00002725   -0.00004943    0.00001659
     atom   38 type  2   force =    -0.00001206   -0.00001247   -0.00001190
     atom   39 type  2   force =    -0.00002897    0.00001689   -0.00001465
     atom   40 type  2   force =     0.00001833   -0.00001774   -0.00001204
     atom   41 type  2   force =     0.00001344   -0.00001608   -0.00000564
     atom   42 type  2   force =     0.00002696   -0.00001375   -0.00000801
     atom   43 type  2   force =     0.00001989   -0.00000221   -0.00001007
     atom   44 type  2   force =     0.00000131   -0.00000932   -0.00001058
     atom   45 type  2   force =    -0.00001887   -0.00001553   -0.00001478
     atom   46 type  2   force =    -0.00001575   -0.00001262    0.00001547
     atom   47 type  2   force =    -0.00002542    0.00000786    0.00001163
     atom   48 type  2   force =     0.00001989    0.00001186    0.00000978
     atom   49 type  2   force =     0.00001350    0.00002398    0.00002146
     atom   50 type  2   force =     0.00002289    0.00001626    0.00001322
     atom   51 type  2   force =     0.00001802   -0.00001206    0.00000155
     atom   52 type  2   force =    -0.00001536    0.00003958    0.00001033
     atom   53 type  2   force =    -0.00002545    0.00004470    0.00000669
     atom   54 type  2   force =     0.00000589    0.00001275    0.00001466
     atom   55 type  2   force =    -0.00001360   -0.00001610    0.00001808
     atom   56 type  2   force =     0.00002169    0.00001662   -0.00000823
     atom   57 type  2   force =     0.00001376    0.00001592   -0.00002077
     atom   58 type  2   force =     0.00001366    0.00001267   -0.00001482
     atom   59 type  2   force =     0.00001037    0.00000176   -0.00000460
     atom   60 type  2   force =     0.00000173    0.00000649   -0.00001317
     atom   61 type  2   force =    -0.00001004    0.00001684   -0.00000638
     atom   62 type  2   force =    -0.00000033    0.00001157   -0.00001694
     atom   63 type  2   force =    -0.00001291   -0.00000682   -0.00001772

     Total force =     0.123604     Total SCF correction =     0.000225

     Writing all to output data dir ./pwscf.save/ :
     XML data file, charge density, pseudopotentials, collected wavefunctions
 
     init_run     :      0.27s CPU      0.52s WALL (       1 calls)
     electrons    :     11.75s CPU     11.99s WALL (       1 calls)
     forces       :      0.14s CPU      0.14s WALL (       1 calls)

     Called by init_run:
     wfcinit      :      0.09s CPU      0.10s WALL (       1 calls)
     wfcinit:wfcr :      0.09s CPU      0.10s WALL (       1 calls)
     potinit      :      0.07s CPU      0.08s WALL (       1 calls)
     hinit0       :      0.02s CPU      0.25s WALL (       1 calls)

     Called by electrons:
     c_bands      :      9.28s CPU      9.48s WALL (      14 calls)
     sum_band     :      1.17s CPU      1.18s WALL (      14 calls)
     v_of_rho     :      0.50s CPU      0.50s WALL (      15 calls)
     v_h          :      0.08s CPU      0.08s WALL (      15 calls)
     v_xc         :      0.42s CPU      0.42s WALL (      15 calls)
     mix_rho      :      0.33s CPU      0.33s WALL (      14 calls)

     Called by c_bands:
     init_us_2    :      0.02s CPU      0.03s WALL (      30 calls)
     regterg      :      8.70s CPU      8.90s WALL (      14 calls)

     Called by sum_band:
     sum_band:wei :      0.06s CPU      0.06s WALL (      14 calls)
     sum_band:loo :      0.88s CPU      0.89s WALL (      14 calls)
     sum_band:buf :      0.00s CPU      0.00s WALL (      14 calls)
     sum_band:ini :      0.01s CPU      0.01s WALL (      14 calls)

     Called by *egterg:
     rdiaghg      :      4.87s CPU      5.00s WALL (     273 calls)
     regterg:over :      0.43s CPU      0.44s WALL (     259 calls)
     regterg:upda :      0.30s CPU      0.30s WALL (     259 calls)
     regterg:last :      0.48s CPU      0.49s WALL (      53 calls)
     rdiaghg:chol :      0.16s CPU      0.16s WALL (     273 calls)
     rdiaghg:inve :      0.04s CPU      0.04s WALL (     273 calls)
     rdiaghg:para :      0.45s CPU      0.48s WALL (     546 calls)
     h_psi        :      2.51s CPU      2.55s WALL (     274 calls)
     g_psi        :      0.00s CPU      0.00s WALL (     259 calls)

     Called by h_psi:
     h_psi:calbec :      0.31s CPU      0.32s WALL (     274 calls)
     vloc_psi     :      2.09s CPU      2.12s WALL (     274 calls)
                                        0.00s GPU  (     274 calls)
     add_vuspsi   :      0.11s CPU      0.11s WALL (     274 calls)

     General routines
     calbec       :      0.34s CPU      0.35s WALL (     278 calls)
     fft          :      0.26s CPU      0.38s WALL (     196 calls)
     ffts         :      0.02s CPU      0.02s WALL (      14 calls)
     fftw         :      2.86s CPU      2.90s WALL (   10106 calls)
 
     Parallel routines
 
     PWSCF        :     13.23s CPU     13.90s WALL

 
   This run was terminated on:  15:30:58  16Nov2025            

=------------------------------------------------------------------------------=
   JOB DONE.
=------------------------------------------------------------------------------=
