
     Program PWSCF v.7.5 starts on  4Dec2025 at 23:26:23 

     This program is part of the open-source Quantum ESPRESSO suite
     for quantum simulation of materials; please cite
         "P. Giannozzi et al., J. Phys.:Condens. Matter 21 395502 (2009);
         "P. Giannozzi et al., J. Phys.:Condens. Matter 29 465901 (2017);
         "P. Giannozzi et al., J. Chem. Phys. 152 154105 (2020);
          URL http://www.quantum-espresso.org", 
     in publications or presentations arising from this work. More details at
     http://www.quantum-espresso.org/quote

     Parallel version (MPI), running on    96 processors

     MPI processes distributed on     2 nodes
     173816 MiB available memory on the printing compute node when the environment starts
 
     Reading input from pw.in

     Current dimensions of program PWSCF are:
     Max number of different atomic species (ntypx) = 10
     Max number of k-points (npk) =  40000
     Max angular momentum in pseudopotentials (lmaxx) =  4

     gamma-point specific algorithms are used
     Message from routine setup:
     using ibrav=0 with symmetry is DISCOURAGED, use correct ibrav instead
 
     K-points division:     npool     =       2
     R & G space division:  proc/nbgrp/npool/nimage =      48
     Subspace diagonalization in iterative solution of the eigenvalue problem:
     one sub-group per band group will be used
     scalapack distributed-memory algorithm (size of sub-group:  6*  6 procs)

 
     Parallelization info
     --------------------
     sticks:   dense  smooth     PW     G-vecs:    dense   smooth      PW
     Min         384     384     96                39496    39496    4936
     Max         386     386     98                39521    39521    4949
     Sum       18505   18505   4637              1896521  1896521  237129
 
     Using Slab Decomposition
 


     bravais-lattice index     =            0
     lattice parameter (alat)  =      26.9702  a.u.
     unit-cell volume          =   19617.8366 (a.u.)^3
     number of atoms/cell      =          511
     number of atomic types    =            2
     number of electrons       =      2046.00 (up:1024.00, down:1022.00)
     number of Kohn-Sham states=         1032
     kinetic-energy cutoff     =      80.0000  Ry
     charge density cutoff     =     320.0000  Ry
     scf convergence threshold =      1.0E-10
     mixing beta               =       0.7000
     number of iterations used =            8  plain     mixing
     Exchange-correlation= PBE
                           (   1   4   3   4   0   0   0)

     celldm(1)=  26.970171  celldm(2)=   0.000000  celldm(3)=   0.000000
     celldm(4)=   0.000000  celldm(5)=   0.000000  celldm(6)=   0.000000

     crystal axes: (cart. coord. in units of alat)
               a(1) = (   1.000000   0.000000   0.000000 )  
               a(2) = (   0.000000   1.000000   0.000000 )  
               a(3) = (   0.000000   0.000000   1.000000 )  

     reciprocal axes: (cart. coord. in units 2 pi/alat)
               b(1) = (  1.000000  0.000000  0.000000 )  
               b(2) = (  0.000000  1.000000  0.000000 )  
               b(3) = (  0.000000  0.000000  1.000000 )  


     PseudoPot. # 1 for C  read from file:
     ./C_ONCV_PBE-1.2.upf
     MD5 check sum: d60b57d9bdca4133f5fde4b584ee909d
     Pseudo is Norm-conserving, Zval =  4.0
     Generated using ONCVPSP code by D. R. Hamann
     Using radial grid of  602 points,  4 beta functions with: 
                l(1) =   0
                l(2) =   0
                l(3) =   1
                l(4) =   1

     PseudoPot. # 2 for N  read from file:
     ./N_ONCV_PBE-1.2.upf
     MD5 check sum: 5312fdf34e96954e02a33bdc911c617a
     Pseudo is Norm-conserving, Zval =  5.0
     Generated using ONCVPSP code by D. R. Hamann
     Using radial grid of  602 points,  4 beta functions with: 
                l(1) =   0
                l(2) =   0
                l(3) =   1
                l(4) =   1

     atomic species   valence    mass     pseudopotential
     C                 4.00    12.01100     C ( 1.00)
     N                 5.00    14.00670     N ( 1.00)

     Starting magnetic structure 
     atomic species   magnetization
     C               0.000
     N               0.000

      2 Sym. Ops. (no inversion) found ( 1 have fractional translation)


                                    s                        frac. trans.

      isym =  1     identity                                     

 cryst.   s( 1) = (     1          0          0      )
                  (     0          1          0      )
                  (     0          0          1      )

 cart.    s( 1) = (  1.0000000  0.0000000  0.0000000 )
                  (  0.0000000  1.0000000  0.0000000 )
                  (  0.0000000  0.0000000  1.0000000 )


      isym =  2     inv. 180 deg rotation - cart. axis [0,1,-1]  

 cryst.   s( 2) = (     1          0          0      )    f =(  0.0000000 )
                  (     0          0          1      )       (  0.0000097 )
                  (     0          1          0      )       ( -0.0000097 )

 cart.    s( 2) = (  1.0000000  0.0000000  0.0000000 )    f =(  0.0000000 )
                  (  0.0000000  0.0000000  1.0000000 )       (  0.0000097 )
                  (  0.0000000  1.0000000  0.0000000 )       ( -0.0000097 )


   Cartesian axes

     site n.     atom                  positions (alat units)
         1        C      tau(   1) = (  -0.0000071  -0.0000036   0.0000061  )
         2        C      tau(   2) = (  -0.0000525  -0.0000258   0.2500148  )
         3        C      tau(   3) = (  -0.0000548  -0.0000202   0.5000075  )
         4        C      tau(   4) = (   0.0000364   0.0000183   0.7499961  )
         5        C      tau(   5) = (  -0.0000529   0.2500052  -0.0000155  )
         6        C      tau(   6) = (  -0.0000594   0.2499888   0.2499988  )
         7        C      tau(   7) = (  -0.0001001   0.2500418   0.5000017  )
         8        C      tau(   8) = (  -0.0000963   0.2500246   0.7499787  )
         9        C      tau(   9) = (  -0.0000549   0.4999977  -0.0000087  )
        10        C      tau(  10) = (  -0.0001003   0.4999912   0.2500530  )
        11        C      tau(  11) = (  -0.0000080   0.4999959   0.5000071  )
        12        C      tau(  12) = (   0.0000504   0.5000034   0.7499695  )
        13        C      tau(  13) = (   0.0000367   0.7499864   0.0000294  )
        14        C      tau(  14) = (  -0.0000960   0.7499679   0.2500358  )
        15        C      tau(  15) = (   0.0000504   0.7499584   0.5000140  )
        16        C      tau(  16) = (   0.0001778   0.7500063   0.7500170  )
        17        C      tau(  17) = (   0.2499889  -0.0000506  -0.0000383  )
        18        C      tau(  18) = (   0.2499404  -0.0000247   0.2499627  )
        19        C      tau(  19) = (   0.2500111  -0.0001079   0.4999823  )
        20        C      tau(  20) = (   0.2500210  -0.0001343   0.7499690  )
        21        C      tau(  21) = (   0.2499395   0.2499503  -0.0000119  )
        22        C      tau(  22) = (   0.2500223   0.2500551   0.2500675  )
        23        C      tau(  23) = (   0.2495257   0.2494896   0.5000971  )
        24        C      tau(  24) = (   0.2499717   0.2499313   0.7499833  )
        25        C      tau(  25) = (   0.2500113   0.4999707  -0.0000950  )
        26        C      tau(  26) = (   0.2495258   0.5000834   0.2495029  )
        27        C      tau(  27) = (   0.2505376   0.4998324   0.4998466  )
        28        C      tau(  28) = (   0.2498516   0.4997567   0.7501522  )
        29        C      tau(  29) = (   0.2500218   0.7499564  -0.0001189  )
        30        C      tau(  30) = (   0.2499733   0.7499685   0.2499468  )
        31        C      tau(  31) = (   0.2498515   0.7501384   0.4997704  )
        32        C      tau(  32) = (   0.2503506   0.7497082   0.7497224  )
        33        C      tau(  33) = (   0.4999852  -0.0000224  -0.0000102  )
        34        C      tau(  34) = (   0.4999648  -0.0000639   0.2500243  )
        35        C      tau(  35) = (   0.4999909  -0.0000340   0.5000074  )
        36        C      tau(  36) = (   0.5000144  -0.0000032   0.7499972  )
        37        C      tau(  37) = (   0.4999644   0.2500132  -0.0000527  )
        38        C      tau(  38) = (   0.4999433   0.2496104   0.2496223  )
        39        C      tau(  39) = (   0.4998252   0.2502678   0.4999326  )
        40        C      tau(  40) = (   0.4998097   0.2496162   0.7503549  )
        41        C      tau(  41) = (   0.4999912   0.4999966  -0.0000227  )
        42        C      tau(  42) = (   0.4998258   0.4999188   0.2502814  )
        43        C      tau(  43) = (   0.5001006   0.5000249   0.7496359  )
        44        C      tau(  44) = (   0.5000151   0.7499854   0.0000100  )
        45        C      tau(  45) = (   0.4998108   0.7503427   0.2496287  )
        46        C      tau(  46) = (   0.5001011   0.7496235   0.5000375  )
        47        C      tau(  47) = (   0.5002633   0.7502884   0.7503005  )
        48        C      tau(  48) = (   0.7499903   0.0000416   0.0000512  )
        49        C      tau(  49) = (   0.7499544  -0.0000541   0.2500484  )
        50        C      tau(  50) = (   0.7499752   0.0000440   0.5000331  )
        51        C      tau(  51) = (   0.7500375   0.0001410   0.7500491  )
        52        C      tau(  52) = (   0.7499542   0.2500392  -0.0000445  )
        53        C      tau(  53) = (   0.7499080   0.2500058   0.2500157  )
        54        C      tau(  54) = (   0.7500340   0.2498841   0.4999292  )
        55        C      tau(  55) = (   0.7497679   0.2502911   0.7498202  )
        56        C      tau(  56) = (   0.7499752   0.5000238   0.0000540  )
        57        C      tau(  57) = (   0.7500337   0.4999172   0.2498966  )
        58        C      tau(  58) = (   0.7495473   0.5001089   0.5001217  )
        59        C      tau(  59) = (   0.7503213   0.5002495   0.7503672  )
        60        C      tau(  60) = (   0.7500377   0.7500396   0.0001512  )
        61        C      tau(  61) = (   0.7497671   0.7498084   0.2503031  )
        62        C      tau(  62) = (   0.7503209   0.7503560   0.5002606  )
        63        C      tau(  63) = (   0.7502244   0.7502167   0.7502267  )
        64        C      tau(  64) = (  -0.0000408   0.1249928   0.1250024  )
        65        C      tau(  65) = (  -0.0000635   0.1249863   0.3749973  )
        66        C      tau(  66) = (  -0.0000984   0.1250383   0.6250045  )
        67        C      tau(  67) = (  -0.0000352   0.1250181   0.8749835  )
        68        C      tau(  68) = (  -0.0000638   0.3749876   0.1249969  )
        69        C      tau(  69) = (  -0.0000872   0.3750191   0.3750300  )
        70        C      tau(  70) = (  -0.0000439   0.3750271   0.6249749  )
        71        C      tau(  71) = (  -0.0000626   0.3750041   0.8749751  )
        72        C      tau(  72) = (  -0.0000982   0.6249942   0.1250501  )
        73        C      tau(  73) = (  -0.0000440   0.6249640   0.3750383  )
        74        C      tau(  74) = (   0.0001079   0.6249788   0.6249900  )
        75        C      tau(  75) = (   0.0001105   0.6250070   0.8750099  )
        76        C      tau(  76) = (  -0.0000348   0.8749735   0.1250285  )
        77        C      tau(  77) = (  -0.0000621   0.8749640   0.3750143  )
        78        C      tau(  78) = (   0.0001104   0.8749985   0.6250170  )
        79        C      tau(  79) = (   0.0000866   0.8750000   0.8750101  )
        80        C      tau(  80) = (   0.2499595   0.1249882   0.1250000  )
        81        C      tau(  81) = (   0.2499655   0.1249300   0.3749963  )
        82        C      tau(  82) = (   0.2498932   0.1248285   0.6250134  )
        83        C      tau(  83) = (   0.2499706   0.1249323   0.8749819  )
        84        C      tau(  84) = (   0.2499657   0.3749845   0.1249419  )
        85        C      tau(  85) = (   0.2502758   0.3751727   0.3751861  )
        86        C      tau(  86) = (   0.2499695   0.3748368   0.6249609  )
        87        C      tau(  87) = (   0.2499300   0.3749244   0.8750271  )
        88        C      tau(  88) = (   0.2498945   0.6249996   0.1248439  )
        89        C      tau(  89) = (   0.2499703   0.6249459   0.3748520  )
        90        C      tau(  90) = (   0.2506458   0.6245001   0.6245138  )
        91        C      tau(  91) = (   0.2502748   0.6249085   0.8747282  )
        92        C      tau(  92) = (   0.2499720   0.8749688   0.1249466  )
        93        C      tau(  93) = (   0.2499312   0.8750128   0.3749382  )
        94        C      tau(  94) = (   0.2502749   0.8747136   0.6249212  )
        95        C      tau(  95) = (   0.2500736   0.8748794   0.8748928  )
        96        C      tau(  96) = (   0.4999748   0.1248518   0.1248627  )
        97        C      tau(  97) = (   0.4999378   0.1249921   0.3750003  )
        98        C      tau(  98) = (   0.4999265   0.1250320   0.6249591  )
        99        C      tau(  99) = (   0.4999390   0.1248569   0.8751279  )
       100        C      tau( 100) = (   0.4999380   0.3749890   0.1250034  )
       101        C      tau( 101) = (   0.5000997   0.3752322   0.3752460  )
       102        C      tau( 102) = (   0.4989151   0.3754139   0.6242899  )
       103        C      tau( 103) = (   0.4999789   0.3750837   0.8748583  )
       104        C      tau( 104) = (   0.4999279   0.6249461   0.1250456  )
       105        C      tau( 105) = (   0.4989158   0.6242774   0.3754265  )
       106        C      tau( 106) = (   0.5025739   0.6245902   0.6246026  )
       107        C      tau( 107) = (   0.5001036   0.6249911   0.8749664  )
       108        C      tau( 108) = (   0.4999397   0.8751153   0.1248701  )
       109        C      tau( 109) = (   0.4999796   0.8748466   0.3750957  )
       110        C      tau( 110) = (   0.5001035   0.8749544   0.6250025  )
       111        C      tau( 111) = (   0.5000754   0.8750836   0.8750956  )
       112        C      tau( 112) = (   0.7499577   0.1250007   0.1250099  )
       113        C      tau( 113) = (   0.7499660   0.1249678   0.3750015  )
       114        C      tau( 114) = (   0.7498758   0.1251340   0.6249692  )
       115        C      tau( 115) = (   0.7499462   0.1251343   0.8749507  )
       116        C      tau( 116) = (   0.7499658   0.3749919   0.1249780  )
       117        C      tau( 117) = (   0.7498703   0.3749967   0.3750084  )
       118        C      tau( 118) = (   0.7491811   0.3757239   0.6248495  )
       119        C      tau( 119) = (   0.7499039   0.3750988   0.8749268  )
       120        C      tau( 120) = (   0.7498758   0.6249587   0.1251451  )
       121        C      tau( 121) = (   0.7491815   0.6248372   0.3757365  )
       122        C      tau( 122) = (   0.7504612   0.6253603   0.6253720  )
       123        C      tau( 123) = (   0.7501742   0.6251336   0.8752361  )
       124        C      tau( 124) = (   0.7499461   0.8749407   0.1251445  )
       125        C      tau( 125) = (   0.7499037   0.8749165   0.3751089  )
       126        C      tau( 126) = (   0.7501739   0.8752259   0.6251431  )
       127        C      tau( 127) = (   0.7500834   0.8751133   0.8751228  )
       128        C      tau( 128) = (   0.1249677  -0.0000224   0.1249877  )
       129        C      tau( 129) = (   0.1249356  -0.0000359   0.3749824  )
       130        C      tau( 130) = (   0.1250287  -0.0001098   0.6249934  )
       131        C      tau( 131) = (   0.1250202  -0.0000501   0.8749702  )
       132        C      tau( 132) = (   0.1249632   0.2499925   0.1250101  )
       133        C      tau( 133) = (   0.1249480   0.2500150   0.3750066  )
       134        C      tau( 134) = (   0.1248800   0.2499001   0.6250028  )
       135        C      tau( 135) = (   0.1249502   0.2499716   0.8749771  )
       136        C      tau( 136) = (   0.1247864   0.5000131   0.1248092  )
       137        C      tau( 137) = (   0.1250499   0.4999749   0.3749968  )
       138        C      tau( 138) = (   0.1251625   0.4999035   0.6248860  )
       139        C      tau( 139) = (   0.1249308   0.4999316   0.8750453  )
       140        C      tau( 140) = (   0.1249695   0.7499728   0.1249701  )
       141        C      tau( 141) = (   0.1249426   0.7499979   0.3749558  )
       142        C      tau( 142) = (   0.1252045   0.7498183   0.6249008  )
       143        C      tau( 143) = (   0.1251559   0.7499184   0.8748910  )
       144        C      tau( 144) = (   0.3749569  -0.0000226   0.1249530  )
       145        C      tau( 145) = (   0.3749837  -0.0000787   0.3749986  )
       146        C      tau( 146) = (   0.3750205  -0.0000876   0.6249768  )
       147        C      tau( 147) = (   0.3749985  -0.0000924   0.8749761  )
       148        C      tau( 148) = (   0.3749464   0.2499917   0.1249546  )
       149        C      tau( 149) = (   0.3750727   0.2501290   0.3751657  )
       150        C      tau( 150) = (   0.3748808   0.2497892   0.6250478  )
       151        C      tau( 151) = (   0.3749424   0.2498830   0.8750644  )
       152        C      tau( 152) = (   0.3749578   0.4999833   0.1249775  )
       153        C      tau( 153) = (   0.3754486   0.5006522   0.3752154  )
       154        C      tau( 154) = (   0.3760857   0.4988389   0.6238538  )
       155        C      tau( 155) = (   0.3751266   0.4999468   0.8748153  )
       156        C      tau( 156) = (   0.3749511   0.7500500   0.1248674  )
       157        C      tau( 157) = (   0.3749634   0.7500430   0.3748486  )
       158        C      tau( 158) = (   0.3757756   0.7491824   0.6247177  )
       159        C      tau( 159) = (   0.3751142   0.7498682   0.8748556  )
       160        C      tau( 160) = (   0.6249832  -0.0000505   0.1250540  )
       161        C      tau( 161) = (   0.6249597  -0.0000309   0.3750386  )
       162        C      tau( 162) = (   0.6250039   0.0000631   0.6250194  )
       163        C      tau( 163) = (   0.6250218   0.0000815   0.8750447  )
       164        C      tau( 164) = (   0.6249509   0.2499444   0.1249265  )
       165        C      tau( 165) = (   0.6248643   0.2499252   0.3749396  )
       166        C      tau( 166) = (   0.6245828   0.2503840   0.6247085  )
       167        C      tau( 167) = (   0.6249461   0.2502294   0.8748202  )
       168        C      tau( 168) = (   0.6248956   0.4999660   0.1250831  )
       169        C      tau( 169) = (   0.6237815   0.4994025   0.3757755  )
       170        C      tau( 170) = (   0.6246083   0.5025760   0.6247436  )
       171        C      tau( 171) = (   0.6250161   0.5000837   0.8749988  )
       172        C      tau( 172) = (   0.6249347   0.7499169   0.1251104  )
       173        C      tau( 173) = (   0.6247682   0.7493037   0.3757012  )
       174        C      tau( 174) = (   0.6253513   0.7504905   0.6253509  )
       175        C      tau( 175) = (   0.6251387   0.7501644   0.8752245  )
       176        C      tau( 176) = (   0.8749623  -0.0000154   0.1250399  )
       177        C      tau( 177) = (   0.8749480  -0.0000262   0.3750257  )
       178        C      tau( 178) = (   0.8750234   0.0000945   0.6250314  )
       179        C      tau( 179) = (   0.8750165   0.0000744   0.8750261  )
       180        C      tau( 180) = (   0.8749403   0.2500044   0.1249993  )
       181        C      tau( 181) = (   0.8749464   0.2499871   0.3750013  )
       182        C      tau( 182) = (   0.8747309   0.2502685   0.6249762  )
       183        C      tau( 183) = (   0.8749094   0.2500720   0.8749425  )
       184        C      tau( 184) = (   0.8749923   0.4999763   0.1249944  )
       185        C      tau( 185) = (   0.8747748   0.5000043   0.3751493  )
       186        C      tau( 186) = (   0.8749568   0.5000948   0.6250248  )
       187        C      tau( 187) = (   0.8751032   0.5000742   0.8751140  )
       188        C      tau( 188) = (   0.8749167   0.7499589   0.1251458  )
       189        C      tau( 189) = (   0.8748753   0.7499075   0.3751137  )
       190        C      tau( 190) = (   0.8752333   0.7501612   0.6251372  )
       191        C      tau( 191) = (   0.8751275   0.7500706   0.8751161  )
       192        C      tau( 192) = (   0.1249672   0.1249768  -0.0000115  )
       193        C      tau( 193) = (   0.1249634   0.1249988   0.2500031  )
       194        C      tau( 194) = (   0.1247858   0.1247961   0.5000250  )
       195        C      tau( 195) = (   0.1249684   0.1249569   0.7499844  )
       196        C      tau( 196) = (   0.1249349   0.3749714  -0.0000238  )
       197        C      tau( 197) = (   0.1249480   0.3749950   0.2500268  )
       198        C      tau( 198) = (   0.1250500   0.3749843   0.4999874  )
       199        C      tau( 199) = (   0.1249415   0.3749429   0.7500110  )
       200        C      tau( 200) = (   0.1250293   0.6249822  -0.0000961  )
       201        C      tau( 201) = (   0.1248811   0.6249902   0.2499136  )
       202        C      tau( 202) = (   0.1251624   0.6248730   0.4999164  )
       203        C      tau( 203) = (   0.1252045   0.6248881   0.7498318  )
       204        C      tau( 204) = (   0.1250207   0.8749594  -0.0000383  )
       205        C      tau( 205) = (   0.1249514   0.8749651   0.2499836  )
       206        C      tau( 206) = (   0.1249315   0.8750320   0.4999436  )
       207        C      tau( 207) = (   0.1251558   0.8748778   0.7499300  )
       208        C      tau( 208) = (   0.3749563   0.1249398  -0.0000097  )
       209        C      tau( 209) = (   0.3749465   0.1249431   0.2500031  )
       210        C      tau( 210) = (   0.3749569   0.1249645   0.4999963  )
       211        C      tau( 211) = (   0.3749499   0.1248517   0.7500644  )
       212        C      tau( 212) = (   0.3749835   0.3749870  -0.0000668  )
       213        C      tau( 213) = (   0.3750729   0.3751520   0.2501426  )
       214        C      tau( 214) = (   0.3754481   0.3752020   0.5006656  )
       215        C      tau( 215) = (   0.3749626   0.3748349   0.7500563  )
       216        C      tau( 216) = (   0.3750212   0.6249647  -0.0000736  )
       217        C      tau( 217) = (   0.3748819   0.6250337   0.2498034  )
       218        C      tau( 218) = (   0.3760861   0.6238409   0.4988521  )
       219        C      tau( 219) = (   0.3757757   0.6247045   0.7491958  )
       220        C      tau( 220) = (   0.3749991   0.8749629  -0.0000777  )
       221        C      tau( 221) = (   0.3749435   0.8750503   0.2498975  )
       222        C      tau( 222) = (   0.3751267   0.8748027   0.4999593  )
       223        C      tau( 223) = (   0.3751141   0.8748413   0.7498811  )
       224        C      tau( 224) = (   0.6249831   0.1250439  -0.0000404  )
       225        C      tau( 225) = (   0.6249511   0.1249163   0.2499544  )
       226        C      tau( 226) = (   0.6248952   0.1250720   0.4999770  )
       227        C      tau( 227) = (   0.6249340   0.1250983   0.7499286  )
       228        C      tau( 228) = (   0.6249596   0.3750286  -0.0000207  )
       229        C      tau( 229) = (   0.6248644   0.3749278   0.2499371  )
       230        C      tau( 230) = (   0.6237806   0.3757628   0.4994155  )
       231        C      tau( 231) = (   0.6247676   0.3756893   0.7493154  )
       232        C      tau( 232) = (   0.6250043   0.6250093   0.0000739  )
       233        C      tau( 233) = (   0.6245833   0.6246950   0.2503976  )
       234        C      tau( 234) = (   0.6246088   0.6247318   0.5025879  )
       235        C      tau( 235) = (   0.6253515   0.6253392   0.7505026  )
       236        C      tau( 236) = (   0.6250219   0.8750341   0.0000925  )
       237        C      tau( 237) = (   0.6249465   0.8748095   0.2502405  )
       238        C      tau( 238) = (   0.6250161   0.8749881   0.5000942  )
       239        C      tau( 239) = (   0.6251386   0.8752139   0.7501745  )
       240        C      tau( 240) = (   0.8749622   0.1250307  -0.0000060  )
       241        C      tau( 241) = (   0.8749405   0.1249899   0.2500135  )
       242        C      tau( 242) = (   0.8749928   0.1249836   0.4999860  )
       243        C      tau( 243) = (   0.8749169   0.1251350   0.7499689  )
       244        C      tau( 244) = (   0.8749478   0.3750167  -0.0000162  )
       245        C      tau( 245) = (   0.8749463   0.3749912   0.2499976  )
       246        C      tau( 246) = (   0.8747750   0.3751372   0.5000160  )
       247        C      tau( 247) = (   0.8748760   0.3751026   0.7499185  )
       248        C      tau( 248) = (   0.8750235   0.6250222   0.0001049  )
       249        C      tau( 249) = (   0.8747300   0.6249649   0.2502807  )
       250        C      tau( 250) = (   0.8749566   0.6250137   0.5001061  )
       251        C      tau( 251) = (   0.8752335   0.6251273   0.7501715  )
       252        C      tau( 252) = (   0.8750166   0.8750168   0.0000841  )
       253        C      tau( 253) = (   0.8749093   0.8749322   0.2500819  )
       254        C      tau( 254) = (   0.8751030   0.8751037   0.5000835  )
       255        C      tau( 255) = (   0.8751273   0.8751063   0.7500798  )
       256        C      tau( 256) = (   0.1874554   0.0624897   0.1874896  )
       257        C      tau( 257) = (   0.1874291   0.0624013   0.4374873  )
       258        C      tau( 258) = (   0.1874801   0.0623767   0.6874895  )
       259        C      tau( 259) = (   0.1874874   0.0624556   0.9374776  )
       260        C      tau( 260) = (   0.1874706   0.3124931   0.1875093  )
       261        C      tau( 261) = (   0.1874917   0.3124378   0.4374889  )
       262        C      tau( 262) = (   0.1874254   0.3124414   0.6874747  )
       263        C      tau( 263) = (   0.1874386   0.3124604   0.9375022  )
       264        C      tau( 264) = (   0.1871618   0.5624331   0.1871589  )
       265        C      tau( 265) = (   0.1876688   0.5623818   0.4374484  )
       266        C      tau( 266) = (   0.1877609   0.5623470   0.6873274  )
       267        C      tau( 267) = (   0.1875872   0.5624475   0.9373620  )
       268        C      tau( 268) = (   0.1874725   0.8124642   0.1874702  )
       269        C      tau( 269) = (   0.1873342   0.8126380   0.4374977  )
       270        C      tau( 270) = (   0.1877379   0.8122810   0.6873750  )
       271        C      tau( 271) = (   0.1875619   0.8124335   0.9374091  )
       272        C      tau( 272) = (   0.4374520   0.0624312   0.1874678  )
       273        C      tau( 273) = (   0.4374522   0.0624533   0.4374916  )
       274        C      tau( 274) = (   0.4374888   0.0624566   0.6874911  )
       275        C      tau( 275) = (   0.4374989   0.0623952   0.9375430  )
       276        C      tau( 276) = (   0.4373960   0.3124536   0.1874512  )
       277        C      tau( 277) = (   0.4374726   0.3127493   0.4376659  )
       278        C      tau( 278) = (   0.4376798   0.3117371   0.6882146  )
       279        C      tau( 279) = (   0.4374780   0.3124957   0.9374315  )
       280        C      tau( 280) = (   0.4374315   0.5624462   0.1875116  )
       281        C      tau( 281) = (   0.4386052   0.5617602   0.6863093  )
       282        C      tau( 282) = (   0.4375350   0.5624825   0.9374295  )
       283        C      tau( 283) = (   0.4375113   0.8127528   0.1872172  )
       284        C      tau( 284) = (   0.4375410   0.8123242   0.4374959  )
       285        C      tau( 285) = (   0.4377261   0.8123078   0.6874224  )
       286        C      tau( 286) = (   0.4375503   0.8124564   0.9374522  )
       287        C      tau( 287) = (   0.6874644   0.0624505   0.1875207  )
       288        C      tau( 288) = (   0.6874431   0.0625192   0.4375286  )
       289        C      tau( 289) = (   0.6874850   0.0625932   0.6875164  )
       290        C      tau( 290) = (   0.6874853   0.0625831   0.9375003  )
       291        C      tau( 291) = (   0.6874219   0.3124943   0.1874475  )
       292        C      tau( 292) = (   0.6877829   0.3120987   0.4376581  )
       293        C      tau( 293) = (   0.6871094   0.3129024   0.6872195  )
       294        C      tau( 294) = (   0.6874513   0.3125728   0.9374408  )
       295        C      tau( 295) = (   0.6873424   0.5624726   0.1876477  )
       296        C      tau( 296) = (   0.6862680   0.5619520   0.4386074  )
       297        C      tau( 297) = (   0.6882759   0.5628711   0.6883362  )
       298        C      tau( 298) = (   0.6875368   0.5625554   0.9375785  )
       299        C      tau( 299) = (   0.6874001   0.8123696   0.1876946  )
       300        C      tau( 300) = (   0.6874594   0.8123890   0.4376985  )
       301        C      tau( 301) = (   0.6877485   0.8128460   0.6877500  )
       302        C      tau( 302) = (   0.6875817   0.8126035   0.9376693  )
       303        C      tau( 303) = (   0.9374531   0.0624885   0.1875200  )
       304        C      tau( 304) = (   0.9374669   0.0624725   0.4375243  )
       305        C      tau( 305) = (   0.9374687   0.0625787   0.6875011  )
       306        C      tau( 306) = (   0.9374894   0.0625332   0.9375087  )
       307        C      tau( 307) = (   0.9374451   0.3124941   0.1875009  )
       308        C      tau( 308) = (   0.9373687   0.3125485   0.4375227  )
       309        C      tau( 309) = (   0.9373892   0.3125876   0.6874665  )
       310        C      tau( 310) = (   0.9374318   0.3125297   0.9374681  )
       311        C      tau( 311) = (   0.9373507   0.5624741   0.1876242  )
       312        C      tau( 312) = (   0.9374269   0.5625004   0.4375573  )
       313        C      tau( 313) = (   0.9375757   0.5625490   0.6875324  )
       314        C      tau( 314) = (   0.9375557   0.5625183   0.9375602  )
       315        C      tau( 315) = (   0.9374279   0.8124632   0.1875710  )
       316        C      tau( 316) = (   0.9374759   0.8124642   0.4375624  )
       317        C      tau( 317) = (   0.9376838   0.8125831   0.6875762  )
       318        C      tau( 318) = (   0.9375742   0.8125276   0.9375691  )
       319        C      tau( 319) = (   0.0624721   0.0624881   0.0624982  )
       320        C      tau( 320) = (   0.0624502   0.0624883   0.3125032  )
       321        C      tau( 321) = (   0.0623867   0.0623981   0.5624815  )
       322        C      tau( 322) = (   0.0625007   0.0624909   0.8124877  )
       323        C      tau( 323) = (   0.0624497   0.3124931   0.0624995  )
       324        C      tau( 324) = (   0.0624162   0.3124815   0.3124925  )
       325        C      tau( 325) = (   0.0624598   0.3124988   0.5624759  )
       326        C      tau( 326) = (   0.0624272   0.3124963   0.8124794  )
       327        C      tau( 327) = (   0.0623872   0.5624706   0.0624109  )
       328        C      tau( 328) = (   0.0624598   0.5624645   0.3125107  )
       329        C      tau( 329) = (   0.0625980   0.5624556   0.5624677  )
       330        C      tau( 330) = (   0.0625881   0.5624772   0.8124533  )
       331        C      tau( 331) = (   0.0625014   0.8124772   0.0625025  )
       332        C      tau( 332) = (   0.0624282   0.8124675   0.3125079  )
       333        C      tau( 333) = (   0.0625883   0.8124411   0.5624885  )
       334        C      tau( 334) = (   0.0626491   0.8124581   0.8124696  )
       335        C      tau( 335) = (   0.3124672   0.0624721   0.0624846  )
       336        C      tau( 336) = (   0.3124380   0.0624230   0.3124737  )
       337        C      tau( 337) = (   0.3124758   0.0624083   0.5624820  )
       338        C      tau( 338) = (   0.3124881   0.0623767   0.8124945  )
       339        C      tau( 339) = (   0.3124378   0.3124621   0.0624348  )
       340        C      tau( 340) = (   0.3125552   0.3125866   0.3126003  )
       341        C      tau( 341) = (   0.3117923   0.3116694   0.5622368  )
       342        C      tau( 342) = (   0.3124675   0.3124203   0.8125739  )
       343        C      tau( 343) = (   0.3124767   0.5624694   0.0624221  )
       344        C      tau( 344) = (   0.3117926   0.5622228   0.3116830  )
       345        C      tau( 345) = (   0.3134317   0.5619111   0.5619244  )
       346        C      tau( 346) = (   0.3128458   0.5623167   0.8121047  )
       347        C      tau( 347) = (   0.3124894   0.8124806   0.0623925  )
       348        C      tau( 348) = (   0.3124688   0.8125594   0.3124352  )
       349        C      tau( 349) = (   0.3128460   0.8120907   0.5623300  )
       350        C      tau( 350) = (   0.3126367   0.8123267   0.8123407  )
       351        C      tau( 351) = (   0.5624648   0.0624362   0.0624467  )
       352        C      tau( 352) = (   0.5624428   0.0624600   0.3125130  )
       353        C      tau( 353) = (   0.5624668   0.0625254   0.5625080  )
       354        C      tau( 354) = (   0.5624928   0.0625200   0.8125173  )
       355        C      tau( 355) = (   0.5624427   0.3125027   0.0624705  )
       356        C      tau( 356) = (   0.5621629   0.3118303   0.3118428  )
       357        C      tau( 357) = (   0.5619652   0.3129746   0.5622835  )
       358        C      tau( 358) = (   0.5623637   0.3127474   0.8122168  )
       359        C      tau( 359) = (   0.5624675   0.5624969   0.0625369  )
       360        C      tau( 360) = (   0.5619659   0.5622698   0.3129882  )
       361        C      tau( 361) = (   0.5626049   0.5625668   0.8125241  )
       362        C      tau( 362) = (   0.5624935   0.8125054   0.0625326  )
       363        C      tau( 363) = (   0.5623645   0.8122052   0.3127592  )
       364        C      tau( 364) = (   0.5626051   0.8125126   0.5625783  )
       365        C      tau( 365) = (   0.5626381   0.8127407   0.8127515  )
       366        C      tau( 366) = (   0.8124719   0.0625188   0.0625280  )
       367        C      tau( 367) = (   0.8124505   0.0624658   0.3125271  )
       368        C      tau( 368) = (   0.8124629   0.0625719   0.5625199  )
       369        C      tau( 369) = (   0.8124842   0.0626296   0.8125051  )
       370        C      tau( 370) = (   0.8124502   0.3125181   0.0624754  )
       371        C      tau( 371) = (   0.8124451   0.3125106   0.3125210  )
       372        C      tau( 372) = (   0.8120723   0.3128569   0.5624249  )
       373        C      tau( 373) = (   0.8123709   0.3126184   0.8124072  )
       374        C      tau( 374) = (   0.8124629   0.5625105   0.0625823  )
       375        C      tau( 375) = (   0.8120719   0.5624127   0.3128697  )
       376        C      tau( 376) = (   0.8124744   0.5626107   0.5626223  )
       377        C      tau( 377) = (   0.8127665   0.5626311   0.8127777  )
       378        C      tau( 378) = (   0.8124843   0.8124955   0.0626397  )
       379        C      tau( 379) = (   0.8123704   0.8123963   0.3126291  )
       380        C      tau( 380) = (   0.8127663   0.8127674   0.5626408  )
       381        C      tau( 381) = (   0.8126611   0.8126472   0.8126567  )
       382        C      tau( 382) = (   0.0624566   0.1874924   0.1875027  )
       383        C      tau( 383) = (   0.0624022   0.1874695   0.4374959  )
       384        C      tau( 384) = (   0.0624083   0.1874886   0.6874907  )
       385        C      tau( 385) = (   0.0624596   0.1874966   0.9374848  )
       386        C      tau( 386) = (   0.0624021   0.4374851   0.1874810  )
       387        C      tau( 387) = (   0.0624953   0.4374805   0.4374921  )
       388        C      tau( 388) = (   0.0625406   0.4374921   0.6874517  )
       389        C      tau( 389) = (   0.0624152   0.4375041   0.9375158  )
       390        C      tau( 390) = (   0.0624092   0.6874794   0.1875011  )
       391        C      tau( 391) = (   0.0625407   0.6874398   0.4375039  )
       392        C      tau( 392) = (   0.0626564   0.6874501   0.6874622  )
       393        C      tau( 393) = (   0.0625893   0.6874755   0.9374560  )
       394        C      tau( 394) = (   0.0624605   0.9374740   0.1875072  )
       395        C      tau( 395) = (   0.0624159   0.9375037   0.4375150  )
       396        C      tau( 396) = (   0.0625890   0.9374434   0.6874861  )
       397        C      tau( 397) = (   0.0625310   0.9374833   0.9374939  )
       398        C      tau( 398) = (   0.3124536   0.1874954   0.1875070  )
       399        C      tau( 399) = (   0.3123840   0.1874079   0.4374927  )
       400        C      tau( 400) = (   0.3124512   0.1873176   0.6875125  )
       401        C      tau( 401) = (   0.3124522   0.1874298   0.9375191  )
       402        C      tau( 402) = (   0.3123846   0.4374793   0.1874208  )
       403        C      tau( 403) = (   0.3130913   0.4376409   0.4376544  )
       404        C      tau( 404) = (   0.3121088   0.4375667   0.6879609  )
       405        C      tau( 405) = (   0.3125119   0.4374738   0.9374013  )
       406        C      tau( 406) = (   0.3124526   0.6874978   0.1873334  )
       407        C      tau( 407) = (   0.3121091   0.6879476   0.4375804  )
       408        C      tau( 408) = (   0.3130041   0.6870675   0.6870813  )
       409        C      tau( 409) = (   0.3125812   0.6874327   0.9373671  )
       410        C      tau( 410) = (   0.3124536   0.9375053   0.1874441  )
       411        C      tau( 411) = (   0.3125124   0.9373887   0.4374860  )
       412        C      tau( 412) = (   0.3125809   0.9373522   0.6874450  )
       413        C      tau( 413) = (   0.3125167   0.9374184   0.9374319  )
       414        C      tau( 414) = (   0.5624016   0.1872498   0.1872605  )
       415        C      tau( 415) = (   0.5623538   0.1875463   0.4375174  )
       416        C      tau( 416) = (   0.5623844   0.1875674   0.6874831  )
       417        C      tau( 417) = (   0.5624561   0.1875632   0.9374280  )
       418        C      tau( 418) = (   0.5623543   0.4375054   0.1875580  )
       419        C      tau( 419) = (   0.5618328   0.4384240   0.6864331  )
       420        C      tau( 420) = (   0.5624930   0.4375251   0.9374592  )
       421        C      tau( 421) = (   0.5623858   0.6874697   0.1875812  )
       422        C      tau( 422) = (   0.5618337   0.6864214   0.4384361  )
       423        C      tau( 423) = (   0.5628951   0.6882470   0.6882594  )
       424        C      tau( 424) = (   0.5625565   0.6875311   0.9375559  )
       425        C      tau( 425) = (   0.5624567   0.9374170   0.1875744  )
       426        C      tau( 426) = (   0.5624932   0.9374485   0.4375357  )
       427        C      tau( 427) = (   0.5625563   0.9375444   0.6875416  )
       428        C      tau( 428) = (   0.5625210   0.9375535   0.9375648  )
       429        C      tau( 429) = (   0.8124345   0.1875066   0.1875158  )
       430        C      tau( 430) = (   0.8125537   0.1874040   0.4375380  )
       431        C      tau( 431) = (   0.8123261   0.1877009   0.6874392  )
       432        C      tau( 432) = (   0.8124477   0.1875659   0.9374646  )
       433        C      tau( 433) = (   0.8125532   0.4375277   0.1874153  )
       434        C      tau( 434) = (   0.8122363   0.4375703   0.4375825  )
       435        C      tau( 435) = (   0.8123281   0.4377210   0.6874875  )
       436        C      tau( 436) = (   0.8124689   0.4375543   0.9375025  )
       437        C      tau( 437) = (   0.8123255   0.6874283   0.1877126  )
       438        C      tau( 438) = (   0.8123276   0.6874759   0.4377328  )
       439        C      tau( 439) = (   0.8128508   0.6877416   0.6877520  )
       440        C      tau( 440) = (   0.8126056   0.6875790   0.9376739  )
       441        C      tau( 441) = (   0.8124478   0.9374549   0.1875754  )
       442        C      tau( 442) = (   0.8124689   0.9374925   0.4375635  )
       443        C      tau( 443) = (   0.8126054   0.9376639   0.6875881  )
       444        C      tau( 444) = (   0.8125342   0.9375703   0.9375797  )
       445        C      tau( 445) = (   0.1874549   0.1874782   0.0625016  )
       446        C      tau( 446) = (   0.1874704   0.1874974   0.3125045  )
       447        C      tau( 447) = (   0.1871612   0.1871448   0.5624466  )
       448        C      tau( 448) = (   0.1874709   0.1874561   0.8124773  )
       449        C      tau( 449) = (   0.1874293   0.4374759   0.0624136  )
       450        C      tau( 450) = (   0.1874916   0.4374757   0.3124507  )
       451        C      tau( 451) = (   0.1876689   0.4374343   0.5623960  )
       452        C      tau( 452) = (   0.1873336   0.4374840   0.8126519  )
       453        C      tau( 453) = (   0.1874813   0.6874769   0.0623918  )
       454        C      tau( 454) = (   0.1874267   0.6874603   0.3124562  )
       455        C      tau( 455) = (   0.1877608   0.6873134   0.5623608  )
       456        C      tau( 456) = (   0.1877377   0.6873620   0.8122954  )
       457        C      tau( 457) = (   0.1874882   0.9374657   0.0624680  )
       458        C      tau( 458) = (   0.1874400   0.9374890   0.3124731  )
       459        C      tau( 459) = (   0.1875874   0.9373485   0.5624592  )
       460        C      tau( 460) = (   0.1875615   0.9373953   0.8124457  )
       461        C      tau( 461) = (   0.4374517   0.1874565   0.0624425  )
       462        C      tau( 462) = (   0.4373957   0.1874394   0.3124656  )
       463        C      tau( 463) = (   0.4374302   0.1874977   0.5624602  )
       464        C      tau( 464) = (   0.4375102   0.1872039   0.8127655  )
       465        C      tau( 465) = (   0.4374525   0.4374802   0.0624648  )
       466        C      tau( 466) = (   0.4374729   0.4376518   0.3127633  )
       467        C      tau( 467) = (   0.4375402   0.4374827   0.8123369  )
       468        C      tau( 468) = (   0.4374901   0.6874781   0.0624712  )
       469        C      tau( 469) = (   0.4376807   0.6882019   0.3117501  )
       470        C      tau( 470) = (   0.4386054   0.6862967   0.5617730  )
       471        C      tau( 471) = (   0.4377261   0.6874100   0.8123211  )
       472        C      tau( 472) = (   0.4374997   0.9375298   0.0624093  )
       473        C      tau( 473) = (   0.4374787   0.9374194   0.3125080  )
       474        C      tau( 474) = (   0.4375349   0.9374173   0.5624939  )
       475        C      tau( 475) = (   0.4375499   0.9374385   0.8124686  )
       476        C      tau( 476) = (   0.6874642   0.1875113   0.0624601  )
       477        C      tau( 477) = (   0.6874220   0.1874372   0.3125045  )
       478        C      tau( 478) = (   0.6873420   0.1876358   0.5624843  )
       479        C      tau( 479) = (   0.6874000   0.1876833   0.8123806  )
       480        C      tau( 480) = (   0.6874432   0.4375188   0.0625293  )
       481        C      tau( 481) = (   0.6877833   0.4376458   0.3121106  )
       482        C      tau( 482) = (   0.6862674   0.4385950   0.5619644  )
       483        C      tau( 483) = (   0.6874594   0.4376877   0.8123998  )
       484        C      tau( 484) = (   0.6874854   0.6875061   0.0626041  )
       485        C      tau( 485) = (   0.6871095   0.6872067   0.3129154  )
       486        C      tau( 486) = (   0.6882759   0.6883242   0.5628832  )
       487        C      tau( 487) = (   0.6877487   0.6877398   0.8128567  )
       488        C      tau( 488) = (   0.6874854   0.9374904   0.0625931  )
       489        C      tau( 489) = (   0.6874515   0.9374308   0.3125827  )
       490        C      tau( 490) = (   0.6875366   0.9375683   0.5625651  )
       491        C      tau( 491) = (   0.6875816   0.9376592   0.8126132  )
       492        C      tau( 492) = (   0.9374529   0.1875108   0.0624981  )
       493        C      tau( 493) = (   0.9374453   0.1874909   0.3125036  )
       494        C      tau( 494) = (   0.9373512   0.1876128   0.5624844  )
       495        C      tau( 495) = (   0.9374277   0.1875606   0.8124733  )
       496        C      tau( 496) = (   0.9374666   0.4375150   0.0624831  )
       497        C      tau( 497) = (   0.9373686   0.4375122   0.3125595  )
       498        C      tau( 498) = (   0.9374270   0.4375462   0.5625113  )
       499        C      tau( 499) = (   0.9374761   0.4375523   0.8124749  )
       500        C      tau( 500) = (   0.9374689   0.6874915   0.0625897  )
       501        C      tau( 501) = (   0.9373887   0.6874557   0.3125988  )
       502        C      tau( 502) = (   0.9375757   0.6875217   0.5625595  )
       503        C      tau( 503) = (   0.9376839   0.6875663   0.8125936  )
       504        C      tau( 504) = (   0.9374896   0.9374992   0.0625427  )
       505        C      tau( 505) = (   0.9374322   0.9374578   0.3125392  )
       506        C      tau( 506) = (   0.9375555   0.9375494   0.5625277  )
       507        C      tau( 507) = (   0.9375740   0.9375590   0.8125370  )
       508        C      tau( 508) = (   0.5663979   0.4323924   0.4324048  )
       509        C      tau( 509) = (   0.4329273   0.4319709   0.5668421  )
       510        C      tau( 510) = (   0.4329278   0.5668297   0.4319834  )
       511        N      tau( 511) = (   0.5676326   0.5675518   0.5675635  )

   Crystallographic axes

     site n.     atom                  positions (cryst. coord.)
         1        C      tau(   1) = ( -0.0000071 -0.0000036  0.0000061  )
         2        C      tau(   2) = ( -0.0000525 -0.0000258  0.2500148  )
         3        C      tau(   3) = ( -0.0000548 -0.0000202  0.5000075  )
         4        C      tau(   4) = (  0.0000364  0.0000183  0.7499961  )
         5        C      tau(   5) = ( -0.0000529  0.2500052 -0.0000155  )
         6        C      tau(   6) = ( -0.0000594  0.2499888  0.2499988  )
         7        C      tau(   7) = ( -0.0001001  0.2500418  0.5000017  )
         8        C      tau(   8) = ( -0.0000963  0.2500246  0.7499787  )
         9        C      tau(   9) = ( -0.0000549  0.4999977 -0.0000087  )
        10        C      tau(  10) = ( -0.0001003  0.4999912  0.2500530  )
        11        C      tau(  11) = ( -0.0000080  0.4999959  0.5000071  )
        12        C      tau(  12) = (  0.0000504  0.5000034  0.7499695  )
        13        C      tau(  13) = (  0.0000367  0.7499864  0.0000294  )
        14        C      tau(  14) = ( -0.0000960  0.7499679  0.2500358  )
        15        C      tau(  15) = (  0.0000504  0.7499584  0.5000140  )
        16        C      tau(  16) = (  0.0001778  0.7500063  0.7500170  )
        17        C      tau(  17) = (  0.2499889 -0.0000506 -0.0000383  )
        18        C      tau(  18) = (  0.2499404 -0.0000247  0.2499627  )
        19        C      tau(  19) = (  0.2500111 -0.0001079  0.4999823  )
        20        C      tau(  20) = (  0.2500210 -0.0001343  0.7499690  )
        21        C      tau(  21) = (  0.2499395  0.2499503 -0.0000119  )
        22        C      tau(  22) = (  0.2500223  0.2500551  0.2500675  )
        23        C      tau(  23) = (  0.2495257  0.2494896  0.5000971  )
        24        C      tau(  24) = (  0.2499717  0.2499313  0.7499833  )
        25        C      tau(  25) = (  0.2500113  0.4999707 -0.0000950  )
        26        C      tau(  26) = (  0.2495258  0.5000834  0.2495029  )
        27        C      tau(  27) = (  0.2505376  0.4998324  0.4998466  )
        28        C      tau(  28) = (  0.2498516  0.4997567  0.7501522  )
        29        C      tau(  29) = (  0.2500218  0.7499564 -0.0001189  )
        30        C      tau(  30) = (  0.2499733  0.7499685  0.2499468  )
        31        C      tau(  31) = (  0.2498515  0.7501384  0.4997704  )
        32        C      tau(  32) = (  0.2503506  0.7497082  0.7497224  )
        33        C      tau(  33) = (  0.4999852 -0.0000224 -0.0000102  )
        34        C      tau(  34) = (  0.4999648 -0.0000639  0.2500243  )
        35        C      tau(  35) = (  0.4999909 -0.0000340  0.5000074  )
        36        C      tau(  36) = (  0.5000144 -0.0000032  0.7499972  )
        37        C      tau(  37) = (  0.4999644  0.2500132 -0.0000527  )
        38        C      tau(  38) = (  0.4999433  0.2496104  0.2496223  )
        39        C      tau(  39) = (  0.4998252  0.2502678  0.4999326  )
        40        C      tau(  40) = (  0.4998097  0.2496162  0.7503549  )
        41        C      tau(  41) = (  0.4999912  0.4999966 -0.0000227  )
        42        C      tau(  42) = (  0.4998258  0.4999188  0.2502814  )
        43        C      tau(  43) = (  0.5001006  0.5000249  0.7496359  )
        44        C      tau(  44) = (  0.5000151  0.7499854  0.0000100  )
        45        C      tau(  45) = (  0.4998108  0.7503427  0.2496287  )
        46        C      tau(  46) = (  0.5001011  0.7496235  0.5000375  )
        47        C      tau(  47) = (  0.5002633  0.7502884  0.7503005  )
        48        C      tau(  48) = (  0.7499903  0.0000416  0.0000512  )
        49        C      tau(  49) = (  0.7499544 -0.0000541  0.2500484  )
        50        C      tau(  50) = (  0.7499752  0.0000440  0.5000331  )
        51        C      tau(  51) = (  0.7500375  0.0001410  0.7500491  )
        52        C      tau(  52) = (  0.7499542  0.2500392 -0.0000445  )
        53        C      tau(  53) = (  0.7499080  0.2500058  0.2500157  )
        54        C      tau(  54) = (  0.7500340  0.2498841  0.4999292  )
        55        C      tau(  55) = (  0.7497679  0.2502911  0.7498202  )
        56        C      tau(  56) = (  0.7499752  0.5000238  0.0000540  )
        57        C      tau(  57) = (  0.7500337  0.4999172  0.2498966  )
        58        C      tau(  58) = (  0.7495473  0.5001089  0.5001217  )
        59        C      tau(  59) = (  0.7503213  0.5002495  0.7503672  )
        60        C      tau(  60) = (  0.7500377  0.7500396  0.0001512  )
        61        C      tau(  61) = (  0.7497671  0.7498084  0.2503031  )
        62        C      tau(  62) = (  0.7503209  0.7503560  0.5002606  )
        63        C      tau(  63) = (  0.7502244  0.7502167  0.7502267  )
        64        C      tau(  64) = ( -0.0000408  0.1249928  0.1250024  )
        65        C      tau(  65) = ( -0.0000635  0.1249863  0.3749973  )
        66        C      tau(  66) = ( -0.0000984  0.1250383  0.6250045  )
        67        C      tau(  67) = ( -0.0000352  0.1250181  0.8749835  )
        68        C      tau(  68) = ( -0.0000638  0.3749876  0.1249969  )
        69        C      tau(  69) = ( -0.0000872  0.3750191  0.3750300  )
        70        C      tau(  70) = ( -0.0000439  0.3750271  0.6249749  )
        71        C      tau(  71) = ( -0.0000626  0.3750041  0.8749751  )
        72        C      tau(  72) = ( -0.0000982  0.6249942  0.1250501  )
        73        C      tau(  73) = ( -0.0000440  0.6249640  0.3750383  )
        74        C      tau(  74) = (  0.0001079  0.6249788  0.6249900  )
        75        C      tau(  75) = (  0.0001105  0.6250070  0.8750099  )
        76        C      tau(  76) = ( -0.0000348  0.8749735  0.1250285  )
        77        C      tau(  77) = ( -0.0000621  0.8749640  0.3750143  )
        78        C      tau(  78) = (  0.0001104  0.8749985  0.6250170  )
        79        C      tau(  79) = (  0.0000866  0.8750000  0.8750101  )
        80        C      tau(  80) = (  0.2499595  0.1249882  0.1250000  )
        81        C      tau(  81) = (  0.2499655  0.1249300  0.3749963  )
        82        C      tau(  82) = (  0.2498932  0.1248285  0.6250134  )
        83        C      tau(  83) = (  0.2499706  0.1249323  0.8749819  )
        84        C      tau(  84) = (  0.2499657  0.3749845  0.1249419  )
        85        C      tau(  85) = (  0.2502758  0.3751727  0.3751861  )
        86        C      tau(  86) = (  0.2499695  0.3748368  0.6249609  )
        87        C      tau(  87) = (  0.2499300  0.3749244  0.8750271  )
        88        C      tau(  88) = (  0.2498945  0.6249996  0.1248439  )
        89        C      tau(  89) = (  0.2499703  0.6249459  0.3748520  )
        90        C      tau(  90) = (  0.2506458  0.6245001  0.6245138  )
        91        C      tau(  91) = (  0.2502748  0.6249085  0.8747282  )
        92        C      tau(  92) = (  0.2499720  0.8749688  0.1249466  )
        93        C      tau(  93) = (  0.2499312  0.8750128  0.3749382  )
        94        C      tau(  94) = (  0.2502749  0.8747136  0.6249212  )
        95        C      tau(  95) = (  0.2500736  0.8748794  0.8748928  )
        96        C      tau(  96) = (  0.4999748  0.1248518  0.1248627  )
        97        C      tau(  97) = (  0.4999378  0.1249921  0.3750003  )
        98        C      tau(  98) = (  0.4999265  0.1250320  0.6249591  )
        99        C      tau(  99) = (  0.4999390  0.1248569  0.8751279  )
       100        C      tau( 100) = (  0.4999380  0.3749890  0.1250034  )
       101        C      tau( 101) = (  0.5000997  0.3752322  0.3752460  )
       102        C      tau( 102) = (  0.4989151  0.3754139  0.6242899  )
       103        C      tau( 103) = (  0.4999789  0.3750837  0.8748583  )
       104        C      tau( 104) = (  0.4999279  0.6249461  0.1250456  )
       105        C      tau( 105) = (  0.4989158  0.6242774  0.3754265  )
       106        C      tau( 106) = (  0.5025739  0.6245902  0.6246026  )
       107        C      tau( 107) = (  0.5001036  0.6249911  0.8749664  )
       108        C      tau( 108) = (  0.4999397  0.8751153  0.1248701  )
       109        C      tau( 109) = (  0.4999796  0.8748466  0.3750957  )
       110        C      tau( 110) = (  0.5001035  0.8749544  0.6250025  )
       111        C      tau( 111) = (  0.5000754  0.8750836  0.8750956  )
       112        C      tau( 112) = (  0.7499577  0.1250007  0.1250099  )
       113        C      tau( 113) = (  0.7499660  0.1249678  0.3750015  )
       114        C      tau( 114) = (  0.7498758  0.1251340  0.6249692  )
       115        C      tau( 115) = (  0.7499462  0.1251343  0.8749507  )
       116        C      tau( 116) = (  0.7499658  0.3749919  0.1249780  )
       117        C      tau( 117) = (  0.7498703  0.3749967  0.3750084  )
       118        C      tau( 118) = (  0.7491811  0.3757239  0.6248495  )
       119        C      tau( 119) = (  0.7499039  0.3750988  0.8749268  )
       120        C      tau( 120) = (  0.7498758  0.6249587  0.1251451  )
       121        C      tau( 121) = (  0.7491815  0.6248372  0.3757365  )
       122        C      tau( 122) = (  0.7504612  0.6253603  0.6253720  )
       123        C      tau( 123) = (  0.7501742  0.6251336  0.8752361  )
       124        C      tau( 124) = (  0.7499461  0.8749407  0.1251445  )
       125        C      tau( 125) = (  0.7499037  0.8749165  0.3751089  )
       126        C      tau( 126) = (  0.7501739  0.8752259  0.6251431  )
       127        C      tau( 127) = (  0.7500834  0.8751133  0.8751228  )
       128        C      tau( 128) = (  0.1249677 -0.0000224  0.1249877  )
       129        C      tau( 129) = (  0.1249356 -0.0000359  0.3749824  )
       130        C      tau( 130) = (  0.1250287 -0.0001098  0.6249934  )
       131        C      tau( 131) = (  0.1250202 -0.0000501  0.8749702  )
       132        C      tau( 132) = (  0.1249632  0.2499925  0.1250101  )
       133        C      tau( 133) = (  0.1249480  0.2500150  0.3750066  )
       134        C      tau( 134) = (  0.1248800  0.2499001  0.6250028  )
       135        C      tau( 135) = (  0.1249502  0.2499716  0.8749771  )
       136        C      tau( 136) = (  0.1247864  0.5000131  0.1248092  )
       137        C      tau( 137) = (  0.1250499  0.4999749  0.3749968  )
       138        C      tau( 138) = (  0.1251625  0.4999035  0.6248860  )
       139        C      tau( 139) = (  0.1249308  0.4999316  0.8750453  )
       140        C      tau( 140) = (  0.1249695  0.7499728  0.1249701  )
       141        C      tau( 141) = (  0.1249426  0.7499979  0.3749558  )
       142        C      tau( 142) = (  0.1252045  0.7498183  0.6249008  )
       143        C      tau( 143) = (  0.1251559  0.7499184  0.8748910  )
       144        C      tau( 144) = (  0.3749569 -0.0000226  0.1249530  )
       145        C      tau( 145) = (  0.3749837 -0.0000787  0.3749986  )
       146        C      tau( 146) = (  0.3750205 -0.0000876  0.6249768  )
       147        C      tau( 147) = (  0.3749985 -0.0000924  0.8749761  )
       148        C      tau( 148) = (  0.3749464  0.2499917  0.1249546  )
       149        C      tau( 149) = (  0.3750727  0.2501290  0.3751657  )
       150        C      tau( 150) = (  0.3748808  0.2497892  0.6250478  )
       151        C      tau( 151) = (  0.3749424  0.2498830  0.8750644  )
       152        C      tau( 152) = (  0.3749578  0.4999833  0.1249775  )
       153        C      tau( 153) = (  0.3754486  0.5006522  0.3752154  )
       154        C      tau( 154) = (  0.3760857  0.4988389  0.6238538  )
       155        C      tau( 155) = (  0.3751266  0.4999468  0.8748153  )
       156        C      tau( 156) = (  0.3749511  0.7500500  0.1248674  )
       157        C      tau( 157) = (  0.3749634  0.7500430  0.3748486  )
       158        C      tau( 158) = (  0.3757756  0.7491824  0.6247177  )
       159        C      tau( 159) = (  0.3751142  0.7498682  0.8748556  )
       160        C      tau( 160) = (  0.6249832 -0.0000505  0.1250540  )
       161        C      tau( 161) = (  0.6249597 -0.0000309  0.3750386  )
       162        C      tau( 162) = (  0.6250039  0.0000631  0.6250194  )
       163        C      tau( 163) = (  0.6250218  0.0000815  0.8750447  )
       164        C      tau( 164) = (  0.6249509  0.2499444  0.1249265  )
       165        C      tau( 165) = (  0.6248643  0.2499252  0.3749396  )
       166        C      tau( 166) = (  0.6245828  0.2503840  0.6247085  )
       167        C      tau( 167) = (  0.6249461  0.2502294  0.8748202  )
       168        C      tau( 168) = (  0.6248956  0.4999660  0.1250831  )
       169        C      tau( 169) = (  0.6237815  0.4994025  0.3757755  )
       170        C      tau( 170) = (  0.6246083  0.5025760  0.6247436  )
       171        C      tau( 171) = (  0.6250161  0.5000837  0.8749988  )
       172        C      tau( 172) = (  0.6249347  0.7499169  0.1251104  )
       173        C      tau( 173) = (  0.6247682  0.7493037  0.3757012  )
       174        C      tau( 174) = (  0.6253513  0.7504905  0.6253509  )
       175        C      tau( 175) = (  0.6251387  0.7501644  0.8752245  )
       176        C      tau( 176) = (  0.8749623 -0.0000154  0.1250399  )
       177        C      tau( 177) = (  0.8749480 -0.0000262  0.3750257  )
       178        C      tau( 178) = (  0.8750234  0.0000945  0.6250314  )
       179        C      tau( 179) = (  0.8750165  0.0000744  0.8750261  )
       180        C      tau( 180) = (  0.8749403  0.2500044  0.1249993  )
       181        C      tau( 181) = (  0.8749464  0.2499871  0.3750013  )
       182        C      tau( 182) = (  0.8747309  0.2502685  0.6249762  )
       183        C      tau( 183) = (  0.8749094  0.2500720  0.8749425  )
       184        C      tau( 184) = (  0.8749923  0.4999763  0.1249944  )
       185        C      tau( 185) = (  0.8747748  0.5000043  0.3751493  )
       186        C      tau( 186) = (  0.8749568  0.5000948  0.6250248  )
       187        C      tau( 187) = (  0.8751032  0.5000742  0.8751140  )
       188        C      tau( 188) = (  0.8749167  0.7499589  0.1251458  )
       189        C      tau( 189) = (  0.8748753  0.7499075  0.3751137  )
       190        C      tau( 190) = (  0.8752333  0.7501612  0.6251372  )
       191        C      tau( 191) = (  0.8751275  0.7500706  0.8751161  )
       192        C      tau( 192) = (  0.1249672  0.1249768 -0.0000115  )
       193        C      tau( 193) = (  0.1249634  0.1249988  0.2500031  )
       194        C      tau( 194) = (  0.1247858  0.1247961  0.5000250  )
       195        C      tau( 195) = (  0.1249684  0.1249569  0.7499844  )
       196        C      tau( 196) = (  0.1249349  0.3749714 -0.0000238  )
       197        C      tau( 197) = (  0.1249480  0.3749950  0.2500268  )
       198        C      tau( 198) = (  0.1250500  0.3749843  0.4999874  )
       199        C      tau( 199) = (  0.1249415  0.3749429  0.7500110  )
       200        C      tau( 200) = (  0.1250293  0.6249822 -0.0000961  )
       201        C      tau( 201) = (  0.1248811  0.6249902  0.2499136  )
       202        C      tau( 202) = (  0.1251624  0.6248730  0.4999164  )
       203        C      tau( 203) = (  0.1252045  0.6248881  0.7498318  )
       204        C      tau( 204) = (  0.1250207  0.8749594 -0.0000383  )
       205        C      tau( 205) = (  0.1249514  0.8749651  0.2499836  )
       206        C      tau( 206) = (  0.1249315  0.8750320  0.4999436  )
       207        C      tau( 207) = (  0.1251558  0.8748778  0.7499300  )
       208        C      tau( 208) = (  0.3749563  0.1249398 -0.0000097  )
       209        C      tau( 209) = (  0.3749465  0.1249431  0.2500031  )
       210        C      tau( 210) = (  0.3749569  0.1249645  0.4999963  )
       211        C      tau( 211) = (  0.3749499  0.1248517  0.7500644  )
       212        C      tau( 212) = (  0.3749835  0.3749870 -0.0000668  )
       213        C      tau( 213) = (  0.3750729  0.3751520  0.2501426  )
       214        C      tau( 214) = (  0.3754481  0.3752020  0.5006656  )
       215        C      tau( 215) = (  0.3749626  0.3748349  0.7500563  )
       216        C      tau( 216) = (  0.3750212  0.6249647 -0.0000736  )
       217        C      tau( 217) = (  0.3748819  0.6250337  0.2498034  )
       218        C      tau( 218) = (  0.3760861  0.6238409  0.4988521  )
       219        C      tau( 219) = (  0.3757757  0.6247045  0.7491958  )
       220        C      tau( 220) = (  0.3749991  0.8749629 -0.0000777  )
       221        C      tau( 221) = (  0.3749435  0.8750503  0.2498975  )
       222        C      tau( 222) = (  0.3751267  0.8748027  0.4999593  )
       223        C      tau( 223) = (  0.3751141  0.8748413  0.7498811  )
       224        C      tau( 224) = (  0.6249831  0.1250439 -0.0000404  )
       225        C      tau( 225) = (  0.6249511  0.1249163  0.2499544  )
       226        C      tau( 226) = (  0.6248952  0.1250720  0.4999770  )
       227        C      tau( 227) = (  0.6249340  0.1250983  0.7499286  )
       228        C      tau( 228) = (  0.6249596  0.3750286 -0.0000207  )
       229        C      tau( 229) = (  0.6248644  0.3749278  0.2499371  )
       230        C      tau( 230) = (  0.6237806  0.3757628  0.4994155  )
       231        C      tau( 231) = (  0.6247676  0.3756893  0.7493154  )
       232        C      tau( 232) = (  0.6250043  0.6250093  0.0000739  )
       233        C      tau( 233) = (  0.6245833  0.6246950  0.2503976  )
       234        C      tau( 234) = (  0.6246088  0.6247318  0.5025879  )
       235        C      tau( 235) = (  0.6253515  0.6253392  0.7505026  )
       236        C      tau( 236) = (  0.6250219  0.8750341  0.0000925  )
       237        C      tau( 237) = (  0.6249465  0.8748095  0.2502405  )
       238        C      tau( 238) = (  0.6250161  0.8749881  0.5000942  )
       239        C      tau( 239) = (  0.6251386  0.8752139  0.7501745  )
       240        C      tau( 240) = (  0.8749622  0.1250307 -0.0000060  )
       241        C      tau( 241) = (  0.8749405  0.1249899  0.2500135  )
       242        C      tau( 242) = (  0.8749928  0.1249836  0.4999860  )
       243        C      tau( 243) = (  0.8749169  0.1251350  0.7499689  )
       244        C      tau( 244) = (  0.8749478  0.3750167 -0.0000162  )
       245        C      tau( 245) = (  0.8749463  0.3749912  0.2499976  )
       246        C      tau( 246) = (  0.8747750  0.3751372  0.5000160  )
       247        C      tau( 247) = (  0.8748760  0.3751026  0.7499185  )
       248        C      tau( 248) = (  0.8750235  0.6250222  0.0001049  )
       249        C      tau( 249) = (  0.8747300  0.6249649  0.2502807  )
       250        C      tau( 250) = (  0.8749566  0.6250137  0.5001061  )
       251        C      tau( 251) = (  0.8752335  0.6251273  0.7501715  )
       252        C      tau( 252) = (  0.8750166  0.8750168  0.0000841  )
       253        C      tau( 253) = (  0.8749093  0.8749322  0.2500819  )
       254        C      tau( 254) = (  0.8751030  0.8751037  0.5000835  )
       255        C      tau( 255) = (  0.8751273  0.8751063  0.7500798  )
       256        C      tau( 256) = (  0.1874554  0.0624897  0.1874896  )
       257        C      tau( 257) = (  0.1874291  0.0624013  0.4374873  )
       258        C      tau( 258) = (  0.1874801  0.0623767  0.6874895  )
       259        C      tau( 259) = (  0.1874874  0.0624556  0.9374776  )
       260        C      tau( 260) = (  0.1874706  0.3124931  0.1875093  )
       261        C      tau( 261) = (  0.1874917  0.3124378  0.4374889  )
       262        C      tau( 262) = (  0.1874254  0.3124414  0.6874747  )
       263        C      tau( 263) = (  0.1874386  0.3124604  0.9375022  )
       264        C      tau( 264) = (  0.1871618  0.5624331  0.1871589  )
       265        C      tau( 265) = (  0.1876688  0.5623818  0.4374484  )
       266        C      tau( 266) = (  0.1877609  0.5623470  0.6873274  )
       267        C      tau( 267) = (  0.1875872  0.5624475  0.9373620  )
       268        C      tau( 268) = (  0.1874725  0.8124642  0.1874702  )
       269        C      tau( 269) = (  0.1873342  0.8126380  0.4374977  )
       270        C      tau( 270) = (  0.1877379  0.8122810  0.6873750  )
       271        C      tau( 271) = (  0.1875619  0.8124335  0.9374091  )
       272        C      tau( 272) = (  0.4374520  0.0624312  0.1874678  )
       273        C      tau( 273) = (  0.4374522  0.0624533  0.4374916  )
       274        C      tau( 274) = (  0.4374888  0.0624566  0.6874911  )
       275        C      tau( 275) = (  0.4374989  0.0623952  0.9375430  )
       276        C      tau( 276) = (  0.4373960  0.3124536  0.1874512  )
       277        C      tau( 277) = (  0.4374726  0.3127493  0.4376659  )
       278        C      tau( 278) = (  0.4376798  0.3117371  0.6882146  )
       279        C      tau( 279) = (  0.4374780  0.3124957  0.9374315  )
       280        C      tau( 280) = (  0.4374315  0.5624462  0.1875116  )
       281        C      tau( 281) = (  0.4386052  0.5617602  0.6863093  )
       282        C      tau( 282) = (  0.4375350  0.5624825  0.9374295  )
       283        C      tau( 283) = (  0.4375113  0.8127528  0.1872172  )
       284        C      tau( 284) = (  0.4375410  0.8123242  0.4374959  )
       285        C      tau( 285) = (  0.4377261  0.8123078  0.6874224  )
       286        C      tau( 286) = (  0.4375503  0.8124564  0.9374522  )
       287        C      tau( 287) = (  0.6874644  0.0624505  0.1875207  )
       288        C      tau( 288) = (  0.6874431  0.0625192  0.4375286  )
       289        C      tau( 289) = (  0.6874850  0.0625932  0.6875164  )
       290        C      tau( 290) = (  0.6874853  0.0625831  0.9375003  )
       291        C      tau( 291) = (  0.6874219  0.3124943  0.1874475  )
       292        C      tau( 292) = (  0.6877829  0.3120987  0.4376581  )
       293        C      tau( 293) = (  0.6871094  0.3129024  0.6872195  )
       294        C      tau( 294) = (  0.6874513  0.3125728  0.9374408  )
       295        C      tau( 295) = (  0.6873424  0.5624726  0.1876477  )
       296        C      tau( 296) = (  0.6862680  0.5619520  0.4386074  )
       297        C      tau( 297) = (  0.6882759  0.5628711  0.6883362  )
       298        C      tau( 298) = (  0.6875368  0.5625554  0.9375785  )
       299        C      tau( 299) = (  0.6874001  0.8123696  0.1876946  )
       300        C      tau( 300) = (  0.6874594  0.8123890  0.4376985  )
       301        C      tau( 301) = (  0.6877485  0.8128460  0.6877500  )
       302        C      tau( 302) = (  0.6875817  0.8126035  0.9376693  )
       303        C      tau( 303) = (  0.9374531  0.0624885  0.1875200  )
       304        C      tau( 304) = (  0.9374669  0.0624725  0.4375243  )
       305        C      tau( 305) = (  0.9374687  0.0625787  0.6875011  )
       306        C      tau( 306) = (  0.9374894  0.0625332  0.9375087  )
       307        C      tau( 307) = (  0.9374451  0.3124941  0.1875009  )
       308        C      tau( 308) = (  0.9373687  0.3125485  0.4375227  )
       309        C      tau( 309) = (  0.9373892  0.3125876  0.6874665  )
       310        C      tau( 310) = (  0.9374318  0.3125297  0.9374681  )
       311        C      tau( 311) = (  0.9373507  0.5624741  0.1876242  )
       312        C      tau( 312) = (  0.9374269  0.5625004  0.4375573  )
       313        C      tau( 313) = (  0.9375757  0.5625490  0.6875324  )
       314        C      tau( 314) = (  0.9375557  0.5625183  0.9375602  )
       315        C      tau( 315) = (  0.9374279  0.8124632  0.1875710  )
       316        C      tau( 316) = (  0.9374759  0.8124642  0.4375624  )
       317        C      tau( 317) = (  0.9376838  0.8125831  0.6875762  )
       318        C      tau( 318) = (  0.9375742  0.8125276  0.9375691  )
       319        C      tau( 319) = (  0.0624721  0.0624881  0.0624982  )
       320        C      tau( 320) = (  0.0624502  0.0624883  0.3125032  )
       321        C      tau( 321) = (  0.0623867  0.0623981  0.5624815  )
       322        C      tau( 322) = (  0.0625007  0.0624909  0.8124877  )
       323        C      tau( 323) = (  0.0624497  0.3124931  0.0624995  )
       324        C      tau( 324) = (  0.0624162  0.3124815  0.3124925  )
       325        C      tau( 325) = (  0.0624598  0.3124988  0.5624759  )
       326        C      tau( 326) = (  0.0624272  0.3124963  0.8124794  )
       327        C      tau( 327) = (  0.0623872  0.5624706  0.0624109  )
       328        C      tau( 328) = (  0.0624598  0.5624645  0.3125107  )
       329        C      tau( 329) = (  0.0625980  0.5624556  0.5624677  )
       330        C      tau( 330) = (  0.0625881  0.5624772  0.8124533  )
       331        C      tau( 331) = (  0.0625014  0.8124772  0.0625025  )
       332        C      tau( 332) = (  0.0624282  0.8124675  0.3125079  )
       333        C      tau( 333) = (  0.0625883  0.8124411  0.5624885  )
       334        C      tau( 334) = (  0.0626491  0.8124581  0.8124696  )
       335        C      tau( 335) = (  0.3124672  0.0624721  0.0624846  )
       336        C      tau( 336) = (  0.3124380  0.0624230  0.3124737  )
       337        C      tau( 337) = (  0.3124758  0.0624083  0.5624820  )
       338        C      tau( 338) = (  0.3124881  0.0623767  0.8124945  )
       339        C      tau( 339) = (  0.3124378  0.3124621  0.0624348  )
       340        C      tau( 340) = (  0.3125552  0.3125866  0.3126003  )
       341        C      tau( 341) = (  0.3117923  0.3116694  0.5622368  )
       342        C      tau( 342) = (  0.3124675  0.3124203  0.8125739  )
       343        C      tau( 343) = (  0.3124767  0.5624694  0.0624221  )
       344        C      tau( 344) = (  0.3117926  0.5622228  0.3116830  )
       345        C      tau( 345) = (  0.3134317  0.5619111  0.5619244  )
       346        C      tau( 346) = (  0.3128458  0.5623167  0.8121047  )
       347        C      tau( 347) = (  0.3124894  0.8124806  0.0623925  )
       348        C      tau( 348) = (  0.3124688  0.8125594  0.3124352  )
       349        C      tau( 349) = (  0.3128460  0.8120907  0.5623300  )
       350        C      tau( 350) = (  0.3126367  0.8123267  0.8123407  )
       351        C      tau( 351) = (  0.5624648  0.0624362  0.0624467  )
       352        C      tau( 352) = (  0.5624428  0.0624600  0.3125130  )
       353        C      tau( 353) = (  0.5624668  0.0625254  0.5625080  )
       354        C      tau( 354) = (  0.5624928  0.0625200  0.8125173  )
       355        C      tau( 355) = (  0.5624427  0.3125027  0.0624705  )
       356        C      tau( 356) = (  0.5621629  0.3118303  0.3118428  )
       357        C      tau( 357) = (  0.5619652  0.3129746  0.5622835  )
       358        C      tau( 358) = (  0.5623637  0.3127474  0.8122168  )
       359        C      tau( 359) = (  0.5624675  0.5624969  0.0625369  )
       360        C      tau( 360) = (  0.5619659  0.5622698  0.3129882  )
       361        C      tau( 361) = (  0.5626049  0.5625668  0.8125241  )
       362        C      tau( 362) = (  0.5624935  0.8125054  0.0625326  )
       363        C      tau( 363) = (  0.5623645  0.8122052  0.3127592  )
       364        C      tau( 364) = (  0.5626051  0.8125126  0.5625783  )
       365        C      tau( 365) = (  0.5626381  0.8127407  0.8127515  )
       366        C      tau( 366) = (  0.8124719  0.0625188  0.0625280  )
       367        C      tau( 367) = (  0.8124505  0.0624658  0.3125271  )
       368        C      tau( 368) = (  0.8124629  0.0625719  0.5625199  )
       369        C      tau( 369) = (  0.8124842  0.0626296  0.8125051  )
       370        C      tau( 370) = (  0.8124502  0.3125181  0.0624754  )
       371        C      tau( 371) = (  0.8124451  0.3125106  0.3125210  )
       372        C      tau( 372) = (  0.8120723  0.3128569  0.5624249  )
       373        C      tau( 373) = (  0.8123709  0.3126184  0.8124072  )
       374        C      tau( 374) = (  0.8124629  0.5625105  0.0625823  )
       375        C      tau( 375) = (  0.8120719  0.5624127  0.3128697  )
       376        C      tau( 376) = (  0.8124744  0.5626107  0.5626223  )
       377        C      tau( 377) = (  0.8127665  0.5626311  0.8127777  )
       378        C      tau( 378) = (  0.8124843  0.8124955  0.0626397  )
       379        C      tau( 379) = (  0.8123704  0.8123963  0.3126291  )
       380        C      tau( 380) = (  0.8127663  0.8127674  0.5626408  )
       381        C      tau( 381) = (  0.8126611  0.8126472  0.8126567  )
       382        C      tau( 382) = (  0.0624566  0.1874924  0.1875027  )
       383        C      tau( 383) = (  0.0624022  0.1874695  0.4374959  )
       384        C      tau( 384) = (  0.0624083  0.1874886  0.6874907  )
       385        C      tau( 385) = (  0.0624596  0.1874966  0.9374848  )
       386        C      tau( 386) = (  0.0624021  0.4374851  0.1874810  )
       387        C      tau( 387) = (  0.0624953  0.4374805  0.4374921  )
       388        C      tau( 388) = (  0.0625406  0.4374921  0.6874517  )
       389        C      tau( 389) = (  0.0624152  0.4375041  0.9375158  )
       390        C      tau( 390) = (  0.0624092  0.6874794  0.1875011  )
       391        C      tau( 391) = (  0.0625407  0.6874398  0.4375039  )
       392        C      tau( 392) = (  0.0626564  0.6874501  0.6874622  )
       393        C      tau( 393) = (  0.0625893  0.6874755  0.9374560  )
       394        C      tau( 394) = (  0.0624605  0.9374740  0.1875072  )
       395        C      tau( 395) = (  0.0624159  0.9375037  0.4375150  )
       396        C      tau( 396) = (  0.0625890  0.9374434  0.6874861  )
       397        C      tau( 397) = (  0.0625310  0.9374833  0.9374939  )
       398        C      tau( 398) = (  0.3124536  0.1874954  0.1875070  )
       399        C      tau( 399) = (  0.3123840  0.1874079  0.4374927  )
       400        C      tau( 400) = (  0.3124512  0.1873176  0.6875125  )
       401        C      tau( 401) = (  0.3124522  0.1874298  0.9375191  )
       402        C      tau( 402) = (  0.3123846  0.4374793  0.1874208  )
       403        C      tau( 403) = (  0.3130913  0.4376409  0.4376544  )
       404        C      tau( 404) = (  0.3121088  0.4375667  0.6879609  )
       405        C      tau( 405) = (  0.3125119  0.4374738  0.9374013  )
       406        C      tau( 406) = (  0.3124526  0.6874978  0.1873334  )
       407        C      tau( 407) = (  0.3121091  0.6879476  0.4375804  )
       408        C      tau( 408) = (  0.3130041  0.6870675  0.6870813  )
       409        C      tau( 409) = (  0.3125812  0.6874327  0.9373671  )
       410        C      tau( 410) = (  0.3124536  0.9375053  0.1874441  )
       411        C      tau( 411) = (  0.3125124  0.9373887  0.4374860  )
       412        C      tau( 412) = (  0.3125809  0.9373522  0.6874450  )
       413        C      tau( 413) = (  0.3125167  0.9374184  0.9374319  )
       414        C      tau( 414) = (  0.5624016  0.1872498  0.1872605  )
       415        C      tau( 415) = (  0.5623538  0.1875463  0.4375174  )
       416        C      tau( 416) = (  0.5623844  0.1875674  0.6874831  )
       417        C      tau( 417) = (  0.5624561  0.1875632  0.9374280  )
       418        C      tau( 418) = (  0.5623543  0.4375054  0.1875580  )
       419        C      tau( 419) = (  0.5618328  0.4384240  0.6864331  )
       420        C      tau( 420) = (  0.5624930  0.4375251  0.9374592  )
       421        C      tau( 421) = (  0.5623858  0.6874697  0.1875812  )
       422        C      tau( 422) = (  0.5618337  0.6864214  0.4384361  )
       423        C      tau( 423) = (  0.5628951  0.6882470  0.6882594  )
       424        C      tau( 424) = (  0.5625565  0.6875311  0.9375559  )
       425        C      tau( 425) = (  0.5624567  0.9374170  0.1875744  )
       426        C      tau( 426) = (  0.5624932  0.9374485  0.4375357  )
       427        C      tau( 427) = (  0.5625563  0.9375444  0.6875416  )
       428        C      tau( 428) = (  0.5625210  0.9375535  0.9375648  )
       429        C      tau( 429) = (  0.8124345  0.1875066  0.1875158  )
       430        C      tau( 430) = (  0.8125537  0.1874040  0.4375380  )
       431        C      tau( 431) = (  0.8123261  0.1877009  0.6874392  )
       432        C      tau( 432) = (  0.8124477  0.1875659  0.9374646  )
       433        C      tau( 433) = (  0.8125532  0.4375277  0.1874153  )
       434        C      tau( 434) = (  0.8122363  0.4375703  0.4375825  )
       435        C      tau( 435) = (  0.8123281  0.4377210  0.6874875  )
       436        C      tau( 436) = (  0.8124689  0.4375543  0.9375025  )
       437        C      tau( 437) = (  0.8123255  0.6874283  0.1877126  )
       438        C      tau( 438) = (  0.8123276  0.6874759  0.4377328  )
       439        C      tau( 439) = (  0.8128508  0.6877416  0.6877520  )
       440        C      tau( 440) = (  0.8126056  0.6875790  0.9376739  )
       441        C      tau( 441) = (  0.8124478  0.9374549  0.1875754  )
       442        C      tau( 442) = (  0.8124689  0.9374925  0.4375635  )
       443        C      tau( 443) = (  0.8126054  0.9376639  0.6875881  )
       444        C      tau( 444) = (  0.8125342  0.9375703  0.9375797  )
       445        C      tau( 445) = (  0.1874549  0.1874782  0.0625016  )
       446        C      tau( 446) = (  0.1874704  0.1874974  0.3125045  )
       447        C      tau( 447) = (  0.1871612  0.1871448  0.5624466  )
       448        C      tau( 448) = (  0.1874709  0.1874561  0.8124773  )
       449        C      tau( 449) = (  0.1874293  0.4374759  0.0624136  )
       450        C      tau( 450) = (  0.1874916  0.4374757  0.3124507  )
       451        C      tau( 451) = (  0.1876689  0.4374343  0.5623960  )
       452        C      tau( 452) = (  0.1873336  0.4374840  0.8126519  )
       453        C      tau( 453) = (  0.1874813  0.6874769  0.0623918  )
       454        C      tau( 454) = (  0.1874267  0.6874603  0.3124562  )
       455        C      tau( 455) = (  0.1877608  0.6873134  0.5623608  )
       456        C      tau( 456) = (  0.1877377  0.6873620  0.8122954  )
       457        C      tau( 457) = (  0.1874882  0.9374657  0.0624680  )
       458        C      tau( 458) = (  0.1874400  0.9374890  0.3124731  )
       459        C      tau( 459) = (  0.1875874  0.9373485  0.5624592  )
       460        C      tau( 460) = (  0.1875615  0.9373953  0.8124457  )
       461        C      tau( 461) = (  0.4374517  0.1874565  0.0624425  )
       462        C      tau( 462) = (  0.4373957  0.1874394  0.3124656  )
       463        C      tau( 463) = (  0.4374302  0.1874977  0.5624602  )
       464        C      tau( 464) = (  0.4375102  0.1872039  0.8127655  )
       465        C      tau( 465) = (  0.4374525  0.4374802  0.0624648  )
       466        C      tau( 466) = (  0.4374729  0.4376518  0.3127633  )
       467        C      tau( 467) = (  0.4375402  0.4374827  0.8123369  )
       468        C      tau( 468) = (  0.4374901  0.6874781  0.0624712  )
       469        C      tau( 469) = (  0.4376807  0.6882019  0.3117501  )
       470        C      tau( 470) = (  0.4386054  0.6862967  0.5617730  )
       471        C      tau( 471) = (  0.4377261  0.6874100  0.8123211  )
       472        C      tau( 472) = (  0.4374997  0.9375298  0.0624093  )
       473        C      tau( 473) = (  0.4374787  0.9374194  0.3125080  )
       474        C      tau( 474) = (  0.4375349  0.9374173  0.5624939  )
       475        C      tau( 475) = (  0.4375499  0.9374385  0.8124686  )
       476        C      tau( 476) = (  0.6874642  0.1875113  0.0624601  )
       477        C      tau( 477) = (  0.6874220  0.1874372  0.3125045  )
       478        C      tau( 478) = (  0.6873420  0.1876358  0.5624843  )
       479        C      tau( 479) = (  0.6874000  0.1876833  0.8123806  )
       480        C      tau( 480) = (  0.6874432  0.4375188  0.0625293  )
       481        C      tau( 481) = (  0.6877833  0.4376458  0.3121106  )
       482        C      tau( 482) = (  0.6862674  0.4385950  0.5619644  )
       483        C      tau( 483) = (  0.6874594  0.4376877  0.8123998  )
       484        C      tau( 484) = (  0.6874854  0.6875061  0.0626041  )
       485        C      tau( 485) = (  0.6871095  0.6872067  0.3129154  )
       486        C      tau( 486) = (  0.6882759  0.6883242  0.5628832  )
       487        C      tau( 487) = (  0.6877487  0.6877398  0.8128567  )
       488        C      tau( 488) = (  0.6874854  0.9374904  0.0625931  )
       489        C      tau( 489) = (  0.6874515  0.9374308  0.3125827  )
       490        C      tau( 490) = (  0.6875366  0.9375683  0.5625651  )
       491        C      tau( 491) = (  0.6875816  0.9376592  0.8126132  )
       492        C      tau( 492) = (  0.9374529  0.1875108  0.0624981  )
       493        C      tau( 493) = (  0.9374453  0.1874909  0.3125036  )
       494        C      tau( 494) = (  0.9373512  0.1876128  0.5624844  )
       495        C      tau( 495) = (  0.9374277  0.1875606  0.8124733  )
       496        C      tau( 496) = (  0.9374666  0.4375150  0.0624831  )
       497        C      tau( 497) = (  0.9373686  0.4375122  0.3125595  )
       498        C      tau( 498) = (  0.9374270  0.4375462  0.5625113  )
       499        C      tau( 499) = (  0.9374761  0.4375523  0.8124749  )
       500        C      tau( 500) = (  0.9374689  0.6874915  0.0625897  )
       501        C      tau( 501) = (  0.9373887  0.6874557  0.3125988  )
       502        C      tau( 502) = (  0.9375757  0.6875217  0.5625595  )
       503        C      tau( 503) = (  0.9376839  0.6875663  0.8125936  )
       504        C      tau( 504) = (  0.9374896  0.9374992  0.0625427  )
       505        C      tau( 505) = (  0.9374322  0.9374578  0.3125392  )
       506        C      tau( 506) = (  0.9375555  0.9375494  0.5625277  )
       507        C      tau( 507) = (  0.9375740  0.9375590  0.8125370  )
       508        C      tau( 508) = (  0.5663979  0.4323924  0.4324048  )
       509        C      tau( 509) = (  0.4329273  0.4319709  0.5668421  )
       510        C      tau( 510) = (  0.4329278  0.5668297  0.4319834  )
       511        N      tau( 511) = (  0.5676326  0.5675518  0.5675635  )

     number of k points=     1
                       cart. coord. in units 2pi/alat
        k(    1) = (   0.0000000   0.0000000   0.0000000), wk =   1.0000000

                       cryst. coord.
        k(    1) = (   0.0000000   0.0000000   0.0000000), wk =   1.0000000

     Dense  grid:   948261 G-vectors     FFT dimensions: ( 160, 160, 160)

     Dynamical RAM for                 wfc:      38.88 MB

     Dynamical RAM for     wfc (w. buffer):      38.88 MB

     Dynamical RAM for           str. fact:       0.60 MB

     Dynamical RAM for           local pot:       0.00 MB

     Dynamical RAM for          nlocal pot:     154.01 MB

     Dynamical RAM for                qrad:       0.82 MB

     Dynamical RAM for          rho,v,vnew:       6.50 MB

     Dynamical RAM for               rhoin:       2.17 MB

     Dynamical RAM for            rho*nmix:       9.65 MB

     Dynamical RAM for           G-vectors:       1.28 MB

     Dynamical RAM for          h,s,v(r/c):       2.71 MB

     Dynamical RAM for          <psi|beta>:      32.19 MB

     Dynamical RAM for                 psi:      77.76 MB

     Dynamical RAM for                hpsi:      77.76 MB

     Dynamical RAM for      wfcinit/wfcrot:     102.14 MB

     Estimated static dynamical RAM per process >     209.85 MB

     Estimated max dynamical RAM per process >     409.91 MB

     Estimated total dynamical RAM >      37.98 GB
     Generating pointlists ...
     new r_m :   0.0427 (alat units)  1.1528 (a.u.) for type    1
     new r_m :   0.0427 (alat units)  1.1528 (a.u.) for type    2

     Initial potential from superposition of free atoms

     starting charge    2041.4445, renormalised to    2046.0000
     Starting wfcs are random

     total cpu time spent up to now is       10.9 secs

     Self-consistent Calculation

     iteration #  1     ecut=    80.00 Ry     beta= 0.70
     Davidson diagonalization with overlap

---- Real-time Memory Report at c_bands before calling an iterative solver
           512 MiB given to the printing process from OS
             0 MiB allocation reported by mallinfo(arena+hblkhd)
        161011 MiB available memory on the node where the printing process lives
------------------
     ethr =  1.00E-02,  avg # of iterations = 13.0

     total cpu time spent up to now is      107.1 secs

     total energy              =   -5824.02702900 Ry
     estimated scf accuracy    <      29.02033173 Ry

     total magnetization       =     2.00 Bohr mag/cell
     absolute magnetization    =     2.00 Bohr mag/cell

     iteration #  2     ecut=    80.00 Ry     beta= 0.70
     Davidson diagonalization with overlap

---- Real-time Memory Report at c_bands before calling an iterative solver
           631 MiB given to the printing process from OS
             0 MiB allocation reported by mallinfo(arena+hblkhd)
        159472 MiB available memory on the node where the printing process lives
------------------
     ethr =  1.42E-03,  avg # of iterations = 17.0

     total cpu time spent up to now is      143.2 secs

     total energy              =   -5828.18127222 Ry
     estimated scf accuracy    <       1.20259460 Ry

     total magnetization       =     2.00 Bohr mag/cell
     absolute magnetization    =     2.07 Bohr mag/cell

     iteration #  3     ecut=    80.00 Ry     beta= 0.70
     Davidson diagonalization with overlap

---- Real-time Memory Report at c_bands before calling an iterative solver
           650 MiB given to the printing process from OS
             0 MiB allocation reported by mallinfo(arena+hblkhd)
        159327 MiB available memory on the node where the printing process lives
------------------
     c_bands:  1 eigenvalues not converged
     ethr =  5.88E-05,  avg # of iterations = 20.0

     total cpu time spent up to now is      175.8 secs

     total energy              =   -5828.01908491 Ry
     estimated scf accuracy    <       4.98248653 Ry

     total magnetization       =     2.00 Bohr mag/cell
     absolute magnetization    =     2.22 Bohr mag/cell

     iteration #  4     ecut=    80.00 Ry     beta= 0.70
     Davidson diagonalization with overlap

---- Real-time Memory Report at c_bands before calling an iterative solver
           657 MiB given to the printing process from OS
             0 MiB allocation reported by mallinfo(arena+hblkhd)
        159326 MiB available memory on the node where the printing process lives
------------------
     c_bands:  1 eigenvalues not converged
     ethr =  5.88E-05,  avg # of iterations = 20.0

     total cpu time spent up to now is      204.2 secs

     total energy              =   -5829.07170443 Ry
     estimated scf accuracy    <       0.16101921 Ry

     total magnetization       =     2.00 Bohr mag/cell
     absolute magnetization    =     2.16 Bohr mag/cell

     iteration #  5     ecut=    80.00 Ry     beta= 0.70
     Davidson diagonalization with overlap

---- Real-time Memory Report at c_bands before calling an iterative solver
           657 MiB given to the printing process from OS
             0 MiB allocation reported by mallinfo(arena+hblkhd)
        159325 MiB available memory on the node where the printing process lives
------------------
     c_bands:  1 eigenvalues not converged
     ethr =  7.87E-06,  avg # of iterations = 20.0

     total cpu time spent up to now is      231.5 secs

     total energy              =   -5829.08909894 Ry
     estimated scf accuracy    <       0.05391676 Ry

     total magnetization       =     2.00 Bohr mag/cell
     absolute magnetization    =     2.18 Bohr mag/cell

     iteration #  6     ecut=    80.00 Ry     beta= 0.70
     Davidson diagonalization with overlap

---- Real-time Memory Report at c_bands before calling an iterative solver
           657 MiB given to the printing process from OS
             0 MiB allocation reported by mallinfo(arena+hblkhd)
        159324 MiB available memory on the node where the printing process lives
------------------
     c_bands:  1 eigenvalues not converged
     ethr =  2.64E-06,  avg # of iterations = 20.0

     total cpu time spent up to now is      256.4 secs

     total energy              =   -5829.09921647 Ry
     estimated scf accuracy    <       0.00373833 Ry

     total magnetization       =     2.00 Bohr mag/cell
     absolute magnetization    =     2.21 Bohr mag/cell

     iteration #  7     ecut=    80.00 Ry     beta= 0.70
     Davidson diagonalization with overlap

---- Real-time Memory Report at c_bands before calling an iterative solver
           657 MiB given to the printing process from OS
             0 MiB allocation reported by mallinfo(arena+hblkhd)
        159324 MiB available memory on the node where the printing process lives
------------------
     c_bands:  2 eigenvalues not converged
     ethr =  1.83E-07,  avg # of iterations = 20.0

     total cpu time spent up to now is      291.6 secs

     total energy              =   -5829.10073175 Ry
     estimated scf accuracy    <       0.00047928 Ry

     total magnetization       =     2.00 Bohr mag/cell
     absolute magnetization    =     2.23 Bohr mag/cell

     iteration #  8     ecut=    80.00 Ry     beta= 0.70
     Davidson diagonalization with overlap

---- Real-time Memory Report at c_bands before calling an iterative solver
           657 MiB given to the printing process from OS
             0 MiB allocation reported by mallinfo(arena+hblkhd)
        159112 MiB available memory on the node where the printing process lives
------------------
     c_bands:  2 eigenvalues not converged
     ethr =  2.34E-08,  avg # of iterations = 20.0

     total cpu time spent up to now is      335.8 secs

     total energy              =   -5829.10099415 Ry
     estimated scf accuracy    <       0.00021723 Ry

     total magnetization       =     2.00 Bohr mag/cell
     absolute magnetization    =     2.25 Bohr mag/cell

     iteration #  9     ecut=    80.00 Ry     beta= 0.70
     Davidson diagonalization with overlap

---- Real-time Memory Report at c_bands before calling an iterative solver
           662 MiB given to the printing process from OS
             0 MiB allocation reported by mallinfo(arena+hblkhd)
        158957 MiB available memory on the node where the printing process lives
------------------
     c_bands:  1 eigenvalues not converged
     ethr =  1.06E-08,  avg # of iterations = 20.0

     total cpu time spent up to now is      363.3 secs

     total energy              =   -5829.10107698 Ry
     estimated scf accuracy    <       0.00005053 Ry

     total magnetization       =     2.00 Bohr mag/cell
     absolute magnetization    =     2.26 Bohr mag/cell

     iteration # 10     ecut=    80.00 Ry     beta= 0.70
     Davidson diagonalization with overlap

---- Real-time Memory Report at c_bands before calling an iterative solver
           665 MiB given to the printing process from OS
             0 MiB allocation reported by mallinfo(arena+hblkhd)
        158958 MiB available memory on the node where the printing process lives
------------------
     c_bands:  1 eigenvalues not converged
     ethr =  2.47E-09,  avg # of iterations = 20.0

     total cpu time spent up to now is      391.5 secs

     total energy              =   -5829.10109686 Ry
     estimated scf accuracy    <       0.00001431 Ry

     total magnetization       =     2.00 Bohr mag/cell
     absolute magnetization    =     2.27 Bohr mag/cell

     iteration # 11     ecut=    80.00 Ry     beta= 0.70
     Davidson diagonalization with overlap

---- Real-time Memory Report at c_bands before calling an iterative solver
           665 MiB given to the printing process from OS
             0 MiB allocation reported by mallinfo(arena+hblkhd)
        158956 MiB available memory on the node where the printing process lives
------------------
     ethr =  6.99E-10,  avg # of iterations = 16.0

     total cpu time spent up to now is      418.0 secs

     total energy              =   -5829.10110127 Ry
     estimated scf accuracy    <       0.00000210 Ry

     total magnetization       =     2.00 Bohr mag/cell
     absolute magnetization    =     2.28 Bohr mag/cell

     iteration # 12     ecut=    80.00 Ry     beta= 0.70
     Davidson diagonalization with overlap

---- Real-time Memory Report at c_bands before calling an iterative solver
           665 MiB given to the printing process from OS
             0 MiB allocation reported by mallinfo(arena+hblkhd)
        158893 MiB available memory on the node where the printing process lives
------------------
     c_bands:  1 eigenvalues not converged
     ethr =  1.03E-10,  avg # of iterations = 20.0

     total cpu time spent up to now is      445.4 secs

     total energy              =   -5829.10110216 Ry
     estimated scf accuracy    <       0.00000122 Ry

     total magnetization       =     2.00 Bohr mag/cell
     absolute magnetization    =     2.28 Bohr mag/cell

     iteration # 13     ecut=    80.00 Ry     beta= 0.70
     Davidson diagonalization with overlap

---- Real-time Memory Report at c_bands before calling an iterative solver
           665 MiB given to the printing process from OS
             0 MiB allocation reported by mallinfo(arena+hblkhd)
        158823 MiB available memory on the node where the printing process lives
------------------
     c_bands:  1 eigenvalues not converged
     ethr =  5.96E-11,  avg # of iterations = 20.0

     total cpu time spent up to now is      471.6 secs

     total energy              =   -5829.10110255 Ry
     estimated scf accuracy    <       0.00000039 Ry

     total magnetization       =     2.00 Bohr mag/cell
     absolute magnetization    =     2.28 Bohr mag/cell

     iteration # 14     ecut=    80.00 Ry     beta= 0.70
     Davidson diagonalization with overlap

---- Real-time Memory Report at c_bands before calling an iterative solver
           667 MiB given to the printing process from OS
             0 MiB allocation reported by mallinfo(arena+hblkhd)
        158823 MiB available memory on the node where the printing process lives
------------------
     c_bands:  1 eigenvalues not converged
     ethr =  1.91E-11,  avg # of iterations = 20.0

     total cpu time spent up to now is      499.2 secs

     total energy              =   -5829.10110266 Ry
     estimated scf accuracy    <       0.00000007 Ry

     total magnetization       =     2.00 Bohr mag/cell
     absolute magnetization    =     2.28 Bohr mag/cell

     iteration # 15     ecut=    80.00 Ry     beta= 0.70
     Davidson diagonalization with overlap

---- Real-time Memory Report at c_bands before calling an iterative solver
           667 MiB given to the printing process from OS
             0 MiB allocation reported by mallinfo(arena+hblkhd)
        158793 MiB available memory on the node where the printing process lives
------------------
     ethr =  3.38E-12,  avg # of iterations = 18.0

     total cpu time spent up to now is      524.6 secs

     total energy              =   -5829.10110269 Ry
     estimated scf accuracy    <       0.00000004 Ry

     total magnetization       =     2.00 Bohr mag/cell
     absolute magnetization    =     2.28 Bohr mag/cell

     iteration # 16     ecut=    80.00 Ry     beta= 0.70
     Davidson diagonalization with overlap

---- Real-time Memory Report at c_bands before calling an iterative solver
           669 MiB given to the printing process from OS
             0 MiB allocation reported by mallinfo(arena+hblkhd)
        158730 MiB available memory on the node where the printing process lives
------------------
     c_bands:  1 eigenvalues not converged
     ethr =  2.10E-12,  avg # of iterations = 20.0

     total cpu time spent up to now is      551.7 secs

     total energy              =   -5829.10110271 Ry
     estimated scf accuracy    <          4.2E-09 Ry

     total magnetization       =     2.00 Bohr mag/cell
     absolute magnetization    =     2.28 Bohr mag/cell

     iteration # 17     ecut=    80.00 Ry     beta= 0.70
     Davidson diagonalization with overlap

---- Real-time Memory Report at c_bands before calling an iterative solver
           670 MiB given to the printing process from OS
             0 MiB allocation reported by mallinfo(arena+hblkhd)
        158730 MiB available memory on the node where the printing process lives
------------------
     c_bands:  1 eigenvalues not converged
     ethr =  2.05E-13,  avg # of iterations = 19.5

     total cpu time spent up to now is      585.4 secs

     total energy              =   -5829.10110271 Ry
     estimated scf accuracy    <          2.9E-09 Ry

     total magnetization       =     2.00 Bohr mag/cell
     absolute magnetization    =     2.28 Bohr mag/cell

     iteration # 18     ecut=    80.00 Ry     beta= 0.70
     Davidson diagonalization with overlap

---- Real-time Memory Report at c_bands before calling an iterative solver
           670 MiB given to the printing process from OS
             0 MiB allocation reported by mallinfo(arena+hblkhd)
        158568 MiB available memory on the node where the printing process lives
------------------
     ethr =  1.42E-13,  avg # of iterations = 16.0

     total cpu time spent up to now is      626.7 secs

     total energy              =   -5829.10110271 Ry
     estimated scf accuracy    <          3.9E-10 Ry

     total magnetization       =     2.00 Bohr mag/cell
     absolute magnetization    =     2.28 Bohr mag/cell

     iteration # 19     ecut=    80.00 Ry     beta= 0.70
     Davidson diagonalization with overlap

---- Real-time Memory Report at c_bands before calling an iterative solver
           674 MiB given to the printing process from OS
             0 MiB allocation reported by mallinfo(arena+hblkhd)
        158568 MiB available memory on the node where the printing process lives
------------------
     c_bands:  2 eigenvalues not converged
     ethr =  1.00E-13,  avg # of iterations = 20.0

     total cpu time spent up to now is      652.4 secs

     total energy              =   -5829.10110271 Ry
     estimated scf accuracy    <          1.7E-10 Ry

     total magnetization       =     2.00 Bohr mag/cell
     absolute magnetization    =     2.28 Bohr mag/cell

     iteration # 20     ecut=    80.00 Ry     beta= 0.70
     Davidson diagonalization with overlap

---- Real-time Memory Report at c_bands before calling an iterative solver
           674 MiB given to the printing process from OS
             0 MiB allocation reported by mallinfo(arena+hblkhd)
        158568 MiB available memory on the node where the printing process lives
------------------
     ethr =  1.00E-13,  avg # of iterations = 11.0
 
     Magnetic moment per site  (integrated on atomic sphere of radius R)
     atom   1 (R=0.043)  charge=  1.8223  magn= -0.0000
     atom   2 (R=0.043)  charge=  1.8223  magn= -0.0000
     atom   3 (R=0.043)  charge=  1.8239  magn=  0.0002
     atom   4 (R=0.043)  charge=  1.8221  magn=  0.0000
     atom   5 (R=0.043)  charge=  1.8223  magn= -0.0000
     atom   6 (R=0.043)  charge=  1.8226  magn= -0.0000
     atom   7 (R=0.043)  charge=  1.8223  magn= -0.0000
     atom   8 (R=0.043)  charge=  1.8224  magn= -0.0000
     atom   9 (R=0.043)  charge=  1.8239  magn=  0.0002
     atom  10 (R=0.043)  charge=  1.8223  magn= -0.0000
     atom  11 (R=0.043)  charge=  1.8222  magn= -0.0000
     atom  12 (R=0.043)  charge=  1.8225  magn=  0.0000
     atom  13 (R=0.043)  charge=  1.8221  magn=  0.0000
     atom  14 (R=0.043)  charge=  1.8224  magn= -0.0000
     atom  15 (R=0.043)  charge=  1.8225  magn=  0.0000
     atom  16 (R=0.043)  charge=  1.8226  magn= -0.0000
     atom  17 (R=0.043)  charge=  1.8223  magn= -0.0000
     atom  18 (R=0.043)  charge=  1.8228  magn= -0.0000
     atom  19 (R=0.043)  charge=  1.8225  magn= -0.0000
     atom  20 (R=0.043)  charge=  1.8224  magn= -0.0000
     atom  21 (R=0.043)  charge=  1.8228  magn= -0.0000
     atom  22 (R=0.043)  charge=  1.8219  magn= -0.0001
     atom  23 (R=0.043)  charge=  1.8265  magn=  0.0017
     atom  24 (R=0.043)  charge=  1.8219  magn= -0.0001
     atom  25 (R=0.043)  charge=  1.8225  magn= -0.0000
     atom  26 (R=0.043)  charge=  1.8265  magn=  0.0017
     atom  27 (R=0.043)  charge=  1.8230  magn= -0.0009
     atom  28 (R=0.043)  charge=  1.8255  magn=  0.0029
     atom  29 (R=0.043)  charge=  1.8224  magn= -0.0000
     atom  30 (R=0.043)  charge=  1.8219  magn= -0.0001
     atom  31 (R=0.043)  charge=  1.8255  magn=  0.0029
     atom  32 (R=0.043)  charge=  1.8211  magn=  0.0001
     atom  33 (R=0.043)  charge=  1.8241  magn=  0.0002
     atom  34 (R=0.043)  charge=  1.8225  magn= -0.0000
     atom  35 (R=0.043)  charge=  1.8223  magn= -0.0000
     atom  36 (R=0.043)  charge=  1.8226  magn=  0.0000
     atom  37 (R=0.043)  charge=  1.8225  magn= -0.0000
     atom  38 (R=0.043)  charge=  1.8260  magn=  0.0018
     atom  39 (R=0.043)  charge=  1.8228  magn= -0.0009
     atom  40 (R=0.043)  charge=  1.8268  magn=  0.0029
     atom  41 (R=0.043)  charge=  1.8223  magn= -0.0000
     atom  42 (R=0.043)  charge=  1.8228  magn= -0.0009
     atom  43 (R=0.043)  charge=  1.8254  magn= -0.0006
     atom  44 (R=0.043)  charge=  1.8226  magn=  0.0000
     atom  45 (R=0.043)  charge=  1.8268  magn=  0.0029
     atom  46 (R=0.043)  charge=  1.8254  magn= -0.0006
     atom  47 (R=0.043)  charge=  1.8259  magn=  0.0001
     atom  48 (R=0.043)  charge=  1.8222  magn=  0.0000
     atom  49 (R=0.043)  charge=  1.8225  magn= -0.0000
     atom  50 (R=0.043)  charge=  1.8226  magn=  0.0000
     atom  51 (R=0.043)  charge=  1.8228  magn= -0.0000
     atom  52 (R=0.043)  charge=  1.8225  magn= -0.0000
     atom  53 (R=0.043)  charge=  1.8220  magn= -0.0001
     atom  54 (R=0.043)  charge=  1.8250  magn=  0.0029
     atom  55 (R=0.043)  charge=  1.8213  magn=  0.0001
     atom  56 (R=0.043)  charge=  1.8226  magn=  0.0000
     atom  57 (R=0.043)  charge=  1.8250  magn=  0.0029
     atom  58 (R=0.043)  charge=  1.8249  magn= -0.0005
     atom  59 (R=0.043)  charge=  1.8261  magn=  0.0001
     atom  60 (R=0.043)  charge=  1.8228  magn= -0.0000
     atom  61 (R=0.043)  charge=  1.8213  magn=  0.0001
     atom  62 (R=0.043)  charge=  1.8261  magn=  0.0001
     atom  63 (R=0.043)  charge=  1.8226  magn= -0.0000
     atom  64 (R=0.043)  charge=  1.8223  magn= -0.0000
     atom  65 (R=0.043)  charge=  1.8227  magn= -0.0000
     atom  66 (R=0.043)  charge=  1.8222  magn= -0.0000
     atom  67 (R=0.043)  charge=  1.8222  magn= -0.0000
     atom  68 (R=0.043)  charge=  1.8227  magn= -0.0000
     atom  69 (R=0.043)  charge=  1.8222  magn=  0.0000
     atom  70 (R=0.043)  charge=  1.8223  magn=  0.0000
     atom  71 (R=0.043)  charge=  1.8226  magn= -0.0000
     atom  72 (R=0.043)  charge=  1.8222  magn= -0.0000
     atom  73 (R=0.043)  charge=  1.8223  magn=  0.0000
     atom  74 (R=0.043)  charge=  1.8224  magn= -0.0000
     atom  75 (R=0.043)  charge=  1.8227  magn= -0.0000
     atom  76 (R=0.043)  charge=  1.8222  magn= -0.0000
     atom  77 (R=0.043)  charge=  1.8226  magn= -0.0000
     atom  78 (R=0.043)  charge=  1.8227  magn= -0.0000
     atom  79 (R=0.043)  charge=  1.8221  magn=  0.0000
     atom  80 (R=0.043)  charge=  1.8225  magn= -0.0000
     atom  81 (R=0.043)  charge=  1.8225  magn=  0.0000
     atom  82 (R=0.043)  charge=  1.8225  magn= -0.0001
     atom  83 (R=0.043)  charge=  1.8224  magn= -0.0000
     atom  84 (R=0.043)  charge=  1.8225  magn=  0.0000
     atom  85 (R=0.043)  charge=  1.8199  magn= -0.0004
     atom  86 (R=0.043)  charge=  1.8209  magn= -0.0011
     atom  87 (R=0.043)  charge=  1.8227  magn= -0.0001
     atom  88 (R=0.043)  charge=  1.8224  magn= -0.0001
     atom  89 (R=0.043)  charge=  1.8209  magn= -0.0011
     atom  90 (R=0.043)  charge=  1.8196  magn= -0.0007
     atom  91 (R=0.043)  charge=  1.8212  magn= -0.0000
     atom  92 (R=0.043)  charge=  1.8224  magn= -0.0000
     atom  93 (R=0.043)  charge=  1.8227  magn= -0.0001
     atom  94 (R=0.043)  charge=  1.8212  magn= -0.0000
     atom  95 (R=0.043)  charge=  1.8221  magn=  0.0000
     atom  96 (R=0.043)  charge=  1.8237  magn=  0.0004
     atom  97 (R=0.043)  charge=  1.8223  magn= -0.0001
     atom  98 (R=0.043)  charge=  1.8224  magn= -0.0001
     atom  99 (R=0.043)  charge=  1.8241  magn=  0.0005
     atom 100 (R=0.043)  charge=  1.8223  magn= -0.0001
     atom 101 (R=0.043)  charge=  1.8274  magn= -0.0083
     atom 102 (R=0.043)  charge=  1.8292  magn= -0.0045
     atom 103 (R=0.043)  charge=  1.8226  magn= -0.0000
     atom 104 (R=0.043)  charge=  1.8224  magn= -0.0001
     atom 105 (R=0.043)  charge=  1.8293  magn= -0.0045
     atom 106 (R=0.043)  charge=  1.7985  magn=  0.0008
     atom 107 (R=0.043)  charge=  1.8226  magn= -0.0000
     atom 108 (R=0.043)  charge=  1.8241  magn=  0.0005
     atom 109 (R=0.043)  charge=  1.8226  magn= -0.0000
     atom 110 (R=0.043)  charge=  1.8226  magn= -0.0000
     atom 111 (R=0.043)  charge=  1.8236  magn=  0.0000
     atom 112 (R=0.043)  charge=  1.8223  magn= -0.0000
     atom 113 (R=0.043)  charge=  1.8224  magn= -0.0001
     atom 114 (R=0.043)  charge=  1.8223  magn= -0.0000
     atom 115 (R=0.043)  charge=  1.8221  magn=  0.0000
     atom 116 (R=0.043)  charge=  1.8224  magn= -0.0001
     atom 117 (R=0.043)  charge=  1.8213  magn= -0.0010
     atom 118 (R=0.043)  charge=  1.8175  magn= -0.0002
     atom 119 (R=0.043)  charge=  1.8221  magn=  0.0000
     atom 120 (R=0.043)  charge=  1.8223  magn= -0.0000
     atom 121 (R=0.043)  charge=  1.8175  magn= -0.0002
     atom 122 (R=0.043)  charge=  1.8232  magn= -0.0000
     atom 123 (R=0.043)  charge=  1.8231  magn= -0.0000
     atom 124 (R=0.043)  charge=  1.8221  magn=  0.0000
     atom 125 (R=0.043)  charge=  1.8221  magn=  0.0000
     atom 126 (R=0.043)  charge=  1.8231  magn= -0.0000
     atom 127 (R=0.043)  charge=  1.8226  magn=  0.0000
     atom 128 (R=0.043)  charge=  1.8223  magn= -0.0000
     atom 129 (R=0.043)  charge=  1.8228  magn= -0.0000
     atom 130 (R=0.043)  charge=  1.8222  magn= -0.0000
     atom 131 (R=0.043)  charge=  1.8222  magn= -0.0000
     atom 132 (R=0.043)  charge=  1.8224  magn= -0.0000
     atom 133 (R=0.043)  charge=  1.8223  magn=  0.0000
     atom 134 (R=0.043)  charge=  1.8223  magn= -0.0001
     atom 135 (R=0.043)  charge=  1.8224  magn= -0.0000
     atom 136 (R=0.043)  charge=  1.8239  magn=  0.0004
     atom 137 (R=0.043)  charge=  1.8222  magn= -0.0001
     atom 138 (R=0.043)  charge=  1.8222  magn= -0.0001
     atom 139 (R=0.043)  charge=  1.8236  magn=  0.0005
     atom 140 (R=0.043)  charge=  1.8222  magn= -0.0000
     atom 141 (R=0.043)  charge=  1.8224  magn= -0.0001
     atom 142 (R=0.043)  charge=  1.8219  magn= -0.0000
     atom 143 (R=0.043)  charge=  1.8219  magn=  0.0000
     atom 144 (R=0.043)  charge=  1.8228  magn= -0.0000
     atom 145 (R=0.043)  charge=  1.8224  magn=  0.0000
     atom 146 (R=0.043)  charge=  1.8224  magn=  0.0000
     atom 147 (R=0.043)  charge=  1.8227  magn= -0.0000
     atom 148 (R=0.043)  charge=  1.8225  magn=  0.0000
     atom 149 (R=0.043)  charge=  1.8209  magn= -0.0004
     atom 150 (R=0.043)  charge=  1.8211  magn= -0.0011
     atom 151 (R=0.043)  charge=  1.8227  magn= -0.0001
     atom 152 (R=0.043)  charge=  1.8224  magn= -0.0001
     atom 153 (R=0.043)  charge=  1.8280  magn= -0.0082
     atom 154 (R=0.043)  charge=  1.8260  magn= -0.0045
     atom 155 (R=0.043)  charge=  1.8225  magn= -0.0000
     atom 156 (R=0.043)  charge=  1.8226  magn= -0.0001
     atom 157 (R=0.043)  charge=  1.8217  magn= -0.0011
     atom 158 (R=0.043)  charge=  1.8175  magn= -0.0002
     atom 159 (R=0.043)  charge=  1.8220  magn=  0.0000
     atom 160 (R=0.043)  charge=  1.8223  magn= -0.0000
     atom 161 (R=0.043)  charge=  1.8224  magn=  0.0000
     atom 162 (R=0.043)  charge=  1.8226  magn= -0.0000
     atom 163 (R=0.043)  charge=  1.8229  magn= -0.0000
     atom 164 (R=0.043)  charge=  1.8224  magn= -0.0001
     atom 165 (R=0.043)  charge=  1.8209  magn= -0.0011
     atom 166 (R=0.043)  charge=  1.8205  magn= -0.0007
     atom 167 (R=0.043)  charge=  1.8214  magn= -0.0000
     atom 168 (R=0.043)  charge=  1.8223  magn= -0.0001
     atom 169 (R=0.043)  charge=  1.8247  magn= -0.0046
     atom 170 (R=0.043)  charge=  1.7986  magn=  0.0008
     atom 171 (R=0.043)  charge=  1.8226  magn= -0.0000
     atom 172 (R=0.043)  charge=  1.8224  magn= -0.0000
     atom 173 (R=0.043)  charge=  1.8175  magn= -0.0002
     atom 174 (R=0.043)  charge=  1.8235  magn= -0.0000
     atom 175 (R=0.043)  charge=  1.8232  magn= -0.0000
     atom 176 (R=0.043)  charge=  1.8222  magn= -0.0000
     atom 177 (R=0.043)  charge=  1.8226  magn= -0.0000
     atom 178 (R=0.043)  charge=  1.8228  magn=  0.0000
     atom 179 (R=0.043)  charge=  1.8222  magn=  0.0000
     atom 180 (R=0.043)  charge=  1.8224  magn= -0.0000
     atom 181 (R=0.043)  charge=  1.8225  magn= -0.0001
     atom 182 (R=0.043)  charge=  1.8212  magn= -0.0000
     atom 183 (R=0.043)  charge=  1.8222  magn=  0.0000
     atom 184 (R=0.043)  charge=  1.8234  magn=  0.0005
     atom 185 (R=0.043)  charge=  1.8223  magn= -0.0000
     atom 186 (R=0.043)  charge=  1.8225  magn= -0.0000
     atom 187 (R=0.043)  charge=  1.8236  magn=  0.0000
     atom 188 (R=0.043)  charge=  1.8220  magn=  0.0000
     atom 189 (R=0.043)  charge=  1.8220  magn=  0.0000
     atom 190 (R=0.043)  charge=  1.8231  magn= -0.0000
     atom 191 (R=0.043)  charge=  1.8225  magn=  0.0000
     atom 192 (R=0.043)  charge=  1.8223  magn= -0.0000
     atom 193 (R=0.043)  charge=  1.8224  magn= -0.0000
     atom 194 (R=0.043)  charge=  1.8239  magn=  0.0004
     atom 195 (R=0.043)  charge=  1.8222  magn= -0.0000
     atom 196 (R=0.043)  charge=  1.8228  magn= -0.0000
     atom 197 (R=0.043)  charge=  1.8223  magn=  0.0000
     atom 198 (R=0.043)  charge=  1.8222  magn= -0.0001
     atom 199 (R=0.043)  charge=  1.8224  magn= -0.0001
     atom 200 (R=0.043)  charge=  1.8222  magn= -0.0000
     atom 201 (R=0.043)  charge=  1.8223  magn= -0.0001
     atom 202 (R=0.043)  charge=  1.8222  magn= -0.0001
     atom 203 (R=0.043)  charge=  1.8219  magn= -0.0000
     atom 204 (R=0.043)  charge=  1.8222  magn= -0.0000
     atom 205 (R=0.043)  charge=  1.8224  magn= -0.0000
     atom 206 (R=0.043)  charge=  1.8236  magn=  0.0005
     atom 207 (R=0.043)  charge=  1.8219  magn=  0.0000
     atom 208 (R=0.043)  charge=  1.8228  magn= -0.0000
     atom 209 (R=0.043)  charge=  1.8225  magn=  0.0000
     atom 210 (R=0.043)  charge=  1.8224  magn= -0.0001
     atom 211 (R=0.043)  charge=  1.8226  magn= -0.0001
     atom 212 (R=0.043)  charge=  1.8224  magn=  0.0000
     atom 213 (R=0.043)  charge=  1.8209  magn= -0.0004
     atom 214 (R=0.043)  charge=  1.8280  magn= -0.0082
     atom 215 (R=0.043)  charge=  1.8217  magn= -0.0011
     atom 216 (R=0.043)  charge=  1.8224  magn=  0.0000
     atom 217 (R=0.043)  charge=  1.8211  magn= -0.0011
     atom 218 (R=0.043)  charge=  1.8260  magn= -0.0045
     atom 219 (R=0.043)  charge=  1.8175  magn= -0.0002
     atom 220 (R=0.043)  charge=  1.8226  magn= -0.0000
     atom 221 (R=0.043)  charge=  1.8227  magn= -0.0001
     atom 222 (R=0.043)  charge=  1.8225  magn= -0.0000
     atom 223 (R=0.043)  charge=  1.8220  magn=  0.0000
     atom 224 (R=0.043)  charge=  1.8224  magn= -0.0000
     atom 225 (R=0.043)  charge=  1.8224  magn= -0.0001
     atom 226 (R=0.043)  charge=  1.8223  magn= -0.0001
     atom 227 (R=0.043)  charge=  1.8224  magn= -0.0000
     atom 228 (R=0.043)  charge=  1.8224  magn=  0.0000
     atom 229 (R=0.043)  charge=  1.8209  magn= -0.0011
     atom 230 (R=0.043)  charge=  1.8247  magn= -0.0046
     atom 231 (R=0.043)  charge=  1.8175  magn= -0.0002
     atom 232 (R=0.043)  charge=  1.8226  magn= -0.0000
     atom 233 (R=0.043)  charge=  1.8205  magn= -0.0007
     atom 234 (R=0.043)  charge=  1.7986  magn=  0.0008
     atom 235 (R=0.043)  charge=  1.8235  magn= -0.0000
     atom 236 (R=0.043)  charge=  1.8229  magn= -0.0000
     atom 237 (R=0.043)  charge=  1.8214  magn= -0.0000
     atom 238 (R=0.043)  charge=  1.8226  magn= -0.0000
     atom 239 (R=0.043)  charge=  1.8232  magn= -0.0000
     atom 240 (R=0.043)  charge=  1.8222  magn= -0.0000
     atom 241 (R=0.043)  charge=  1.8224  magn= -0.0000
     atom 242 (R=0.043)  charge=  1.8234  magn=  0.0005
     atom 243 (R=0.043)  charge=  1.8220  magn=  0.0000
     atom 244 (R=0.043)  charge=  1.8226  magn= -0.0000
     atom 245 (R=0.043)  charge=  1.8225  magn= -0.0001
     atom 246 (R=0.043)  charge=  1.8223  magn= -0.0000
     atom 247 (R=0.043)  charge=  1.8220  magn=  0.0000
     atom 248 (R=0.043)  charge=  1.8228  magn=  0.0000
     atom 249 (R=0.043)  charge=  1.8212  magn= -0.0000
     atom 250 (R=0.043)  charge=  1.8225  magn= -0.0000
     atom 251 (R=0.043)  charge=  1.8231  magn= -0.0000
     atom 252 (R=0.043)  charge=  1.8222  magn=  0.0000
     atom 253 (R=0.043)  charge=  1.8222  magn=  0.0000
     atom 254 (R=0.043)  charge=  1.8236  magn=  0.0000
     atom 255 (R=0.043)  charge=  1.8225  magn=  0.0000
     atom 256 (R=0.043)  charge=  1.8226  magn=  0.0000
     atom 257 (R=0.043)  charge=  1.8221  magn=  0.0000
     atom 258 (R=0.043)  charge=  1.8229  magn=  0.0001
     atom 259 (R=0.043)  charge=  1.8226  magn=  0.0001
     atom 260 (R=0.043)  charge=  1.8220  magn=  0.0000
     atom 261 (R=0.043)  charge=  1.8213  magn=  0.0001
     atom 262 (R=0.043)  charge=  1.8222  magn=  0.0011
     atom 263 (R=0.043)  charge=  1.8228  magn=  0.0001
     atom 264 (R=0.043)  charge=  1.8245  magn=  0.0012
     atom 265 (R=0.043)  charge=  1.8218  magn=  0.0014
     atom 266 (R=0.043)  charge=  1.8211  magn=  0.0000
     atom 267 (R=0.043)  charge=  1.8215  magn=  0.0000
     atom 268 (R=0.043)  charge=  1.8225  magn=  0.0003
     atom 269 (R=0.043)  charge=  1.8236  magn=  0.0014
     atom 270 (R=0.043)  charge=  1.8220  magn=  0.0000
     atom 271 (R=0.043)  charge=  1.8227  magn=  0.0000
     atom 272 (R=0.043)  charge=  1.8222  magn=  0.0000
     atom 273 (R=0.043)  charge=  1.8223  magn=  0.0003
     atom 274 (R=0.043)  charge=  1.8223  magn=  0.0001
     atom 275 (R=0.043)  charge=  1.8233  magn=  0.0002
     atom 276 (R=0.043)  charge=  1.8218  magn=  0.0001
     atom 277 (R=0.043)  charge=  1.8216  magn=  0.0069
     atom 278 (R=0.043)  charge=  1.8225  magn=  0.0180
     atom 279 (R=0.043)  charge=  1.8221  magn=  0.0001
     atom 280 (R=0.043)  charge=  1.8223  magn=  0.0014
     atom 281 (R=0.043)  charge=  1.8198  magn=  0.0039
     atom 282 (R=0.043)  charge=  1.8223  magn=  0.0002
     atom 283 (R=0.043)  charge=  1.8244  magn=  0.0014
     atom 284 (R=0.043)  charge=  1.8224  magn=  0.0006
     atom 285 (R=0.043)  charge=  1.8217  magn=  0.0001
     atom 286 (R=0.043)  charge=  1.8221  magn=  0.0000
     atom 287 (R=0.043)  charge=  1.8227  magn=  0.0001
     atom 288 (R=0.043)  charge=  1.8223  magn=  0.0001
     atom 289 (R=0.043)  charge=  1.8225  magn=  0.0000
     atom 290 (R=0.043)  charge=  1.8225  magn=  0.0000
     atom 291 (R=0.043)  charge=  1.8223  magn=  0.0011
     atom 292 (R=0.043)  charge=  1.8194  magn=  0.0177
     atom 293 (R=0.043)  charge=  1.8226  magn=  0.0003
     atom 294 (R=0.043)  charge=  1.8225  magn=  0.0000
     atom 295 (R=0.043)  charge=  1.8216  magn=  0.0000
     atom 296 (R=0.043)  charge=  1.8197  magn=  0.0039
     atom 297 (R=0.043)  charge=  1.8299  magn=  0.0001
     atom 298 (R=0.043)  charge=  1.8224  magn=  0.0001
     atom 299 (R=0.043)  charge=  1.8220  magn=  0.0000
     atom 300 (R=0.043)  charge=  1.8218  magn=  0.0001
     atom 301 (R=0.043)  charge=  1.8242  magn=  0.0000
     atom 302 (R=0.043)  charge=  1.8232  magn=  0.0000
     atom 303 (R=0.043)  charge=  1.8225  magn=  0.0001
     atom 304 (R=0.043)  charge=  1.8228  magn=  0.0002
     atom 305 (R=0.043)  charge=  1.8226  magn=  0.0000
     atom 306 (R=0.043)  charge=  1.8227  magn=  0.0000
     atom 307 (R=0.043)  charge=  1.8226  magn=  0.0001
     atom 308 (R=0.043)  charge=  1.8219  magn=  0.0001
     atom 309 (R=0.043)  charge=  1.8224  magn=  0.0000
     atom 310 (R=0.043)  charge=  1.8225  magn=  0.0000
     atom 311 (R=0.043)  charge=  1.8214  magn=  0.0000
     atom 312 (R=0.043)  charge=  1.8222  magn=  0.0002
     atom 313 (R=0.043)  charge=  1.8223  magn=  0.0001
     atom 314 (R=0.043)  charge=  1.8230  magn=  0.0000
     atom 315 (R=0.043)  charge=  1.8226  magn=  0.0000
     atom 316 (R=0.043)  charge=  1.8220  magn=  0.0000
     atom 317 (R=0.043)  charge=  1.8232  magn=  0.0000
     atom 318 (R=0.043)  charge=  1.8228  magn=  0.0000
     atom 319 (R=0.043)  charge=  1.8226  magn=  0.0000
     atom 320 (R=0.043)  charge=  1.8225  magn=  0.0000
     atom 321 (R=0.043)  charge=  1.8229  magn=  0.0001
     atom 322 (R=0.043)  charge=  1.8226  magn=  0.0000
     atom 323 (R=0.043)  charge=  1.8225  magn=  0.0000
     atom 324 (R=0.043)  charge=  1.8223  magn= -0.0000
     atom 325 (R=0.043)  charge=  1.8221  magn=  0.0001
     atom 326 (R=0.043)  charge=  1.8227  magn=  0.0001
     atom 327 (R=0.043)  charge=  1.8229  magn=  0.0001
     atom 328 (R=0.043)  charge=  1.8221  magn=  0.0001
     atom 329 (R=0.043)  charge=  1.8221  magn=  0.0003
     atom 330 (R=0.043)  charge=  1.8220  magn= -0.0000
     atom 331 (R=0.043)  charge=  1.8226  magn=  0.0000
     atom 332 (R=0.043)  charge=  1.8226  magn=  0.0001
     atom 333 (R=0.043)  charge=  1.8220  magn= -0.0000
     atom 334 (R=0.043)  charge=  1.8226  magn=  0.0000
     atom 335 (R=0.043)  charge=  1.8226  magn=  0.0000
     atom 336 (R=0.043)  charge=  1.8224  magn= -0.0000
     atom 337 (R=0.043)  charge=  1.8223  magn=  0.0001
     atom 338 (R=0.043)  charge=  1.8229  magn=  0.0001
     atom 339 (R=0.043)  charge=  1.8224  magn= -0.0000
     atom 340 (R=0.043)  charge=  1.8219  magn=  0.0003
     atom 341 (R=0.043)  charge=  1.8224  magn=  0.0165
     atom 342 (R=0.043)  charge=  1.8225  magn=  0.0010
     atom 343 (R=0.043)  charge=  1.8223  magn=  0.0001
     atom 344 (R=0.043)  charge=  1.8224  magn=  0.0165
     atom 345 (R=0.043)  charge=  1.8210  magn=  0.0057
     atom 346 (R=0.043)  charge=  1.8198  magn=  0.0001
     atom 347 (R=0.043)  charge=  1.8229  magn=  0.0001
     atom 348 (R=0.043)  charge=  1.8226  magn=  0.0010
     atom 349 (R=0.043)  charge=  1.8198  magn=  0.0001
     atom 350 (R=0.043)  charge=  1.8222  magn=  0.0000
     atom 351 (R=0.043)  charge=  1.8228  magn=  0.0001
     atom 352 (R=0.043)  charge=  1.8223  magn=  0.0001
     atom 353 (R=0.043)  charge=  1.8224  magn=  0.0003
     atom 354 (R=0.043)  charge=  1.8222  magn= -0.0000
     atom 355 (R=0.043)  charge=  1.8223  magn=  0.0001
     atom 356 (R=0.043)  charge=  1.8219  magn=  0.0165
     atom 357 (R=0.043)  charge=  1.8217  magn=  0.0059
     atom 358 (R=0.043)  charge=  1.8199  magn=  0.0001
     atom 359 (R=0.043)  charge=  1.8224  magn=  0.0003
     atom 360 (R=0.043)  charge=  1.8218  magn=  0.0059
     atom 361 (R=0.043)  charge=  1.8222  magn=  0.0005
     atom 362 (R=0.043)  charge=  1.8222  magn= -0.0000
     atom 363 (R=0.043)  charge=  1.8199  magn=  0.0001
     atom 364 (R=0.043)  charge=  1.8222  magn=  0.0005
     atom 365 (R=0.043)  charge=  1.8239  magn=  0.0000
     atom 366 (R=0.043)  charge=  1.8226  magn=  0.0000
     atom 367 (R=0.043)  charge=  1.8226  magn=  0.0001
     atom 368 (R=0.043)  charge=  1.8222  magn= -0.0000
     atom 369 (R=0.043)  charge=  1.8226  magn=  0.0000
     atom 370 (R=0.043)  charge=  1.8226  magn=  0.0001
     atom 371 (R=0.043)  charge=  1.8222  magn=  0.0010
     atom 372 (R=0.043)  charge=  1.8198  magn=  0.0001
     atom 373 (R=0.043)  charge=  1.8222  magn=  0.0000
     atom 374 (R=0.043)  charge=  1.8222  magn= -0.0000
     atom 375 (R=0.043)  charge=  1.8198  magn=  0.0001
     atom 376 (R=0.043)  charge=  1.8221  magn=  0.0005
     atom 377 (R=0.043)  charge=  1.8240  magn=  0.0000
     atom 378 (R=0.043)  charge=  1.8226  magn=  0.0000
     atom 379 (R=0.043)  charge=  1.8222  magn=  0.0000
     atom 380 (R=0.043)  charge=  1.8240  magn=  0.0000
     atom 381 (R=0.043)  charge=  1.8232  magn= -0.0000
     atom 382 (R=0.043)  charge=  1.8225  magn=  0.0000
     atom 383 (R=0.043)  charge=  1.8220  magn=  0.0000
     atom 384 (R=0.043)  charge=  1.8227  magn=  0.0001
     atom 385 (R=0.043)  charge=  1.8225  magn=  0.0001
     atom 386 (R=0.043)  charge=  1.8220  magn=  0.0000
     atom 387 (R=0.043)  charge=  1.8221  magn=  0.0003
     atom 388 (R=0.043)  charge=  1.8221  magn=  0.0001
     atom 389 (R=0.043)  charge=  1.8229  magn=  0.0002
     atom 390 (R=0.043)  charge=  1.8227  magn=  0.0001
     atom 391 (R=0.043)  charge=  1.8221  magn=  0.0001
     atom 392 (R=0.043)  charge=  1.8224  magn=  0.0000
     atom 393 (R=0.043)  charge=  1.8226  magn=  0.0000
     atom 394 (R=0.043)  charge=  1.8225  magn=  0.0001
     atom 395 (R=0.043)  charge=  1.8229  magn=  0.0002
     atom 396 (R=0.043)  charge=  1.8226  magn=  0.0000
     atom 397 (R=0.043)  charge=  1.8227  magn=  0.0000
     atom 398 (R=0.043)  charge=  1.8220  magn=  0.0000
     atom 399 (R=0.043)  charge=  1.8219  magn=  0.0001
     atom 400 (R=0.043)  charge=  1.8226  magn=  0.0011
     atom 401 (R=0.043)  charge=  1.8229  magn=  0.0001
     atom 402 (R=0.043)  charge=  1.8219  magn=  0.0001
     atom 403 (R=0.043)  charge=  1.8198  magn=  0.0068
     atom 404 (R=0.043)  charge=  1.8196  magn=  0.0178
     atom 405 (R=0.043)  charge=  1.8220  magn=  0.0001
     atom 406 (R=0.043)  charge=  1.8226  magn=  0.0011
     atom 407 (R=0.043)  charge=  1.8196  magn=  0.0178
     atom 408 (R=0.043)  charge=  1.8227  magn=  0.0003
     atom 409 (R=0.043)  charge=  1.8224  magn=  0.0000
     atom 410 (R=0.043)  charge=  1.8229  magn=  0.0001
     atom 411 (R=0.043)  charge=  1.8220  magn=  0.0001
     atom 412 (R=0.043)  charge=  1.8224  magn=  0.0000
     atom 413 (R=0.043)  charge=  1.8226  magn=  0.0000
     atom 414 (R=0.043)  charge=  1.8240  magn=  0.0012
     atom 415 (R=0.043)  charge=  1.8221  magn=  0.0014
     atom 416 (R=0.043)  charge=  1.8216  magn=  0.0000
     atom 417 (R=0.043)  charge=  1.8216  magn=  0.0000
     atom 418 (R=0.043)  charge=  1.8221  magn=  0.0014
     atom 419 (R=0.043)  charge=  1.8190  magn=  0.0040
     atom 420 (R=0.043)  charge=  1.8223  magn=  0.0002
     atom 421 (R=0.043)  charge=  1.8216  magn=  0.0000
     atom 422 (R=0.043)  charge=  1.8190  magn=  0.0040
     atom 423 (R=0.043)  charge=  1.8295  magn=  0.0000
     atom 424 (R=0.043)  charge=  1.8224  magn=  0.0001
     atom 425 (R=0.043)  charge=  1.8216  magn=  0.0000
     atom 426 (R=0.043)  charge=  1.8223  magn=  0.0002
     atom 427 (R=0.043)  charge=  1.8224  magn=  0.0001
     atom 428 (R=0.043)  charge=  1.8230  magn=  0.0000
     atom 429 (R=0.043)  charge=  1.8224  magn=  0.0003
     atom 430 (R=0.043)  charge=  1.8232  magn=  0.0014
     atom 431 (R=0.043)  charge=  1.8220  magn=  0.0000
     atom 432 (R=0.043)  charge=  1.8226  magn=  0.0000
     atom 433 (R=0.043)  charge=  1.8232  magn=  0.0014
     atom 434 (R=0.043)  charge=  1.8222  magn=  0.0006
     atom 435 (R=0.043)  charge=  1.8217  magn=  0.0001
     atom 436 (R=0.043)  charge=  1.8221  magn=  0.0000
     atom 437 (R=0.043)  charge=  1.8220  magn=  0.0000
     atom 438 (R=0.043)  charge=  1.8217  magn=  0.0001
     atom 439 (R=0.043)  charge=  1.8241  magn=  0.0000
     atom 440 (R=0.043)  charge=  1.8232  magn=  0.0000
     atom 441 (R=0.043)  charge=  1.8226  magn=  0.0000
     atom 442 (R=0.043)  charge=  1.8221  magn=  0.0000
     atom 443 (R=0.043)  charge=  1.8232  magn=  0.0000
     atom 444 (R=0.043)  charge=  1.8227  magn=  0.0000
     atom 445 (R=0.043)  charge=  1.8226  magn=  0.0000
     atom 446 (R=0.043)  charge=  1.8220  magn=  0.0000
     atom 447 (R=0.043)  charge=  1.8245  magn=  0.0012
     atom 448 (R=0.043)  charge=  1.8225  magn=  0.0003
     atom 449 (R=0.043)  charge=  1.8221  magn=  0.0000
     atom 450 (R=0.043)  charge=  1.8213  magn=  0.0001
     atom 451 (R=0.043)  charge=  1.8218  magn=  0.0014
     atom 452 (R=0.043)  charge=  1.8236  magn=  0.0014
     atom 453 (R=0.043)  charge=  1.8229  magn=  0.0001
     atom 454 (R=0.043)  charge=  1.8222  magn=  0.0011
     atom 455 (R=0.043)  charge=  1.8211  magn=  0.0000
     atom 456 (R=0.043)  charge=  1.8220  magn=  0.0000
     atom 457 (R=0.043)  charge=  1.8226  magn=  0.0001
     atom 458 (R=0.043)  charge=  1.8228  magn=  0.0001
     atom 459 (R=0.043)  charge=  1.8215  magn=  0.0000
     atom 460 (R=0.043)  charge=  1.8227  magn=  0.0000
     atom 461 (R=0.043)  charge=  1.8222  magn=  0.0000
     atom 462 (R=0.043)  charge=  1.8218  magn=  0.0001
     atom 463 (R=0.043)  charge=  1.8223  magn=  0.0014
     atom 464 (R=0.043)  charge=  1.8244  magn=  0.0014
     atom 465 (R=0.043)  charge=  1.8223  magn=  0.0003
     atom 466 (R=0.043)  charge=  1.8216  magn=  0.0069
     atom 467 (R=0.043)  charge=  1.8224  magn=  0.0006
     atom 468 (R=0.043)  charge=  1.8223  magn=  0.0001
     atom 469 (R=0.043)  charge=  1.8224  magn=  0.0180
     atom 470 (R=0.043)  charge=  1.8198  magn=  0.0039
     atom 471 (R=0.043)  charge=  1.8217  magn=  0.0001
     atom 472 (R=0.043)  charge=  1.8233  magn=  0.0002
     atom 473 (R=0.043)  charge=  1.8221  magn=  0.0001
     atom 474 (R=0.043)  charge=  1.8223  magn=  0.0002
     atom 475 (R=0.043)  charge=  1.8221  magn=  0.0000
     atom 476 (R=0.043)  charge=  1.8227  magn=  0.0001
     atom 477 (R=0.043)  charge=  1.8223  magn=  0.0011
     atom 478 (R=0.043)  charge=  1.8216  magn=  0.0000
     atom 479 (R=0.043)  charge=  1.8220  magn=  0.0000
     atom 480 (R=0.043)  charge=  1.8223  magn=  0.0001
     atom 481 (R=0.043)  charge=  1.8194  magn=  0.0177
     atom 482 (R=0.043)  charge=  1.8196  magn=  0.0039
     atom 483 (R=0.043)  charge=  1.8218  magn=  0.0001
     atom 484 (R=0.043)  charge=  1.8225  magn=  0.0000
     atom 485 (R=0.043)  charge=  1.8226  magn=  0.0003
     atom 486 (R=0.043)  charge=  1.8299  magn=  0.0001
     atom 487 (R=0.043)  charge=  1.8242  magn=  0.0000
     atom 488 (R=0.043)  charge=  1.8225  magn=  0.0000
     atom 489 (R=0.043)  charge=  1.8225  magn=  0.0000
     atom 490 (R=0.043)  charge=  1.8224  magn=  0.0001
     atom 491 (R=0.043)  charge=  1.8232  magn=  0.0000
     atom 492 (R=0.043)  charge=  1.8225  magn=  0.0001
     atom 493 (R=0.043)  charge=  1.8226  magn=  0.0001
     atom 494 (R=0.043)  charge=  1.8214  magn=  0.0000
     atom 495 (R=0.043)  charge=  1.8226  magn=  0.0000
     atom 496 (R=0.043)  charge=  1.8228  magn=  0.0002
     atom 497 (R=0.043)  charge=  1.8219  magn=  0.0001
     atom 498 (R=0.043)  charge=  1.8222  magn=  0.0002
     atom 499 (R=0.043)  charge=  1.8220  magn=  0.0000
     atom 500 (R=0.043)  charge=  1.8226  magn=  0.0000
     atom 501 (R=0.043)  charge=  1.8224  magn=  0.0000
     atom 502 (R=0.043)  charge=  1.8222  magn=  0.0001
     atom 503 (R=0.043)  charge=  1.8232  magn=  0.0000
     atom 504 (R=0.043)  charge=  1.8227  magn=  0.0000
     atom 505 (R=0.043)  charge=  1.8225  magn=  0.0000
     atom 506 (R=0.043)  charge=  1.8230  magn=  0.0000
     atom 507 (R=0.043)  charge=  1.8228  magn=  0.0000
     atom 508 (R=0.043)  charge=  1.8280  magn=  0.2522
     atom 509 (R=0.043)  charge=  1.8332  magn=  0.2500
     atom 510 (R=0.043)  charge=  1.8332  magn=  0.2500
     atom 511 (R=0.043)  charge=  2.9116  magn= -0.0010

     total cpu time spent up to now is      671.4 secs

     End of self-consistent calculation

 ------ SPIN UP ------------


          k = 0.0000 0.0000 0.0000 (118565 PWs)   bands (ev):

    -8.1978  -7.6616  -7.6373  -7.6373  -7.6148  -7.6130  -7.5581  -7.1658
    -7.0677  -7.0666  -7.0619  -7.0607  -7.0603  -7.0423  -7.0414  -7.0361
    -7.0023  -6.9987  -6.9141  -6.5889  -6.4754  -6.4687  -6.4676  -6.4582
    -6.4492  -6.4469  -6.3737  -5.9927  -5.9119  -5.9113  -5.9030  -5.9022
    -5.8808  -5.6360  -5.3843  -5.3820  -5.3811  -5.3787  -5.3735  -5.3731
    -5.3700  -5.3691  -5.3621  -5.3605  -5.3579  -5.3569  -5.3529  -5.3513
    -5.3415  -5.3319  -5.3307  -5.3179  -5.3174  -5.3165  -5.2795  -5.2755
    -5.1904  -5.0024  -4.8237  -4.8235  -4.8198  -4.8163  -4.8161  -4.8158
    -4.8151  -4.8128  -4.8116  -4.8114  -4.8070  -4.8051  -4.8030  -4.8028
    -4.7948  -4.7936  -4.7719  -4.7538  -4.7527  -4.7266  -4.7109  -4.7048
    -4.4696  -3.8945  -3.7314  -3.7310  -3.7288  -3.7278  -3.7223  -3.7213
    -3.7202  -3.7128  -3.7091  -3.7082  -3.6664  -3.4856  -3.2654  -3.2652
    -3.2622  -3.2607  -3.2604  -3.2599  -3.2588  -3.2574  -3.2532  -3.2528
    -3.2457  -3.2443  -3.2442  -3.2437  -3.2420  -3.2301  -3.2189  -3.1978
    -3.1966  -3.1800  -3.1672  -3.1650  -3.1570  -3.1456  -3.1446  -3.1416
    -3.1344  -3.1328  -3.0114  -2.7849  -2.6583  -2.6577  -2.6577  -2.6565
    -2.6565  -2.6559  -2.6477  -2.6467  -2.6407  -2.6385  -2.6378  -2.6342
    -2.6325  -2.6320  -2.6306  -2.6304  -2.6272  -2.6117  -2.5924  -2.5916
    -2.5638  -2.5613  -2.4981  -2.4439  -2.3985  -2.3981  -2.3767  -2.2966
    -2.1913  -2.1907  -2.1777  -2.1752  -2.1752  -2.1745  -2.1742  -2.1717
    -2.1675  -2.1675  -2.1648  -2.1601  -2.1595  -2.1594  -2.1544  -2.1526
    -2.1523  -2.1349  -2.1346  -2.1251  -2.0841  -2.0795  -1.8439  -1.5817
    -1.4462  -1.4451  -1.4442  -1.4362  -1.4362  -1.4361  -1.4297  -1.4295
    -1.4288  -1.4265  -1.4254  -1.4251  -1.4125  -1.4113  -1.4034  -1.4008
    -1.3936  -1.3874  -1.3860  -1.3837  -1.3673  -1.3673  -1.3515  -1.3034
    -1.2524  -1.2504  -1.2503  -1.2477  -1.2471  -1.2434  -1.2399  -1.2392
    -1.2378  -1.2239  -1.2223  -1.2167  -1.2021  -1.2008  -1.1897  -1.1878
    -1.1831  -1.1566  -1.1508  -1.1460  -1.0788  -1.0732  -0.4539  -0.0884
    -0.0882  -0.0869  -0.0660   0.2135   0.2887   0.2892   0.3035   0.3044
     0.3051   0.3075   0.3080   0.3106   0.3205   0.3210   0.3843   0.4906
     0.4992   0.4996   0.5047   0.5059   0.5332   0.7548   0.8146   0.8154
     0.8215   0.8218   0.8227   0.8243   0.8258   0.8267   0.8435   0.8460
     0.8477   0.8486   0.8497   0.8506   0.8545   0.8555   0.8599   0.8651
     0.8714   0.8722   0.8833   0.8844   0.8847   0.8893   0.8921   0.8922
     0.8924   0.8967   0.8967   0.8979   0.8981   0.8984   0.9136   0.9150
     0.9187   0.9245   0.9247   0.9256   0.9298   0.9302   0.9307   0.9349
     0.9360   1.0039   1.0444   1.0469   1.1377   1.2433   1.2922   1.2924
     1.3124   1.3128   1.3143   1.3222   1.3238   1.3272   1.3398   1.3409
     1.4247   1.5125   1.5299   1.5309   1.5475   1.5482   1.5511   1.5532
     1.5670   1.5674   1.5912   1.5922   1.6737   1.6914   1.6982   1.6986
     1.7035   1.7046   1.7061   1.7095   1.7100   1.7103   1.7106   1.7163
     1.7233   1.7249   1.7261   1.7269   1.7273   1.7364   1.7452   1.7535
     1.7539   1.8643   1.9016   1.9049   2.2102   2.4288   2.4527   2.4535
     2.4791   2.4851   2.4851   2.4860   2.4865   2.4877   2.4877   2.4910
     2.4913   2.4915   2.4926   2.4930   2.4965   2.4975   2.4983   2.5031
     2.5032   2.5581   2.5719   2.5741   2.6692   2.8277   2.8283   2.8322
     2.8437   2.8437   2.8469   2.8499   2.8504   2.8504   2.8612   2.8614
     2.8681   2.8729   2.8824   2.8827   2.8837   2.8864   2.8881   2.8943
     2.9049   2.9057   3.0245   3.0280   3.6795   3.9220   3.9223   3.9461
     3.9465   3.9467   3.9471   3.9471   3.9532   3.9535   3.9649   3.9678
     3.9680   4.0832   4.1055   4.1066   4.1356   4.1357   4.1369   4.1393
     4.1398   4.1412   4.1419   4.1427   4.1429   4.1433   4.1436   4.1440
     4.1446   4.1486   4.1627   4.1631   4.1866   4.1973   4.2046   4.2057
     4.2140   4.2307   4.2309   4.2335   4.2359   4.2395   4.2396   4.2398
     4.2429   4.2435   4.2622   4.2625   4.2644   4.2652   4.2668   4.2684
     4.2710   4.2719   4.2759   4.2790   4.2852   4.2868   4.3322   4.3327
     4.3679   4.3681   4.3723   4.3769   4.3769   4.3779   4.3795   4.3799
     4.3819   4.3859   4.3905   4.3905   4.3910   4.4037   4.4042   4.4122
     4.4163   4.4164   4.4293   4.4350   4.4353   4.4837   4.5050   4.5055
     4.5069   4.5500   4.5506   4.5738   4.5786   4.5808   4.5814   4.5843
     4.5845   4.6135   4.6427   4.6432   4.6546   4.6896   4.7086   4.7098
     4.7876   4.7914   4.9253   4.9253   4.9457   4.9504   4.9506   4.9508
     4.9518   4.9633   4.9635   5.0368   5.0667   5.0708   5.5792   5.6305
     5.6309   5.6536   5.6614   5.6620   5.6654   5.6657   5.6662   5.7000
     5.7004   5.7045   5.8915   5.8991   5.8998   5.9161   5.9191   5.9193
     5.9216   5.9217   5.9221   5.9321   5.9376   5.9379   5.9446   5.9449
     5.9473   5.9512   5.9513   5.9571   5.9720   5.9727   5.9756   6.0034
     6.0071   6.0079   6.0680   6.1971   6.1980   6.2621   6.2623   6.2641
     6.2656   6.2664   6.2665   6.2680   6.2681   6.2701   6.2720   6.2753
     6.2759   6.2769   6.2862   6.2868   6.2954   6.2965   6.2975   6.3158
     6.3309   6.3317   6.3344   6.4775   6.4784   6.4856   6.5148   6.5153
     6.5161   6.5161   6.5188   6.5190   6.5194   6.5213   6.5217   6.5222
     6.5225   6.5245   6.5263   6.5289   6.5296   6.5359   6.5369   6.5746
     6.5795   6.5800   6.5858   6.6548   6.6557   6.6559   6.6652   6.6698
     6.6701   6.6709   6.6819   6.7114   6.7124   6.7269   6.7306   6.7313
     6.7317   6.7350   6.7399   6.7403   6.7422   6.7427   6.7430   6.7449
     6.7452   6.7702   6.7708   6.7766   6.7790   6.7802   6.7808   6.8095
     6.8528   6.8543   6.8987   6.8988   6.9020   6.9314   6.9321   6.9324
     6.9353   6.9404   6.9429   6.9439   6.9441   6.9458   6.9463   6.9480
     6.9543   6.9549   6.9594   6.9597   6.9621   6.9655   6.9682   6.9689
     6.9697   6.9707   6.9841   6.9957   6.9962   7.0784   7.1086   7.1114
     7.2629   7.2641   7.3020   7.3027   7.3029   7.3033   7.3039   7.3073
     7.3077   7.3081   7.3084   7.3086   7.3123   7.3125   7.3132   7.3190
     7.3245   7.3246   7.3277   7.3521   7.3524   7.3763   7.3764   7.3801
     7.4904   7.4910   7.5219   7.5246   7.5254   7.5268   7.5399   7.5405
     7.5610   7.5854   7.5876   7.5882   7.6601   7.6886   7.6891   7.7359
     7.7402   7.7404   7.7406   7.7424   7.7427   7.7431   7.7491   7.7498
     7.7521   7.7530   7.7537   7.7577   7.7609   7.7614   7.7638   7.7648
     7.7651   7.7658   7.7666   7.7666   7.7699   7.7708   7.7713   7.7716
     7.7724   7.7755   7.7771   7.7776   7.7781   7.7788   7.7799   7.7803
     7.7813   7.7833   7.7841   7.7872   7.7979   7.7999   7.8067   7.8200
     7.8207   7.8510   7.8522   7.8652   7.8863   7.8867   7.8992   7.9159
     7.9167   7.9261   7.9384   7.9392   7.9395   8.0953   8.1016   8.1031
     8.3072   8.3077   8.3573   8.3578   8.3591   8.3638   8.3640   8.3642
     8.3673   8.3688   8.3690   8.3706   8.3732   8.3737   8.3742   8.3804
     8.3806   8.3863   8.3984   8.4001   8.4107   8.4145   8.4196   8.4200
     8.4357   8.5163   8.5168   8.5488   8.5517   8.5519   8.5528   8.5539
     8.5540   8.5555   8.5598   8.5627   8.5632   8.5656   8.5662   8.5818
     8.5821   8.5887   8.5951   8.6010   8.6021   8.6078   8.6290   8.6295
     8.6305   8.6507   8.6588   8.6589   8.6602   8.6621   8.6623   8.6762
     8.6797   8.6800   8.6898   8.6902   8.6904   8.6922   8.6943   8.6978
     8.7136   8.7164   8.7201   8.7239   8.7254   8.7373   8.7430   8.7444
     8.7527   8.7594   8.7611   9.0049   9.0312   9.0322   9.1113   9.1117
     9.1326   9.1330   9.1347   9.1348   9.1374   9.1383   9.1435   9.1700
     9.1907   9.2006   9.2013   9.2527   9.2532   9.2603   9.2606   9.2684
     9.2749   9.2756   9.2863   9.4238   9.4484   9.4505   9.6657   9.6663
     9.7099   9.7106   9.7111   9.7115   9.7143   9.7166   9.7190   9.7191
     9.7310   9.7313   9.7336   9.7349   9.7353   9.7427   9.7429   9.7465
     9.7584   9.7598   9.7642   9.8050   9.8419   9.8423   9.8482   9.9757
     9.9766   9.9904   9.9946   9.9947  10.0007  10.0014  10.0016  10.0057
    10.0182  10.0189  10.0192  10.0256  10.0287  10.0291  10.0365  10.0368
    10.0375  10.0394  10.0394  10.0429  10.0439  10.0442  10.0449  10.0457
    10.0467  10.0486  10.0488  10.0495  10.0608  10.0617  10.0627  10.1422
    10.1428  10.1528  10.1980  10.1986  10.2016  10.2020  10.2021  10.2021
    10.2031  10.2041  10.2044  10.2053  10.2056  10.2068  10.2774  10.2827
    10.2833  10.3098  10.3106  10.3120  10.3122  10.3186  10.3186  10.3214
    10.3217  10.3221  10.3246  10.3248  10.3282  10.3283  10.3298  10.3303
    10.3329  10.3339  10.3340  10.3360  10.3364  10.3372  10.3414  10.3422
    10.3428  10.3479  10.3488  10.3508  10.3582  10.3585  10.3589  10.3712
    10.3724  10.3798  10.3940  10.3953  10.4111  10.4222  10.4238  10.4250
    10.4497  10.4517  10.4547  10.4566  10.4762  10.4790  10.5029  10.5030
    10.5783  10.6135  10.6175  11.2435  11.3129  11.3144  11.4648  11.4650
    11.4844  11.4852  11.4885  11.4909  11.4910  11.4911  11.4938  11.4948
    11.4953  11.4955  11.5003  11.5004  11.5047  11.5049  11.5162  11.5177
    11.5204  11.5344  11.5351  11.5411  11.5468  11.5538  11.5546  11.6047
    11.8759  11.8763  11.8823  11.9177  11.9187  12.2247  12.3309  12.3317
    12.3486  12.4578  12.4688  12.4689  12.4745  12.4870  12.4887  12.4982
    12.5265  12.5300  13.1547  13.1816  13.1817  14.0717  15.0962  15.1520
    17.4056  17.4062  17.4068  17.4202  17.4204  17.4316  17.7130  17.7142

     occupation numbers 
     1.0000   1.0000   1.0000   1.0000   1.0000   1.0000   1.0000   1.0000
     1.0000   1.0000   1.0000   1.0000   1.0000   1.0000   1.0000   1.0000
     1.0000   1.0000   1.0000   1.0000   1.0000   1.0000   1.0000   1.0000
     1.0000   1.0000   1.0000   1.0000   1.0000   1.0000   1.0000   1.0000
     1.0000   1.0000   1.0000   1.0000   1.0000   1.0000   1.0000   1.0000
     1.0000   1.0000   1.0000   1.0000   1.0000   1.0000   1.0000   1.0000
     1.0000   1.0000   1.0000   1.0000   1.0000   1.0000   1.0000   1.0000
     1.0000   1.0000   1.0000   1.0000   1.0000   1.0000   1.0000   1.0000
     1.0000   1.0000   1.0000   1.0000   1.0000   1.0000   1.0000   1.0000
     1.0000   1.0000   1.0000   1.0000   1.0000   1.0000   1.0000   1.0000
     1.0000   1.0000   1.0000   1.0000   1.0000   1.0000   1.0000   1.0000
     1.0000   1.0000   1.0000   1.0000   1.0000   1.0000   1.0000   1.0000
     1.0000   1.0000   1.0000   1.0000   1.0000   1.0000   1.0000   1.0000
     1.0000   1.0000   1.0000   1.0000   1.0000   1.0000   1.0000   1.0000
     1.0000   1.0000   1.0000   1.0000   1.0000   1.0000   1.0000   1.0000
     1.0000   1.0000   1.0000   1.0000   1.0000   1.0000   1.0000   1.0000
     1.0000   1.0000   1.0000   1.0000   1.0000   1.0000   1.0000   1.0000
     1.0000   1.0000   1.0000   1.0000   1.0000   1.0000   1.0000   1.0000
     1.0000   1.0000   1.0000   1.0000   1.0000   1.0000   1.0000   1.0000
     1.0000   1.0000   1.0000   1.0000   1.0000   1.0000   1.0000   1.0000
     1.0000   1.0000   1.0000   1.0000   1.0000   1.0000   1.0000   1.0000
     1.0000   1.0000   1.0000   1.0000   1.0000   1.0000   1.0000   1.0000
     1.0000   1.0000   1.0000   1.0000   1.0000   1.0000   1.0000   1.0000
     1.0000   1.0000   1.0000   1.0000   1.0000   1.0000   1.0000   1.0000
     1.0000   1.0000   1.0000   1.0000   1.0000   1.0000   1.0000   1.0000
     1.0000   1.0000   1.0000   1.0000   1.0000   1.0000   1.0000   1.0000
     1.0000   1.0000   1.0000   1.0000   1.0000   1.0000   1.0000   1.0000
     1.0000   1.0000   1.0000   1.0000   1.0000   1.0000   1.0000   1.0000
     1.0000   1.0000   1.0000   1.0000   1.0000   1.0000   1.0000   1.0000
     1.0000   1.0000   1.0000   1.0000   1.0000   1.0000   1.0000   1.0000
     1.0000   1.0000   1.0000   1.0000   1.0000   1.0000   1.0000   1.0000
     1.0000   1.0000   1.0000   1.0000   1.0000   1.0000   1.0000   1.0000
     1.0000   1.0000   1.0000   1.0000   1.0000   1.0000   1.0000   1.0000
     1.0000   1.0000   1.0000   1.0000   1.0000   1.0000   1.0000   1.0000
     1.0000   1.0000   1.0000   1.0000   1.0000   1.0000   1.0000   1.0000
     1.0000   1.0000   1.0000   1.0000   1.0000   1.0000   1.0000   1.0000
     1.0000   1.0000   1.0000   1.0000   1.0000   1.0000   1.0000   1.0000
     1.0000   1.0000   1.0000   1.0000   1.0000   1.0000   1.0000   1.0000
     1.0000   1.0000   1.0000   1.0000   1.0000   1.0000   1.0000   1.0000
     1.0000   1.0000   1.0000   1.0000   1.0000   1.0000   1.0000   1.0000
     1.0000   1.0000   1.0000   1.0000   1.0000   1.0000   1.0000   1.0000
     1.0000   1.0000   1.0000   1.0000   1.0000   1.0000   1.0000   1.0000
     1.0000   1.0000   1.0000   1.0000   1.0000   1.0000   1.0000   1.0000
     1.0000   1.0000   1.0000   1.0000   1.0000   1.0000   1.0000   1.0000
     1.0000   1.0000   1.0000   1.0000   1.0000   1.0000   1.0000   1.0000
     1.0000   1.0000   1.0000   1.0000   1.0000   1.0000   1.0000   1.0000
     1.0000   1.0000   1.0000   1.0000   1.0000   1.0000   1.0000   1.0000
     1.0000   1.0000   1.0000   1.0000   1.0000   1.0000   1.0000   1.0000
     1.0000   1.0000   1.0000   1.0000   1.0000   1.0000   1.0000   1.0000
     1.0000   1.0000   1.0000   1.0000   1.0000   1.0000   1.0000   1.0000
     1.0000   1.0000   1.0000   1.0000   1.0000   1.0000   1.0000   1.0000
     1.0000   1.0000   1.0000   1.0000   1.0000   1.0000   1.0000   1.0000
     1.0000   1.0000   1.0000   1.0000   1.0000   1.0000   1.0000   1.0000
     1.0000   1.0000   1.0000   1.0000   1.0000   1.0000   1.0000   1.0000
     1.0000   1.0000   1.0000   1.0000   1.0000   1.0000   1.0000   1.0000
     1.0000   1.0000   1.0000   1.0000   1.0000   1.0000   1.0000   1.0000
     1.0000   1.0000   1.0000   1.0000   1.0000   1.0000   1.0000   1.0000
     1.0000   1.0000   1.0000   1.0000   1.0000   1.0000   1.0000   1.0000
     1.0000   1.0000   1.0000   1.0000   1.0000   1.0000   1.0000   1.0000
     1.0000   1.0000   1.0000   1.0000   1.0000   1.0000   1.0000   1.0000
     1.0000   1.0000   1.0000   1.0000   1.0000   1.0000   1.0000   1.0000
     1.0000   1.0000   1.0000   1.0000   1.0000   1.0000   1.0000   1.0000
     1.0000   1.0000   1.0000   1.0000   1.0000   1.0000   1.0000   1.0000
     1.0000   1.0000   1.0000   1.0000   1.0000   1.0000   1.0000   1.0000
     1.0000   1.0000   1.0000   1.0000   1.0000   1.0000   1.0000   1.0000
     1.0000   1.0000   1.0000   1.0000   1.0000   1.0000   1.0000   1.0000
     1.0000   1.0000   1.0000   1.0000   1.0000   1.0000   1.0000   1.0000
     1.0000   1.0000   1.0000   1.0000   1.0000   1.0000   1.0000   1.0000
     1.0000   1.0000   1.0000   1.0000   1.0000   1.0000   1.0000   1.0000
     1.0000   1.0000   1.0000   1.0000   1.0000   1.0000   1.0000   1.0000
     1.0000   1.0000   1.0000   1.0000   1.0000   1.0000   1.0000   1.0000
     1.0000   1.0000   1.0000   1.0000   1.0000   1.0000   1.0000   1.0000
     1.0000   1.0000   1.0000   1.0000   1.0000   1.0000   1.0000   1.0000
     1.0000   1.0000   1.0000   1.0000   1.0000   1.0000   1.0000   1.0000
     1.0000   1.0000   1.0000   1.0000   1.0000   1.0000   1.0000   1.0000
     1.0000   1.0000   1.0000   1.0000   1.0000   1.0000   1.0000   1.0000
     1.0000   1.0000   1.0000   1.0000   1.0000   1.0000   1.0000   1.0000
     1.0000   1.0000   1.0000   1.0000   1.0000   1.0000   1.0000   1.0000
     1.0000   1.0000   1.0000   1.0000   1.0000   1.0000   1.0000   1.0000
     1.0000   1.0000   1.0000   1.0000   1.0000   1.0000   1.0000   1.0000
     1.0000   1.0000   1.0000   1.0000   1.0000   1.0000   1.0000   1.0000
     1.0000   1.0000   1.0000   1.0000   1.0000   1.0000   1.0000   1.0000
     1.0000   1.0000   1.0000   1.0000   1.0000   1.0000   1.0000   1.0000
     1.0000   1.0000   1.0000   1.0000   1.0000   1.0000   1.0000   1.0000
     1.0000   1.0000   1.0000   1.0000   1.0000   1.0000   1.0000   1.0000
     1.0000   1.0000   1.0000   1.0000   1.0000   1.0000   1.0000   1.0000
     1.0000   1.0000   1.0000   1.0000   1.0000   1.0000   1.0000   1.0000
     1.0000   1.0000   1.0000   1.0000   1.0000   1.0000   1.0000   1.0000
     1.0000   1.0000   1.0000   1.0000   1.0000   1.0000   1.0000   1.0000
     1.0000   1.0000   1.0000   1.0000   1.0000   1.0000   1.0000   1.0000
     1.0000   1.0000   1.0000   1.0000   1.0000   1.0000   1.0000   1.0000
     1.0000   1.0000   1.0000   1.0000   1.0000   1.0000   1.0000   1.0000
     1.0000   1.0000   1.0000   1.0000   1.0000   1.0000   1.0000   1.0000
     1.0000   1.0000   1.0000   1.0000   1.0000   1.0000   1.0000   1.0000
     1.0000   1.0000   1.0000   1.0000   1.0000   1.0000   1.0000   1.0000
     1.0000   1.0000   1.0000   1.0000   1.0000   1.0000   1.0000   1.0000
     1.0000   1.0000   1.0000   1.0000   1.0000   1.0000   1.0000   1.0000
     1.0000   1.0000   1.0000   1.0000   1.0000   1.0000   1.0000   1.0000
     1.0000   1.0000   1.0000   1.0000   1.0000   1.0000   1.0000   1.0000
     1.0000   1.0000   1.0000   1.0000   1.0000   1.0000   1.0000   1.0000
     1.0000   1.0000   1.0000   1.0000   1.0000   1.0000   1.0000   1.0000
     1.0000   1.0000   1.0000   1.0000   1.0000   1.0000   1.0000   1.0000
     1.0000   1.0000   1.0000   1.0000   1.0000   1.0000   1.0000   1.0000
     1.0000   1.0000   1.0000   1.0000   1.0000   1.0000   1.0000   1.0000
     1.0000   1.0000   1.0000   1.0000   1.0000   1.0000   1.0000   1.0000
     1.0000   1.0000   1.0000   1.0000   1.0000   1.0000   1.0000   1.0000
     1.0000   1.0000   1.0000   1.0000   1.0000   1.0000   1.0000   1.0000
     1.0000   1.0000   1.0000   1.0000   1.0000   1.0000   1.0000   1.0000
     1.0000   1.0000   1.0000   1.0000   1.0000   1.0000   1.0000   1.0000
     1.0000   1.0000   1.0000   1.0000   1.0000   1.0000   1.0000   1.0000
     1.0000   1.0000   1.0000   1.0000   1.0000   1.0000   1.0000   1.0000
     1.0000   1.0000   1.0000   1.0000   1.0000   1.0000   1.0000   1.0000
     1.0000   1.0000   1.0000   1.0000   1.0000   1.0000   1.0000   1.0000
     1.0000   1.0000   1.0000   1.0000   1.0000   1.0000   1.0000   1.0000
     1.0000   1.0000   1.0000   1.0000   1.0000   1.0000   1.0000   1.0000
     1.0000   1.0000   1.0000   1.0000   1.0000   1.0000   1.0000   1.0000
     1.0000   1.0000   1.0000   1.0000   1.0000   1.0000   1.0000   1.0000
     1.0000   1.0000   1.0000   1.0000   1.0000   1.0000   1.0000   1.0000
     1.0000   1.0000   1.0000   1.0000   1.0000   1.0000   1.0000   1.0000
     1.0000   1.0000   1.0000   1.0000   1.0000   1.0000   1.0000   1.0000
     1.0000   1.0000   1.0000   1.0000   1.0000   1.0000   1.0000   1.0000
     1.0000   1.0000   1.0000   1.0000   1.0000   1.0000   1.0000   1.0000
     1.0000   1.0000   1.0000   1.0000   1.0000   1.0000   1.0000   1.0000
     1.0000   1.0000   1.0000   1.0000   1.0000   1.0000   1.0000   1.0000
     1.0000   1.0000   1.0000   1.0000   1.0000   1.0000   1.0000   1.0000
     1.0000   1.0000   1.0000   1.0000   1.0000   1.0000   1.0000   1.0000
     1.0000   1.0000   1.0000   1.0000   1.0000   1.0000   1.0000   1.0000
     1.0000   1.0000   1.0000   1.0000   1.0000   1.0000   1.0000   1.0000
     0.0000   0.0000   0.0000   0.0000   0.0000   0.0000   0.0000   0.0000

 ------ SPIN DOWN ----------


          k = 0.0000 0.0000 0.0000 (118565 PWs)   bands (ev):

    -8.1964  -7.6605  -7.6368  -7.6367  -7.6131  -7.6113  -7.5533  -7.1640
    -7.0673  -7.0662  -7.0611  -7.0602  -7.0598  -7.0410  -7.0401  -7.0350
    -6.9970  -6.9935  -6.9045  -6.5876  -6.4745  -6.4663  -6.4653  -6.4559
    -6.4441  -6.4420  -6.3634  -5.9901  -5.9103  -5.9097  -5.9000  -5.8993
    -5.8774  -5.6307  -5.3840  -5.3815  -5.3806  -5.3781  -5.3727  -5.3723
    -5.3694  -5.3685  -5.3618  -5.3601  -5.3574  -5.3565  -5.3515  -5.3499
    -5.3382  -5.3288  -5.3275  -5.3167  -5.3138  -5.3130  -5.2680  -5.2643
    -5.1820  -5.0000  -4.8232  -4.8230  -4.8187  -4.8154  -4.8148  -4.8147
    -4.8145  -4.8120  -4.8109  -4.8108  -4.8053  -4.8036  -4.8020  -4.7994
    -4.7920  -4.7906  -4.7682  -4.7456  -4.7441  -4.7222  -4.6922  -4.6859
    -4.4429  -3.8880  -3.7295  -3.7291  -3.7272  -3.7263  -3.7184  -3.7168
    -3.7164  -3.7117  -3.7057  -3.7046  -3.6607  -3.4801  -3.2651  -3.2648
    -3.2618  -3.2598  -3.2596  -3.2591  -3.2573  -3.2558  -3.2513  -3.2512
    -3.2435  -3.2432  -3.2421  -3.2407  -3.2388  -3.2273  -3.2136  -3.1935
    -3.1924  -3.1765  -3.1579  -3.1567  -3.1541  -3.1430  -3.1419  -3.1402
    -3.1252  -3.1230  -2.9990  -2.7772  -2.6577  -2.6573  -2.6572  -2.6558
    -2.6558  -2.6553  -2.6463  -2.6453  -2.6401  -2.6376  -2.6368  -2.6323
    -2.6306  -2.6305  -2.6282  -2.6274  -2.6238  -2.6102  -2.5877  -2.5869
    -2.5526  -2.5503  -2.4939  -2.4424  -2.3937  -2.3932  -2.3699  -2.2926
    -2.1898  -2.1894  -2.1752  -2.1733  -2.1732  -2.1702  -2.1699  -2.1692
    -2.1652  -2.1648  -2.1634  -2.1586  -2.1579  -2.1575  -2.1501  -2.1486
    -2.1485  -2.1291  -2.1287  -2.1229  -2.0602  -2.0556  -1.8276  -1.5769
    -1.4456  -1.4446  -1.4435  -1.4358  -1.4354  -1.4354  -1.4291  -1.4288
    -1.4281  -1.4262  -1.4243  -1.4240  -1.4113  -1.4101  -1.3984  -1.3958
    -1.3915  -1.3861  -1.3847  -1.3808  -1.3617  -1.3616  -1.3468  -1.3002
    -1.2521  -1.2491  -1.2489  -1.2467  -1.2458  -1.2426  -1.2377  -1.2371
    -1.2369  -1.2214  -1.2198  -1.2123  -1.1978  -1.1965  -1.1838  -1.1817
    -1.1806  -1.1505  -1.1448  -1.1373  -1.0222  -1.0153  -0.3822  -0.0863
    -0.0861  -0.0848  -0.0616   0.2197   0.2903   0.2908   0.3055   0.3069
     0.3071   0.3102   0.3104   0.3122   0.3305   0.3312   0.3969   0.4926
     0.5004   0.5008   0.5073   0.5085   0.5385   0.7673   0.8158   0.8165
     0.8221   0.8225   0.8229   0.8250   0.8265   0.8275   0.8446   0.8478
     0.8493   0.8505   0.8519   0.8522   0.8569   0.8580   0.8608   0.8668
     0.8744   0.8753   0.8837   0.8849   0.8853   0.8901   0.8927   0.8929
     0.8931   0.8980   0.8982   0.8988   0.8989   0.8993   0.9203   0.9219
     0.9251   0.9279   0.9291   0.9297   0.9344   0.9344   0.9359   0.9429
     0.9437   1.0073   1.0565   1.0586   1.1456   1.2484   1.2937   1.2939
     1.3154   1.3157   1.3186   1.3243   1.3258   1.3290   1.3535   1.3547
     1.4319   1.5165   1.5319   1.5329   1.5499   1.5505   1.5534   1.5581
     1.5703   1.5706   1.6073   1.6084   1.6791   1.6935   1.6990   1.6993
     1.7053   1.7063   1.7072   1.7102   1.7108   1.7115   1.7118   1.7192
     1.7252   1.7268   1.7281   1.7296   1.7302   1.7413   1.7588   1.7598
     1.7640   1.8727   1.9245   1.9280   2.2316   2.4327   2.4545   2.4553
     2.4864   2.4869   2.4880   2.4882   2.4896   2.4898   2.4907   2.4921
     2.4922   2.4947   2.4962   2.4967   2.4998   2.5004   2.5012   2.5081
     2.5082   2.5628   2.5835   2.5856   2.6791   2.8290   2.8295   2.8391
     2.8445   2.8446   2.8479   2.8507   2.8518   2.8520   2.8630   2.8632
     2.8736   2.8751   2.8857   2.8861   2.8883   2.8895   2.8913   2.9006
     2.9087   2.9095   3.0712   3.0756   3.7286   3.9236   3.9238   3.9477
     3.9480   3.9483   3.9486   3.9487   3.9550   3.9553   3.9662   3.9705
     3.9708   4.0918   4.1084   4.1095   4.1362   4.1363   4.1376   4.1410
     4.1415   4.1424   4.1430   4.1436   4.1439   4.1442   4.1449   4.1451
     4.1458   4.1540   4.1657   4.1662   4.1923   4.1996   4.2064   4.2075
     4.2172   4.2325   4.2328   4.2369   4.2400   4.2404   4.2408   4.2443
     4.2448   4.2478   4.2656   4.2656   4.2675   4.2695   4.2706   4.2723
     4.2733   4.2742   4.2799   4.2823   4.2888   4.2904   4.3472   4.3478
     4.3688   4.3690   4.3755   4.3775   4.3775   4.3792   4.3803   4.3807
     4.3833   4.3894   4.3919   4.3926   4.3932   4.4079   4.4086   4.4142
     4.4179   4.4180   4.4309   4.4409   4.4414   4.4894   4.5126   4.5127
     4.5133   4.5532   4.5539   4.5776   4.5832   4.5847   4.5849   4.5880
     4.5888   4.6217   4.6484   4.6488   4.6581   4.6977   4.7120   4.7132
     4.8240   4.8277   4.9272   4.9272   4.9487   4.9529   4.9532   4.9534
     4.9535   4.9680   4.9682   5.0419   5.0925   5.0974   5.6009   5.6333
     5.6338   5.6561   5.6629   5.6634   5.6675   5.6697   5.6702   5.7046
     5.7050   5.7078   5.9013   5.9020   5.9068   5.9188   5.9195   5.9196
     5.9222   5.9229   5.9233   5.9333   5.9389   5.9391   5.9458   5.9461
     5.9486   5.9537   5.9537   5.9593   5.9761   5.9768   5.9801   6.0055
     6.0129   6.0136   6.1054   6.1989   6.1998   6.2632   6.2635   6.2670
     6.2677   6.2682   6.2684   6.2701   6.2701   6.2715   6.2754   6.2769
     6.2782   6.2790   6.2902   6.2907   6.3002   6.3011   6.3032   6.3308
     6.3377   6.3384   6.3416   6.4802   6.4811   6.4887   6.5172   6.5174
     6.5181   6.5181   6.5203   6.5205   6.5216   6.5232   6.5233   6.5254
     6.5261   6.5268   6.5288   6.5320   6.5328   6.5411   6.5418   6.5775
     6.5862   6.5865   6.5959   6.6588   6.6598   6.6599   6.6664   6.6707
     6.6711   6.6725   6.6847   6.7149   6.7159   6.7272   6.7310   6.7317
     6.7321   6.7390   6.7412   6.7416   6.7430   6.7442   6.7444   6.7470
     6.7473   6.7731   6.7735   6.7805   6.7864   6.7865   6.7880   6.8213
     6.8616   6.8629   6.9020   6.9021   6.9079   6.9322   6.9329   6.9333
     6.9361   6.9430   6.9455   6.9458   6.9461   6.9485   6.9487   6.9533
     6.9572   6.9577   6.9635   6.9639   6.9663   6.9669   6.9699   6.9706
     6.9753   6.9761   6.9887   7.0127   7.0134   7.0862   7.1280   7.1310
     7.2649   7.2661   7.3028   7.3037   7.3040   7.3055   7.3067   7.3087
     7.3091   7.3092   7.3095   7.3096   7.3149   7.3153   7.3156   7.3215
     7.3271   7.3272   7.3295   7.3569   7.3573   7.3825   7.3828   7.3831
     7.4935   7.4942   7.5252   7.5268   7.5278   7.5290   7.5451   7.5456
     7.5672   7.5892   7.5949   7.5957   7.6816   7.6914   7.6919   7.7368
     7.7411   7.7412   7.7413   7.7434   7.7438   7.7445   7.7503   7.7512
     7.7550   7.7557   7.7560   7.7606   7.7624   7.7629   7.7668   7.7670
     7.7670   7.7678   7.7678   7.7682   7.7724   7.7730   7.7731   7.7742
     7.7747   7.7777   7.7784   7.7797   7.7801   7.7815   7.7820   7.7826
     7.7842   7.7856   7.7863   7.7898   7.8021   7.8040   7.8130   7.8299
     7.8303   7.8541   7.8552   7.8709   7.8930   7.8935   7.9055   7.9224
     7.9229   7.9286   7.9449   7.9488   7.9489   8.1038   8.1199   8.1212
     8.3094   8.3098   8.3593   8.3597   8.3609   8.3651   8.3652   8.3664
     8.3691   8.3701   8.3704   8.3711   8.3756   8.3763   8.3767   8.3833
     8.3835   8.3886   8.4016   8.4033   8.4159   8.4244   8.4255   8.4258
     8.4730   8.5193   8.5198   8.5509   8.5531   8.5536   8.5549   8.5556
     8.5556   8.5584   8.5616   8.5646   8.5655   8.5679   8.5679   8.5842
     8.5845   8.5949   8.5991   8.6066   8.6077   8.6096   8.6336   8.6340
     8.6350   8.6526   8.6602   8.6603   8.6612   8.6673   8.6674   8.6800
     8.6842   8.6846   8.6930   8.6937   8.6938   8.6979   8.7003   8.7037
     8.7223   8.7245   8.7269   8.7322   8.7327   8.7416   8.7514   8.7523
     8.7687   8.7704   8.7727   9.0117   9.0495   9.0502   9.1160   9.1164
     9.1366   9.1366   9.1371   9.1378   9.1418   9.1422   9.1460   9.1858
     9.2035   9.2115   9.2122   9.2558   9.2566   9.2612   9.2615   9.2707
     9.2831   9.2835   9.2954   9.4351   9.4728   9.4749   9.6697   9.6703
     9.7106   9.7117   9.7123   9.7129   9.7153   9.7176   9.7220   9.7221
     9.7346   9.7347   9.7385   9.7393   9.7397   9.7449   9.7450   9.7488
     9.7679   9.7692   9.7732   9.8336   9.8530   9.8536   9.8772   9.9803
     9.9813   9.9922   9.9969   9.9970  10.0021  10.0039  10.0040  10.0112
    10.0192  10.0198  10.0206  10.0288  10.0314  10.0318  10.0394  10.0401
    10.0404  10.0406  10.0409  10.0451  10.0459  10.0468  10.0477  10.0478
    10.0483  10.0501  10.0504  10.0514  10.0685  10.0702  10.0715  10.1495
    10.1500  10.1593  10.1989  10.1995  10.2022  10.2024  10.2026  10.2026
    10.2036  10.2047  10.2050  10.2063  10.2068  10.2079  10.2863  10.2869
    10.2941  10.3103  10.3110  10.3125  10.3126  10.3196  10.3197  10.3223
    10.3226  10.3228  10.3255  10.3261  10.3291  10.3291  10.3305  10.3311
    10.3337  10.3354  10.3355  10.3373  10.3375  10.3384  10.3431  10.3439
    10.3445  10.3499  10.3510  10.3533  10.3607  10.3613  10.3634  10.3770
    10.3784  10.3875  10.4037  10.4051  10.4142  10.4248  10.4262  10.4287
    10.4537  10.4557  10.4604  10.4730  10.4892  10.4917  10.5187  10.5187
    10.6029  10.6448  10.6493  11.2484  11.3464  11.3477  11.4684  11.4686
    11.4852  11.4859  11.4895  11.4922  11.4923  11.4929  11.4963  11.4964
    11.4968  11.4979  11.5039  11.5044  11.5080  11.5086  11.5201  11.5218
    11.5251  11.5392  11.5400  11.5465  11.5620  11.5702  11.5702  11.7458
    11.8837  11.8841  11.8897  11.9195  11.9205  12.2698  12.3594  12.3601
    12.4583  12.4704  12.4705  12.4757  12.4904  12.4921  12.5036  12.5330
    12.5368  12.5887  13.1988  13.1990  13.2042  14.7584  16.5061  16.5714
    17.4069  17.4078  17.4092  17.4231  17.4236  17.4359  17.7149  17.7162

     occupation numbers 
     1.0000   1.0000   1.0000   1.0000   1.0000   1.0000   1.0000   1.0000
     1.0000   1.0000   1.0000   1.0000   1.0000   1.0000   1.0000   1.0000
     1.0000   1.0000   1.0000   1.0000   1.0000   1.0000   1.0000   1.0000
     1.0000   1.0000   1.0000   1.0000   1.0000   1.0000   1.0000   1.0000
     1.0000   1.0000   1.0000   1.0000   1.0000   1.0000   1.0000   1.0000
     1.0000   1.0000   1.0000   1.0000   1.0000   1.0000   1.0000   1.0000
     1.0000   1.0000   1.0000   1.0000   1.0000   1.0000   1.0000   1.0000
     1.0000   1.0000   1.0000   1.0000   1.0000   1.0000   1.0000   1.0000
     1.0000   1.0000   1.0000   1.0000   1.0000   1.0000   1.0000   1.0000
     1.0000   1.0000   1.0000   1.0000   1.0000   1.0000   1.0000   1.0000
     1.0000   1.0000   1.0000   1.0000   1.0000   1.0000   1.0000   1.0000
     1.0000   1.0000   1.0000   1.0000   1.0000   1.0000   1.0000   1.0000
     1.0000   1.0000   1.0000   1.0000   1.0000   1.0000   1.0000   1.0000
     1.0000   1.0000   1.0000   1.0000   1.0000   1.0000   1.0000   1.0000
     1.0000   1.0000   1.0000   1.0000   1.0000   1.0000   1.0000   1.0000
     1.0000   1.0000   1.0000   1.0000   1.0000   1.0000   1.0000   1.0000
     1.0000   1.0000   1.0000   1.0000   1.0000   1.0000   1.0000   1.0000
     1.0000   1.0000   1.0000   1.0000   1.0000   1.0000   1.0000   1.0000
     1.0000   1.0000   1.0000   1.0000   1.0000   1.0000   1.0000   1.0000
     1.0000   1.0000   1.0000   1.0000   1.0000   1.0000   1.0000   1.0000
     1.0000   1.0000   1.0000   1.0000   1.0000   1.0000   1.0000   1.0000
     1.0000   1.0000   1.0000   1.0000   1.0000   1.0000   1.0000   1.0000
     1.0000   1.0000   1.0000   1.0000   1.0000   1.0000   1.0000   1.0000
     1.0000   1.0000   1.0000   1.0000   1.0000   1.0000   1.0000   1.0000
     1.0000   1.0000   1.0000   1.0000   1.0000   1.0000   1.0000   1.0000
     1.0000   1.0000   1.0000   1.0000   1.0000   1.0000   1.0000   1.0000
     1.0000   1.0000   1.0000   1.0000   1.0000   1.0000   1.0000   1.0000
     1.0000   1.0000   1.0000   1.0000   1.0000   1.0000   1.0000   1.0000
     1.0000   1.0000   1.0000   1.0000   1.0000   1.0000   1.0000   1.0000
     1.0000   1.0000   1.0000   1.0000   1.0000   1.0000   1.0000   1.0000
     1.0000   1.0000   1.0000   1.0000   1.0000   1.0000   1.0000   1.0000
     1.0000   1.0000   1.0000   1.0000   1.0000   1.0000   1.0000   1.0000
     1.0000   1.0000   1.0000   1.0000   1.0000   1.0000   1.0000   1.0000
     1.0000   1.0000   1.0000   1.0000   1.0000   1.0000   1.0000   1.0000
     1.0000   1.0000   1.0000   1.0000   1.0000   1.0000   1.0000   1.0000
     1.0000   1.0000   1.0000   1.0000   1.0000   1.0000   1.0000   1.0000
     1.0000   1.0000   1.0000   1.0000   1.0000   1.0000   1.0000   1.0000
     1.0000   1.0000   1.0000   1.0000   1.0000   1.0000   1.0000   1.0000
     1.0000   1.0000   1.0000   1.0000   1.0000   1.0000   1.0000   1.0000
     1.0000   1.0000   1.0000   1.0000   1.0000   1.0000   1.0000   1.0000
     1.0000   1.0000   1.0000   1.0000   1.0000   1.0000   1.0000   1.0000
     1.0000   1.0000   1.0000   1.0000   1.0000   1.0000   1.0000   1.0000
     1.0000   1.0000   1.0000   1.0000   1.0000   1.0000   1.0000   1.0000
     1.0000   1.0000   1.0000   1.0000   1.0000   1.0000   1.0000   1.0000
     1.0000   1.0000   1.0000   1.0000   1.0000   1.0000   1.0000   1.0000
     1.0000   1.0000   1.0000   1.0000   1.0000   1.0000   1.0000   1.0000
     1.0000   1.0000   1.0000   1.0000   1.0000   1.0000   1.0000   1.0000
     1.0000   1.0000   1.0000   1.0000   1.0000   1.0000   1.0000   1.0000
     1.0000   1.0000   1.0000   1.0000   1.0000   1.0000   1.0000   1.0000
     1.0000   1.0000   1.0000   1.0000   1.0000   1.0000   1.0000   1.0000
     1.0000   1.0000   1.0000   1.0000   1.0000   1.0000   1.0000   1.0000
     1.0000   1.0000   1.0000   1.0000   1.0000   1.0000   1.0000   1.0000
     1.0000   1.0000   1.0000   1.0000   1.0000   1.0000   1.0000   1.0000
     1.0000   1.0000   1.0000   1.0000   1.0000   1.0000   1.0000   1.0000
     1.0000   1.0000   1.0000   1.0000   1.0000   1.0000   1.0000   1.0000
     1.0000   1.0000   1.0000   1.0000   1.0000   1.0000   1.0000   1.0000
     1.0000   1.0000   1.0000   1.0000   1.0000   1.0000   1.0000   1.0000
     1.0000   1.0000   1.0000   1.0000   1.0000   1.0000   1.0000   1.0000
     1.0000   1.0000   1.0000   1.0000   1.0000   1.0000   1.0000   1.0000
     1.0000   1.0000   1.0000   1.0000   1.0000   1.0000   1.0000   1.0000
     1.0000   1.0000   1.0000   1.0000   1.0000   1.0000   1.0000   1.0000
     1.0000   1.0000   1.0000   1.0000   1.0000   1.0000   1.0000   1.0000
     1.0000   1.0000   1.0000   1.0000   1.0000   1.0000   1.0000   1.0000
     1.0000   1.0000   1.0000   1.0000   1.0000   1.0000   1.0000   1.0000
     1.0000   1.0000   1.0000   1.0000   1.0000   1.0000   1.0000   1.0000
     1.0000   1.0000   1.0000   1.0000   1.0000   1.0000   1.0000   1.0000
     1.0000   1.0000   1.0000   1.0000   1.0000   1.0000   1.0000   1.0000
     1.0000   1.0000   1.0000   1.0000   1.0000   1.0000   1.0000   1.0000
     1.0000   1.0000   1.0000   1.0000   1.0000   1.0000   1.0000   1.0000
     1.0000   1.0000   1.0000   1.0000   1.0000   1.0000   1.0000   1.0000
     1.0000   1.0000   1.0000   1.0000   1.0000   1.0000   1.0000   1.0000
     1.0000   1.0000   1.0000   1.0000   1.0000   1.0000   1.0000   1.0000
     1.0000   1.0000   1.0000   1.0000   1.0000   1.0000   1.0000   1.0000
     1.0000   1.0000   1.0000   1.0000   1.0000   1.0000   1.0000   1.0000
     1.0000   1.0000   1.0000   1.0000   1.0000   1.0000   1.0000   1.0000
     1.0000   1.0000   1.0000   1.0000   1.0000   1.0000   1.0000   1.0000
     1.0000   1.0000   1.0000   1.0000   1.0000   1.0000   1.0000   1.0000
     1.0000   1.0000   1.0000   1.0000   1.0000   1.0000   1.0000   1.0000
     1.0000   1.0000   1.0000   1.0000   1.0000   1.0000   1.0000   1.0000
     1.0000   1.0000   1.0000   1.0000   1.0000   1.0000   1.0000   1.0000
     1.0000   1.0000   1.0000   1.0000   1.0000   1.0000   1.0000   1.0000
     1.0000   1.0000   1.0000   1.0000   1.0000   1.0000   1.0000   1.0000
     1.0000   1.0000   1.0000   1.0000   1.0000   1.0000   1.0000   1.0000
     1.0000   1.0000   1.0000   1.0000   1.0000   1.0000   1.0000   1.0000
     1.0000   1.0000   1.0000   1.0000   1.0000   1.0000   1.0000   1.0000
     1.0000   1.0000   1.0000   1.0000   1.0000   1.0000   1.0000   1.0000
     1.0000   1.0000   1.0000   1.0000   1.0000   1.0000   1.0000   1.0000
     1.0000   1.0000   1.0000   1.0000   1.0000   1.0000   1.0000   1.0000
     1.0000   1.0000   1.0000   1.0000   1.0000   1.0000   1.0000   1.0000
     1.0000   1.0000   1.0000   1.0000   1.0000   1.0000   1.0000   1.0000
     1.0000   1.0000   1.0000   1.0000   1.0000   1.0000   1.0000   1.0000
     1.0000   1.0000   1.0000   1.0000   1.0000   1.0000   1.0000   1.0000
     1.0000   1.0000   1.0000   1.0000   1.0000   1.0000   1.0000   1.0000
     1.0000   1.0000   1.0000   1.0000   1.0000   1.0000   1.0000   1.0000
     1.0000   1.0000   1.0000   1.0000   1.0000   1.0000   1.0000   1.0000
     1.0000   1.0000   1.0000   1.0000   1.0000   1.0000   1.0000   1.0000
     1.0000   1.0000   1.0000   1.0000   1.0000   1.0000   1.0000   1.0000
     1.0000   1.0000   1.0000   1.0000   1.0000   1.0000   1.0000   1.0000
     1.0000   1.0000   1.0000   1.0000   1.0000   1.0000   1.0000   1.0000
     1.0000   1.0000   1.0000   1.0000   1.0000   1.0000   1.0000   1.0000
     1.0000   1.0000   1.0000   1.0000   1.0000   1.0000   1.0000   1.0000
     1.0000   1.0000   1.0000   1.0000   1.0000   1.0000   1.0000   1.0000
     1.0000   1.0000   1.0000   1.0000   1.0000   1.0000   1.0000   1.0000
     1.0000   1.0000   1.0000   1.0000   1.0000   1.0000   1.0000   1.0000
     1.0000   1.0000   1.0000   1.0000   1.0000   1.0000   1.0000   1.0000
     1.0000   1.0000   1.0000   1.0000   1.0000   1.0000   1.0000   1.0000
     1.0000   1.0000   1.0000   1.0000   1.0000   1.0000   1.0000   1.0000
     1.0000   1.0000   1.0000   1.0000   1.0000   1.0000   1.0000   1.0000
     1.0000   1.0000   1.0000   1.0000   1.0000   1.0000   1.0000   1.0000
     1.0000   1.0000   1.0000   1.0000   1.0000   1.0000   1.0000   1.0000
     1.0000   1.0000   1.0000   1.0000   1.0000   1.0000   1.0000   1.0000
     1.0000   1.0000   1.0000   1.0000   1.0000   1.0000   1.0000   1.0000
     1.0000   1.0000   1.0000   1.0000   1.0000   1.0000   1.0000   1.0000
     1.0000   1.0000   1.0000   1.0000   1.0000   1.0000   1.0000   1.0000
     1.0000   1.0000   1.0000   1.0000   1.0000   1.0000   1.0000   1.0000
     1.0000   1.0000   1.0000   1.0000   1.0000   1.0000   1.0000   1.0000
     1.0000   1.0000   1.0000   1.0000   1.0000   1.0000   1.0000   1.0000
     1.0000   1.0000   1.0000   1.0000   1.0000   1.0000   1.0000   1.0000
     1.0000   1.0000   1.0000   1.0000   1.0000   1.0000   1.0000   1.0000
     1.0000   1.0000   1.0000   1.0000   1.0000   1.0000   1.0000   1.0000
     1.0000   1.0000   1.0000   1.0000   1.0000   1.0000   1.0000   1.0000
     1.0000   1.0000   1.0000   1.0000   1.0000   1.0000   1.0000   1.0000
     1.0000   1.0000   1.0000   1.0000   1.0000   1.0000   1.0000   1.0000
     1.0000   1.0000   1.0000   1.0000   1.0000   1.0000   1.0000   1.0000
     1.0000   1.0000   1.0000   1.0000   1.0000   1.0000   1.0000   1.0000
     1.0000   1.0000   1.0000   1.0000   1.0000   1.0000   1.0000   1.0000
     1.0000   1.0000   1.0000   1.0000   1.0000   1.0000   1.0000   1.0000
     1.0000   1.0000   1.0000   1.0000   1.0000   1.0000   0.0000   0.0000
     0.0000   0.0000   0.0000   0.0000   0.0000   0.0000   0.0000   0.0000

     highest occupied, lowest unoccupied level (ev):    15.1520   16.5061

!    total energy              =   -5829.10110271 Ry
     estimated scf accuracy    <          4.7E-11 Ry

     The total energy is the sum of the following terms:
     one-electron contribution =    2012.15350150 Ry
     hartree contribution      =     505.07372365 Ry
     xc contribution           =   -1820.29916340 Ry
     ewald contribution        =   -6526.02916446 Ry

     total magnetization       =     2.00 Bohr mag/cell
     absolute magnetization    =     2.28 Bohr mag/cell

     convergence has been achieved in  20 iterations

 %%%%%%%%%%%%%%%%%%%%%%%%%%%%%%%%%%%%%%%%%%%%%%%%%%%%%%%%%%%%%%%%%%%%%%%%%%%%%%
     Error in routine write_rhog (2):
     error writing file ./pwscf.save/charge-density
 %%%%%%%%%%%%%%%%%%%%%%%%%%%%%%%%%%%%%%%%%%%%%%%%%%%%%%%%%%%%%%%%%%%%%%%%%%%%%%

     stopping ...

 %%%%%%%%%%%%%%%%%%%%%%%%%%%%%%%%%%%%%%%%%%%%%%%%%%%%%%%%%%%%%%%%%%%%%%%%%%%%%%
     Error in routine write_rhog (2):
     error writing file ./pwscf.save/charge-density
 %%%%%%%%%%%%%%%%%%%%%%%%%%%%%%%%%%%%%%%%%%%%%%%%%%%%%%%%%%%%%%%%%%%%%%%%%%%%%%

     stopping ...

 %%%%%%%%%%%%%%%%%%%%%%%%%%%%%%%%%%%%%%%%%%%%%%%%%%%%%%%%%%%%%%%%%%%%%%%%%%%%%%
     Error in routine write_rhog (2):
     error writing file ./pwscf.save/charge-density
 %%%%%%%%%%%%%%%%%%%%%%%%%%%%%%%%%%%%%%%%%%%%%%%%%%%%%%%%%%%%%%%%%%%%%%%%%%%%%%

     stopping ...

 %%%%%%%%%%%%%%%%%%%%%%%%%%%%%%%%%%%%%%%%%%%%%%%%%%%%%%%%%%%%%%%%%%%%%%%%%%%%%%
     Error in routine write_rhog (2):
     error writing file ./pwscf.save/charge-density
 %%%%%%%%%%%%%%%%%%%%%%%%%%%%%%%%%%%%%%%%%%%%%%%%%%%%%%%%%%%%%%%%%%%%%%%%%%%%%%

     stopping ...

 %%%%%%%%%%%%%%%%%%%%%%%%%%%%%%%%%%%%%%%%%%%%%%%%%%%%%%%%%%%%%%%%%%%%%%%%%%%%%%
     Error in routine write_rhog (2):
     error writing file ./pwscf.save/charge-density
 %%%%%%%%%%%%%%%%%%%%%%%%%%%%%%%%%%%%%%%%%%%%%%%%%%%%%%%%%%%%%%%%%%%%%%%%%%%%%%

     stopping ...

 %%%%%%%%%%%%%%%%%%%%%%%%%%%%%%%%%%%%%%%%%%%%%%%%%%%%%%%%%%%%%%%%%%%%%%%%%%%%%%
     Error in routine write_rhog (2):
     error writing file ./pwscf.save/charge-density
 %%%%%%%%%%%%%%%%%%%%%%%%%%%%%%%%%%%%%%%%%%%%%%%%%%%%%%%%%%%%%%%%%%%%%%%%%%%%%%

     stopping ...

 %%%%%%%%%%%%%%%%%%%%%%%%%%%%%%%%%%%%%%%%%%%%%%%%%%%%%%%%%%%%%%%%%%%%%%%%%%%%%%
     Error in routine write_rhog (2):
     error writing file ./pwscf.save/charge-density
 %%%%%%%%%%%%%%%%%%%%%%%%%%%%%%%%%%%%%%%%%%%%%%%%%%%%%%%%%%%%%%%%%%%%%%%%%%%%%%

     stopping ...

 %%%%%%%%%%%%%%%%%%%%%%%%%%%%%%%%%%%%%%%%%%%%%%%%%%%%%%%%%%%%%%%%%%%%%%%%%%%%%%
     Error in routine write_rhog (2):
     error writing file ./pwscf.save/charge-density
 %%%%%%%%%%%%%%%%%%%%%%%%%%%%%%%%%%%%%%%%%%%%%%%%%%%%%%%%%%%%%%%%%%%%%%%%%%%%%%

     stopping ...

 %%%%%%%%%%%%%%%%%%%%%%%%%%%%%%%%%%%%%%%%%%%%%%%%%%%%%%%%%%%%%%%%%%%%%%%%%%%%%%
     Error in routine write_rhog (2):
     error writing file ./pwscf.save/charge-density
 %%%%%%%%%%%%%%%%%%%%%%%%%%%%%%%%%%%%%%%%%%%%%%%%%%%%%%%%%%%%%%%%%%%%%%%%%%%%%%

     stopping ...

 %%%%%%%%%%%%%%%%%%%%%%%%%%%%%%%%%%%%%%%%%%%%%%%%%%%%%%%%%%%%%%%%%%%%%%%%%%%%%%
     Error in routine write_rhog (2):
     error writing file ./pwscf.save/charge-density
 %%%%%%%%%%%%%%%%%%%%%%%%%%%%%%%%%%%%%%%%%%%%%%%%%%%%%%%%%%%%%%%%%%%%%%%%%%%%%%

     stopping ...

 %%%%%%%%%%%%%%%%%%%%%%%%%%%%%%%%%%%%%%%%%%%%%%%%%%%%%%%%%%%%%%%%%%%%%%%%%%%%%%
     Error in routine write_rhog (2):
     error writing file ./pwscf.save/charge-density
 %%%%%%%%%%%%%%%%%%%%%%%%%%%%%%%%%%%%%%%%%%%%%%%%%%%%%%%%%%%%%%%%%%%%%%%%%%%%%%

     stopping ...

 %%%%%%%%%%%%%%%%%%%%%%%%%%%%%%%%%%%%%%%%%%%%%%%%%%%%%%%%%%%%%%%%%%%%%%%%%%%%%%
     Error in routine write_rhog (2):
     error writing file ./pwscf.save/charge-density
 %%%%%%%%%%%%%%%%%%%%%%%%%%%%%%%%%%%%%%%%%%%%%%%%%%%%%%%%%%%%%%%%%%%%%%%%%%%%%%

     stopping ...

 %%%%%%%%%%%%%%%%%%%%%%%%%%%%%%%%%%%%%%%%%%%%%%%%%%%%%%%%%%%%%%%%%%%%%%%%%%%%%%
     Error in routine write_rhog (2):
     error writing file ./pwscf.save/charge-density
 %%%%%%%%%%%%%%%%%%%%%%%%%%%%%%%%%%%%%%%%%%%%%%%%%%%%%%%%%%%%%%%%%%%%%%%%%%%%%%

     stopping ...

 %%%%%%%%%%%%%%%%%%%%%%%%%%%%%%%%%%%%%%%%%%%%%%%%%%%%%%%%%%%%%%%%%%%%%%%%%%%%%%
     Error in routine write_rhog (2):
     error writing file ./pwscf.save/charge-density
 %%%%%%%%%%%%%%%%%%%%%%%%%%%%%%%%%%%%%%%%%%%%%%%%%%%%%%%%%%%%%%%%%%%%%%%%%%%%%%

     stopping ...

 %%%%%%%%%%%%%%%%%%%%%%%%%%%%%%%%%%%%%%%%%%%%%%%%%%%%%%%%%%%%%%%%%%%%%%%%%%%%%%
     Error in routine write_rhog (2):
     error writing file ./pwscf.save/charge-density
 %%%%%%%%%%%%%%%%%%%%%%%%%%%%%%%%%%%%%%%%%%%%%%%%%%%%%%%%%%%%%%%%%%%%%%%%%%%%%%

     stopping ...

 %%%%%%%%%%%%%%%%%%%%%%%%%%%%%%%%%%%%%%%%%%%%%%%%%%%%%%%%%%%%%%%%%%%%%%%%%%%%%%
     Error in routine write_rhog (2):
     error writing file ./pwscf.save/charge-density
 %%%%%%%%%%%%%%%%%%%%%%%%%%%%%%%%%%%%%%%%%%%%%%%%%%%%%%%%%%%%%%%%%%%%%%%%%%%%%%

     stopping ...

 %%%%%%%%%%%%%%%%%%%%%%%%%%%%%%%%%%%%%%%%%%%%%%%%%%%%%%%%%%%%%%%%%%%%%%%%%%%%%%
     Error in routine write_rhog (2):
     error writing file ./pwscf.save/charge-density
 %%%%%%%%%%%%%%%%%%%%%%%%%%%%%%%%%%%%%%%%%%%%%%%%%%%%%%%%%%%%%%%%%%%%%%%%%%%%%%

     stopping ...

 %%%%%%%%%%%%%%%%%%%%%%%%%%%%%%%%%%%%%%%%%%%%%%%%%%%%%%%%%%%%%%%%%%%%%%%%%%%%%%
     Error in routine write_rhog (2):
     error writing file ./pwscf.save/charge-density
 %%%%%%%%%%%%%%%%%%%%%%%%%%%%%%%%%%%%%%%%%%%%%%%%%%%%%%%%%%%%%%%%%%%%%%%%%%%%%%

     stopping ...

 %%%%%%%%%%%%%%%%%%%%%%%%%%%%%%%%%%%%%%%%%%%%%%%%%%%%%%%%%%%%%%%%%%%%%%%%%%%%%%
     Error in routine write_rhog (2):
     error writing file ./pwscf.save/charge-density
 %%%%%%%%%%%%%%%%%%%%%%%%%%%%%%%%%%%%%%%%%%%%%%%%%%%%%%%%%%%%%%%%%%%%%%%%%%%%%%

     stopping ...

 %%%%%%%%%%%%%%%%%%%%%%%%%%%%%%%%%%%%%%%%%%%%%%%%%%%%%%%%%%%%%%%%%%%%%%%%%%%%%%
     Error in routine write_rhog (2):
     error writing file ./pwscf.save/charge-density
 %%%%%%%%%%%%%%%%%%%%%%%%%%%%%%%%%%%%%%%%%%%%%%%%%%%%%%%%%%%%%%%%%%%%%%%%%%%%%%

     stopping ...

 %%%%%%%%%%%%%%%%%%%%%%%%%%%%%%%%%%%%%%%%%%%%%%%%%%%%%%%%%%%%%%%%%%%%%%%%%%%%%%
     Error in routine write_rhog (2):
     error writing file ./pwscf.save/charge-density
 %%%%%%%%%%%%%%%%%%%%%%%%%%%%%%%%%%%%%%%%%%%%%%%%%%%%%%%%%%%%%%%%%%%%%%%%%%%%%%

     stopping ...

 %%%%%%%%%%%%%%%%%%%%%%%%%%%%%%%%%%%%%%%%%%%%%%%%%%%%%%%%%%%%%%%%%%%%%%%%%%%%%%
     Error in routine write_rhog (2):
     error writing file ./pwscf.save/charge-density
 %%%%%%%%%%%%%%%%%%%%%%%%%%%%%%%%%%%%%%%%%%%%%%%%%%%%%%%%%%%%%%%%%%%%%%%%%%%%%%

     stopping ...

 %%%%%%%%%%%%%%%%%%%%%%%%%%%%%%%%%%%%%%%%%%%%%%%%%%%%%%%%%%%%%%%%%%%%%%%%%%%%%%
     Error in routine write_rhog (2):
     error writing file ./pwscf.save/charge-density
 %%%%%%%%%%%%%%%%%%%%%%%%%%%%%%%%%%%%%%%%%%%%%%%%%%%%%%%%%%%%%%%%%%%%%%%%%%%%%%

     stopping ...

 %%%%%%%%%%%%%%%%%%%%%%%%%%%%%%%%%%%%%%%%%%%%%%%%%%%%%%%%%%%%%%%%%%%%%%%%%%%%%%
     Error in routine write_rhog (2):
     error writing file ./pwscf.save/charge-density
 %%%%%%%%%%%%%%%%%%%%%%%%%%%%%%%%%%%%%%%%%%%%%%%%%%%%%%%%%%%%%%%%%%%%%%%%%%%%%%

     stopping ...

 %%%%%%%%%%%%%%%%%%%%%%%%%%%%%%%%%%%%%%%%%%%%%%%%%%%%%%%%%%%%%%%%%%%%%%%%%%%%%%
     Error in routine write_rhog (2):
     error writing file ./pwscf.save/charge-density
 %%%%%%%%%%%%%%%%%%%%%%%%%%%%%%%%%%%%%%%%%%%%%%%%%%%%%%%%%%%%%%%%%%%%%%%%%%%%%%

     stopping ...

 %%%%%%%%%%%%%%%%%%%%%%%%%%%%%%%%%%%%%%%%%%%%%%%%%%%%%%%%%%%%%%%%%%%%%%%%%%%%%%
     Error in routine write_rhog (2):
     error writing file ./pwscf.save/charge-density
 %%%%%%%%%%%%%%%%%%%%%%%%%%%%%%%%%%%%%%%%%%%%%%%%%%%%%%%%%%%%%%%%%%%%%%%%%%%%%%

     stopping ...

 %%%%%%%%%%%%%%%%%%%%%%%%%%%%%%%%%%%%%%%%%%%%%%%%%%%%%%%%%%%%%%%%%%%%%%%%%%%%%%
     Error in routine write_rhog (2):
     error writing file ./pwscf.save/charge-density
 %%%%%%%%%%%%%%%%%%%%%%%%%%%%%%%%%%%%%%%%%%%%%%%%%%%%%%%%%%%%%%%%%%%%%%%%%%%%%%

     stopping ...

 %%%%%%%%%%%%%%%%%%%%%%%%%%%%%%%%%%%%%%%%%%%%%%%%%%%%%%%%%%%%%%%%%%%%%%%%%%%%%%
     Error in routine write_rhog (2):
     error writing file ./pwscf.save/charge-density
 %%%%%%%%%%%%%%%%%%%%%%%%%%%%%%%%%%%%%%%%%%%%%%%%%%%%%%%%%%%%%%%%%%%%%%%%%%%%%%

     stopping ...

 %%%%%%%%%%%%%%%%%%%%%%%%%%%%%%%%%%%%%%%%%%%%%%%%%%%%%%%%%%%%%%%%%%%%%%%%%%%%%%
     Error in routine write_rhog (2):
     error writing file ./pwscf.save/charge-density
 %%%%%%%%%%%%%%%%%%%%%%%%%%%%%%%%%%%%%%%%%%%%%%%%%%%%%%%%%%%%%%%%%%%%%%%%%%%%%%

     stopping ...

 %%%%%%%%%%%%%%%%%%%%%%%%%%%%%%%%%%%%%%%%%%%%%%%%%%%%%%%%%%%%%%%%%%%%%%%%%%%%%%
     Error in routine write_rhog (2):
     error writing file ./pwscf.save/charge-density
 %%%%%%%%%%%%%%%%%%%%%%%%%%%%%%%%%%%%%%%%%%%%%%%%%%%%%%%%%%%%%%%%%%%%%%%%%%%%%%

     stopping ...

 %%%%%%%%%%%%%%%%%%%%%%%%%%%%%%%%%%%%%%%%%%%%%%%%%%%%%%%%%%%%%%%%%%%%%%%%%%%%%%
     Error in routine write_rhog (2):
     error writing file ./pwscf.save/charge-density
 %%%%%%%%%%%%%%%%%%%%%%%%%%%%%%%%%%%%%%%%%%%%%%%%%%%%%%%%%%%%%%%%%%%%%%%%%%%%%%

     stopping ...

 %%%%%%%%%%%%%%%%%%%%%%%%%%%%%%%%%%%%%%%%%%%%%%%%%%%%%%%%%%%%%%%%%%%%%%%%%%%%%%
     Error in routine write_rhog (2):
     error writing file ./pwscf.save/charge-density
 %%%%%%%%%%%%%%%%%%%%%%%%%%%%%%%%%%%%%%%%%%%%%%%%%%%%%%%%%%%%%%%%%%%%%%%%%%%%%%

     stopping ...

 %%%%%%%%%%%%%%%%%%%%%%%%%%%%%%%%%%%%%%%%%%%%%%%%%%%%%%%%%%%%%%%%%%%%%%%%%%%%%%
     Error in routine write_rhog (2):
     error writing file ./pwscf.save/charge-density
 %%%%%%%%%%%%%%%%%%%%%%%%%%%%%%%%%%%%%%%%%%%%%%%%%%%%%%%%%%%%%%%%%%%%%%%%%%%%%%

     stopping ...

 %%%%%%%%%%%%%%%%%%%%%%%%%%%%%%%%%%%%%%%%%%%%%%%%%%%%%%%%%%%%%%%%%%%%%%%%%%%%%%
     Error in routine write_rhog (2):
     error writing file ./pwscf.save/charge-density
 %%%%%%%%%%%%%%%%%%%%%%%%%%%%%%%%%%%%%%%%%%%%%%%%%%%%%%%%%%%%%%%%%%%%%%%%%%%%%%

     stopping ...

 %%%%%%%%%%%%%%%%%%%%%%%%%%%%%%%%%%%%%%%%%%%%%%%%%%%%%%%%%%%%%%%%%%%%%%%%%%%%%%
     Error in routine write_rhog (2):
     error writing file ./pwscf.save/charge-density
 %%%%%%%%%%%%%%%%%%%%%%%%%%%%%%%%%%%%%%%%%%%%%%%%%%%%%%%%%%%%%%%%%%%%%%%%%%%%%%

     stopping ...

 %%%%%%%%%%%%%%%%%%%%%%%%%%%%%%%%%%%%%%%%%%%%%%%%%%%%%%%%%%%%%%%%%%%%%%%%%%%%%%
     Error in routine write_rhog (2):
     error writing file ./pwscf.save/charge-density
 %%%%%%%%%%%%%%%%%%%%%%%%%%%%%%%%%%%%%%%%%%%%%%%%%%%%%%%%%%%%%%%%%%%%%%%%%%%%%%

     stopping ...

 %%%%%%%%%%%%%%%%%%%%%%%%%%%%%%%%%%%%%%%%%%%%%%%%%%%%%%%%%%%%%%%%%%%%%%%%%%%%%%
     Error in routine write_rhog (2):
     error writing file ./pwscf.save/charge-density
 %%%%%%%%%%%%%%%%%%%%%%%%%%%%%%%%%%%%%%%%%%%%%%%%%%%%%%%%%%%%%%%%%%%%%%%%%%%%%%

     stopping ...

 %%%%%%%%%%%%%%%%%%%%%%%%%%%%%%%%%%%%%%%%%%%%%%%%%%%%%%%%%%%%%%%%%%%%%%%%%%%%%%
     Error in routine write_rhog (2):
     error writing file ./pwscf.save/charge-density
 %%%%%%%%%%%%%%%%%%%%%%%%%%%%%%%%%%%%%%%%%%%%%%%%%%%%%%%%%%%%%%%%%%%%%%%%%%%%%%

     stopping ...

 %%%%%%%%%%%%%%%%%%%%%%%%%%%%%%%%%%%%%%%%%%%%%%%%%%%%%%%%%%%%%%%%%%%%%%%%%%%%%%
     Error in routine write_rhog (2):
     error writing file ./pwscf.save/charge-density
 %%%%%%%%%%%%%%%%%%%%%%%%%%%%%%%%%%%%%%%%%%%%%%%%%%%%%%%%%%%%%%%%%%%%%%%%%%%%%%

     stopping ...

 %%%%%%%%%%%%%%%%%%%%%%%%%%%%%%%%%%%%%%%%%%%%%%%%%%%%%%%%%%%%%%%%%%%%%%%%%%%%%%
     Error in routine write_rhog (2):
     error writing file ./pwscf.save/charge-density
 %%%%%%%%%%%%%%%%%%%%%%%%%%%%%%%%%%%%%%%%%%%%%%%%%%%%%%%%%%%%%%%%%%%%%%%%%%%%%%

     stopping ...

 %%%%%%%%%%%%%%%%%%%%%%%%%%%%%%%%%%%%%%%%%%%%%%%%%%%%%%%%%%%%%%%%%%%%%%%%%%%%%%
     Error in routine write_rhog (2):
     error writing file ./pwscf.save/charge-density
 %%%%%%%%%%%%%%%%%%%%%%%%%%%%%%%%%%%%%%%%%%%%%%%%%%%%%%%%%%%%%%%%%%%%%%%%%%%%%%

     stopping ...

 %%%%%%%%%%%%%%%%%%%%%%%%%%%%%%%%%%%%%%%%%%%%%%%%%%%%%%%%%%%%%%%%%%%%%%%%%%%%%%
     Error in routine write_rhog (2):
     error writing file ./pwscf.save/charge-density
 %%%%%%%%%%%%%%%%%%%%%%%%%%%%%%%%%%%%%%%%%%%%%%%%%%%%%%%%%%%%%%%%%%%%%%%%%%%%%%

     stopping ...

 %%%%%%%%%%%%%%%%%%%%%%%%%%%%%%%%%%%%%%%%%%%%%%%%%%%%%%%%%%%%%%%%%%%%%%%%%%%%%%
     Error in routine write_rhog (2):
     error writing file ./pwscf.save/charge-density
 %%%%%%%%%%%%%%%%%%%%%%%%%%%%%%%%%%%%%%%%%%%%%%%%%%%%%%%%%%%%%%%%%%%%%%%%%%%%%%

     stopping ...

 %%%%%%%%%%%%%%%%%%%%%%%%%%%%%%%%%%%%%%%%%%%%%%%%%%%%%%%%%%%%%%%%%%%%%%%%%%%%%%
     Error in routine write_rhog (2):
     error writing file ./pwscf.save/charge-density
 %%%%%%%%%%%%%%%%%%%%%%%%%%%%%%%%%%%%%%%%%%%%%%%%%%%%%%%%%%%%%%%%%%%%%%%%%%%%%%

     stopping ...

 %%%%%%%%%%%%%%%%%%%%%%%%%%%%%%%%%%%%%%%%%%%%%%%%%%%%%%%%%%%%%%%%%%%%%%%%%%%%%%
     Error in routine write_rhog (2):
     error writing file ./pwscf.save/charge-density
 %%%%%%%%%%%%%%%%%%%%%%%%%%%%%%%%%%%%%%%%%%%%%%%%%%%%%%%%%%%%%%%%%%%%%%%%%%%%%%

     stopping ...

 %%%%%%%%%%%%%%%%%%%%%%%%%%%%%%%%%%%%%%%%%%%%%%%%%%%%%%%%%%%%%%%%%%%%%%%%%%%%%%
     Error in routine write_rhog (2):
     error writing file ./pwscf.save/charge-density
 %%%%%%%%%%%%%%%%%%%%%%%%%%%%%%%%%%%%%%%%%%%%%%%%%%%%%%%%%%%%%%%%%%%%%%%%%%%%%%

     stopping ...

 %%%%%%%%%%%%%%%%%%%%%%%%%%%%%%%%%%%%%%%%%%%%%%%%%%%%%%%%%%%%%%%%%%%%%%%%%%%%%%
     Error in routine write_rhog (2):
     error writing file ./pwscf.save/charge-density
 %%%%%%%%%%%%%%%%%%%%%%%%%%%%%%%%%%%%%%%%%%%%%%%%%%%%%%%%%%%%%%%%%%%%%%%%%%%%%%

     stopping ...

 %%%%%%%%%%%%%%%%%%%%%%%%%%%%%%%%%%%%%%%%%%%%%%%%%%%%%%%%%%%%%%%%%%%%%%%%%%%%%%
     Error in routine write_rhog (2):
     error writing file ./pwscf.save/charge-density
 %%%%%%%%%%%%%%%%%%%%%%%%%%%%%%%%%%%%%%%%%%%%%%%%%%%%%%%%%%%%%%%%%%%%%%%%%%%%%%

     stopping ...
